# vtk DataFile Version 2.0
               (MEGA VTK FILE)
ASCII
DATASET UNSTRUCTURED_GRID
POINTS       1950    double
  0.10378E-02  0.67292E-03 -0.14032E-01
  0.17452E-02  0.12308E-02 -0.14027E-01
  0.23177E-02  0.59151E-03 -0.14026E-01
  0.16698E-02 -0.33775E-03 -0.14036E-01
  0.10379E-02  0.67237E-03 -0.11750E-01
  0.17453E-02  0.12301E-02 -0.11750E-01
  0.23178E-02  0.59098E-03 -0.11750E-01
  0.16700E-02 -0.33851E-03 -0.11750E-01
  0.30377E-02  0.14882E-03 -0.14016E-01
  0.27791E-02 -0.67643E-03 -0.14028E-01
  0.30377E-02  0.14846E-03 -0.11750E-01
  0.27788E-02 -0.67692E-03 -0.11750E-01
  0.12850E-02  0.18412E-02 -0.14021E-01
  0.65139E-03  0.14576E-02 -0.14028E-01
  0.12851E-02  0.18410E-02 -0.11750E-01
  0.65164E-03  0.14566E-02 -0.11750E-01
  0.12757E-03  0.29933E-03 -0.14032E-01
 -0.12822E-03  0.11672E-02 -0.14034E-01
  0.12783E-03  0.29819E-03 -0.11750E-01
 -0.12804E-03  0.11655E-02 -0.11750E-01
  0.94500E-03  0.22748E-02 -0.14017E-01
  0.11327E-02  0.28286E-02 -0.14013E-01
  0.17490E-02  0.24238E-02 -0.14015E-01
  0.94533E-03  0.22746E-02 -0.11750E-01
  0.11330E-02  0.28291E-02 -0.11750E-01
  0.17494E-02  0.24236E-02 -0.11750E-01
  0.40588E-03  0.21685E-02 -0.14026E-01
  0.39779E-03  0.29366E-02 -0.14023E-01
  0.40594E-03  0.21684E-02 -0.11750E-01
  0.39781E-03  0.29369E-02 -0.11750E-01
 -0.76303E-03 -0.10033E-02 -0.14037E-01
 -0.86604E-03  0.78969E-04 -0.14039E-01
  0.46119E-03 -0.70318E-03 -0.14035E-01
 -0.76268E-03 -0.10032E-02 -0.11750E-01
 -0.86593E-03  0.78160E-04 -0.11750E-01
  0.46164E-03 -0.70391E-03 -0.11750E-01
 -0.18300E-02 -0.71196E-03 -0.14026E-01
 -0.18440E-02  0.82749E-04 -0.14037E-01
 -0.18297E-02 -0.71210E-03 -0.11750E-01
 -0.18441E-02  0.82626E-04 -0.11750E-01
 -0.27238E-02 -0.77865E-03 -0.14023E-01
 -0.28028E-02  0.40713E-04 -0.14032E-01
 -0.27238E-02 -0.77882E-03 -0.11750E-01
 -0.28031E-02  0.40439E-04 -0.11750E-01
 -0.25365E-02 -0.15195E-02 -0.14015E-01
 -0.19287E-02 -0.13230E-02 -0.14019E-01
 -0.25363E-02 -0.15195E-02 -0.11750E-01
 -0.19283E-02 -0.13231E-02 -0.11750E-01
 -0.99363E-03  0.98847E-03 -0.14040E-01
 -0.99377E-03  0.98712E-03 -0.11750E-01
 -0.14380E-02 -0.17325E-02 -0.14025E-01
 -0.14377E-02 -0.17325E-02 -0.11750E-01
 -0.31574E-03  0.20220E-02 -0.14036E-01
 -0.31594E-03  0.20217E-02 -0.11750E-01
 -0.11068E-02  0.18615E-02 -0.14039E-01
 -0.11071E-02  0.18616E-02 -0.11750E-01
 -0.18845E-02  0.17175E-02 -0.14030E-01
 -0.18713E-02  0.90940E-03 -0.14037E-01
 -0.18846E-02  0.17175E-02 -0.11750E-01
 -0.18714E-02  0.90916E-03 -0.11750E-01
 -0.15871E-03 -0.19800E-02 -0.14034E-01
 -0.94089E-03 -0.23489E-02 -0.14025E-01
 -0.15844E-03 -0.19800E-02 -0.11750E-01
 -0.94029E-03 -0.23489E-02 -0.11750E-01
  0.78856E-03 -0.17074E-02 -0.14034E-01
  0.78922E-03 -0.17074E-02 -0.11750E-01
  0.17211E-02 -0.14894E-02 -0.14030E-01
  0.17211E-02 -0.14892E-02 -0.11750E-01
  0.32050E-02  0.76036E-03 -0.14002E-01
  0.28046E-02  0.12477E-02 -0.14013E-01
  0.32047E-02  0.75936E-03 -0.11750E-01
  0.28047E-02  0.12473E-02 -0.11750E-01
  0.23059E-02  0.18665E-02 -0.14017E-01
  0.23060E-02  0.18664E-02 -0.11750E-01
 -0.40614E-03  0.29038E-02 -0.14029E-01
 -0.40627E-03  0.29049E-02 -0.11750E-01
 -0.12092E-02  0.27207E-02 -0.14028E-01
 -0.12092E-02  0.27212E-02 -0.11750E-01
 -0.19448E-02  0.24642E-02 -0.14018E-01
 -0.19448E-02  0.24645E-02 -0.11750E-01
 -0.25029E-02  0.22359E-02 -0.14005E-01
 -0.26371E-02  0.16503E-02 -0.14021E-01
 -0.25029E-02  0.22359E-02 -0.11750E-01
 -0.26372E-02  0.16503E-02 -0.11750E-01
 -0.27671E-02  0.87493E-03 -0.14033E-01
 -0.27674E-02  0.87466E-03 -0.11750E-01
 -0.21123E-02 -0.21373E-02 -0.14016E-01
 -0.21122E-02 -0.21373E-02 -0.11750E-01
 -0.16087E-02 -0.26931E-02 -0.14012E-01
 -0.16087E-02 -0.26931E-02 -0.11750E-01
 -0.11939E-02 -0.31291E-02 -0.14001E-01
 -0.58641E-03 -0.30382E-02 -0.14016E-01
 -0.11937E-02 -0.31291E-02 -0.11750E-01
 -0.58606E-03 -0.30382E-02 -0.11750E-01
  0.20912E-03 -0.28748E-02 -0.14026E-01
  0.20952E-03 -0.28748E-02 -0.11750E-01
  0.10586E-02 -0.26423E-02 -0.14024E-01
  0.10589E-02 -0.26420E-02 -0.11750E-01
  0.18413E-02 -0.23707E-02 -0.14016E-01
  0.18413E-02 -0.23705E-02 -0.11750E-01
  0.24544E-02 -0.21445E-02 -0.14004E-01
  0.26022E-02 -0.15105E-02 -0.14018E-01
  0.24543E-02 -0.21439E-02 -0.11750E-01
  0.26021E-02 -0.15106E-02 -0.11750E-01
  0.37964E-02  0.93572E-03 -0.13971E-01
  0.39100E-02  0.00000E+00 -0.13976E-01
  0.37964E-02  0.93572E-03 -0.11750E-01
  0.39100E-02  0.00000E+00 -0.11750E-01
  0.34621E-02  0.18171E-02 -0.13975E-01
  0.34621E-02  0.18171E-02 -0.11750E-01
  0.29267E-02  0.25928E-02 -0.13972E-01
  0.29267E-02  0.25928E-02 -0.11750E-01
  0.22211E-02  0.32179E-02 -0.13972E-01
  0.22211E-02  0.32179E-02 -0.11750E-01
  0.13865E-02  0.36559E-02 -0.13971E-01
  0.13865E-02  0.36559E-02 -0.11750E-01
  0.47130E-03  0.38815E-02 -0.13974E-01
  0.47130E-03  0.38815E-02 -0.11750E-01
 -0.47130E-03  0.38815E-02 -0.13976E-01
 -0.47130E-03  0.38815E-02 -0.11750E-01
 -0.13865E-02  0.36559E-02 -0.13975E-01
 -0.13865E-02  0.36559E-02 -0.11750E-01
 -0.22211E-02  0.32179E-02 -0.13974E-01
 -0.22211E-02  0.32179E-02 -0.11750E-01
 -0.29267E-02  0.25928E-02 -0.13970E-01
 -0.29267E-02  0.25928E-02 -0.11750E-01
 -0.34621E-02  0.18171E-02 -0.13976E-01
 -0.34621E-02  0.18171E-02 -0.11750E-01
 -0.37964E-02  0.93572E-03 -0.13978E-01
 -0.37964E-02  0.93572E-03 -0.11750E-01
 -0.39100E-02  0.22152E-17 -0.13977E-01
 -0.39100E-02 -0.47884E-18 -0.11750E-01
 -0.37964E-02 -0.93572E-03 -0.13975E-01
 -0.37964E-02 -0.93572E-03 -0.11750E-01
 -0.34621E-02 -0.18171E-02 -0.13972E-01
 -0.34621E-02 -0.18171E-02 -0.11750E-01
 -0.29267E-02 -0.25928E-02 -0.13971E-01
 -0.29267E-02 -0.25928E-02 -0.11750E-01
 -0.22211E-02 -0.32179E-02 -0.13975E-01
 -0.22211E-02 -0.32179E-02 -0.11750E-01
 -0.13865E-02 -0.36559E-02 -0.13971E-01
 -0.13865E-02 -0.36559E-02 -0.11750E-01
 -0.47130E-03 -0.38815E-02 -0.13977E-01
 -0.47130E-03 -0.38815E-02 -0.11750E-01
  0.47130E-03 -0.38815E-02 -0.13975E-01
  0.47130E-03 -0.38815E-02 -0.11750E-01
  0.13865E-02 -0.36559E-02 -0.13973E-01
  0.13865E-02 -0.36559E-02 -0.11750E-01
  0.22211E-02 -0.32179E-02 -0.13976E-01
  0.22211E-02 -0.32179E-02 -0.11750E-01
  0.29267E-02 -0.25928E-02 -0.13972E-01
  0.29267E-02 -0.25928E-02 -0.11750E-01
  0.34621E-02 -0.18171E-02 -0.13976E-01
  0.34621E-02 -0.18171E-02 -0.11750E-01
  0.37964E-02 -0.93572E-03 -0.13976E-01
  0.37964E-02 -0.93572E-03 -0.11750E-01
  0.10376E-02  0.67348E-03 -0.14388E-01
  0.17450E-02  0.12314E-02 -0.14387E-01
  0.23175E-02  0.59203E-03 -0.14387E-01
  0.16696E-02 -0.33700E-03 -0.14389E-01
  0.30377E-02  0.14918E-03 -0.14386E-01
  0.27795E-02 -0.67594E-03 -0.14387E-01
  0.12849E-02  0.18414E-02 -0.14386E-01
  0.65115E-03  0.14586E-02 -0.14388E-01
  0.12731E-03  0.30048E-03 -0.14388E-01
 -0.12841E-03  0.11690E-02 -0.14389E-01
  0.94467E-03  0.22749E-02 -0.14386E-01
  0.11323E-02  0.28282E-02 -0.14385E-01
  0.17487E-02  0.24239E-02 -0.14385E-01
  0.40583E-03  0.21685E-02 -0.14387E-01
  0.39777E-03  0.29364E-02 -0.14387E-01
 -0.76338E-03 -0.10035E-02 -0.14389E-01
 -0.86615E-03  0.79778E-04 -0.14389E-01
  0.46074E-03 -0.70245E-03 -0.14389E-01
 -0.18303E-02 -0.71182E-03 -0.14387E-01
 -0.18439E-02  0.82873E-04 -0.14389E-01
 -0.27238E-02 -0.77848E-03 -0.14387E-01
 -0.28025E-02  0.40986E-04 -0.14388E-01
 -0.25366E-02 -0.15194E-02 -0.14386E-01
 -0.19292E-02 -0.13228E-02 -0.14386E-01
 -0.99349E-03  0.98983E-03 -0.14389E-01
 -0.14384E-02 -0.17324E-02 -0.14387E-01
 -0.31554E-03  0.20223E-02 -0.14389E-01
 -0.11064E-02  0.18614E-02 -0.14389E-01
 -0.18845E-02  0.17175E-02 -0.14388E-01
 -0.18712E-02  0.90964E-03 -0.14389E-01
 -0.15899E-03 -0.19800E-02 -0.14389E-01
 -0.94149E-03 -0.23489E-02 -0.14387E-01
  0.78790E-03 -0.17074E-02 -0.14388E-01
  0.17210E-02 -0.14896E-02 -0.14388E-01
  0.32053E-02  0.76137E-03 -0.14384E-01
  0.28046E-02  0.12481E-02 -0.14385E-01
  0.23058E-02  0.18665E-02 -0.14386E-01
 -0.40600E-03  0.29027E-02 -0.14388E-01
 -0.12092E-02  0.27202E-02 -0.14388E-01
 -0.19447E-02  0.24640E-02 -0.14386E-01
 -0.25028E-02  0.22359E-02 -0.14384E-01
 -0.26370E-02  0.16503E-02 -0.14386E-01
 -0.27668E-02  0.87519E-03 -0.14388E-01
 -0.21125E-02 -0.21373E-02 -0.14386E-01
 -0.16088E-02 -0.26932E-02 -0.14385E-01
 -0.11940E-02 -0.31291E-02 -0.14384E-01
 -0.58676E-03 -0.30382E-02 -0.14386E-01
  0.20871E-03 -0.28748E-02 -0.14387E-01
  0.10583E-02 -0.26426E-02 -0.14387E-01
  0.18413E-02 -0.23709E-02 -0.14386E-01
  0.24545E-02 -0.21450E-02 -0.14384E-01
  0.26022E-02 -0.15104E-02 -0.14386E-01
  0.37964E-02  0.93572E-03 -0.14380E-01
  0.39100E-02  0.00000E+00 -0.14381E-01
  0.34621E-02  0.18171E-02 -0.14381E-01
  0.29267E-02  0.25928E-02 -0.14381E-01
  0.22211E-02  0.32179E-02 -0.14381E-01
  0.13865E-02  0.36559E-02 -0.14381E-01
  0.47130E-03  0.38815E-02 -0.14381E-01
 -0.47130E-03  0.38815E-02 -0.14381E-01
 -0.13865E-02  0.36559E-02 -0.14381E-01
 -0.22211E-02  0.32179E-02 -0.14381E-01
 -0.29267E-02  0.25928E-02 -0.14380E-01
 -0.34621E-02  0.18171E-02 -0.14381E-01
 -0.37964E-02  0.93572E-03 -0.14382E-01
 -0.39100E-02 -0.47884E-18 -0.14382E-01
 -0.37964E-02 -0.93572E-03 -0.14381E-01
 -0.34621E-02 -0.18171E-02 -0.14381E-01
 -0.29267E-02 -0.25928E-02 -0.14381E-01
 -0.22211E-02 -0.32179E-02 -0.14381E-01
 -0.13865E-02 -0.36559E-02 -0.14381E-01
 -0.47130E-03 -0.38815E-02 -0.14382E-01
  0.47130E-03 -0.38815E-02 -0.14381E-01
  0.13865E-02 -0.36559E-02 -0.14381E-01
  0.22211E-02 -0.32179E-02 -0.14381E-01
  0.29267E-02 -0.25928E-02 -0.14381E-01
  0.34621E-02 -0.18171E-02 -0.14381E-01
  0.37964E-02 -0.93572E-03 -0.14382E-01
  0.10375E-02  0.67403E-03 -0.13518E-01
  0.17448E-02  0.12321E-02 -0.13518E-01
  0.23174E-02  0.59255E-03 -0.13518E-01
  0.16694E-02 -0.33624E-03 -0.13518E-01
  0.30377E-02  0.14955E-03 -0.13518E-01
  0.27798E-02 -0.67544E-03 -0.13518E-01
  0.12848E-02  0.18415E-02 -0.13518E-01
  0.65090E-03  0.14596E-02 -0.13518E-01
  0.12705E-03  0.30163E-03 -0.13518E-01
 -0.12859E-03  0.11707E-02 -0.13518E-01
  0.94434E-03  0.22750E-02 -0.13518E-01
  0.11320E-02  0.28277E-02 -0.13518E-01
  0.17483E-02  0.24241E-02 -0.13518E-01
  0.40577E-03  0.21685E-02 -0.13518E-01
  0.39776E-03  0.29361E-02 -0.13518E-01
 -0.76374E-03 -0.10036E-02 -0.13518E-01
 -0.86626E-03  0.80588E-04 -0.13518E-01
  0.46029E-03 -0.70173E-03 -0.13518E-01
 -0.18306E-02 -0.71168E-03 -0.13518E-01
 -0.18438E-02  0.82996E-04 -0.13518E-01
 -0.27238E-02 -0.77831E-03 -0.13518E-01
 -0.28022E-02  0.41259E-04 -0.13518E-01
 -0.25368E-02 -0.15194E-02 -0.13518E-01
 -0.19296E-02 -0.13227E-02 -0.13518E-01
 -0.99334E-03  0.99119E-03 -0.13518E-01
 -0.14387E-02 -0.17324E-02 -0.13518E-01
 -0.31534E-03  0.20226E-02 -0.13518E-01
 -0.11061E-02  0.18613E-02 -0.13518E-01
 -0.18844E-02  0.17175E-02 -0.13518E-01
 -0.18710E-02  0.90988E-03 -0.13518E-01
 -0.15926E-03 -0.19801E-02 -0.13518E-01
 -0.94209E-03 -0.23490E-02 -0.13518E-01
  0.78724E-03 -0.17074E-02 -0.13518E-01
  0.17210E-02 -0.14899E-02 -0.13518E-01
  0.32056E-02  0.76237E-03 -0.13518E-01
  0.28046E-02  0.12485E-02 -0.13518E-01
  0.23057E-02  0.18666E-02 -0.13518E-01
 -0.40586E-03  0.29017E-02 -0.13518E-01
 -0.12092E-02  0.27198E-02 -0.13518E-01
 -0.19447E-02  0.24638E-02 -0.13518E-01
 -0.25028E-02  0.22359E-02 -0.13518E-01
 -0.26369E-02  0.16503E-02 -0.13518E-01
 -0.27665E-02  0.87545E-03 -0.13518E-01
 -0.21126E-02 -0.21374E-02 -0.13518E-01
 -0.16088E-02 -0.26932E-02 -0.13518E-01
 -0.11941E-02 -0.31291E-02 -0.13518E-01
 -0.58711E-03 -0.30382E-02 -0.13518E-01
  0.20830E-03 -0.28748E-02 -0.13518E-01
  0.10580E-02 -0.26428E-02 -0.13518E-01
  0.18414E-02 -0.23711E-02 -0.13518E-01
  0.24546E-02 -0.21456E-02 -0.13518E-01
  0.26023E-02 -0.15103E-02 -0.13518E-01
  0.37964E-02  0.93572E-03 -0.13518E-01
  0.39100E-02  0.00000E+00 -0.13518E-01
  0.34621E-02  0.18171E-02 -0.13518E-01
  0.29267E-02  0.25928E-02 -0.13518E-01
  0.22211E-02  0.32179E-02 -0.13518E-01
  0.13865E-02  0.36559E-02 -0.13518E-01
  0.47130E-03  0.38815E-02 -0.13518E-01
 -0.47130E-03  0.38815E-02 -0.13518E-01
 -0.13865E-02  0.36559E-02 -0.13518E-01
 -0.22211E-02  0.32179E-02 -0.13518E-01
 -0.29267E-02  0.25928E-02 -0.13518E-01
 -0.34621E-02  0.18171E-02 -0.13518E-01
 -0.37964E-02  0.93572E-03 -0.13518E-01
 -0.39100E-02  0.39516E-17 -0.13518E-01
 -0.37964E-02 -0.93572E-03 -0.13518E-01
 -0.34621E-02 -0.18171E-02 -0.13518E-01
 -0.29267E-02 -0.25928E-02 -0.13518E-01
 -0.22211E-02 -0.32179E-02 -0.13518E-01
 -0.13865E-02 -0.36559E-02 -0.13518E-01
 -0.47130E-03 -0.38815E-02 -0.13518E-01
  0.47130E-03 -0.38815E-02 -0.13518E-01
  0.13865E-02 -0.36559E-02 -0.13518E-01
  0.22211E-02 -0.32179E-02 -0.13518E-01
  0.29267E-02 -0.25928E-02 -0.13518E-01
  0.34621E-02 -0.18171E-02 -0.13518E-01
  0.37964E-02 -0.93572E-03 -0.13518E-01
  0.10374E-02  0.67459E-03 -0.12539E-01
  0.17446E-02  0.12328E-02 -0.12539E-01
  0.23173E-02  0.59308E-03 -0.12539E-01
  0.16692E-02 -0.33549E-03 -0.12539E-01
  0.30376E-02  0.14991E-03 -0.12539E-01
  0.27801E-02 -0.67495E-03 -0.12539E-01
  0.12847E-02  0.18417E-02 -0.12539E-01
  0.65065E-03  0.14606E-02 -0.12539E-01
  0.12678E-03  0.30278E-03 -0.12539E-01
 -0.12878E-03  0.11725E-02 -0.12539E-01
  0.94401E-03  0.22752E-02 -0.12539E-01
  0.11316E-02  0.28273E-02 -0.12539E-01
  0.17479E-02  0.24242E-02 -0.12539E-01
  0.40572E-03  0.21686E-02 -0.12539E-01
  0.39774E-03  0.29359E-02 -0.12539E-01
 -0.76409E-03 -0.10038E-02 -0.12539E-01
 -0.86637E-03  0.81397E-04 -0.12539E-01
  0.45985E-03 -0.70100E-03 -0.12539E-01
 -0.18309E-02 -0.71154E-03 -0.12539E-01
 -0.18437E-02  0.83120E-04 -0.12539E-01
 -0.27237E-02 -0.77814E-03 -0.12539E-01
 -0.28020E-02  0.41533E-04 -0.12539E-01
 -0.25369E-02 -0.15193E-02 -0.12539E-01
 -0.19300E-02 -0.13227E-02 -0.12539E-01
 -0.99320E-03  0.99254E-03 -0.12539E-01
 -0.14391E-02 -0.17324E-02 -0.12539E-01
 -0.31514E-03  0.20228E-02 -0.12539E-01
 -0.11057E-02  0.18611E-02 -0.12539E-01
 -0.18844E-02  0.17175E-02 -0.12539E-01
 -0.18709E-02  0.91012E-03 -0.12539E-01
 -0.15954E-03 -0.19801E-02 -0.12539E-01
 -0.94269E-03 -0.23490E-02 -0.12539E-01
  0.78658E-03 -0.17074E-02 -0.12539E-01
  0.17209E-02 -0.14901E-02 -0.12539E-01
  0.32060E-02  0.76338E-03 -0.12539E-01
  0.28046E-02  0.12490E-02 -0.12539E-01
  0.23056E-02  0.18666E-02 -0.12539E-01
 -0.40572E-03  0.29006E-02 -0.12539E-01
 -0.12092E-02  0.27193E-02 -0.12539E-01
 -0.19446E-02  0.24636E-02 -0.12539E-01
 -0.25028E-02  0.22359E-02 -0.12539E-01
 -0.26368E-02  0.16503E-02 -0.12539E-01
 -0.27662E-02  0.87571E-03 -0.12539E-01
 -0.21128E-02 -0.21374E-02 -0.12539E-01
 -0.16088E-02 -0.26932E-02 -0.12539E-01
 -0.11942E-02 -0.31291E-02 -0.12539E-01
 -0.58746E-03 -0.30382E-02 -0.12539E-01
  0.20790E-03 -0.28748E-02 -0.12539E-01
  0.10577E-02 -0.26431E-02 -0.12539E-01
  0.18414E-02 -0.23713E-02 -0.12539E-01
  0.24548E-02 -0.21461E-02 -0.12539E-01
  0.26024E-02 -0.15102E-02 -0.12539E-01
  0.37964E-02  0.93572E-03 -0.12539E-01
  0.39100E-02  0.00000E+00 -0.12539E-01
  0.34621E-02  0.18171E-02 -0.12539E-01
  0.29267E-02  0.25928E-02 -0.12539E-01
  0.22211E-02  0.32179E-02 -0.12539E-01
  0.13865E-02  0.36559E-02 -0.12539E-01
  0.47130E-03  0.38815E-02 -0.12539E-01
 -0.47130E-03  0.38815E-02 -0.12539E-01
 -0.13865E-02  0.36559E-02 -0.12539E-01
 -0.22211E-02  0.32179E-02 -0.12539E-01
 -0.29267E-02  0.25928E-02 -0.12539E-01
 -0.34621E-02  0.18171E-02 -0.12539E-01
 -0.37964E-02  0.93572E-03 -0.12539E-01
 -0.39100E-02 -0.47884E-18 -0.12539E-01
 -0.37964E-02 -0.93572E-03 -0.12539E-01
 -0.34621E-02 -0.18171E-02 -0.12539E-01
 -0.29267E-02 -0.25928E-02 -0.12539E-01
 -0.22211E-02 -0.32179E-02 -0.12539E-01
 -0.13865E-02 -0.36559E-02 -0.12539E-01
 -0.47130E-03 -0.38815E-02 -0.12539E-01
  0.47130E-03 -0.38815E-02 -0.12539E-01
  0.13865E-02 -0.36559E-02 -0.12539E-01
  0.22211E-02 -0.32179E-02 -0.12539E-01
  0.29267E-02 -0.25928E-02 -0.12539E-01
  0.34621E-02 -0.18171E-02 -0.12539E-01
  0.37964E-02 -0.93572E-03 -0.12539E-01
  0.10373E-02  0.67514E-03 -0.11560E-01
  0.17445E-02  0.12334E-02 -0.11560E-01
  0.23172E-02  0.59360E-03 -0.11560E-01
  0.16689E-02 -0.33474E-03 -0.11560E-01
  0.30376E-02  0.15027E-03 -0.11560E-01
  0.27805E-02 -0.67446E-03 -0.11560E-01
  0.12846E-02  0.18419E-02 -0.11560E-01
  0.65041E-03  0.14616E-02 -0.11560E-01
  0.12652E-03  0.30393E-03 -0.11560E-01
 -0.12896E-03  0.11742E-02 -0.11560E-01
  0.94367E-03  0.22753E-02 -0.11560E-01
  0.11313E-02  0.28269E-02 -0.11560E-01
  0.17475E-02  0.24244E-02 -0.11560E-01
  0.40566E-03  0.21686E-02 -0.11560E-01
  0.39772E-03  0.29356E-02 -0.11560E-01
 -0.76444E-03 -0.10039E-02 -0.11560E-01
 -0.86648E-03  0.82206E-04 -0.11560E-01
  0.45940E-03 -0.70028E-03 -0.11560E-01
 -0.18312E-02 -0.71140E-03 -0.11560E-01
 -0.18436E-02  0.83243E-04 -0.11560E-01
 -0.27237E-02 -0.77797E-03 -0.11560E-01
 -0.28017E-02  0.41806E-04 -0.11560E-01
 -0.25371E-02 -0.15193E-02 -0.11560E-01
 -0.19305E-02 -0.13226E-02 -0.11560E-01
 -0.99305E-03  0.99390E-03 -0.11560E-01
 -0.14394E-02 -0.17323E-02 -0.11560E-01
 -0.31494E-03  0.20231E-02 -0.11560E-01
 -0.11054E-02  0.18610E-02 -0.11560E-01
 -0.18843E-02  0.17175E-02 -0.11560E-01
 -0.18708E-02  0.91036E-03 -0.11560E-01
 -0.15981E-03 -0.19801E-02 -0.11560E-01
 -0.94328E-03 -0.23490E-02 -0.11560E-01
  0.78592E-03 -0.17074E-02 -0.11560E-01
  0.17209E-02 -0.14904E-02 -0.11560E-01
  0.32063E-02  0.76439E-03 -0.11560E-01
  0.28045E-02  0.12494E-02 -0.11560E-01
  0.23055E-02  0.18666E-02 -0.11560E-01
 -0.40558E-03  0.28995E-02 -0.11560E-01
 -0.12092E-02  0.27188E-02 -0.11560E-01
 -0.19446E-02  0.24633E-02 -0.11560E-01
 -0.25027E-02  0.22359E-02 -0.11560E-01
 -0.26367E-02  0.16503E-02 -0.11560E-01
 -0.27658E-02  0.87597E-03 -0.11560E-01
 -0.21129E-02 -0.21374E-02 -0.11560E-01
 -0.16089E-02 -0.26932E-02 -0.11560E-01
 -0.11943E-02 -0.31291E-02 -0.11560E-01
 -0.58781E-03 -0.30382E-02 -0.11560E-01
  0.20749E-03 -0.28748E-02 -0.11560E-01
  0.10574E-02 -0.26434E-02 -0.11560E-01
  0.18415E-02 -0.23715E-02 -0.11560E-01
  0.24549E-02 -0.21467E-02 -0.11560E-01
  0.26025E-02 -0.15101E-02 -0.11560E-01
  0.37964E-02  0.93572E-03 -0.11560E-01
  0.39100E-02  0.00000E+00 -0.11560E-01
  0.34621E-02  0.18171E-02 -0.11560E-01
  0.29267E-02  0.25928E-02 -0.11560E-01
  0.22211E-02  0.32179E-02 -0.11560E-01
  0.13865E-02  0.36559E-02 -0.11560E-01
  0.47130E-03  0.38815E-02 -0.11560E-01
 -0.47130E-03  0.38815E-02 -0.11560E-01
 -0.13865E-02  0.36559E-02 -0.11560E-01
 -0.22211E-02  0.32179E-02 -0.11560E-01
 -0.29267E-02  0.25928E-02 -0.11560E-01
 -0.34621E-02  0.18171E-02 -0.11560E-01
 -0.37964E-02  0.93572E-03 -0.11560E-01
 -0.39100E-02 -0.47884E-18 -0.11560E-01
 -0.37964E-02 -0.93572E-03 -0.11560E-01
 -0.34621E-02 -0.18171E-02 -0.11560E-01
 -0.29267E-02 -0.25928E-02 -0.11560E-01
 -0.22211E-02 -0.32179E-02 -0.11560E-01
 -0.13865E-02 -0.36559E-02 -0.11560E-01
 -0.47130E-03 -0.38815E-02 -0.11560E-01
  0.47130E-03 -0.38815E-02 -0.11560E-01
  0.13865E-02 -0.36559E-02 -0.11560E-01
  0.22211E-02 -0.32179E-02 -0.11560E-01
  0.29267E-02 -0.25928E-02 -0.11560E-01
  0.34621E-02 -0.18171E-02 -0.11560E-01
  0.37964E-02 -0.93572E-03 -0.11560E-01
  0.10372E-02  0.67570E-03 -0.10581E-01
  0.17443E-02  0.12341E-02 -0.10581E-01
  0.23171E-02  0.59412E-03 -0.10581E-01
  0.16687E-02 -0.33398E-03 -0.10581E-01
  0.30376E-02  0.15064E-03 -0.10581E-01
  0.27808E-02 -0.67396E-03 -0.10581E-01
  0.12845E-02  0.18421E-02 -0.10581E-01
  0.65016E-03  0.14626E-02 -0.10581E-01
  0.12626E-03  0.30507E-03 -0.10581E-01
 -0.12915E-03  0.11760E-02 -0.10581E-01
  0.94334E-03  0.22754E-02 -0.10581E-01
  0.11310E-02  0.28264E-02 -0.10581E-01
  0.17471E-02  0.24245E-02 -0.10581E-01
  0.40561E-03  0.21686E-02 -0.10581E-01
  0.39770E-03  0.29353E-02 -0.10581E-01
 -0.76480E-03 -0.10040E-02 -0.10581E-01
 -0.86659E-03  0.83015E-04 -0.10581E-01
  0.45895E-03 -0.69955E-03 -0.10581E-01
 -0.18315E-02 -0.71126E-03 -0.10581E-01
 -0.18435E-02  0.83367E-04 -0.10581E-01
 -0.27237E-02 -0.77780E-03 -0.10581E-01
 -0.28014E-02  0.42080E-04 -0.10581E-01
 -0.25372E-02 -0.15192E-02 -0.10581E-01
 -0.19309E-02 -0.13224E-02 -0.10581E-01
 -0.99291E-03  0.99526E-03 -0.10581E-01
 -0.14398E-02 -0.17323E-02 -0.10581E-01
 -0.31474E-03  0.20234E-02 -0.10581E-01
 -0.11051E-02  0.18609E-02 -0.10581E-01
 -0.18843E-02  0.17175E-02 -0.10581E-01
 -0.18706E-02  0.91060E-03 -0.10581E-01
 -0.16009E-03 -0.19801E-02 -0.10581E-01
 -0.94388E-03 -0.23490E-02 -0.10581E-01
  0.78526E-03 -0.17074E-02 -0.10581E-01
  0.17208E-02 -0.14906E-02 -0.10581E-01
  0.32066E-02  0.76539E-03 -0.10581E-01
  0.28045E-02  0.12498E-02 -0.10581E-01
  0.23053E-02  0.18667E-02 -0.10581E-01
 -0.40545E-03  0.28984E-02 -0.10581E-01
 -0.12092E-02  0.27184E-02 -0.10581E-01
 -0.19446E-02  0.24631E-02 -0.10581E-01
 -0.25027E-02  0.22359E-02 -0.10581E-01
 -0.26366E-02  0.16503E-02 -0.10581E-01
 -0.27655E-02  0.87623E-03 -0.10581E-01
 -0.21130E-02 -0.21374E-02 -0.10581E-01
 -0.16089E-02 -0.26932E-02 -0.10581E-01
 -0.11944E-02 -0.31291E-02 -0.10581E-01
 -0.58816E-03 -0.30382E-02 -0.10581E-01
  0.20709E-03 -0.28748E-02 -0.10581E-01
  0.10571E-02 -0.26436E-02 -0.10581E-01
  0.18415E-02 -0.23717E-02 -0.10581E-01
  0.24550E-02 -0.21472E-02 -0.10581E-01
  0.26025E-02 -0.15100E-02 -0.10581E-01
  0.37964E-02  0.93572E-03 -0.10581E-01
  0.39100E-02  0.00000E+00 -0.10581E-01
  0.34621E-02  0.18171E-02 -0.10581E-01
  0.29267E-02  0.25928E-02 -0.10581E-01
  0.22211E-02  0.32179E-02 -0.10581E-01
  0.13865E-02  0.36559E-02 -0.10581E-01
  0.47130E-03  0.38815E-02 -0.10581E-01
 -0.47130E-03  0.38815E-02 -0.10581E-01
 -0.13865E-02  0.36559E-02 -0.10581E-01
 -0.22211E-02  0.32179E-02 -0.10581E-01
 -0.29267E-02  0.25928E-02 -0.10581E-01
 -0.34621E-02  0.18171E-02 -0.10581E-01
 -0.37964E-02  0.93572E-03 -0.10581E-01
 -0.39100E-02 -0.47884E-18 -0.10581E-01
 -0.37964E-02 -0.93572E-03 -0.10581E-01
 -0.34621E-02 -0.18171E-02 -0.10581E-01
 -0.29267E-02 -0.25928E-02 -0.10581E-01
 -0.22211E-02 -0.32179E-02 -0.10581E-01
 -0.13865E-02 -0.36559E-02 -0.10581E-01
 -0.47130E-03 -0.38815E-02 -0.10581E-01
  0.47130E-03 -0.38815E-02 -0.10581E-01
  0.13865E-02 -0.36559E-02 -0.10581E-01
  0.22211E-02 -0.32179E-02 -0.10581E-01
  0.29267E-02 -0.25928E-02 -0.10581E-01
  0.34621E-02 -0.18171E-02 -0.10581E-01
  0.37964E-02 -0.93572E-03 -0.10581E-01
  0.10371E-02  0.67625E-03 -0.96018E-02
  0.17441E-02  0.12348E-02 -0.96018E-02
  0.23169E-02  0.59465E-03 -0.96018E-02
  0.16685E-02 -0.33323E-03 -0.96018E-02
  0.30376E-02  0.15100E-03 -0.96018E-02
  0.27812E-02 -0.67347E-03 -0.96018E-02
  0.12844E-02  0.18423E-02 -0.96018E-02
  0.64992E-03  0.14636E-02 -0.96018E-02
  0.12600E-03  0.30622E-03 -0.96018E-02
 -0.12933E-03  0.11777E-02 -0.96018E-02
  0.94301E-03  0.22755E-02 -0.96018E-02
  0.11306E-02  0.28260E-02 -0.96018E-02
  0.17467E-02  0.24247E-02 -0.96018E-02
  0.40556E-03  0.21687E-02 -0.96018E-02
  0.39769E-03  0.29351E-02 -0.96018E-02
 -0.76515E-03 -0.10042E-02 -0.96018E-02
 -0.86670E-03  0.83825E-04 -0.96018E-02
  0.45850E-03 -0.69882E-03 -0.96018E-02
 -0.18318E-02 -0.71112E-03 -0.96018E-02
 -0.18434E-02  0.83490E-04 -0.96018E-02
 -0.27236E-02 -0.77763E-03 -0.96018E-02
 -0.28011E-02  0.42353E-04 -0.96018E-02
 -0.25374E-02 -0.15192E-02 -0.96018E-02
 -0.19313E-02 -0.13223E-02 -0.96018E-02
 -0.99277E-03  0.99661E-03 -0.96018E-02
 -0.14401E-02 -0.17322E-02 -0.96018E-02
 -0.31454E-03  0.20237E-02 -0.96018E-02
 -0.11047E-02  0.18607E-02 -0.96018E-02
 -0.18842E-02  0.17175E-02 -0.96018E-02
 -0.18705E-02  0.91084E-03 -0.96018E-02
 -0.16036E-03 -0.19801E-02 -0.96018E-02
 -0.94448E-03 -0.23491E-02 -0.96018E-02
  0.78460E-03 -0.17074E-02 -0.96018E-02
  0.17208E-02 -0.14909E-02 -0.96018E-02
  0.32070E-02  0.76640E-03 -0.96018E-02
  0.28045E-02  0.12503E-02 -0.96018E-02
  0.23052E-02  0.18667E-02 -0.96018E-02
 -0.40531E-03  0.28974E-02 -0.96018E-02
 -0.12092E-02  0.27179E-02 -0.96018E-02
 -0.19445E-02  0.24629E-02 -0.96018E-02
 -0.25027E-02  0.22359E-02 -0.96018E-02
 -0.26366E-02  0.16503E-02 -0.96018E-02
 -0.27652E-02  0.87650E-03 -0.96018E-02
 -0.21132E-02 -0.21374E-02 -0.96018E-02
 -0.16090E-02 -0.26933E-02 -0.96018E-02
 -0.11946E-02 -0.31291E-02 -0.96018E-02
 -0.58851E-03 -0.30382E-02 -0.96018E-02
  0.20668E-03 -0.28749E-02 -0.96018E-02
  0.10567E-02 -0.26439E-02 -0.96018E-02
  0.18416E-02 -0.23719E-02 -0.96018E-02
  0.24551E-02 -0.21478E-02 -0.96018E-02
  0.26026E-02 -0.15099E-02 -0.96018E-02
  0.37964E-02  0.93572E-03 -0.96018E-02
  0.39100E-02  0.00000E+00 -0.96018E-02
  0.34621E-02  0.18171E-02 -0.96018E-02
  0.29267E-02  0.25928E-02 -0.96018E-02
  0.22211E-02  0.32179E-02 -0.96018E-02
  0.13865E-02  0.36559E-02 -0.96018E-02
  0.47130E-03  0.38815E-02 -0.96018E-02
 -0.47130E-03  0.38815E-02 -0.96018E-02
 -0.13865E-02  0.36559E-02 -0.96018E-02
 -0.22211E-02  0.32179E-02 -0.96018E-02
 -0.29267E-02  0.25928E-02 -0.96018E-02
 -0.34621E-02  0.18171E-02 -0.96018E-02
 -0.37964E-02  0.93572E-03 -0.96018E-02
 -0.39100E-02 -0.47884E-18 -0.96018E-02
 -0.37964E-02 -0.93572E-03 -0.96018E-02
 -0.34621E-02 -0.18171E-02 -0.96018E-02
 -0.29267E-02 -0.25928E-02 -0.96018E-02
 -0.22211E-02 -0.32179E-02 -0.96018E-02
 -0.13865E-02 -0.36559E-02 -0.96018E-02
 -0.47130E-03 -0.38815E-02 -0.96018E-02
  0.47130E-03 -0.38815E-02 -0.96018E-02
  0.13865E-02 -0.36559E-02 -0.96018E-02
  0.22211E-02 -0.32179E-02 -0.96018E-02
  0.29267E-02 -0.25928E-02 -0.96018E-02
  0.34621E-02 -0.18171E-02 -0.96018E-02
  0.37964E-02 -0.93572E-03 -0.96018E-02
  0.10370E-02  0.67680E-03 -0.86226E-02
  0.17439E-02  0.12354E-02 -0.86226E-02
  0.23168E-02  0.59517E-03 -0.86226E-02
  0.16683E-02 -0.33247E-03 -0.86226E-02
  0.30375E-02  0.15136E-03 -0.86226E-02
  0.27815E-02 -0.67298E-03 -0.86226E-02
  0.12843E-02  0.18425E-02 -0.86226E-02
  0.64967E-03  0.14646E-02 -0.86226E-02
  0.12573E-03  0.30737E-03 -0.86226E-02
 -0.12952E-03  0.11795E-02 -0.86226E-02
  0.94268E-03  0.22757E-02 -0.86226E-02
  0.11303E-02  0.28255E-02 -0.86226E-02
  0.17463E-02  0.24248E-02 -0.86226E-02
  0.40550E-03  0.21687E-02 -0.86226E-02
  0.39767E-03  0.29348E-02 -0.86226E-02
 -0.76551E-03 -0.10043E-02 -0.86226E-02
 -0.86680E-03  0.84634E-04 -0.86226E-02
  0.45806E-03 -0.69810E-03 -0.86226E-02
 -0.18321E-02 -0.71098E-03 -0.86226E-02
 -0.18433E-02  0.83614E-04 -0.86226E-02
 -0.27236E-02 -0.77746E-03 -0.86226E-02
 -0.28009E-02  0.42626E-04 -0.86226E-02
 -0.25375E-02 -0.15191E-02 -0.86226E-02
 -0.19317E-02 -0.13223E-02 -0.86226E-02
 -0.99262E-03  0.99797E-03 -0.86226E-02
 -0.14405E-02 -0.17322E-02 -0.86226E-02
 -0.31434E-03  0.20240E-02 -0.86226E-02
 -0.11044E-02  0.18606E-02 -0.86226E-02
 -0.18842E-02  0.17175E-02 -0.86226E-02
 -0.18704E-02  0.91108E-03 -0.86226E-02
 -0.16064E-03 -0.19802E-02 -0.86226E-02
 -0.94508E-03 -0.23491E-02 -0.86226E-02
  0.78394E-03 -0.17074E-02 -0.86226E-02
  0.17208E-02 -0.14911E-02 -0.86226E-02
  0.32073E-02  0.76740E-03 -0.86226E-02
  0.28045E-02  0.12507E-02 -0.86226E-02
  0.23051E-02  0.18668E-02 -0.86226E-02
 -0.40517E-03  0.28963E-02 -0.86226E-02
 -0.12092E-02  0.27174E-02 -0.86226E-02
 -0.19445E-02  0.24627E-02 -0.86226E-02
 -0.25026E-02  0.22358E-02 -0.86226E-02
 -0.26365E-02  0.16503E-02 -0.86226E-02
 -0.27649E-02  0.87676E-03 -0.86226E-02
 -0.21133E-02 -0.21374E-02 -0.86226E-02
 -0.16090E-02 -0.26933E-02 -0.86226E-02
 -0.11947E-02 -0.31291E-02 -0.86226E-02
 -0.58886E-03 -0.30382E-02 -0.86226E-02
  0.20627E-03 -0.28749E-02 -0.86226E-02
  0.10564E-02 -0.26442E-02 -0.86226E-02
  0.18416E-02 -0.23721E-02 -0.86226E-02
  0.24553E-02 -0.21483E-02 -0.86226E-02
  0.26027E-02 -0.15097E-02 -0.86226E-02
  0.37964E-02  0.93572E-03 -0.86226E-02
  0.39100E-02  0.00000E+00 -0.86226E-02
  0.34621E-02  0.18171E-02 -0.86226E-02
  0.29267E-02  0.25928E-02 -0.86226E-02
  0.22211E-02  0.32179E-02 -0.86226E-02
  0.13865E-02  0.36559E-02 -0.86226E-02
  0.47130E-03  0.38815E-02 -0.86226E-02
 -0.47130E-03  0.38815E-02 -0.86226E-02
 -0.13865E-02  0.36559E-02 -0.86226E-02
 -0.22211E-02  0.32179E-02 -0.86226E-02
 -0.29267E-02  0.25928E-02 -0.86226E-02
 -0.34621E-02  0.18171E-02 -0.86226E-02
 -0.37964E-02  0.93572E-03 -0.86226E-02
 -0.39100E-02 -0.47884E-18 -0.86226E-02
 -0.37964E-02 -0.93572E-03 -0.86226E-02
 -0.34621E-02 -0.18171E-02 -0.86226E-02
 -0.29267E-02 -0.25928E-02 -0.86226E-02
 -0.22211E-02 -0.32179E-02 -0.86226E-02
 -0.13865E-02 -0.36559E-02 -0.86226E-02
 -0.47130E-03 -0.38815E-02 -0.86226E-02
  0.47130E-03 -0.38815E-02 -0.86226E-02
  0.13865E-02 -0.36559E-02 -0.86226E-02
  0.22211E-02 -0.32179E-02 -0.86226E-02
  0.29267E-02 -0.25928E-02 -0.86226E-02
  0.34621E-02 -0.18171E-02 -0.86226E-02
  0.37964E-02 -0.93572E-03 -0.86226E-02
  0.10368E-02  0.67736E-03 -0.76434E-02
  0.17438E-02  0.12361E-02 -0.76434E-02
  0.23167E-02  0.59570E-03 -0.76434E-02
  0.16681E-02 -0.33172E-03 -0.76434E-02
  0.30375E-02  0.15173E-03 -0.76434E-02
  0.27819E-02 -0.67248E-03 -0.76434E-02
  0.12842E-02  0.18427E-02 -0.76434E-02
  0.64943E-03  0.14656E-02 -0.76434E-02
  0.12547E-03  0.30852E-03 -0.76434E-02
 -0.12970E-03  0.11812E-02 -0.76434E-02
  0.94235E-03  0.22758E-02 -0.76434E-02
  0.11300E-02  0.28251E-02 -0.76434E-02
  0.17459E-02  0.24249E-02 -0.76434E-02
  0.40545E-03  0.21688E-02 -0.76434E-02
  0.39766E-03  0.29345E-02 -0.76434E-02
 -0.76586E-03 -0.10044E-02 -0.76434E-02
 -0.86691E-03  0.85443E-04 -0.76434E-02
  0.45761E-03 -0.69737E-03 -0.76434E-02
 -0.18324E-02 -0.71084E-03 -0.76434E-02
 -0.18432E-02  0.83737E-04 -0.76434E-02
 -0.27236E-02 -0.77729E-03 -0.76434E-02
 -0.28006E-02  0.42899E-04 -0.76434E-02
 -0.25377E-02 -0.15191E-02 -0.76434E-02
 -0.19322E-02 -0.13222E-02 -0.76434E-02
 -0.99248E-03  0.99932E-03 -0.76434E-02
 -0.14408E-02 -0.17322E-02 -0.76434E-02
 -0.31414E-03  0.20243E-02 -0.76434E-02
 -0.11040E-02  0.18605E-02 -0.76434E-02
 -0.18841E-02  0.17175E-02 -0.76434E-02
 -0.18703E-02  0.91132E-03 -0.76434E-02
 -0.16091E-03 -0.19802E-02 -0.76434E-02
 -0.94568E-03 -0.23491E-02 -0.76434E-02
  0.78328E-03 -0.17074E-02 -0.76434E-02
  0.17207E-02 -0.14914E-02 -0.76434E-02
  0.32076E-02  0.76841E-03 -0.76434E-02
  0.28044E-02  0.12511E-02 -0.76434E-02
  0.23050E-02  0.18668E-02 -0.76434E-02
 -0.40503E-03  0.28952E-02 -0.76434E-02
 -0.12092E-02  0.27170E-02 -0.76434E-02
 -0.19445E-02  0.24624E-02 -0.76434E-02
 -0.25026E-02  0.22358E-02 -0.76434E-02
 -0.26364E-02  0.16503E-02 -0.76434E-02
 -0.27646E-02  0.87702E-03 -0.76434E-02
 -0.21134E-02 -0.21374E-02 -0.76434E-02
 -0.16091E-02 -0.26933E-02 -0.76434E-02
 -0.11948E-02 -0.31291E-02 -0.76434E-02
 -0.58921E-03 -0.30382E-02 -0.76434E-02
  0.20587E-03 -0.28749E-02 -0.76434E-02
  0.10561E-02 -0.26444E-02 -0.76434E-02
  0.18416E-02 -0.23723E-02 -0.76434E-02
  0.24554E-02 -0.21489E-02 -0.76434E-02
  0.26027E-02 -0.15096E-02 -0.76434E-02
  0.37964E-02  0.93572E-03 -0.76434E-02
  0.39100E-02  0.00000E+00 -0.76434E-02
  0.34621E-02  0.18171E-02 -0.76434E-02
  0.29267E-02  0.25928E-02 -0.76434E-02
  0.22211E-02  0.32179E-02 -0.76434E-02
  0.13865E-02  0.36559E-02 -0.76434E-02
  0.47130E-03  0.38815E-02 -0.76434E-02
 -0.47130E-03  0.38815E-02 -0.76434E-02
 -0.13865E-02  0.36559E-02 -0.76434E-02
 -0.22211E-02  0.32179E-02 -0.76434E-02
 -0.29267E-02  0.25928E-02 -0.76434E-02
 -0.34621E-02  0.18171E-02 -0.76434E-02
 -0.37964E-02  0.93572E-03 -0.76434E-02
 -0.39100E-02 -0.47884E-18 -0.76434E-02
 -0.37964E-02 -0.93572E-03 -0.76434E-02
 -0.34621E-02 -0.18171E-02 -0.76434E-02
 -0.29267E-02 -0.25928E-02 -0.76434E-02
 -0.22211E-02 -0.32179E-02 -0.76434E-02
 -0.13865E-02 -0.36559E-02 -0.76434E-02
 -0.47130E-03 -0.38815E-02 -0.76434E-02
  0.47130E-03 -0.38815E-02 -0.76434E-02
  0.13865E-02 -0.36559E-02 -0.76434E-02
  0.22211E-02 -0.32179E-02 -0.76434E-02
  0.29267E-02 -0.25928E-02 -0.76434E-02
  0.34621E-02 -0.18171E-02 -0.76434E-02
  0.37964E-02 -0.93572E-03 -0.76434E-02
  0.10367E-02  0.67791E-03 -0.66643E-02
  0.17436E-02  0.12368E-02 -0.66643E-02
  0.23166E-02  0.59622E-03 -0.66643E-02
  0.16679E-02 -0.33096E-03 -0.66643E-02
  0.30375E-02  0.15209E-03 -0.66643E-02
  0.27822E-02 -0.67199E-03 -0.66643E-02
  0.12841E-02  0.18429E-02 -0.66643E-02
  0.64918E-03  0.14666E-02 -0.66643E-02
  0.12521E-03  0.30967E-03 -0.66643E-02
 -0.12989E-03  0.11830E-02 -0.66643E-02
  0.94202E-03  0.22759E-02 -0.66643E-02
  0.11296E-02  0.28247E-02 -0.66643E-02
  0.17455E-02  0.24251E-02 -0.66643E-02
  0.40539E-03  0.21688E-02 -0.66643E-02
  0.39764E-03  0.29343E-02 -0.66643E-02
 -0.76621E-03 -0.10046E-02 -0.66643E-02
 -0.86702E-03  0.86253E-04 -0.66643E-02
  0.45716E-03 -0.69665E-03 -0.66643E-02
 -0.18326E-02 -0.71070E-03 -0.66643E-02
 -0.18431E-02  0.83861E-04 -0.66643E-02
 -0.27235E-02 -0.77712E-03 -0.66643E-02
 -0.28003E-02  0.43173E-04 -0.66643E-02
 -0.25379E-02 -0.15190E-02 -0.66643E-02
 -0.19326E-02 -0.13220E-02 -0.66643E-02
 -0.99233E-03  0.10007E-02 -0.66643E-02
 -0.14412E-02 -0.17321E-02 -0.66643E-02
 -0.31394E-03  0.20245E-02 -0.66643E-02
 -0.11037E-02  0.18603E-02 -0.66643E-02
 -0.18841E-02  0.17175E-02 -0.66643E-02
 -0.18701E-02  0.91156E-03 -0.66643E-02
 -0.16119E-03 -0.19802E-02 -0.66643E-02
 -0.94628E-03 -0.23491E-02 -0.66643E-02
  0.78262E-03 -0.17074E-02 -0.66643E-02
  0.17207E-02 -0.14916E-02 -0.66643E-02
  0.32079E-02  0.76941E-03 -0.66643E-02
  0.28044E-02  0.12515E-02 -0.66643E-02
  0.23049E-02  0.18668E-02 -0.66643E-02
 -0.40490E-03  0.28942E-02 -0.66643E-02
 -0.12093E-02  0.27165E-02 -0.66643E-02
 -0.19444E-02  0.24622E-02 -0.66643E-02
 -0.25026E-02  0.22358E-02 -0.66643E-02
 -0.26363E-02  0.16503E-02 -0.66643E-02
 -0.27643E-02  0.87728E-03 -0.66643E-02
 -0.21136E-02 -0.21374E-02 -0.66643E-02
 -0.16091E-02 -0.26933E-02 -0.66643E-02
 -0.11949E-02 -0.31291E-02 -0.66643E-02
 -0.58956E-03 -0.30382E-02 -0.66643E-02
  0.20546E-03 -0.28749E-02 -0.66643E-02
  0.10558E-02 -0.26447E-02 -0.66643E-02
  0.18417E-02 -0.23725E-02 -0.66643E-02
  0.24555E-02 -0.21494E-02 -0.66643E-02
  0.26028E-02 -0.15095E-02 -0.66643E-02
  0.37964E-02  0.93572E-03 -0.66643E-02
  0.39100E-02  0.00000E+00 -0.66643E-02
  0.34621E-02  0.18171E-02 -0.66643E-02
  0.29267E-02  0.25928E-02 -0.66643E-02
  0.22211E-02  0.32179E-02 -0.66643E-02
  0.13865E-02  0.36559E-02 -0.66643E-02
  0.47130E-03  0.38815E-02 -0.66643E-02
 -0.47130E-03  0.38815E-02 -0.66643E-02
 -0.13865E-02  0.36559E-02 -0.66643E-02
 -0.22211E-02  0.32179E-02 -0.66643E-02
 -0.29267E-02  0.25928E-02 -0.66643E-02
 -0.34621E-02  0.18171E-02 -0.66643E-02
 -0.37964E-02  0.93572E-03 -0.66643E-02
 -0.39100E-02 -0.47884E-18 -0.66643E-02
 -0.37964E-02 -0.93572E-03 -0.66643E-02
 -0.34621E-02 -0.18171E-02 -0.66643E-02
 -0.29267E-02 -0.25928E-02 -0.66643E-02
 -0.22211E-02 -0.32179E-02 -0.66643E-02
 -0.13865E-02 -0.36559E-02 -0.66643E-02
 -0.47130E-03 -0.38815E-02 -0.66643E-02
  0.47130E-03 -0.38815E-02 -0.66643E-02
  0.13865E-02 -0.36559E-02 -0.66643E-02
  0.22211E-02 -0.32179E-02 -0.66643E-02
  0.29267E-02 -0.25928E-02 -0.66643E-02
  0.34621E-02 -0.18171E-02 -0.66643E-02
  0.37964E-02 -0.93572E-03 -0.66643E-02
  0.10366E-02  0.67847E-03 -0.56851E-02
  0.17434E-02  0.12374E-02 -0.56851E-02
  0.23164E-02  0.59674E-03 -0.56851E-02
  0.16677E-02 -0.33021E-03 -0.56851E-02
  0.30375E-02  0.15245E-03 -0.56851E-02
  0.27825E-02 -0.67150E-03 -0.56851E-02
  0.12840E-02  0.18430E-02 -0.56851E-02
  0.64894E-03  0.14676E-02 -0.56851E-02
  0.12495E-03  0.31081E-03 -0.56851E-02
 -0.13007E-03  0.11847E-02 -0.56851E-02
  0.94169E-03  0.22761E-02 -0.56851E-02
  0.11293E-02  0.28242E-02 -0.56851E-02
  0.17451E-02  0.24252E-02 -0.56851E-02
  0.40534E-03  0.21688E-02 -0.56851E-02
  0.39762E-03  0.29340E-02 -0.56851E-02
 -0.76657E-03 -0.10047E-02 -0.56851E-02
 -0.86713E-03  0.87062E-04 -0.56851E-02
  0.45671E-03 -0.69592E-03 -0.56851E-02
 -0.18329E-02 -0.71056E-03 -0.56851E-02
 -0.18430E-02  0.83985E-04 -0.56851E-02
 -0.27235E-02 -0.77695E-03 -0.56851E-02
 -0.28001E-02  0.43446E-04 -0.56851E-02
 -0.25380E-02 -0.15190E-02 -0.56851E-02
 -0.19330E-02 -0.13219E-02 -0.56851E-02
 -0.99219E-03  0.10020E-02 -0.56851E-02
 -0.14415E-02 -0.17321E-02 -0.56851E-02
 -0.31374E-03  0.20248E-02 -0.56851E-02
 -0.11033E-02  0.18602E-02 -0.56851E-02
 -0.18840E-02  0.17175E-02 -0.56851E-02
 -0.18700E-02  0.91180E-03 -0.56851E-02
 -0.16146E-03 -0.19803E-02 -0.56851E-02
 -0.94687E-03 -0.23491E-02 -0.56851E-02
  0.78195E-03 -0.17073E-02 -0.56851E-02
  0.17207E-02 -0.14919E-02 -0.56851E-02
  0.32083E-02  0.77042E-03 -0.56851E-02
  0.28044E-02  0.12520E-02 -0.56851E-02
  0.23048E-02  0.18669E-02 -0.56851E-02
 -0.40476E-03  0.28931E-02 -0.56851E-02
 -0.12093E-02  0.27160E-02 -0.56851E-02
 -0.19444E-02  0.24620E-02 -0.56851E-02
 -0.25026E-02  0.22358E-02 -0.56851E-02
 -0.26362E-02  0.16503E-02 -0.56851E-02
 -0.27640E-02  0.87754E-03 -0.56851E-02
 -0.21137E-02 -0.21374E-02 -0.56851E-02
 -0.16091E-02 -0.26933E-02 -0.56851E-02
 -0.11950E-02 -0.31291E-02 -0.56851E-02
 -0.58991E-03 -0.30382E-02 -0.56851E-02
  0.20505E-03 -0.28749E-02 -0.56851E-02
  0.10555E-02 -0.26450E-02 -0.56851E-02
  0.18417E-02 -0.23727E-02 -0.56851E-02
  0.24556E-02 -0.21500E-02 -0.56851E-02
  0.26029E-02 -0.15094E-02 -0.56851E-02
  0.37964E-02  0.93572E-03 -0.56851E-02
  0.39100E-02  0.00000E+00 -0.56851E-02
  0.34621E-02  0.18171E-02 -0.56851E-02
  0.29267E-02  0.25928E-02 -0.56851E-02
  0.22211E-02  0.32179E-02 -0.56851E-02
  0.13865E-02  0.36559E-02 -0.56851E-02
  0.47130E-03  0.38815E-02 -0.56851E-02
 -0.47130E-03  0.38815E-02 -0.56851E-02
 -0.13865E-02  0.36559E-02 -0.56851E-02
 -0.22211E-02  0.32179E-02 -0.56851E-02
 -0.29267E-02  0.25928E-02 -0.56851E-02
 -0.34621E-02  0.18171E-02 -0.56851E-02
 -0.37964E-02  0.93572E-03 -0.56851E-02
 -0.39100E-02  0.39516E-17 -0.56851E-02
 -0.37964E-02 -0.93572E-03 -0.56851E-02
 -0.34621E-02 -0.18171E-02 -0.56851E-02
 -0.29267E-02 -0.25928E-02 -0.56851E-02
 -0.22211E-02 -0.32179E-02 -0.56851E-02
 -0.13865E-02 -0.36559E-02 -0.56851E-02
 -0.47130E-03 -0.38815E-02 -0.56851E-02
  0.47130E-03 -0.38815E-02 -0.56851E-02
  0.13865E-02 -0.36559E-02 -0.56851E-02
  0.22211E-02 -0.32179E-02 -0.56851E-02
  0.29267E-02 -0.25928E-02 -0.56851E-02
  0.34621E-02 -0.18171E-02 -0.56851E-02
  0.37964E-02 -0.93572E-03 -0.56851E-02
  0.10365E-02  0.67902E-03 -0.47059E-02
  0.17432E-02  0.12381E-02 -0.47059E-02
  0.23163E-02  0.59727E-03 -0.47059E-02
  0.16675E-02 -0.32945E-03 -0.47059E-02
  0.30374E-02  0.15282E-03 -0.47059E-02
  0.27829E-02 -0.67100E-03 -0.47059E-02
  0.12839E-02  0.18432E-02 -0.47059E-02
  0.64869E-03  0.14686E-02 -0.47059E-02
  0.12468E-03  0.31196E-03 -0.47059E-02
 -0.13026E-03  0.11865E-02 -0.47059E-02
  0.94135E-03  0.22762E-02 -0.47059E-02
  0.11289E-02  0.28238E-02 -0.47059E-02
  0.17447E-02  0.24254E-02 -0.47059E-02
  0.40528E-03  0.21688E-02 -0.47059E-02
  0.39760E-03  0.29337E-02 -0.47059E-02
 -0.76692E-03 -0.10049E-02 -0.47059E-02
 -0.86724E-03  0.87871E-04 -0.47059E-02
  0.45626E-03 -0.69519E-03 -0.47059E-02
 -0.18332E-02 -0.71042E-03 -0.47059E-02
 -0.18430E-02  0.84108E-04 -0.47059E-02
 -0.27235E-02 -0.77678E-03 -0.47059E-02
 -0.27998E-02  0.43720E-04 -0.47059E-02
 -0.25382E-02 -0.15189E-02 -0.47059E-02
 -0.19334E-02 -0.13219E-02 -0.47059E-02
 -0.99205E-03  0.10034E-02 -0.47059E-02
 -0.14419E-02 -0.17320E-02 -0.47059E-02
 -0.31354E-03  0.20251E-02 -0.47059E-02
 -0.11030E-02  0.18601E-02 -0.47059E-02
 -0.18840E-02  0.17175E-02 -0.47059E-02
 -0.18699E-02  0.91204E-03 -0.47059E-02
 -0.16174E-03 -0.19803E-02 -0.47059E-02
 -0.94747E-03 -0.23492E-02 -0.47059E-02
  0.78129E-03 -0.17073E-02 -0.47059E-02
  0.17206E-02 -0.14921E-02 -0.47059E-02
  0.32086E-02  0.77142E-03 -0.47059E-02
  0.28044E-02  0.12524E-02 -0.47059E-02
  0.23047E-02  0.18669E-02 -0.47059E-02
 -0.40462E-03  0.28920E-02 -0.47059E-02
 -0.12093E-02  0.27155E-02 -0.47059E-02
 -0.19444E-02  0.24618E-02 -0.47059E-02
 -0.25025E-02  0.22358E-02 -0.47059E-02
 -0.26361E-02  0.16503E-02 -0.47059E-02
 -0.27637E-02  0.87781E-03 -0.47059E-02
 -0.21139E-02 -0.21374E-02 -0.47059E-02
 -0.16092E-02 -0.26934E-02 -0.47059E-02
 -0.11951E-02 -0.31291E-02 -0.47059E-02
 -0.59025E-03 -0.30382E-02 -0.47059E-02
  0.20465E-03 -0.28749E-02 -0.47059E-02
  0.10552E-02 -0.26452E-02 -0.47059E-02
  0.18418E-02 -0.23729E-02 -0.47059E-02
  0.24558E-02 -0.21505E-02 -0.47059E-02
  0.26030E-02 -0.15093E-02 -0.47059E-02
  0.37964E-02  0.93572E-03 -0.47059E-02
  0.39100E-02  0.00000E+00 -0.47059E-02
  0.34621E-02  0.18171E-02 -0.47059E-02
  0.29267E-02  0.25928E-02 -0.47059E-02
  0.22211E-02  0.32179E-02 -0.47059E-02
  0.13865E-02  0.36559E-02 -0.47059E-02
  0.47130E-03  0.38815E-02 -0.47059E-02
 -0.47130E-03  0.38815E-02 -0.47059E-02
 -0.13865E-02  0.36559E-02 -0.47059E-02
 -0.22211E-02  0.32179E-02 -0.47059E-02
 -0.29267E-02  0.25928E-02 -0.47059E-02
 -0.34621E-02  0.18171E-02 -0.47059E-02
 -0.37964E-02  0.93572E-03 -0.47059E-02
 -0.39100E-02 -0.47884E-18 -0.47059E-02
 -0.37964E-02 -0.93572E-03 -0.47059E-02
 -0.34621E-02 -0.18171E-02 -0.47059E-02
 -0.29267E-02 -0.25928E-02 -0.47059E-02
 -0.22211E-02 -0.32179E-02 -0.47059E-02
 -0.13865E-02 -0.36559E-02 -0.47059E-02
 -0.47130E-03 -0.38815E-02 -0.47059E-02
  0.47130E-03 -0.38815E-02 -0.47059E-02
  0.13865E-02 -0.36559E-02 -0.47059E-02
  0.22211E-02 -0.32179E-02 -0.47059E-02
  0.29267E-02 -0.25928E-02 -0.47059E-02
  0.34621E-02 -0.18171E-02 -0.47059E-02
  0.37964E-02 -0.93572E-03 -0.47059E-02
  0.10364E-02  0.67958E-03 -0.37268E-02
  0.17430E-02  0.12387E-02 -0.37268E-02
  0.23162E-02  0.59779E-03 -0.37268E-02
  0.16672E-02 -0.32870E-03 -0.37268E-02
  0.30374E-02  0.15318E-03 -0.37268E-02
  0.27832E-02 -0.67051E-03 -0.37268E-02
  0.12838E-02  0.18434E-02 -0.37268E-02
  0.64845E-03  0.14696E-02 -0.37268E-02
  0.12442E-03  0.31311E-03 -0.37268E-02
 -0.13044E-03  0.11882E-02 -0.37268E-02
  0.94102E-03  0.22763E-02 -0.37268E-02
  0.11286E-02  0.28233E-02 -0.37268E-02
  0.17443E-02  0.24255E-02 -0.37268E-02
  0.40523E-03  0.21689E-02 -0.37268E-02
  0.39759E-03  0.29335E-02 -0.37268E-02
 -0.76727E-03 -0.10050E-02 -0.37268E-02
 -0.86735E-03  0.88681E-04 -0.37268E-02
  0.45582E-03 -0.69447E-03 -0.37268E-02
 -0.18335E-02 -0.71028E-03 -0.37268E-02
 -0.18429E-02  0.84232E-04 -0.37268E-02
 -0.27235E-02 -0.77661E-03 -0.37268E-02
 -0.27995E-02  0.43993E-04 -0.37268E-02
 -0.25383E-02 -0.15189E-02 -0.37268E-02
 -0.19339E-02 -0.13218E-02 -0.37268E-02
 -0.99190E-03  0.10048E-02 -0.37268E-02
 -0.14422E-02 -0.17320E-02 -0.37268E-02
 -0.31334E-03  0.20254E-02 -0.37268E-02
 -0.11026E-02  0.18599E-02 -0.37268E-02
 -0.18839E-02  0.17175E-02 -0.37268E-02
 -0.18697E-02  0.91228E-03 -0.37268E-02
 -0.16201E-03 -0.19803E-02 -0.37268E-02
 -0.94807E-03 -0.23492E-02 -0.37268E-02
  0.78063E-03 -0.17073E-02 -0.37268E-02
  0.17206E-02 -0.14923E-02 -0.37268E-02
  0.32089E-02  0.77243E-03 -0.37268E-02
  0.28043E-02  0.12528E-02 -0.37268E-02
  0.23046E-02  0.18670E-02 -0.37268E-02
 -0.40448E-03  0.28910E-02 -0.37268E-02
 -0.12093E-02  0.27151E-02 -0.37268E-02
 -0.19443E-02  0.24615E-02 -0.37268E-02
 -0.25025E-02  0.22358E-02 -0.37268E-02
 -0.26360E-02  0.16503E-02 -0.37268E-02
 -0.27633E-02  0.87807E-03 -0.37268E-02
 -0.21140E-02 -0.21374E-02 -0.37268E-02
 -0.16092E-02 -0.26934E-02 -0.37268E-02
 -0.11953E-02 -0.31291E-02 -0.37268E-02
 -0.59060E-03 -0.30382E-02 -0.37268E-02
  0.20424E-03 -0.28749E-02 -0.37268E-02
  0.10549E-02 -0.26455E-02 -0.37268E-02
  0.18418E-02 -0.23732E-02 -0.37268E-02
  0.24559E-02 -0.21511E-02 -0.37268E-02
  0.26030E-02 -0.15092E-02 -0.37268E-02
  0.37964E-02  0.93572E-03 -0.37268E-02
  0.39100E-02  0.00000E+00 -0.37268E-02
  0.34621E-02  0.18171E-02 -0.37268E-02
  0.29267E-02  0.25928E-02 -0.37268E-02
  0.22211E-02  0.32179E-02 -0.37268E-02
  0.13865E-02  0.36559E-02 -0.37268E-02
  0.47130E-03  0.38815E-02 -0.37268E-02
 -0.47130E-03  0.38815E-02 -0.37268E-02
 -0.13865E-02  0.36559E-02 -0.37268E-02
 -0.22211E-02  0.32179E-02 -0.37268E-02
 -0.29267E-02  0.25928E-02 -0.37268E-02
 -0.34621E-02  0.18171E-02 -0.37268E-02
 -0.37964E-02  0.93572E-03 -0.37268E-02
 -0.39100E-02  0.22152E-17 -0.37268E-02
 -0.37964E-02 -0.93572E-03 -0.37268E-02
 -0.34621E-02 -0.18171E-02 -0.37268E-02
 -0.29267E-02 -0.25928E-02 -0.37268E-02
 -0.22211E-02 -0.32179E-02 -0.37268E-02
 -0.13865E-02 -0.36559E-02 -0.37268E-02
 -0.47130E-03 -0.38815E-02 -0.37268E-02
  0.47130E-03 -0.38815E-02 -0.37268E-02
  0.13865E-02 -0.36559E-02 -0.37268E-02
  0.22211E-02 -0.32179E-02 -0.37268E-02
  0.29267E-02 -0.25928E-02 -0.37268E-02
  0.34621E-02 -0.18171E-02 -0.37268E-02
  0.37964E-02 -0.93572E-03 -0.37268E-02
  0.10363E-02  0.68013E-03 -0.27476E-02
  0.17429E-02  0.12394E-02 -0.27476E-02
  0.23161E-02  0.59831E-03 -0.27476E-02
  0.16670E-02 -0.32794E-03 -0.27476E-02
  0.30374E-02  0.15354E-03 -0.27476E-02
  0.27836E-02 -0.67002E-03 -0.27476E-02
  0.12837E-02  0.18436E-02 -0.27476E-02
  0.64820E-03  0.14706E-02 -0.27476E-02
  0.12416E-03  0.31426E-03 -0.27476E-02
 -0.13063E-03  0.11900E-02 -0.27476E-02
  0.94069E-03  0.22765E-02 -0.27476E-02
  0.11282E-02  0.28229E-02 -0.27476E-02
  0.17439E-02  0.24257E-02 -0.27476E-02
  0.40518E-03  0.21689E-02 -0.27476E-02
  0.39757E-03  0.29332E-02 -0.27476E-02
 -0.76763E-03 -0.10051E-02 -0.27476E-02
 -0.86746E-03  0.89490E-04 -0.27476E-02
  0.45537E-03 -0.69374E-03 -0.27476E-02
 -0.18338E-02 -0.71013E-03 -0.27476E-02
 -0.18428E-02  0.84355E-04 -0.27476E-02
 -0.27234E-02 -0.77644E-03 -0.27476E-02
 -0.27992E-02  0.44266E-04 -0.27476E-02
 -0.25385E-02 -0.15188E-02 -0.27476E-02
 -0.19343E-02 -0.13216E-02 -0.27476E-02
 -0.99176E-03  0.10061E-02 -0.27476E-02
 -0.14425E-02 -0.17320E-02 -0.27476E-02
 -0.31314E-03  0.20257E-02 -0.27476E-02
 -0.11023E-02  0.18598E-02 -0.27476E-02
 -0.18839E-02  0.17175E-02 -0.27476E-02
 -0.18696E-02  0.91252E-03 -0.27476E-02
 -0.16229E-03 -0.19803E-02 -0.27476E-02
 -0.94867E-03 -0.23492E-02 -0.27476E-02
  0.77997E-03 -0.17073E-02 -0.27476E-02
  0.17205E-02 -0.14926E-02 -0.27476E-02
  0.32092E-02  0.77343E-03 -0.27476E-02
  0.28043E-02  0.12533E-02 -0.27476E-02
  0.23044E-02  0.18670E-02 -0.27476E-02
 -0.40434E-03  0.28899E-02 -0.27476E-02
 -0.12093E-02  0.27146E-02 -0.27476E-02
 -0.19443E-02  0.24613E-02 -0.27476E-02
 -0.25025E-02  0.22358E-02 -0.27476E-02
 -0.26359E-02  0.16503E-02 -0.27476E-02
 -0.27630E-02  0.87833E-03 -0.27476E-02
 -0.21141E-02 -0.21374E-02 -0.27476E-02
 -0.16093E-02 -0.26934E-02 -0.27476E-02
 -0.11954E-02 -0.31291E-02 -0.27476E-02
 -0.59095E-03 -0.30382E-02 -0.27476E-02
  0.20384E-03 -0.28750E-02 -0.27476E-02
  0.10546E-02 -0.26458E-02 -0.27476E-02
  0.18419E-02 -0.23734E-02 -0.27476E-02
  0.24560E-02 -0.21516E-02 -0.27476E-02
  0.26031E-02 -0.15091E-02 -0.27476E-02
  0.37964E-02  0.93572E-03 -0.27476E-02
  0.39100E-02  0.00000E+00 -0.27476E-02
  0.34621E-02  0.18171E-02 -0.27476E-02
  0.29267E-02  0.25928E-02 -0.27476E-02
  0.22211E-02  0.32179E-02 -0.27476E-02
  0.13865E-02  0.36559E-02 -0.27476E-02
  0.47130E-03  0.38815E-02 -0.27476E-02
 -0.47130E-03  0.38815E-02 -0.27476E-02
 -0.13865E-02  0.36559E-02 -0.27476E-02
 -0.22211E-02  0.32179E-02 -0.27476E-02
 -0.29267E-02  0.25928E-02 -0.27476E-02
 -0.34621E-02  0.18171E-02 -0.27476E-02
 -0.37964E-02  0.93572E-03 -0.27476E-02
 -0.39100E-02 -0.47884E-18 -0.27476E-02
 -0.37964E-02 -0.93572E-03 -0.27476E-02
 -0.34621E-02 -0.18171E-02 -0.27476E-02
 -0.29267E-02 -0.25928E-02 -0.27476E-02
 -0.22211E-02 -0.32179E-02 -0.27476E-02
 -0.13865E-02 -0.36559E-02 -0.27476E-02
 -0.47130E-03 -0.38815E-02 -0.27476E-02
  0.47130E-03 -0.38815E-02 -0.27476E-02
  0.13865E-02 -0.36559E-02 -0.27476E-02
  0.22211E-02 -0.32179E-02 -0.27476E-02
  0.29267E-02 -0.25928E-02 -0.27476E-02
  0.34621E-02 -0.18171E-02 -0.27476E-02
  0.37964E-02 -0.93572E-03 -0.27476E-02
  0.10362E-02  0.68068E-03 -0.17684E-02
  0.17427E-02  0.12401E-02 -0.17684E-02
  0.23160E-02  0.59884E-03 -0.17684E-02
  0.16668E-02 -0.32719E-03 -0.17684E-02
  0.30373E-02  0.15391E-03 -0.17684E-02
  0.27839E-02 -0.66953E-03 -0.17684E-02
  0.12836E-02  0.18438E-02 -0.17684E-02
  0.64796E-03  0.14716E-02 -0.17684E-02
  0.12390E-03  0.31541E-03 -0.17684E-02
 -0.13082E-03  0.11917E-02 -0.17684E-02
  0.94036E-03  0.22766E-02 -0.17684E-02
  0.11279E-02  0.28225E-02 -0.17684E-02
  0.17435E-02  0.24258E-02 -0.17684E-02
  0.40512E-03  0.21690E-02 -0.17684E-02
  0.39755E-03  0.29330E-02 -0.17684E-02
 -0.76798E-03 -0.10053E-02 -0.17684E-02
 -0.86756E-03  0.90299E-04 -0.17684E-02
  0.45492E-03 -0.69302E-03 -0.17684E-02
 -0.18341E-02 -0.70999E-03 -0.17684E-02
 -0.18427E-02  0.84479E-04 -0.17684E-02
 -0.27234E-02 -0.77627E-03 -0.17684E-02
 -0.27990E-02  0.44540E-04 -0.17684E-02
 -0.25386E-02 -0.15188E-02 -0.17684E-02
 -0.19347E-02 -0.13215E-02 -0.17684E-02
 -0.99161E-03  0.10075E-02 -0.17684E-02
 -0.14429E-02 -0.17319E-02 -0.17684E-02
 -0.31294E-03  0.20260E-02 -0.17684E-02
 -0.11019E-02  0.18597E-02 -0.17684E-02
 -0.18838E-02  0.17175E-02 -0.17684E-02
 -0.18695E-02  0.91276E-03 -0.17684E-02
 -0.16256E-03 -0.19804E-02 -0.17684E-02
 -0.94927E-03 -0.23493E-02 -0.17684E-02
  0.77931E-03 -0.17073E-02 -0.17684E-02
  0.17205E-02 -0.14928E-02 -0.17684E-02
  0.32096E-02  0.77444E-03 -0.17684E-02
  0.28043E-02  0.12537E-02 -0.17684E-02
  0.23043E-02  0.18670E-02 -0.17684E-02
 -0.40420E-03  0.28888E-02 -0.17684E-02
 -0.12093E-02  0.27141E-02 -0.17684E-02
 -0.19443E-02  0.24611E-02 -0.17684E-02
 -0.25024E-02  0.22358E-02 -0.17684E-02
 -0.26358E-02  0.16503E-02 -0.17684E-02
 -0.27627E-02  0.87859E-03 -0.17684E-02
 -0.21143E-02 -0.21374E-02 -0.17684E-02
 -0.16093E-02 -0.26934E-02 -0.17684E-02
 -0.11955E-02 -0.31291E-02 -0.17684E-02
 -0.59130E-03 -0.30382E-02 -0.17684E-02
  0.20343E-03 -0.28750E-02 -0.17684E-02
  0.10543E-02 -0.26460E-02 -0.17684E-02
  0.18419E-02 -0.23736E-02 -0.17684E-02
  0.24561E-02 -0.21521E-02 -0.17684E-02
  0.26032E-02 -0.15090E-02 -0.17684E-02
  0.37964E-02  0.93572E-03 -0.17684E-02
  0.39100E-02  0.00000E+00 -0.17684E-02
  0.34621E-02  0.18171E-02 -0.17684E-02
  0.29267E-02  0.25928E-02 -0.17684E-02
  0.22211E-02  0.32179E-02 -0.17684E-02
  0.13865E-02  0.36559E-02 -0.17684E-02
  0.47130E-03  0.38815E-02 -0.17684E-02
 -0.47130E-03  0.38815E-02 -0.17684E-02
 -0.13865E-02  0.36559E-02 -0.17684E-02
 -0.22211E-02  0.32179E-02 -0.17684E-02
 -0.29267E-02  0.25928E-02 -0.17684E-02
 -0.34621E-02  0.18171E-02 -0.17684E-02
 -0.37964E-02  0.93572E-03 -0.17684E-02
 -0.39100E-02  0.22152E-17 -0.17684E-02
 -0.37964E-02 -0.93572E-03 -0.17684E-02
 -0.34621E-02 -0.18171E-02 -0.17684E-02
 -0.29267E-02 -0.25928E-02 -0.17684E-02
 -0.22211E-02 -0.32179E-02 -0.17684E-02
 -0.13865E-02 -0.36559E-02 -0.17684E-02
 -0.47130E-03 -0.38815E-02 -0.17684E-02
  0.47130E-03 -0.38815E-02 -0.17684E-02
  0.13865E-02 -0.36559E-02 -0.17684E-02
  0.22211E-02 -0.32179E-02 -0.17684E-02
  0.29267E-02 -0.25928E-02 -0.17684E-02
  0.34621E-02 -0.18171E-02 -0.17684E-02
  0.37964E-02 -0.93572E-03 -0.17684E-02
  0.10360E-02  0.68124E-03 -0.78926E-03
  0.17425E-02  0.12407E-02 -0.78926E-03
  0.23158E-02  0.59936E-03 -0.78926E-03
  0.16666E-02 -0.32643E-03 -0.78926E-03
  0.30373E-02  0.15427E-03 -0.78926E-03
  0.27842E-02 -0.66903E-03 -0.78926E-03
  0.12835E-02  0.18440E-02 -0.78926E-03
  0.64771E-03  0.14727E-02 -0.78926E-03
  0.12363E-03  0.31656E-03 -0.78926E-03
 -0.13100E-03  0.11935E-02 -0.78926E-03
  0.94003E-03  0.22767E-02 -0.78926E-03
  0.11276E-02  0.28220E-02 -0.78926E-03
  0.17432E-02  0.24260E-02 -0.78926E-03
  0.40507E-03  0.21690E-02 -0.78926E-03
  0.39754E-03  0.29327E-02 -0.78926E-03
 -0.76834E-03 -0.10054E-02 -0.78926E-03
 -0.86767E-03  0.91108E-04 -0.78926E-03
  0.45447E-03 -0.69229E-03 -0.78926E-03
 -0.18344E-02 -0.70985E-03 -0.78926E-03
 -0.18426E-02  0.84602E-04 -0.78926E-03
 -0.27234E-02 -0.77610E-03 -0.78926E-03
 -0.27987E-02  0.44813E-04 -0.78926E-03
 -0.25388E-02 -0.15187E-02 -0.78926E-03
 -0.19352E-02 -0.13215E-02 -0.78926E-03
 -0.99147E-03  0.10088E-02 -0.78926E-03
 -0.14433E-02 -0.17319E-02 -0.78926E-03
 -0.31274E-03  0.20262E-02 -0.78926E-03
 -0.11016E-02  0.18595E-02 -0.78926E-03
 -0.18838E-02  0.17175E-02 -0.78926E-03
 -0.18694E-02  0.91300E-03 -0.78926E-03
 -0.16284E-03 -0.19804E-02 -0.78926E-03
 -0.94986E-03 -0.23493E-02 -0.78926E-03
  0.77865E-03 -0.17073E-02 -0.78926E-03
  0.17205E-02 -0.14931E-02 -0.78926E-03
  0.32099E-02  0.77544E-03 -0.78926E-03
  0.28042E-02  0.12541E-02 -0.78926E-03
  0.23042E-02  0.18671E-02 -0.78926E-03
 -0.40407E-03  0.28877E-02 -0.78926E-03
 -0.12093E-02  0.27137E-02 -0.78926E-03
 -0.19442E-02  0.24609E-02 -0.78926E-03
 -0.25024E-02  0.22358E-02 -0.78926E-03
 -0.26358E-02  0.16503E-02 -0.78926E-03
 -0.27624E-02  0.87885E-03 -0.78926E-03
 -0.21144E-02 -0.21374E-02 -0.78926E-03
 -0.16094E-02 -0.26934E-02 -0.78926E-03
 -0.11956E-02 -0.31291E-02 -0.78926E-03
 -0.59165E-03 -0.30382E-02 -0.78926E-03
  0.20302E-03 -0.28750E-02 -0.78926E-03
  0.10540E-02 -0.26463E-02 -0.78926E-03
  0.18419E-02 -0.23738E-02 -0.78926E-03
  0.24563E-02 -0.21527E-02 -0.78926E-03
  0.26033E-02 -0.15088E-02 -0.78926E-03
  0.37964E-02  0.93572E-03 -0.78926E-03
  0.39100E-02  0.00000E+00 -0.78926E-03
  0.34621E-02  0.18171E-02 -0.78926E-03
  0.29267E-02  0.25928E-02 -0.78926E-03
  0.22211E-02  0.32179E-02 -0.78926E-03
  0.13865E-02  0.36559E-02 -0.78926E-03
  0.47130E-03  0.38815E-02 -0.78926E-03
 -0.47130E-03  0.38815E-02 -0.78926E-03
 -0.13865E-02  0.36559E-02 -0.78926E-03
 -0.22211E-02  0.32179E-02 -0.78926E-03
 -0.29267E-02  0.25928E-02 -0.78926E-03
 -0.34621E-02  0.18171E-02 -0.78926E-03
 -0.37964E-02  0.93572E-03 -0.78926E-03
 -0.39100E-02 -0.47884E-18 -0.78926E-03
 -0.37964E-02 -0.93572E-03 -0.78926E-03
 -0.34621E-02 -0.18171E-02 -0.78926E-03
 -0.29267E-02 -0.25928E-02 -0.78926E-03
 -0.22211E-02 -0.32179E-02 -0.78926E-03
 -0.13865E-02 -0.36559E-02 -0.78926E-03
 -0.47130E-03 -0.38815E-02 -0.78926E-03
  0.47130E-03 -0.38815E-02 -0.78926E-03
  0.13865E-02 -0.36559E-02 -0.78926E-03
  0.22211E-02 -0.32179E-02 -0.78926E-03
  0.29267E-02 -0.25928E-02 -0.78926E-03
  0.34621E-02 -0.18171E-02 -0.78926E-03
  0.37964E-02 -0.93572E-03 -0.78926E-03
  0.10359E-02  0.68179E-03  0.18990E-03
  0.17423E-02  0.12414E-02  0.18990E-03
  0.23157E-02  0.59988E-03  0.18990E-03
  0.16664E-02 -0.32568E-03  0.18990E-03
  0.30373E-02  0.15463E-03  0.18990E-03
  0.27846E-02 -0.66854E-03  0.18990E-03
  0.12834E-02  0.18442E-02  0.18990E-03
  0.64747E-03  0.14736E-02  0.18990E-03
  0.12337E-03  0.31770E-03  0.18990E-03
 -0.13118E-03  0.11952E-02  0.18990E-03
  0.93970E-03  0.22768E-02  0.18990E-03
  0.11272E-02  0.28216E-02  0.18990E-03
  0.17428E-02  0.24261E-02  0.18990E-03
  0.40501E-03  0.21690E-02  0.18990E-03
  0.39752E-03  0.29324E-02  0.18990E-03
 -0.76869E-03 -0.10056E-02  0.18990E-03
 -0.86778E-03  0.91918E-04  0.18990E-03
  0.45402E-03 -0.69156E-03  0.18990E-03
 -0.18347E-02 -0.70971E-03  0.18990E-03
 -0.18425E-02  0.84726E-04  0.18990E-03
 -0.27234E-02 -0.77593E-03  0.18990E-03
 -0.27984E-02  0.45086E-04  0.18990E-03
 -0.25389E-02 -0.15187E-02  0.18990E-03
 -0.19356E-02 -0.13213E-02  0.18990E-03
 -0.99133E-03  0.10102E-02  0.18990E-03
 -0.14436E-02 -0.17318E-02  0.18990E-03
 -0.31254E-03  0.20265E-02  0.18990E-03
 -0.11013E-02  0.18594E-02  0.18990E-03
 -0.18837E-02  0.17175E-02  0.18990E-03
 -0.18692E-02  0.91324E-03  0.18990E-03
 -0.16311E-03 -0.19804E-02  0.18990E-03
 -0.95046E-03 -0.23493E-02  0.18990E-03
  0.77799E-03 -0.17073E-02  0.18990E-03
  0.17204E-02 -0.14933E-02  0.18990E-03
  0.32102E-02  0.77645E-03  0.18990E-03
  0.28042E-02  0.12545E-02  0.18990E-03
  0.23041E-02  0.18671E-02  0.18990E-03
 -0.40393E-03  0.28867E-02  0.18990E-03
 -0.12093E-02  0.27132E-02  0.18990E-03
 -0.19442E-02  0.24606E-02  0.18990E-03
 -0.25024E-02  0.22358E-02  0.18990E-03
 -0.26357E-02  0.16503E-02  0.18990E-03
 -0.27621E-02  0.87912E-03  0.18990E-03
 -0.21146E-02 -0.21374E-02  0.18990E-03
 -0.16094E-02 -0.26935E-02  0.18990E-03
 -0.11957E-02 -0.31291E-02  0.18990E-03
 -0.59200E-03 -0.30381E-02  0.18990E-03
  0.20262E-03 -0.28750E-02  0.18990E-03
  0.10536E-02 -0.26466E-02  0.18990E-03
  0.18420E-02 -0.23740E-02  0.18990E-03
  0.24564E-02 -0.21533E-02  0.18990E-03
  0.26033E-02 -0.15087E-02  0.18990E-03
  0.37964E-02  0.93572E-03  0.18990E-03
  0.39100E-02  0.00000E+00  0.18990E-03
  0.34621E-02  0.18171E-02  0.18990E-03
  0.29267E-02  0.25928E-02  0.18990E-03
  0.22211E-02  0.32179E-02  0.18990E-03
  0.13865E-02  0.36559E-02  0.18990E-03
  0.47130E-03  0.38815E-02  0.18990E-03
 -0.47130E-03  0.38815E-02  0.18990E-03
 -0.13865E-02  0.36559E-02  0.18990E-03
 -0.22211E-02  0.32179E-02  0.18990E-03
 -0.29267E-02  0.25928E-02  0.18990E-03
 -0.34621E-02  0.18171E-02  0.18990E-03
 -0.37964E-02  0.93572E-03  0.18990E-03
 -0.39100E-02 -0.47884E-18  0.18990E-03
 -0.37964E-02 -0.93572E-03  0.18990E-03
 -0.34621E-02 -0.18171E-02  0.18990E-03
 -0.29267E-02 -0.25928E-02  0.18990E-03
 -0.22211E-02 -0.32179E-02  0.18990E-03
 -0.13865E-02 -0.36559E-02  0.18990E-03
 -0.47130E-03 -0.38815E-02  0.18990E-03
  0.47130E-03 -0.38815E-02  0.18990E-03
  0.13865E-02 -0.36559E-02  0.18990E-03
  0.22211E-02 -0.32179E-02  0.18990E-03
  0.29267E-02 -0.25928E-02  0.18990E-03
  0.34621E-02 -0.18171E-02  0.18990E-03
  0.37964E-02 -0.93572E-03  0.18990E-03
  0.10358E-02  0.68235E-03  0.11691E-02
  0.17422E-02  0.12421E-02  0.11691E-02
  0.23156E-02  0.60041E-03  0.11691E-02
  0.16662E-02 -0.32493E-03  0.11691E-02
  0.30373E-02  0.15500E-03  0.11691E-02
  0.27849E-02 -0.66805E-03  0.11691E-02
  0.12833E-02  0.18444E-02  0.11691E-02
  0.64722E-03  0.14747E-02  0.11691E-02
  0.12311E-03  0.31885E-03  0.11691E-02
 -0.13137E-03  0.11970E-02  0.11691E-02
  0.93937E-03  0.22770E-02  0.11691E-02
  0.11269E-02  0.28211E-02  0.11691E-02
  0.17424E-02  0.24262E-02  0.11691E-02
  0.40496E-03  0.21691E-02  0.11691E-02
  0.39750E-03  0.29322E-02  0.11691E-02
 -0.76904E-03 -0.10057E-02  0.11691E-02
 -0.86789E-03  0.92727E-04  0.11691E-02
  0.45358E-03 -0.69084E-03  0.11691E-02
 -0.18350E-02 -0.70957E-03  0.11691E-02
 -0.18424E-02  0.84849E-04  0.11691E-02
 -0.27233E-02 -0.77576E-03  0.11691E-02
 -0.27981E-02  0.45359E-04  0.11691E-02
 -0.25391E-02 -0.15186E-02  0.11691E-02
 -0.19360E-02 -0.13212E-02  0.11691E-02
 -0.99118E-03  0.10115E-02  0.11691E-02
 -0.14440E-02 -0.17318E-02  0.11691E-02
 -0.31234E-03  0.20268E-02  0.11691E-02
 -0.11009E-02  0.18593E-02  0.11691E-02
 -0.18836E-02  0.17175E-02  0.11691E-02
 -0.18691E-02  0.91347E-03  0.11691E-02
 -0.16339E-03 -0.19804E-02  0.11691E-02
 -0.95106E-03 -0.23493E-02  0.11691E-02
  0.77733E-03 -0.17073E-02  0.11691E-02
  0.17204E-02 -0.14936E-02  0.11691E-02
  0.32105E-02  0.77745E-03  0.11691E-02
  0.28042E-02  0.12550E-02  0.11691E-02
  0.23040E-02  0.18671E-02  0.11691E-02
 -0.40379E-03  0.28856E-02  0.11691E-02
 -0.12093E-02  0.27127E-02  0.11691E-02
 -0.19441E-02  0.24604E-02  0.11691E-02
 -0.25023E-02  0.22358E-02  0.11691E-02
 -0.26356E-02  0.16503E-02  0.11691E-02
 -0.27618E-02  0.87938E-03  0.11691E-02
 -0.21147E-02 -0.21374E-02  0.11691E-02
 -0.16094E-02 -0.26935E-02  0.11691E-02
 -0.11958E-02 -0.31291E-02  0.11691E-02
 -0.59235E-03 -0.30381E-02  0.11691E-02
  0.20221E-03 -0.28750E-02  0.11691E-02
  0.10533E-02 -0.26468E-02  0.11691E-02
  0.18420E-02 -0.23742E-02  0.11691E-02
  0.24565E-02 -0.21538E-02  0.11691E-02
  0.26034E-02 -0.15086E-02  0.11691E-02
  0.37964E-02  0.93572E-03  0.11691E-02
  0.39100E-02  0.00000E+00  0.11691E-02
  0.34621E-02  0.18171E-02  0.11691E-02
  0.29267E-02  0.25928E-02  0.11691E-02
  0.22211E-02  0.32179E-02  0.11691E-02
  0.13865E-02  0.36559E-02  0.11691E-02
  0.47130E-03  0.38815E-02  0.11691E-02
 -0.47130E-03  0.38815E-02  0.11691E-02
 -0.13865E-02  0.36559E-02  0.11691E-02
 -0.22211E-02  0.32179E-02  0.11691E-02
 -0.29267E-02  0.25928E-02  0.11691E-02
 -0.34621E-02  0.18171E-02  0.11691E-02
 -0.37964E-02  0.93572E-03  0.11691E-02
 -0.39100E-02 -0.47884E-18  0.11691E-02
 -0.37964E-02 -0.93572E-03  0.11691E-02
 -0.34621E-02 -0.18171E-02  0.11691E-02
 -0.29267E-02 -0.25928E-02  0.11691E-02
 -0.22211E-02 -0.32179E-02  0.11691E-02
 -0.13865E-02 -0.36559E-02  0.11691E-02
 -0.47130E-03 -0.38815E-02  0.11691E-02
  0.47130E-03 -0.38815E-02  0.11691E-02
  0.13865E-02 -0.36559E-02  0.11691E-02
  0.22211E-02 -0.32179E-02  0.11691E-02
  0.29267E-02 -0.25928E-02  0.11691E-02
  0.34621E-02 -0.18171E-02  0.11691E-02
  0.37964E-02 -0.93572E-03  0.11691E-02
  0.10357E-02  0.68290E-03  0.21482E-02
  0.17420E-02  0.12427E-02  0.21482E-02
  0.23155E-02  0.60093E-03  0.21482E-02
  0.16660E-02 -0.32417E-03  0.21482E-02
  0.30372E-02  0.15536E-03  0.21482E-02
  0.27853E-02 -0.66755E-03  0.21482E-02
  0.12832E-02  0.18445E-02  0.21482E-02
  0.64698E-03  0.14757E-02  0.21482E-02
  0.12285E-03  0.32000E-03  0.21482E-02
 -0.13155E-03  0.11987E-02  0.21482E-02
  0.93903E-03  0.22771E-02  0.21482E-02
  0.11266E-02  0.28207E-02  0.21482E-02
  0.17420E-02  0.24264E-02  0.21482E-02
  0.40490E-03  0.21691E-02  0.21482E-02
  0.39749E-03  0.29319E-02  0.21482E-02
 -0.76940E-03 -0.10058E-02  0.21482E-02
 -0.86800E-03  0.93536E-04  0.21482E-02
  0.45313E-03 -0.69011E-03  0.21482E-02
 -0.18353E-02 -0.70943E-03  0.21482E-02
 -0.18423E-02  0.84973E-04  0.21482E-02
 -0.27233E-02 -0.77559E-03  0.21482E-02
 -0.27979E-02  0.45633E-04  0.21482E-02
 -0.25393E-02 -0.15186E-02  0.21482E-02
 -0.19365E-02 -0.13212E-02  0.21482E-02
 -0.99104E-03  0.10129E-02  0.21482E-02
 -0.14443E-02 -0.17318E-02  0.21482E-02
 -0.31214E-03  0.20271E-02  0.21482E-02
 -0.11006E-02  0.18592E-02  0.21482E-02
 -0.18836E-02  0.17175E-02  0.21482E-02
 -0.18690E-02  0.91371E-03  0.21482E-02
 -0.16366E-03 -0.19805E-02  0.21482E-02
 -0.95166E-03 -0.23493E-02  0.21482E-02
  0.77667E-03 -0.17073E-02  0.21482E-02
  0.17203E-02 -0.14938E-02  0.21482E-02
  0.32109E-02  0.77846E-03  0.21482E-02
  0.28042E-02  0.12554E-02  0.21482E-02
  0.23039E-02  0.18672E-02  0.21482E-02
 -0.40365E-03  0.28845E-02  0.21482E-02
 -0.12093E-02  0.27122E-02  0.21482E-02
 -0.19441E-02  0.24602E-02  0.21482E-02
 -0.25023E-02  0.22358E-02  0.21482E-02
 -0.26355E-02  0.16502E-02  0.21482E-02
 -0.27615E-02  0.87964E-03  0.21482E-02
 -0.21148E-02 -0.21374E-02  0.21482E-02
 -0.16095E-02 -0.26935E-02  0.21482E-02
 -0.11960E-02 -0.31291E-02  0.21482E-02
 -0.59270E-03 -0.30381E-02  0.21482E-02
  0.20180E-03 -0.28750E-02  0.21482E-02
  0.10530E-02 -0.26471E-02  0.21482E-02
  0.18421E-02 -0.23744E-02  0.21482E-02
  0.24566E-02 -0.21543E-02  0.21482E-02
  0.26035E-02 -0.15085E-02  0.21482E-02
  0.37964E-02  0.93572E-03  0.21482E-02
  0.39100E-02  0.00000E+00  0.21482E-02
  0.34621E-02  0.18171E-02  0.21482E-02
  0.29267E-02  0.25928E-02  0.21482E-02
  0.22211E-02  0.32179E-02  0.21482E-02
  0.13865E-02  0.36559E-02  0.21482E-02
  0.47130E-03  0.38815E-02  0.21482E-02
 -0.47130E-03  0.38815E-02  0.21482E-02
 -0.13865E-02  0.36559E-02  0.21482E-02
 -0.22211E-02  0.32179E-02  0.21482E-02
 -0.29267E-02  0.25928E-02  0.21482E-02
 -0.34621E-02  0.18171E-02  0.21482E-02
 -0.37964E-02  0.93572E-03  0.21482E-02
 -0.39100E-02 -0.47884E-18  0.21482E-02
 -0.37964E-02 -0.93572E-03  0.21482E-02
 -0.34621E-02 -0.18171E-02  0.21482E-02
 -0.29267E-02 -0.25928E-02  0.21482E-02
 -0.22211E-02 -0.32179E-02  0.21482E-02
 -0.13865E-02 -0.36559E-02  0.21482E-02
 -0.47130E-03 -0.38815E-02  0.21482E-02
  0.47130E-03 -0.38815E-02  0.21482E-02
  0.13865E-02 -0.36559E-02  0.21482E-02
  0.22211E-02 -0.32179E-02  0.21482E-02
  0.29267E-02 -0.25928E-02  0.21482E-02
  0.34621E-02 -0.18171E-02  0.21482E-02
  0.37964E-02 -0.93572E-03  0.21482E-02
  0.10356E-02  0.68346E-03  0.31274E-02
  0.17418E-02  0.12434E-02  0.31274E-02
  0.23153E-02  0.60145E-03  0.31274E-02
  0.16657E-02 -0.32342E-03  0.31274E-02
  0.30372E-02  0.15572E-03  0.31274E-02
  0.27856E-02 -0.66706E-03  0.31274E-02
  0.12830E-02  0.18447E-02  0.31274E-02
  0.64673E-03  0.14767E-02  0.31274E-02
  0.12259E-03  0.32115E-03  0.31274E-02
 -0.13174E-03  0.12005E-02  0.31274E-02
  0.93870E-03  0.22772E-02  0.31274E-02
  0.11262E-02  0.28203E-02  0.31274E-02
  0.17416E-02  0.24265E-02  0.31274E-02
  0.40485E-03  0.21691E-02  0.31274E-02
  0.39747E-03  0.29316E-02  0.31274E-02
 -0.76975E-03 -0.10060E-02  0.31274E-02
 -0.86811E-03  0.94345E-04  0.31274E-02
  0.45268E-03 -0.68939E-03  0.31274E-02
 -0.18356E-02 -0.70929E-03  0.31274E-02
 -0.18422E-02  0.85096E-04  0.31274E-02
 -0.27233E-02 -0.77542E-03  0.31274E-02
 -0.27976E-02  0.45906E-04  0.31274E-02
 -0.25394E-02 -0.15185E-02  0.31274E-02
 -0.19369E-02 -0.13211E-02  0.31274E-02
 -0.99090E-03  0.10142E-02  0.31274E-02
 -0.14446E-02 -0.17317E-02  0.31274E-02
 -0.31194E-03  0.20274E-02  0.31274E-02
 -0.11002E-02  0.18590E-02  0.31274E-02
 -0.18835E-02  0.17175E-02  0.31274E-02
 -0.18689E-02  0.91395E-03  0.31274E-02
 -0.16394E-03 -0.19805E-02  0.31274E-02
 -0.95226E-03 -0.23494E-02  0.31274E-02
  0.77601E-03 -0.17073E-02  0.31274E-02
  0.17203E-02 -0.14941E-02  0.31274E-02
  0.32112E-02  0.77946E-03  0.31274E-02
  0.28042E-02  0.12558E-02  0.31274E-02
  0.23038E-02  0.18672E-02  0.31274E-02
 -0.40352E-03  0.28835E-02  0.31274E-02
 -0.12093E-02  0.27118E-02  0.31274E-02
 -0.19441E-02  0.24600E-02  0.31274E-02
 -0.25023E-02  0.22358E-02  0.31274E-02
 -0.26354E-02  0.16502E-02  0.31274E-02
 -0.27612E-02  0.87990E-03  0.31274E-02
 -0.21150E-02 -0.21374E-02  0.31274E-02
 -0.16095E-02 -0.26935E-02  0.31274E-02
 -0.11961E-02 -0.31291E-02  0.31274E-02
 -0.59305E-03 -0.30381E-02  0.31274E-02
  0.20140E-03 -0.28750E-02  0.31274E-02
  0.10527E-02 -0.26474E-02  0.31274E-02
  0.18421E-02 -0.23746E-02  0.31274E-02
  0.24568E-02 -0.21549E-02  0.31274E-02
  0.26036E-02 -0.15084E-02  0.31274E-02
  0.37964E-02  0.93572E-03  0.31274E-02
  0.39100E-02  0.00000E+00  0.31274E-02
  0.34621E-02  0.18171E-02  0.31274E-02
  0.29267E-02  0.25928E-02  0.31274E-02
  0.22211E-02  0.32179E-02  0.31274E-02
  0.13865E-02  0.36559E-02  0.31274E-02
  0.47130E-03  0.38815E-02  0.31274E-02
 -0.47130E-03  0.38815E-02  0.31274E-02
 -0.13865E-02  0.36559E-02  0.31274E-02
 -0.22211E-02  0.32179E-02  0.31274E-02
 -0.29267E-02  0.25928E-02  0.31274E-02
 -0.34621E-02  0.18171E-02  0.31274E-02
 -0.37964E-02  0.93572E-03  0.31274E-02
 -0.39100E-02  0.22152E-17  0.31274E-02
 -0.37964E-02 -0.93572E-03  0.31274E-02
 -0.34621E-02 -0.18171E-02  0.31274E-02
 -0.29267E-02 -0.25928E-02  0.31274E-02
 -0.22211E-02 -0.32179E-02  0.31274E-02
 -0.13865E-02 -0.36559E-02  0.31274E-02
 -0.47130E-03 -0.38815E-02  0.31274E-02
  0.47130E-03 -0.38815E-02  0.31274E-02
  0.13865E-02 -0.36559E-02  0.31274E-02
  0.22211E-02 -0.32179E-02  0.31274E-02
  0.29267E-02 -0.25928E-02  0.31274E-02
  0.34621E-02 -0.18171E-02  0.31274E-02
  0.37964E-02 -0.93572E-03  0.31274E-02
  0.10355E-02  0.68401E-03  0.41066E-02
  0.17416E-02  0.12440E-02  0.41066E-02
  0.23152E-02  0.60198E-03  0.41066E-02
  0.16655E-02 -0.32266E-03  0.41066E-02
  0.30372E-02  0.15609E-03  0.41066E-02
  0.27860E-02 -0.66657E-03  0.41066E-02
  0.12829E-02  0.18449E-02  0.41066E-02
  0.64649E-03  0.14777E-02  0.41066E-02
  0.12232E-03  0.32230E-03  0.41066E-02
 -0.13193E-03  0.12022E-02  0.41066E-02
  0.93837E-03  0.22774E-02  0.41066E-02
  0.11259E-02  0.28198E-02  0.41066E-02
  0.17412E-02  0.24267E-02  0.41066E-02
  0.40480E-03  0.21692E-02  0.41066E-02
  0.39745E-03  0.29314E-02  0.41066E-02
 -0.77011E-03 -0.10061E-02  0.41066E-02
 -0.86822E-03  0.95155E-04  0.41066E-02
  0.45223E-03 -0.68866E-03  0.41066E-02
 -0.18359E-02 -0.70915E-03  0.41066E-02
 -0.18421E-02  0.85220E-04  0.41066E-02
 -0.27232E-02 -0.77525E-03  0.41066E-02
 -0.27973E-02  0.46180E-04  0.41066E-02
 -0.25396E-02 -0.15185E-02  0.41066E-02
 -0.19373E-02 -0.13210E-02  0.41066E-02
 -0.99075E-03  0.10156E-02  0.41066E-02
 -0.14450E-02 -0.17317E-02  0.41066E-02
 -0.31173E-03  0.20277E-02  0.41066E-02
 -0.10999E-02  0.18589E-02  0.41066E-02
 -0.18835E-02  0.17175E-02  0.41066E-02
 -0.18687E-02  0.91419E-03  0.41066E-02
 -0.16421E-03 -0.19805E-02  0.41066E-02
 -0.95285E-03 -0.23494E-02  0.41066E-02
  0.77535E-03 -0.17073E-02  0.41066E-02
  0.17202E-02 -0.14943E-02  0.41066E-02
  0.32115E-02  0.78047E-03  0.41066E-02
  0.28041E-02  0.12563E-02  0.41066E-02
  0.23037E-02  0.18672E-02  0.41066E-02
 -0.40338E-03  0.28824E-02  0.41066E-02
 -0.12093E-02  0.27113E-02  0.41066E-02
 -0.19440E-02  0.24597E-02  0.41066E-02
 -0.25023E-02  0.22358E-02  0.41066E-02
 -0.26353E-02  0.16502E-02  0.41066E-02
 -0.27609E-02  0.88016E-03  0.41066E-02
 -0.21151E-02 -0.21374E-02  0.41066E-02
 -0.16096E-02 -0.26935E-02  0.41066E-02
 -0.11962E-02 -0.31291E-02  0.41066E-02
 -0.59340E-03 -0.30381E-02  0.41066E-02
  0.20099E-03 -0.28751E-02  0.41066E-02
  0.10524E-02 -0.26476E-02  0.41066E-02
  0.18422E-02 -0.23748E-02  0.41066E-02
  0.24569E-02 -0.21554E-02  0.41066E-02
  0.26036E-02 -0.15083E-02  0.41066E-02
  0.37964E-02  0.93572E-03  0.41066E-02
  0.39100E-02  0.00000E+00  0.41066E-02
  0.34621E-02  0.18171E-02  0.41066E-02
  0.29267E-02  0.25928E-02  0.41066E-02
  0.22211E-02  0.32179E-02  0.41066E-02
  0.13865E-02  0.36559E-02  0.41066E-02
  0.47130E-03  0.38815E-02  0.41066E-02
 -0.47130E-03  0.38815E-02  0.41066E-02
 -0.13865E-02  0.36559E-02  0.41066E-02
 -0.22211E-02  0.32179E-02  0.41066E-02
 -0.29267E-02  0.25928E-02  0.41066E-02
 -0.34621E-02  0.18171E-02  0.41066E-02
 -0.37964E-02  0.93572E-03  0.41066E-02
 -0.39100E-02 -0.47884E-18  0.41066E-02
 -0.37964E-02 -0.93572E-03  0.41066E-02
 -0.34621E-02 -0.18171E-02  0.41066E-02
 -0.29267E-02 -0.25928E-02  0.41066E-02
 -0.22211E-02 -0.32179E-02  0.41066E-02
 -0.13865E-02 -0.36559E-02  0.41066E-02
 -0.47130E-03 -0.38815E-02  0.41066E-02
  0.47130E-03 -0.38815E-02  0.41066E-02
  0.13865E-02 -0.36559E-02  0.41066E-02
  0.22211E-02 -0.32179E-02  0.41066E-02
  0.29267E-02 -0.25928E-02  0.41066E-02
  0.34621E-02 -0.18171E-02  0.41066E-02
  0.37964E-02 -0.93572E-03  0.41066E-02
  0.10354E-02  0.68457E-03  0.50857E-02
  0.17414E-02  0.12447E-02  0.50857E-02
  0.23151E-02  0.60250E-03  0.50857E-02
  0.16653E-02 -0.32191E-03  0.50857E-02
  0.30372E-02  0.15645E-03  0.50857E-02
  0.27863E-02 -0.66607E-03  0.50857E-02
  0.12829E-02  0.18451E-02  0.50857E-02
  0.64624E-03  0.14787E-02  0.50857E-02
  0.12206E-03  0.32345E-03  0.50857E-02
 -0.13211E-03  0.12040E-02  0.50857E-02
  0.93804E-03  0.22775E-02  0.50857E-02
  0.11255E-02  0.28194E-02  0.50857E-02
  0.17408E-02  0.24268E-02  0.50857E-02
  0.40474E-03  0.21692E-02  0.50857E-02
  0.39744E-03  0.29311E-02  0.50857E-02
 -0.77046E-03 -0.10062E-02  0.50857E-02
 -0.86832E-03  0.95964E-04  0.50857E-02
  0.45179E-03 -0.68793E-03  0.50857E-02
 -0.18362E-02 -0.70901E-03  0.50857E-02
 -0.18420E-02  0.85343E-04  0.50857E-02
 -0.27232E-02 -0.77507E-03  0.50857E-02
 -0.27970E-02  0.46453E-04  0.50857E-02
 -0.25397E-02 -0.15184E-02  0.50857E-02
 -0.19377E-02 -0.13209E-02  0.50857E-02
 -0.99061E-03  0.10169E-02  0.50857E-02
 -0.14453E-02 -0.17316E-02  0.50857E-02
 -0.31153E-03  0.20280E-02  0.50857E-02
 -0.10995E-02  0.18588E-02  0.50857E-02
 -0.18834E-02  0.17175E-02  0.50857E-02
 -0.18686E-02  0.91443E-03  0.50857E-02
 -0.16449E-03 -0.19806E-02  0.50857E-02
 -0.95345E-03 -0.23494E-02  0.50857E-02
  0.77469E-03 -0.17073E-02  0.50857E-02
  0.17202E-02 -0.14945E-02  0.50857E-02
  0.32119E-02  0.78148E-03  0.50857E-02
  0.28041E-02  0.12567E-02  0.50857E-02
  0.23036E-02  0.18673E-02  0.50857E-02
 -0.40324E-03  0.28813E-02  0.50857E-02
 -0.12093E-02  0.27108E-02  0.50857E-02
 -0.19440E-02  0.24595E-02  0.50857E-02
 -0.25022E-02  0.22358E-02  0.50857E-02
 -0.26352E-02  0.16502E-02  0.50857E-02
 -0.27606E-02  0.88043E-03  0.50857E-02
 -0.21152E-02 -0.21374E-02  0.50857E-02
 -0.16096E-02 -0.26936E-02  0.50857E-02
 -0.11963E-02 -0.31291E-02  0.50857E-02
 -0.59375E-03 -0.30381E-02  0.50857E-02
  0.20059E-03 -0.28751E-02  0.50857E-02
  0.10521E-02 -0.26479E-02  0.50857E-02
  0.18422E-02 -0.23750E-02  0.50857E-02
  0.24570E-02 -0.21560E-02  0.50857E-02
  0.26037E-02 -0.15082E-02  0.50857E-02
  0.37964E-02  0.93572E-03  0.50857E-02
  0.39100E-02  0.00000E+00  0.50857E-02
  0.34621E-02  0.18171E-02  0.50857E-02
  0.29267E-02  0.25928E-02  0.50857E-02
  0.22211E-02  0.32179E-02  0.50857E-02
  0.13865E-02  0.36559E-02  0.50857E-02
  0.47130E-03  0.38815E-02  0.50857E-02
 -0.47130E-03  0.38815E-02  0.50857E-02
 -0.13865E-02  0.36559E-02  0.50857E-02
 -0.22211E-02  0.32179E-02  0.50857E-02
 -0.29267E-02  0.25928E-02  0.50857E-02
 -0.34621E-02  0.18171E-02  0.50857E-02
 -0.37964E-02  0.93572E-03  0.50857E-02
 -0.39100E-02 -0.47884E-18  0.50857E-02
 -0.37964E-02 -0.93572E-03  0.50857E-02
 -0.34621E-02 -0.18171E-02  0.50857E-02
 -0.29267E-02 -0.25928E-02  0.50857E-02
 -0.22211E-02 -0.32179E-02  0.50857E-02
 -0.13865E-02 -0.36559E-02  0.50857E-02
 -0.47130E-03 -0.38815E-02  0.50857E-02
  0.47130E-03 -0.38815E-02  0.50857E-02
  0.13865E-02 -0.36559E-02  0.50857E-02
  0.22211E-02 -0.32179E-02  0.50857E-02
  0.29267E-02 -0.25928E-02  0.50857E-02
  0.34621E-02 -0.18171E-02  0.50857E-02
  0.37964E-02 -0.93572E-03  0.50857E-02
  0.10352E-02  0.68512E-03  0.60649E-02
  0.17413E-02  0.12454E-02  0.60649E-02
  0.23150E-02  0.60302E-03  0.60649E-02
  0.16651E-02 -0.32115E-03  0.60649E-02
  0.30371E-02  0.15681E-03  0.60649E-02
  0.27866E-02 -0.66558E-03  0.60649E-02
  0.12827E-02  0.18453E-02  0.60649E-02
  0.64600E-03  0.14797E-02  0.60649E-02
  0.12180E-03  0.32459E-03  0.60649E-02
 -0.13230E-03  0.12058E-02  0.60649E-02
  0.93771E-03  0.22776E-02  0.60649E-02
  0.11252E-02  0.28189E-02  0.60649E-02
  0.17404E-02  0.24270E-02  0.60649E-02
  0.40469E-03  0.21693E-02  0.60649E-02
  0.39742E-03  0.29308E-02  0.60649E-02
 -0.77081E-03 -0.10064E-02  0.60649E-02
 -0.86843E-03  0.96773E-04  0.60649E-02
  0.45134E-03 -0.68721E-03  0.60649E-02
 -0.18365E-02 -0.70887E-03  0.60649E-02
 -0.18419E-02  0.85467E-04  0.60649E-02
 -0.27232E-02 -0.77490E-03  0.60649E-02
 -0.27968E-02  0.46726E-04  0.60649E-02
 -0.25399E-02 -0.15184E-02  0.60649E-02
 -0.19382E-02 -0.13208E-02  0.60649E-02
 -0.99046E-03  0.10183E-02  0.60649E-02
 -0.14457E-02 -0.17316E-02  0.60649E-02
 -0.31133E-03  0.20283E-02  0.60649E-02
 -0.10992E-02  0.18586E-02  0.60649E-02
 -0.18834E-02  0.17175E-02  0.60649E-02
 -0.18685E-02  0.91467E-03  0.60649E-02
 -0.16476E-03 -0.19806E-02  0.60649E-02
 -0.95405E-03 -0.23494E-02  0.60649E-02
  0.77402E-03 -0.17073E-02  0.60649E-02
  0.17202E-02 -0.14948E-02  0.60649E-02
  0.32122E-02  0.78248E-03  0.60649E-02
  0.28041E-02  0.12571E-02  0.60649E-02
  0.23034E-02  0.18673E-02  0.60649E-02
 -0.40310E-03  0.28802E-02  0.60649E-02
 -0.12093E-02  0.27103E-02  0.60649E-02
 -0.19440E-02  0.24593E-02  0.60649E-02
 -0.25022E-02  0.22358E-02  0.60649E-02
 -0.26351E-02  0.16502E-02  0.60649E-02
 -0.27602E-02  0.88069E-03  0.60649E-02
 -0.21154E-02 -0.21374E-02  0.60649E-02
 -0.16097E-02 -0.26936E-02  0.60649E-02
 -0.11964E-02 -0.31291E-02  0.60649E-02
 -0.59409E-03 -0.30381E-02  0.60649E-02
  0.20018E-03 -0.28751E-02  0.60649E-02
  0.10518E-02 -0.26482E-02  0.60649E-02
  0.18422E-02 -0.23752E-02  0.60649E-02
  0.24571E-02 -0.21565E-02  0.60649E-02
  0.26038E-02 -0.15081E-02  0.60649E-02
  0.37964E-02  0.93572E-03  0.60649E-02
  0.39100E-02  0.00000E+00  0.60649E-02
  0.34621E-02  0.18171E-02  0.60649E-02
  0.29267E-02  0.25928E-02  0.60649E-02
  0.22211E-02  0.32179E-02  0.60649E-02
  0.13865E-02  0.36559E-02  0.60649E-02
  0.47130E-03  0.38815E-02  0.60649E-02
 -0.47130E-03  0.38815E-02  0.60649E-02
 -0.13865E-02  0.36559E-02  0.60649E-02
 -0.22211E-02  0.32179E-02  0.60649E-02
 -0.29267E-02  0.25928E-02  0.60649E-02
 -0.34621E-02  0.18171E-02  0.60649E-02
 -0.37964E-02  0.93572E-03  0.60649E-02
 -0.39100E-02 -0.47884E-18  0.60649E-02
 -0.37964E-02 -0.93572E-03  0.60649E-02
 -0.34621E-02 -0.18171E-02  0.60649E-02
 -0.29267E-02 -0.25928E-02  0.60649E-02
 -0.22211E-02 -0.32179E-02  0.60649E-02
 -0.13865E-02 -0.36559E-02  0.60649E-02
 -0.47130E-03 -0.38815E-02  0.60649E-02
  0.47130E-03 -0.38815E-02  0.60649E-02
  0.13865E-02 -0.36559E-02  0.60649E-02
  0.22211E-02 -0.32179E-02  0.60649E-02
  0.29267E-02 -0.25928E-02  0.60649E-02
  0.34621E-02 -0.18171E-02  0.60649E-02
  0.37964E-02 -0.93572E-03  0.60649E-02
  0.10351E-02  0.68567E-03  0.70441E-02
  0.17411E-02  0.12460E-02  0.70441E-02
  0.23149E-02  0.60355E-03  0.70441E-02
  0.16649E-02 -0.32040E-03  0.70441E-02
  0.30371E-02  0.15718E-03  0.70441E-02
  0.27870E-02 -0.66509E-03  0.70441E-02
  0.12826E-02  0.18455E-02  0.70441E-02
  0.64575E-03  0.14807E-02  0.70441E-02
  0.12154E-03  0.32574E-03  0.70441E-02
 -0.13248E-03  0.12075E-02  0.70441E-02
  0.93738E-03  0.22777E-02  0.70441E-02
  0.11249E-02  0.28185E-02  0.70441E-02
  0.17400E-02  0.24271E-02  0.70441E-02
  0.40463E-03  0.21693E-02  0.70441E-02
  0.39740E-03  0.29306E-02  0.70441E-02
 -0.77117E-03 -0.10065E-02  0.70441E-02
 -0.86854E-03  0.97583E-04  0.70441E-02
  0.45089E-03 -0.68648E-03  0.70441E-02
 -0.18368E-02 -0.70873E-03  0.70441E-02
 -0.18418E-02  0.85591E-04  0.70441E-02
 -0.27232E-02 -0.77474E-03  0.70441E-02
 -0.27965E-02  0.47000E-04  0.70441E-02
 -0.25400E-02 -0.15183E-02  0.70441E-02
 -0.19386E-02 -0.13207E-02  0.70441E-02
 -0.99032E-03  0.10197E-02  0.70441E-02
 -0.14460E-02 -0.17316E-02  0.70441E-02
 -0.31113E-03  0.20285E-02  0.70441E-02
 -0.10988E-02  0.18585E-02  0.70441E-02
 -0.18833E-02  0.17175E-02  0.70441E-02
 -0.18683E-02  0.91491E-03  0.70441E-02
 -0.16504E-03 -0.19806E-02  0.70441E-02
 -0.95465E-03 -0.23495E-02  0.70441E-02
  0.77336E-03 -0.17073E-02  0.70441E-02
  0.17201E-02 -0.14950E-02  0.70441E-02
  0.32125E-02  0.78348E-03  0.70441E-02
  0.28041E-02  0.12576E-02  0.70441E-02
  0.23033E-02  0.18674E-02  0.70441E-02
 -0.40296E-03  0.28792E-02  0.70441E-02
 -0.12093E-02  0.27099E-02  0.70441E-02
 -0.19439E-02  0.24591E-02  0.70441E-02
 -0.25022E-02  0.22358E-02  0.70441E-02
 -0.26350E-02  0.16502E-02  0.70441E-02
 -0.27599E-02  0.88095E-03  0.70441E-02
 -0.21155E-02 -0.21374E-02  0.70441E-02
 -0.16097E-02 -0.26936E-02  0.70441E-02
 -0.11965E-02 -0.31290E-02  0.70441E-02
 -0.59444E-03 -0.30381E-02  0.70441E-02
  0.19977E-03 -0.28751E-02  0.70441E-02
  0.10515E-02 -0.26484E-02  0.70441E-02
  0.18423E-02 -0.23754E-02  0.70441E-02
  0.24573E-02 -0.21571E-02  0.70441E-02
  0.26039E-02 -0.15080E-02  0.70441E-02
  0.37964E-02  0.93572E-03  0.70441E-02
  0.39100E-02  0.00000E+00  0.70441E-02
  0.34621E-02  0.18171E-02  0.70441E-02
  0.29267E-02  0.25928E-02  0.70441E-02
  0.22211E-02  0.32179E-02  0.70441E-02
  0.13865E-02  0.36559E-02  0.70441E-02
  0.47130E-03  0.38815E-02  0.70441E-02
 -0.47130E-03  0.38815E-02  0.70441E-02
 -0.13865E-02  0.36559E-02  0.70441E-02
 -0.22211E-02  0.32179E-02  0.70441E-02
 -0.29267E-02  0.25928E-02  0.70441E-02
 -0.34621E-02  0.18171E-02  0.70441E-02
 -0.37964E-02  0.93572E-03  0.70441E-02
 -0.39100E-02  0.47884E-18  0.70441E-02
 -0.37964E-02 -0.93572E-03  0.70441E-02
 -0.34621E-02 -0.18171E-02  0.70441E-02
 -0.29267E-02 -0.25928E-02  0.70441E-02
 -0.22211E-02 -0.32179E-02  0.70441E-02
 -0.13865E-02 -0.36559E-02  0.70441E-02
 -0.47130E-03 -0.38815E-02  0.70441E-02
  0.47130E-03 -0.38815E-02  0.70441E-02
  0.13865E-02 -0.36559E-02  0.70441E-02
  0.22211E-02 -0.32179E-02  0.70441E-02
  0.29267E-02 -0.25928E-02  0.70441E-02
  0.34621E-02 -0.18171E-02  0.70441E-02
  0.37964E-02 -0.93572E-03  0.70441E-02
  
CELLS       3486               17724
       1       0
       1       1
       1       2
       1       3
       1       4
       1       5
       1       6
       1       7
       1       8
       1       9
       1      10
       1      11
       1      12
       1      13
       1      14
       1      15
       1      16
       1      17
       1      18
       1      19
       1      20
       1      21
       1      22
       1      23
       1      24
       1      25
       1      26
       1      27
       1      28
       1      29
       1      30
       1      31
       1      32
       1      33
       1      34
       1      35
       1      36
       1      37
       1      38
       1      39
       1      40
       1      41
       1      42
       1      43
       1      44
       1      45
       1      46
       1      47
       1      48
       1      49
       1      50
       1      51
       1      52
       1      53
       1      54
       1      55
       1      56
       1      57
       1      58
       1      59
       1      60
       1      61
       1      62
       1      63
       1      64
       1      65
       1      66
       1      67
       1      68
       1      69
       1      70
       1      71
       1      72
       1      73
       1      74
       1      75
       1      76
       1      77
       1      78
       1      79
       1      80
       1      81
       1      82
       1      83
       1      84
       1      85
       1      86
       1      87
       1      88
       1      89
       1      90
       1      91
       1      92
       1      93
       1      94
       1      95
       1      96
       1      97
       1      98
       1      99
       1     100
       1     101
       1     102
       1     103
       1     104
       1     105
       1     106
       1     107
       1     108
       1     109
       1     110
       1     111
       1     112
       1     113
       1     114
       1     115
       1     116
       1     117
       1     118
       1     119
       1     120
       1     121
       1     122
       1     123
       1     124
       1     125
       1     126
       1     127
       1     128
       1     129
       1     130
       1     131
       1     132
       1     133
       1     134
       1     135
       1     136
       1     137
       1     138
       1     139
       1     140
       1     141
       1     142
       1     143
       1     144
       1     145
       1     146
       1     147
       1     148
       1     149
       1     150
       1     151
       1     152
       1     153
       1     154
       1     155
       1     156
       1     157
       1     158
       1     159
       1     160
       1     161
       1     162
       1     163
       1     164
       1     165
       1     166
       1     167
       1     168
       1     169
       1     170
       1     171
       1     172
       1     173
       1     174
       1     175
       1     176
       1     177
       1     178
       1     179
       1     180
       1     181
       1     182
       1     183
       1     184
       1     185
       1     186
       1     187
       1     188
       1     189
       1     190
       1     191
       1     192
       1     193
       1     194
       1     195
       1     196
       1     197
       1     198
       1     199
       1     200
       1     201
       1     202
       1     203
       1     204
       1     205
       1     206
       1     207
       1     208
       1     209
       1     210
       1     211
       1     212
       1     213
       1     214
       1     215
       1     216
       1     217
       1     218
       1     219
       1     220
       1     221
       1     222
       1     223
       1     224
       1     225
       1     226
       1     227
       1     228
       1     229
       1     230
       1     231
       1     232
       1     233
       1     234
       1     235
       1     236
       1     237
       1     238
       1     239
       1     240
       1     241
       1     242
       1     243
       1     244
       1     245
       1     246
       1     247
       1     248
       1     249
       1     250
       1     251
       1     252
       1     253
       1     254
       1     255
       1     256
       1     257
       1     258
       1     259
       1     260
       1     261
       1     262
       1     263
       1     264
       1     265
       1     266
       1     267
       1     268
       1     269
       1     270
       1     271
       1     272
       1     273
       1     274
       1     275
       1     276
       1     277
       1     278
       1     279
       1     280
       1     281
       1     282
       1     283
       1     284
       1     285
       1     286
       1     287
       1     288
       1     289
       1     290
       1     291
       1     292
       1     293
       1     294
       1     295
       1     296
       1     297
       1     298
       1     299
       1     300
       1     301
       1     302
       1     303
       1     304
       1     305
       1     306
       1     307
       1     308
       1     309
       1     310
       1     311
       1     312
       1     313
       1     314
       1     315
       1     316
       1     317
       1     318
       1     319
       1     320
       1     321
       1     322
       1     323
       1     324
       1     325
       1     326
       1     327
       1     328
       1     329
       1     330
       1     331
       1     332
       1     333
       1     334
       1     335
       1     336
       1     337
       1     338
       1     339
       1     340
       1     341
       1     342
       1     343
       1     344
       1     345
       1     346
       1     347
       1     348
       1     349
       1     350
       1     351
       1     352
       1     353
       1     354
       1     355
       1     356
       1     357
       1     358
       1     359
       1     360
       1     361
       1     362
       1     363
       1     364
       1     365
       1     366
       1     367
       1     368
       1     369
       1     370
       1     371
       1     372
       1     373
       1     374
       1     375
       1     376
       1     377
       1     378
       1     379
       1     380
       1     381
       1     382
       1     383
       1     384
       1     385
       1     386
       1     387
       1     388
       1     389
       1     390
       1     391
       1     392
       1     393
       1     394
       1     395
       1     396
       1     397
       1     398
       1     399
       1     400
       1     401
       1     402
       1     403
       1     404
       1     405
       1     406
       1     407
       1     408
       1     409
       1     410
       1     411
       1     412
       1     413
       1     414
       1     415
       1     416
       1     417
       1     418
       1     419
       1     420
       1     421
       1     422
       1     423
       1     424
       1     425
       1     426
       1     427
       1     428
       1     429
       1     430
       1     431
       1     432
       1     433
       1     434
       1     435
       1     436
       1     437
       1     438
       1     439
       1     440
       1     441
       1     442
       1     443
       1     444
       1     445
       1     446
       1     447
       1     448
       1     449
       1     450
       1     451
       1     452
       1     453
       1     454
       1     455
       1     456
       1     457
       1     458
       1     459
       1     460
       1     461
       1     462
       1     463
       1     464
       1     465
       1     466
       1     467
       1     468
       1     469
       1     470
       1     471
       1     472
       1     473
       1     474
       1     475
       1     476
       1     477
       1     478
       1     479
       1     480
       1     481
       1     482
       1     483
       1     484
       1     485
       1     486
       1     487
       1     488
       1     489
       1     490
       1     491
       1     492
       1     493
       1     494
       1     495
       1     496
       1     497
       1     498
       1     499
       1     500
       1     501
       1     502
       1     503
       1     504
       1     505
       1     506
       1     507
       1     508
       1     509
       1     510
       1     511
       1     512
       1     513
       1     514
       1     515
       1     516
       1     517
       1     518
       1     519
       1     520
       1     521
       1     522
       1     523
       1     524
       1     525
       1     526
       1     527
       1     528
       1     529
       1     530
       1     531
       1     532
       1     533
       1     534
       1     535
       1     536
       1     537
       1     538
       1     539
       1     540
       1     541
       1     542
       1     543
       1     544
       1     545
       1     546
       1     547
       1     548
       1     549
       1     550
       1     551
       1     552
       1     553
       1     554
       1     555
       1     556
       1     557
       1     558
       1     559
       1     560
       1     561
       1     562
       1     563
       1     564
       1     565
       1     566
       1     567
       1     568
       1     569
       1     570
       1     571
       1     572
       1     573
       1     574
       1     575
       1     576
       1     577
       1     578
       1     579
       1     580
       1     581
       1     582
       1     583
       1     584
       1     585
       1     586
       1     587
       1     588
       1     589
       1     590
       1     591
       1     592
       1     593
       1     594
       1     595
       1     596
       1     597
       1     598
       1     599
       1     600
       1     601
       1     602
       1     603
       1     604
       1     605
       1     606
       1     607
       1     608
       1     609
       1     610
       1     611
       1     612
       1     613
       1     614
       1     615
       1     616
       1     617
       1     618
       1     619
       1     620
       1     621
       1     622
       1     623
       1     624
       1     625
       1     626
       1     627
       1     628
       1     629
       1     630
       1     631
       1     632
       1     633
       1     634
       1     635
       1     636
       1     637
       1     638
       1     639
       1     640
       1     641
       1     642
       1     643
       1     644
       1     645
       1     646
       1     647
       1     648
       1     649
       1     650
       1     651
       1     652
       1     653
       1     654
       1     655
       1     656
       1     657
       1     658
       1     659
       1     660
       1     661
       1     662
       1     663
       1     664
       1     665
       1     666
       1     667
       1     668
       1     669
       1     670
       1     671
       1     672
       1     673
       1     674
       1     675
       1     676
       1     677
       1     678
       1     679
       1     680
       1     681
       1     682
       1     683
       1     684
       1     685
       1     686
       1     687
       1     688
       1     689
       1     690
       1     691
       1     692
       1     693
       1     694
       1     695
       1     696
       1     697
       1     698
       1     699
       1     700
       1     701
       1     702
       1     703
       1     704
       1     705
       1     706
       1     707
       1     708
       1     709
       1     710
       1     711
       1     712
       1     713
       1     714
       1     715
       1     716
       1     717
       1     718
       1     719
       1     720
       1     721
       1     722
       1     723
       1     724
       1     725
       1     726
       1     727
       1     728
       1     729
       1     730
       1     731
       1     732
       1     733
       1     734
       1     735
       1     736
       1     737
       1     738
       1     739
       1     740
       1     741
       1     742
       1     743
       1     744
       1     745
       1     746
       1     747
       1     748
       1     749
       1     750
       1     751
       1     752
       1     753
       1     754
       1     755
       1     756
       1     757
       1     758
       1     759
       1     760
       1     761
       1     762
       1     763
       1     764
       1     765
       1     766
       1     767
       1     768
       1     769
       1     770
       1     771
       1     772
       1     773
       1     774
       1     775
       1     776
       1     777
       1     778
       1     779
       1     780
       1     781
       1     782
       1     783
       1     784
       1     785
       1     786
       1     787
       1     788
       1     789
       1     790
       1     791
       1     792
       1     793
       1     794
       1     795
       1     796
       1     797
       1     798
       1     799
       1     800
       1     801
       1     802
       1     803
       1     804
       1     805
       1     806
       1     807
       1     808
       1     809
       1     810
       1     811
       1     812
       1     813
       1     814
       1     815
       1     816
       1     817
       1     818
       1     819
       1     820
       1     821
       1     822
       1     823
       1     824
       1     825
       1     826
       1     827
       1     828
       1     829
       1     830
       1     831
       1     832
       1     833
       1     834
       1     835
       1     836
       1     837
       1     838
       1     839
       1     840
       1     841
       1     842
       1     843
       1     844
       1     845
       1     846
       1     847
       1     848
       1     849
       1     850
       1     851
       1     852
       1     853
       1     854
       1     855
       1     856
       1     857
       1     858
       1     859
       1     860
       1     861
       1     862
       1     863
       1     864
       1     865
       1     866
       1     867
       1     868
       1     869
       1     870
       1     871
       1     872
       1     873
       1     874
       1     875
       1     876
       1     877
       1     878
       1     879
       1     880
       1     881
       1     882
       1     883
       1     884
       1     885
       1     886
       1     887
       1     888
       1     889
       1     890
       1     891
       1     892
       1     893
       1     894
       1     895
       1     896
       1     897
       1     898
       1     899
       1     900
       1     901
       1     902
       1     903
       1     904
       1     905
       1     906
       1     907
       1     908
       1     909
       1     910
       1     911
       1     912
       1     913
       1     914
       1     915
       1     916
       1     917
       1     918
       1     919
       1     920
       1     921
       1     922
       1     923
       1     924
       1     925
       1     926
       1     927
       1     928
       1     929
       1     930
       1     931
       1     932
       1     933
       1     934
       1     935
       1     936
       1     937
       1     938
       1     939
       1     940
       1     941
       1     942
       1     943
       1     944
       1     945
       1     946
       1     947
       1     948
       1     949
       1     950
       1     951
       1     952
       1     953
       1     954
       1     955
       1     956
       1     957
       1     958
       1     959
       1     960
       1     961
       1     962
       1     963
       1     964
       1     965
       1     966
       1     967
       1     968
       1     969
       1     970
       1     971
       1     972
       1     973
       1     974
       1     975
       1     976
       1     977
       1     978
       1     979
       1     980
       1     981
       1     982
       1     983
       1     984
       1     985
       1     986
       1     987
       1     988
       1     989
       1     990
       1     991
       1     992
       1     993
       1     994
       1     995
       1     996
       1     997
       1     998
       1     999
       1    1000
       1    1001
       1    1002
       1    1003
       1    1004
       1    1005
       1    1006
       1    1007
       1    1008
       1    1009
       1    1010
       1    1011
       1    1012
       1    1013
       1    1014
       1    1015
       1    1016
       1    1017
       1    1018
       1    1019
       1    1020
       1    1021
       1    1022
       1    1023
       1    1024
       1    1025
       1    1026
       1    1027
       1    1028
       1    1029
       1    1030
       1    1031
       1    1032
       1    1033
       1    1034
       1    1035
       1    1036
       1    1037
       1    1038
       1    1039
       1    1040
       1    1041
       1    1042
       1    1043
       1    1044
       1    1045
       1    1046
       1    1047
       1    1048
       1    1049
       1    1050
       1    1051
       1    1052
       1    1053
       1    1054
       1    1055
       1    1056
       1    1057
       1    1058
       1    1059
       1    1060
       1    1061
       1    1062
       1    1063
       1    1064
       1    1065
       1    1066
       1    1067
       1    1068
       1    1069
       1    1070
       1    1071
       1    1072
       1    1073
       1    1074
       1    1075
       1    1076
       1    1077
       1    1078
       1    1079
       1    1080
       1    1081
       1    1082
       1    1083
       1    1084
       1    1085
       1    1086
       1    1087
       1    1088
       1    1089
       1    1090
       1    1091
       1    1092
       1    1093
       1    1094
       1    1095
       1    1096
       1    1097
       1    1098
       1    1099
       1    1100
       1    1101
       1    1102
       1    1103
       1    1104
       1    1105
       1    1106
       1    1107
       1    1108
       1    1109
       1    1110
       1    1111
       1    1112
       1    1113
       1    1114
       1    1115
       1    1116
       1    1117
       1    1118
       1    1119
       1    1120
       1    1121
       1    1122
       1    1123
       1    1124
       1    1125
       1    1126
       1    1127
       1    1128
       1    1129
       1    1130
       1    1131
       1    1132
       1    1133
       1    1134
       1    1135
       1    1136
       1    1137
       1    1138
       1    1139
       1    1140
       1    1141
       1    1142
       1    1143
       1    1144
       1    1145
       1    1146
       1    1147
       1    1148
       1    1149
       1    1150
       1    1151
       1    1152
       1    1153
       1    1154
       1    1155
       1    1156
       1    1157
       1    1158
       1    1159
       1    1160
       1    1161
       1    1162
       1    1163
       1    1164
       1    1165
       1    1166
       1    1167
       1    1168
       1    1169
       1    1170
       1    1171
       1    1172
       1    1173
       1    1174
       1    1175
       1    1176
       1    1177
       1    1178
       1    1179
       1    1180
       1    1181
       1    1182
       1    1183
       1    1184
       1    1185
       1    1186
       1    1187
       1    1188
       1    1189
       1    1190
       1    1191
       1    1192
       1    1193
       1    1194
       1    1195
       1    1196
       1    1197
       1    1198
       1    1199
       1    1200
       1    1201
       1    1202
       1    1203
       1    1204
       1    1205
       1    1206
       1    1207
       1    1208
       1    1209
       1    1210
       1    1211
       1    1212
       1    1213
       1    1214
       1    1215
       1    1216
       1    1217
       1    1218
       1    1219
       1    1220
       1    1221
       1    1222
       1    1223
       1    1224
       1    1225
       1    1226
       1    1227
       1    1228
       1    1229
       1    1230
       1    1231
       1    1232
       1    1233
       1    1234
       1    1235
       1    1236
       1    1237
       1    1238
       1    1239
       1    1240
       1    1241
       1    1242
       1    1243
       1    1244
       1    1245
       1    1246
       1    1247
       1    1248
       1    1249
       1    1250
       1    1251
       1    1252
       1    1253
       1    1254
       1    1255
       1    1256
       1    1257
       1    1258
       1    1259
       1    1260
       1    1261
       1    1262
       1    1263
       1    1264
       1    1265
       1    1266
       1    1267
       1    1268
       1    1269
       1    1270
       1    1271
       1    1272
       1    1273
       1    1274
       1    1275
       1    1276
       1    1277
       1    1278
       1    1279
       1    1280
       1    1281
       1    1282
       1    1283
       1    1284
       1    1285
       1    1286
       1    1287
       1    1288
       1    1289
       1    1290
       1    1291
       1    1292
       1    1293
       1    1294
       1    1295
       1    1296
       1    1297
       1    1298
       1    1299
       1    1300
       1    1301
       1    1302
       1    1303
       1    1304
       1    1305
       1    1306
       1    1307
       1    1308
       1    1309
       1    1310
       1    1311
       1    1312
       1    1313
       1    1314
       1    1315
       1    1316
       1    1317
       1    1318
       1    1319
       1    1320
       1    1321
       1    1322
       1    1323
       1    1324
       1    1325
       1    1326
       1    1327
       1    1328
       1    1329
       1    1330
       1    1331
       1    1332
       1    1333
       1    1334
       1    1335
       1    1336
       1    1337
       1    1338
       1    1339
       1    1340
       1    1341
       1    1342
       1    1343
       1    1344
       1    1345
       1    1346
       1    1347
       1    1348
       1    1349
       1    1350
       1    1351
       1    1352
       1    1353
       1    1354
       1    1355
       1    1356
       1    1357
       1    1358
       1    1359
       1    1360
       1    1361
       1    1362
       1    1363
       1    1364
       1    1365
       1    1366
       1    1367
       1    1368
       1    1369
       1    1370
       1    1371
       1    1372
       1    1373
       1    1374
       1    1375
       1    1376
       1    1377
       1    1378
       1    1379
       1    1380
       1    1381
       1    1382
       1    1383
       1    1384
       1    1385
       1    1386
       1    1387
       1    1388
       1    1389
       1    1390
       1    1391
       1    1392
       1    1393
       1    1394
       1    1395
       1    1396
       1    1397
       1    1398
       1    1399
       1    1400
       1    1401
       1    1402
       1    1403
       1    1404
       1    1405
       1    1406
       1    1407
       1    1408
       1    1409
       1    1410
       1    1411
       1    1412
       1    1413
       1    1414
       1    1415
       1    1416
       1    1417
       1    1418
       1    1419
       1    1420
       1    1421
       1    1422
       1    1423
       1    1424
       1    1425
       1    1426
       1    1427
       1    1428
       1    1429
       1    1430
       1    1431
       1    1432
       1    1433
       1    1434
       1    1435
       1    1436
       1    1437
       1    1438
       1    1439
       1    1440
       1    1441
       1    1442
       1    1443
       1    1444
       1    1445
       1    1446
       1    1447
       1    1448
       1    1449
       1    1450
       1    1451
       1    1452
       1    1453
       1    1454
       1    1455
       1    1456
       1    1457
       1    1458
       1    1459
       1    1460
       1    1461
       1    1462
       1    1463
       1    1464
       1    1465
       1    1466
       1    1467
       1    1468
       1    1469
       1    1470
       1    1471
       1    1472
       1    1473
       1    1474
       1    1475
       1    1476
       1    1477
       1    1478
       1    1479
       1    1480
       1    1481
       1    1482
       1    1483
       1    1484
       1    1485
       1    1486
       1    1487
       1    1488
       1    1489
       1    1490
       1    1491
       1    1492
       1    1493
       1    1494
       1    1495
       1    1496
       1    1497
       1    1498
       1    1499
       1    1500
       1    1501
       1    1502
       1    1503
       1    1504
       1    1505
       1    1506
       1    1507
       1    1508
       1    1509
       1    1510
       1    1511
       1    1512
       1    1513
       1    1514
       1    1515
       1    1516
       1    1517
       1    1518
       1    1519
       1    1520
       1    1521
       1    1522
       1    1523
       1    1524
       1    1525
       1    1526
       1    1527
       1    1528
       1    1529
       1    1530
       1    1531
       1    1532
       1    1533
       1    1534
       1    1535
       1    1536
       1    1537
       1    1538
       1    1539
       1    1540
       1    1541
       1    1542
       1    1543
       1    1544
       1    1545
       1    1546
       1    1547
       1    1548
       1    1549
       1    1550
       1    1551
       1    1552
       1    1553
       1    1554
       1    1555
       1    1556
       1    1557
       1    1558
       1    1559
       1    1560
       1    1561
       1    1562
       1    1563
       1    1564
       1    1565
       1    1566
       1    1567
       1    1568
       1    1569
       1    1570
       1    1571
       1    1572
       1    1573
       1    1574
       1    1575
       1    1576
       1    1577
       1    1578
       1    1579
       1    1580
       1    1581
       1    1582
       1    1583
       1    1584
       1    1585
       1    1586
       1    1587
       1    1588
       1    1589
       1    1590
       1    1591
       1    1592
       1    1593
       1    1594
       1    1595
       1    1596
       1    1597
       1    1598
       1    1599
       1    1600
       1    1601
       1    1602
       1    1603
       1    1604
       1    1605
       1    1606
       1    1607
       1    1608
       1    1609
       1    1610
       1    1611
       1    1612
       1    1613
       1    1614
       1    1615
       1    1616
       1    1617
       1    1618
       1    1619
       1    1620
       1    1621
       1    1622
       1    1623
       1    1624
       1    1625
       1    1626
       1    1627
       1    1628
       1    1629
       1    1630
       1    1631
       1    1632
       1    1633
       1    1634
       1    1635
       1    1636
       1    1637
       1    1638
       1    1639
       1    1640
       1    1641
       1    1642
       1    1643
       1    1644
       1    1645
       1    1646
       1    1647
       1    1648
       1    1649
       1    1650
       1    1651
       1    1652
       1    1653
       1    1654
       1    1655
       1    1656
       1    1657
       1    1658
       1    1659
       1    1660
       1    1661
       1    1662
       1    1663
       1    1664
       1    1665
       1    1666
       1    1667
       1    1668
       1    1669
       1    1670
       1    1671
       1    1672
       1    1673
       1    1674
       1    1675
       1    1676
       1    1677
       1    1678
       1    1679
       1    1680
       1    1681
       1    1682
       1    1683
       1    1684
       1    1685
       1    1686
       1    1687
       1    1688
       1    1689
       1    1690
       1    1691
       1    1692
       1    1693
       1    1694
       1    1695
       1    1696
       1    1697
       1    1698
       1    1699
       1    1700
       1    1701
       1    1702
       1    1703
       1    1704
       1    1705
       1    1706
       1    1707
       1    1708
       1    1709
       1    1710
       1    1711
       1    1712
       1    1713
       1    1714
       1    1715
       1    1716
       1    1717
       1    1718
       1    1719
       1    1720
       1    1721
       1    1722
       1    1723
       1    1724
       1    1725
       1    1726
       1    1727
       1    1728
       1    1729
       1    1730
       1    1731
       1    1732
       1    1733
       1    1734
       1    1735
       1    1736
       1    1737
       1    1738
       1    1739
       1    1740
       1    1741
       1    1742
       1    1743
       1    1744
       1    1745
       1    1746
       1    1747
       1    1748
       1    1749
       1    1750
       1    1751
       1    1752
       1    1753
       1    1754
       1    1755
       1    1756
       1    1757
       1    1758
       1    1759
       1    1760
       1    1761
       1    1762
       1    1763
       1    1764
       1    1765
       1    1766
       1    1767
       1    1768
       1    1769
       1    1770
       1    1771
       1    1772
       1    1773
       1    1774
       1    1775
       1    1776
       1    1777
       1    1778
       1    1779
       1    1780
       1    1781
       1    1782
       1    1783
       1    1784
       1    1785
       1    1786
       1    1787
       1    1788
       1    1789
       1    1790
       1    1791
       1    1792
       1    1793
       1    1794
       1    1795
       1    1796
       1    1797
       1    1798
       1    1799
       1    1800
       1    1801
       1    1802
       1    1803
       1    1804
       1    1805
       1    1806
       1    1807
       1    1808
       1    1809
       1    1810
       1    1811
       1    1812
       1    1813
       1    1814
       1    1815
       1    1816
       1    1817
       1    1818
       1    1819
       1    1820
       1    1821
       1    1822
       1    1823
       1    1824
       1    1825
       1    1826
       1    1827
       1    1828
       1    1829
       1    1830
       1    1831
       1    1832
       1    1833
       1    1834
       1    1835
       1    1836
       1    1837
       1    1838
       1    1839
       1    1840
       1    1841
       1    1842
       1    1843
       1    1844
       1    1845
       1    1846
       1    1847
       1    1848
       1    1849
       1    1850
       1    1851
       1    1852
       1    1853
       1    1854
       1    1855
       1    1856
       1    1857
       1    1858
       1    1859
       1    1860
       1    1861
       1    1862
       1    1863
       1    1864
       1    1865
       1    1866
       1    1867
       1    1868
       1    1869
       1    1870
       1    1871
       1    1872
       1    1873
       1    1874
       1    1875
       1    1876
       1    1877
       1    1878
       1    1879
       1    1880
       1    1881
       1    1882
       1    1883
       1    1884
       1    1885
       1    1886
       1    1887
       1    1888
       1    1889
       1    1890
       1    1891
       1    1892
       1    1893
       1    1894
       1    1895
       1    1896
       1    1897
       1    1898
       1    1899
       1    1900
       1    1901
       1    1902
       1    1903
       1    1904
       1    1905
       1    1906
       1    1907
       1    1908
       1    1909
       1    1910
       1    1911
       1    1912
       1    1913
       1    1914
       1    1915
       1    1916
       1    1917
       1    1918
       1    1919
       1    1920
       1    1921
       1    1922
       1    1923
       1    1924
       1    1925
       1    1926
       1    1927
       1    1928
       1    1929
       1    1930
       1    1931
       1    1932
       1    1933
       1    1934
       1    1935
       1    1936
       1    1937
       1    1938
       1    1939
       1    1940
       1    1941
       1    1942
       1    1943
       1    1944
       1    1945
       1    1946
       1    1947
       1    1948
       1    1949
       8       0       1       2       3       4       5       6       7
       8       2       8       9       3       6      10      11       7
       8      12       1       0      13      14       5       4      15
       8       0      16      17      13       4      18      19      15
       8      20      21      22      12      23      24      25      14
       8      26      27      21      20      28      29      24      23
       8      13      26      20      12      15      28      23      14
       8      30      31      16      32      33      34      18      35
       8      36      37      31      30      38      39      34      33
       8      40      41      37      36      42      43      39      38
       8      44      40      36      45      46      42      38      47
       8      48      17      16      31      49      19      18      34
       8      30      50      45      36      33      51      47      38
       8       0       3      32      16       4       7      35      18
       8      52      26      13      17      53      28      15      19
       8      54      52      17      48      55      53      19      49
       8      56      54      48      57      58      55      49      59
       8      37      57      48      31      39      59      49      34
       8      60      61      50      30      62      63      51      33
       8      64      60      30      32      65      62      33      35
       8      66      64      32       3      67      65      35       7
       8      68       8       2      69      70      10       6      71
       8      72      69       2       1      73      71       6       5
       8      22      72       1      12      25      73       5      14
       8      74      27      26      52      75      29      28      53
       8      76      74      52      54      77      75      53      55
       8      78      76      54      56      79      77      55      58
       8      80      78      56      81      82      79      58      83
       8      84      81      56      57      85      83      58      59
       8      41      84      57      37      43      85      59      39
       8      86      44      45      50      87      46      47      51
       8      88      86      50      61      89      87      51      63
       8      90      88      61      91      92      89      63      93
       8      94      91      61      60      95      93      63      62
       8      96      94      60      64      97      95      62      65
       8      98      96      64      66      99      97      65      67
       8     100      98      66     101     102      99      67     103
       8       9     101      66       3      11     103      67       7
       8     104     105       8      68     106     107      10      70
       8     108     104      68      69     109     106      70      71
       8     110     108      69      72     111     109      71      73
       8     112     110      72      22     113     111      73      25
       8     114     112      22      21     115     113      25      24
       8     116     114      21      27     117     115      24      29
       8     118     116      27      74     119     117      29      75
       8     120     118      74      76     121     119      75      77
       8     122     120      76      78     123     121      77      79
       8     124     122      78      80     125     123      79      82
       8     126     124      80      81     127     125      82      83
       8     128     126      81      84     129     127      83      85
       8     130     128      84      41     131     129      85      43
       8     132     130      41      40     133     131      43      42
       8     134     132      40      44     135     133      42      46
       8     136     134      44      86     137     135      46      87
       8     138     136      86      88     139     137      87      89
       8     140     138      88      90     141     139      89      92
       8     142     140      90      91     143     141      92      93
       8     144     142      91      94     145     143      93      95
       8     146     144      94      96     147     145      95      97
       8     148     146      96      98     149     147      97      99
       8     150     148      98     100     151     149      99     102
       8     152     150     100     101     153     151     102     103
       8     154     152     101       9     155     153     103      11
       8     105     154       9       8     107     155      11      10
       8     156     157     158     159       0       1       2       3
       8     158     160     161     159       2       8       9       3
       8     162     157     156     163      12       1       0      13
       8     156     164     165     163       0      16      17      13
       8     166     167     168     162      20      21      22      12
       8     169     170     167     166      26      27      21      20
       8     163     169     166     162      13      26      20      12
       8     171     172     164     173      30      31      16      32
       8     174     175     172     171      36      37      31      30
       8     176     177     175     174      40      41      37      36
       8     178     176     174     179      44      40      36      45
       8     180     165     164     172      48      17      16      31
       8     171     181     179     174      30      50      45      36
       8     156     159     173     164       0       3      32      16
       8     182     169     163     165      52      26      13      17
       8     183     182     165     180      54      52      17      48
       8     184     183     180     185      56      54      48      57
       8     175     185     180     172      37      57      48      31
       8     186     187     181     171      60      61      50      30
       8     188     186     171     173      64      60      30      32
       8     189     188     173     159      66      64      32       3
       8     190     160     158     191      68       8       2      69
       8     192     191     158     157      72      69       2       1
       8     168     192     157     162      22      72       1      12
       8     193     170     169     182      74      27      26      52
       8     194     193     182     183      76      74      52      54
       8     195     194     183     184      78      76      54      56
       8     196     195     184     197      80      78      56      81
       8     198     197     184     185      84      81      56      57
       8     177     198     185     175      41      84      57      37
       8     199     178     179     181      86      44      45      50
       8     200     199     181     187      88      86      50      61
       8     201     200     187     202      90      88      61      91
       8     203     202     187     186      94      91      61      60
       8     204     203     186     188      96      94      60      64
       8     205     204     188     189      98      96      64      66
       8     206     205     189     207     100      98      66     101
       8     161     207     189     159       9     101      66       3
       8     208     209     160     190     104     105       8      68
       8     210     208     190     191     108     104      68      69
       8     211     210     191     192     110     108      69      72
       8     212     211     192     168     112     110      72      22
       8     213     212     168     167     114     112      22      21
       8     214     213     167     170     116     114      21      27
       8     215     214     170     193     118     116      27      74
       8     216     215     193     194     120     118      74      76
       8     217     216     194     195     122     120      76      78
       8     218     217     195     196     124     122      78      80
       8     219     218     196     197     126     124      80      81
       8     220     219     197     198     128     126      81      84
       8     221     220     198     177     130     128      84      41
       8     222     221     177     176     132     130      41      40
       8     223     222     176     178     134     132      40      44
       8     224     223     178     199     136     134      44      86
       8     225     224     199     200     138     136      86      88
       8     226     225     200     201     140     138      88      90
       8     227     226     201     202     142     140      90      91
       8     228     227     202     203     144     142      91      94
       8     229     228     203     204     146     144      94      96
       8     230     229     204     205     148     146      96      98
       8     231     230     205     206     150     148      98     100
       8     232     231     206     207     152     150     100     101
       8     233     232     207     161     154     152     101       9
       8     209     233     161     160     105     154       9       8
       8     234     235     236     237     156     157     158     159
       8     236     238     239     237     158     160     161     159
       8     240     235     234     241     162     157     156     163
       8     234     242     243     241     156     164     165     163
       8     244     245     246     240     166     167     168     162
       8     247     248     245     244     169     170     167     166
       8     241     247     244     240     163     169     166     162
       8     249     250     242     251     171     172     164     173
       8     252     253     250     249     174     175     172     171
       8     254     255     253     252     176     177     175     174
       8     256     254     252     257     178     176     174     179
       8     258     243     242     250     180     165     164     172
       8     249     259     257     252     171     181     179     174
       8     234     237     251     242     156     159     173     164
       8     260     247     241     243     182     169     163     165
       8     261     260     243     258     183     182     165     180
       8     262     261     258     263     184     183     180     185
       8     253     263     258     250     175     185     180     172
       8     264     265     259     249     186     187     181     171
       8     266     264     249     251     188     186     171     173
       8     267     266     251     237     189     188     173     159
       8     268     238     236     269     190     160     158     191
       8     270     269     236     235     192     191     158     157
       8     246     270     235     240     168     192     157     162
       8     271     248     247     260     193     170     169     182
       8     272     271     260     261     194     193     182     183
       8     273     272     261     262     195     194     183     184
       8     274     273     262     275     196     195     184     197
       8     276     275     262     263     198     197     184     185
       8     255     276     263     253     177     198     185     175
       8     277     256     257     259     199     178     179     181
       8     278     277     259     265     200     199     181     187
       8     279     278     265     280     201     200     187     202
       8     281     280     265     264     203     202     187     186
       8     282     281     264     266     204     203     186     188
       8     283     282     266     267     205     204     188     189
       8     284     283     267     285     206     205     189     207
       8     239     285     267     237     161     207     189     159
       8     286     287     238     268     208     209     160     190
       8     288     286     268     269     210     208     190     191
       8     289     288     269     270     211     210     191     192
       8     290     289     270     246     212     211     192     168
       8     291     290     246     245     213     212     168     167
       8     292     291     245     248     214     213     167     170
       8     293     292     248     271     215     214     170     193
       8     294     293     271     272     216     215     193     194
       8     295     294     272     273     217     216     194     195
       8     296     295     273     274     218     217     195     196
       8     297     296     274     275     219     218     196     197
       8     298     297     275     276     220     219     197     198
       8     299     298     276     255     221     220     198     177
       8     300     299     255     254     222     221     177     176
       8     301     300     254     256     223     222     176     178
       8     302     301     256     277     224     223     178     199
       8     303     302     277     278     225     224     199     200
       8     304     303     278     279     226     225     200     201
       8     305     304     279     280     227     226     201     202
       8     306     305     280     281     228     227     202     203
       8     307     306     281     282     229     228     203     204
       8     308     307     282     283     230     229     204     205
       8     309     308     283     284     231     230     205     206
       8     310     309     284     285     232     231     206     207
       8     311     310     285     239     233     232     207     161
       8     287     311     239     238     209     233     161     160
       8     312     313     314     315     234     235     236     237
       8     314     316     317     315     236     238     239     237
       8     318     313     312     319     240     235     234     241
       8     312     320     321     319     234     242     243     241
       8     322     323     324     318     244     245     246     240
       8     325     326     323     322     247     248     245     244
       8     319     325     322     318     241     247     244     240
       8     327     328     320     329     249     250     242     251
       8     330     331     328     327     252     253     250     249
       8     332     333     331     330     254     255     253     252
       8     334     332     330     335     256     254     252     257
       8     336     321     320     328     258     243     242     250
       8     327     337     335     330     249     259     257     252
       8     312     315     329     320     234     237     251     242
       8     338     325     319     321     260     247     241     243
       8     339     338     321     336     261     260     243     258
       8     340     339     336     341     262     261     258     263
       8     331     341     336     328     253     263     258     250
       8     342     343     337     327     264     265     259     249
       8     344     342     327     329     266     264     249     251
       8     345     344     329     315     267     266     251     237
       8     346     316     314     347     268     238     236     269
       8     348     347     314     313     270     269     236     235
       8     324     348     313     318     246     270     235     240
       8     349     326     325     338     271     248     247     260
       8     350     349     338     339     272     271     260     261
       8     351     350     339     340     273     272     261     262
       8     352     351     340     353     274     273     262     275
       8     354     353     340     341     276     275     262     263
       8     333     354     341     331     255     276     263     253
       8     355     334     335     337     277     256     257     259
       8     356     355     337     343     278     277     259     265
       8     357     356     343     358     279     278     265     280
       8     359     358     343     342     281     280     265     264
       8     360     359     342     344     282     281     264     266
       8     361     360     344     345     283     282     266     267
       8     362     361     345     363     284     283     267     285
       8     317     363     345     315     239     285     267     237
       8     364     365     316     346     286     287     238     268
       8     366     364     346     347     288     286     268     269
       8     367     366     347     348     289     288     269     270
       8     368     367     348     324     290     289     270     246
       8     369     368     324     323     291     290     246     245
       8     370     369     323     326     292     291     245     248
       8     371     370     326     349     293     292     248     271
       8     372     371     349     350     294     293     271     272
       8     373     372     350     351     295     294     272     273
       8     374     373     351     352     296     295     273     274
       8     375     374     352     353     297     296     274     275
       8     376     375     353     354     298     297     275     276
       8     377     376     354     333     299     298     276     255
       8     378     377     333     332     300     299     255     254
       8     379     378     332     334     301     300     254     256
       8     380     379     334     355     302     301     256     277
       8     381     380     355     356     303     302     277     278
       8     382     381     356     357     304     303     278     279
       8     383     382     357     358     305     304     279     280
       8     384     383     358     359     306     305     280     281
       8     385     384     359     360     307     306     281     282
       8     386     385     360     361     308     307     282     283
       8     387     386     361     362     309     308     283     284
       8     388     387     362     363     310     309     284     285
       8     389     388     363     317     311     310     285     239
       8     365     389     317     316     287     311     239     238
       8     390     391     392     393     312     313     314     315
       8     392     394     395     393     314     316     317     315
       8     396     391     390     397     318     313     312     319
       8     390     398     399     397     312     320     321     319
       8     400     401     402     396     322     323     324     318
       8     403     404     401     400     325     326     323     322
       8     397     403     400     396     319     325     322     318
       8     405     406     398     407     327     328     320     329
       8     408     409     406     405     330     331     328     327
       8     410     411     409     408     332     333     331     330
       8     412     410     408     413     334     332     330     335
       8     414     399     398     406     336     321     320     328
       8     405     415     413     408     327     337     335     330
       8     390     393     407     398     312     315     329     320
       8     416     403     397     399     338     325     319     321
       8     417     416     399     414     339     338     321     336
       8     418     417     414     419     340     339     336     341
       8     409     419     414     406     331     341     336     328
       8     420     421     415     405     342     343     337     327
       8     422     420     405     407     344     342     327     329
       8     423     422     407     393     345     344     329     315
       8     424     394     392     425     346     316     314     347
       8     426     425     392     391     348     347     314     313
       8     402     426     391     396     324     348     313     318
       8     427     404     403     416     349     326     325     338
       8     428     427     416     417     350     349     338     339
       8     429     428     417     418     351     350     339     340
       8     430     429     418     431     352     351     340     353
       8     432     431     418     419     354     353     340     341
       8     411     432     419     409     333     354     341     331
       8     433     412     413     415     355     334     335     337
       8     434     433     415     421     356     355     337     343
       8     435     434     421     436     357     356     343     358
       8     437     436     421     420     359     358     343     342
       8     438     437     420     422     360     359     342     344
       8     439     438     422     423     361     360     344     345
       8     440     439     423     441     362     361     345     363
       8     395     441     423     393     317     363     345     315
       8     442     443     394     424     364     365     316     346
       8     444     442     424     425     366     364     346     347
       8     445     444     425     426     367     366     347     348
       8     446     445     426     402     368     367     348     324
       8     447     446     402     401     369     368     324     323
       8     448     447     401     404     370     369     323     326
       8     449     448     404     427     371     370     326     349
       8     450     449     427     428     372     371     349     350
       8     451     450     428     429     373     372     350     351
       8     452     451     429     430     374     373     351     352
       8     453     452     430     431     375     374     352     353
       8     454     453     431     432     376     375     353     354
       8     455     454     432     411     377     376     354     333
       8     456     455     411     410     378     377     333     332
       8     457     456     410     412     379     378     332     334
       8     458     457     412     433     380     379     334     355
       8     459     458     433     434     381     380     355     356
       8     460     459     434     435     382     381     356     357
       8     461     460     435     436     383     382     357     358
       8     462     461     436     437     384     383     358     359
       8     463     462     437     438     385     384     359     360
       8     464     463     438     439     386     385     360     361
       8     465     464     439     440     387     386     361     362
       8     466     465     440     441     388     387     362     363
       8     467     466     441     395     389     388     363     317
       8     443     467     395     394     365     389     317     316
       8     468     469     470     471     390     391     392     393
       8     470     472     473     471     392     394     395     393
       8     474     469     468     475     396     391     390     397
       8     468     476     477     475     390     398     399     397
       8     478     479     480     474     400     401     402     396
       8     481     482     479     478     403     404     401     400
       8     475     481     478     474     397     403     400     396
       8     483     484     476     485     405     406     398     407
       8     486     487     484     483     408     409     406     405
       8     488     489     487     486     410     411     409     408
       8     490     488     486     491     412     410     408     413
       8     492     477     476     484     414     399     398     406
       8     483     493     491     486     405     415     413     408
       8     468     471     485     476     390     393     407     398
       8     494     481     475     477     416     403     397     399
       8     495     494     477     492     417     416     399     414
       8     496     495     492     497     418     417     414     419
       8     487     497     492     484     409     419     414     406
       8     498     499     493     483     420     421     415     405
       8     500     498     483     485     422     420     405     407
       8     501     500     485     471     423     422     407     393
       8     502     472     470     503     424     394     392     425
       8     504     503     470     469     426     425     392     391
       8     480     504     469     474     402     426     391     396
       8     505     482     481     494     427     404     403     416
       8     506     505     494     495     428     427     416     417
       8     507     506     495     496     429     428     417     418
       8     508     507     496     509     430     429     418     431
       8     510     509     496     497     432     431     418     419
       8     489     510     497     487     411     432     419     409
       8     511     490     491     493     433     412     413     415
       8     512     511     493     499     434     433     415     421
       8     513     512     499     514     435     434     421     436
       8     515     514     499     498     437     436     421     420
       8     516     515     498     500     438     437     420     422
       8     517     516     500     501     439     438     422     423
       8     518     517     501     519     440     439     423     441
       8     473     519     501     471     395     441     423     393
       8     520     521     472     502     442     443     394     424
       8     522     520     502     503     444     442     424     425
       8     523     522     503     504     445     444     425     426
       8     524     523     504     480     446     445     426     402
       8     525     524     480     479     447     446     402     401
       8     526     525     479     482     448     447     401     404
       8     527     526     482     505     449     448     404     427
       8     528     527     505     506     450     449     427     428
       8     529     528     506     507     451     450     428     429
       8     530     529     507     508     452     451     429     430
       8     531     530     508     509     453     452     430     431
       8     532     531     509     510     454     453     431     432
       8     533     532     510     489     455     454     432     411
       8     534     533     489     488     456     455     411     410
       8     535     534     488     490     457     456     410     412
       8     536     535     490     511     458     457     412     433
       8     537     536     511     512     459     458     433     434
       8     538     537     512     513     460     459     434     435
       8     539     538     513     514     461     460     435     436
       8     540     539     514     515     462     461     436     437
       8     541     540     515     516     463     462     437     438
       8     542     541     516     517     464     463     438     439
       8     543     542     517     518     465     464     439     440
       8     544     543     518     519     466     465     440     441
       8     545     544     519     473     467     466     441     395
       8     521     545     473     472     443     467     395     394
       8     546     547     548     549     468     469     470     471
       8     548     550     551     549     470     472     473     471
       8     552     547     546     553     474     469     468     475
       8     546     554     555     553     468     476     477     475
       8     556     557     558     552     478     479     480     474
       8     559     560     557     556     481     482     479     478
       8     553     559     556     552     475     481     478     474
       8     561     562     554     563     483     484     476     485
       8     564     565     562     561     486     487     484     483
       8     566     567     565     564     488     489     487     486
       8     568     566     564     569     490     488     486     491
       8     570     555     554     562     492     477     476     484
       8     561     571     569     564     483     493     491     486
       8     546     549     563     554     468     471     485     476
       8     572     559     553     555     494     481     475     477
       8     573     572     555     570     495     494     477     492
       8     574     573     570     575     496     495     492     497
       8     565     575     570     562     487     497     492     484
       8     576     577     571     561     498     499     493     483
       8     578     576     561     563     500     498     483     485
       8     579     578     563     549     501     500     485     471
       8     580     550     548     581     502     472     470     503
       8     582     581     548     547     504     503     470     469
       8     558     582     547     552     480     504     469     474
       8     583     560     559     572     505     482     481     494
       8     584     583     572     573     506     505     494     495
       8     585     584     573     574     507     506     495     496
       8     586     585     574     587     508     507     496     509
       8     588     587     574     575     510     509     496     497
       8     567     588     575     565     489     510     497     487
       8     589     568     569     571     511     490     491     493
       8     590     589     571     577     512     511     493     499
       8     591     590     577     592     513     512     499     514
       8     593     592     577     576     515     514     499     498
       8     594     593     576     578     516     515     498     500
       8     595     594     578     579     517     516     500     501
       8     596     595     579     597     518     517     501     519
       8     551     597     579     549     473     519     501     471
       8     598     599     550     580     520     521     472     502
       8     600     598     580     581     522     520     502     503
       8     601     600     581     582     523     522     503     504
       8     602     601     582     558     524     523     504     480
       8     603     602     558     557     525     524     480     479
       8     604     603     557     560     526     525     479     482
       8     605     604     560     583     527     526     482     505
       8     606     605     583     584     528     527     505     506
       8     607     606     584     585     529     528     506     507
       8     608     607     585     586     530     529     507     508
       8     609     608     586     587     531     530     508     509
       8     610     609     587     588     532     531     509     510
       8     611     610     588     567     533     532     510     489
       8     612     611     567     566     534     533     489     488
       8     613     612     566     568     535     534     488     490
       8     614     613     568     589     536     535     490     511
       8     615     614     589     590     537     536     511     512
       8     616     615     590     591     538     537     512     513
       8     617     616     591     592     539     538     513     514
       8     618     617     592     593     540     539     514     515
       8     619     618     593     594     541     540     515     516
       8     620     619     594     595     542     541     516     517
       8     621     620     595     596     543     542     517     518
       8     622     621     596     597     544     543     518     519
       8     623     622     597     551     545     544     519     473
       8     599     623     551     550     521     545     473     472
       8     624     625     626     627     546     547     548     549
       8     626     628     629     627     548     550     551     549
       8     630     625     624     631     552     547     546     553
       8     624     632     633     631     546     554     555     553
       8     634     635     636     630     556     557     558     552
       8     637     638     635     634     559     560     557     556
       8     631     637     634     630     553     559     556     552
       8     639     640     632     641     561     562     554     563
       8     642     643     640     639     564     565     562     561
       8     644     645     643     642     566     567     565     564
       8     646     644     642     647     568     566     564     569
       8     648     633     632     640     570     555     554     562
       8     639     649     647     642     561     571     569     564
       8     624     627     641     632     546     549     563     554
       8     650     637     631     633     572     559     553     555
       8     651     650     633     648     573     572     555     570
       8     652     651     648     653     574     573     570     575
       8     643     653     648     640     565     575     570     562
       8     654     655     649     639     576     577     571     561
       8     656     654     639     641     578     576     561     563
       8     657     656     641     627     579     578     563     549
       8     658     628     626     659     580     550     548     581
       8     660     659     626     625     582     581     548     547
       8     636     660     625     630     558     582     547     552
       8     661     638     637     650     583     560     559     572
       8     662     661     650     651     584     583     572     573
       8     663     662     651     652     585     584     573     574
       8     664     663     652     665     586     585     574     587
       8     666     665     652     653     588     587     574     575
       8     645     666     653     643     567     588     575     565
       8     667     646     647     649     589     568     569     571
       8     668     667     649     655     590     589     571     577
       8     669     668     655     670     591     590     577     592
       8     671     670     655     654     593     592     577     576
       8     672     671     654     656     594     593     576     578
       8     673     672     656     657     595     594     578     579
       8     674     673     657     675     596     595     579     597
       8     629     675     657     627     551     597     579     549
       8     676     677     628     658     598     599     550     580
       8     678     676     658     659     600     598     580     581
       8     679     678     659     660     601     600     581     582
       8     680     679     660     636     602     601     582     558
       8     681     680     636     635     603     602     558     557
       8     682     681     635     638     604     603     557     560
       8     683     682     638     661     605     604     560     583
       8     684     683     661     662     606     605     583     584
       8     685     684     662     663     607     606     584     585
       8     686     685     663     664     608     607     585     586
       8     687     686     664     665     609     608     586     587
       8     688     687     665     666     610     609     587     588
       8     689     688     666     645     611     610     588     567
       8     690     689     645     644     612     611     567     566
       8     691     690     644     646     613     612     566     568
       8     692     691     646     667     614     613     568     589
       8     693     692     667     668     615     614     589     590
       8     694     693     668     669     616     615     590     591
       8     695     694     669     670     617     616     591     592
       8     696     695     670     671     618     617     592     593
       8     697     696     671     672     619     618     593     594
       8     698     697     672     673     620     619     594     595
       8     699     698     673     674     621     620     595     596
       8     700     699     674     675     622     621     596     597
       8     701     700     675     629     623     622     597     551
       8     677     701     629     628     599     623     551     550
       8     702     703     704     705     624     625     626     627
       8     704     706     707     705     626     628     629     627
       8     708     703     702     709     630     625     624     631
       8     702     710     711     709     624     632     633     631
       8     712     713     714     708     634     635     636     630
       8     715     716     713     712     637     638     635     634
       8     709     715     712     708     631     637     634     630
       8     717     718     710     719     639     640     632     641
       8     720     721     718     717     642     643     640     639
       8     722     723     721     720     644     645     643     642
       8     724     722     720     725     646     644     642     647
       8     726     711     710     718     648     633     632     640
       8     717     727     725     720     639     649     647     642
       8     702     705     719     710     624     627     641     632
       8     728     715     709     711     650     637     631     633
       8     729     728     711     726     651     650     633     648
       8     730     729     726     731     652     651     648     653
       8     721     731     726     718     643     653     648     640
       8     732     733     727     717     654     655     649     639
       8     734     732     717     719     656     654     639     641
       8     735     734     719     705     657     656     641     627
       8     736     706     704     737     658     628     626     659
       8     738     737     704     703     660     659     626     625
       8     714     738     703     708     636     660     625     630
       8     739     716     715     728     661     638     637     650
       8     740     739     728     729     662     661     650     651
       8     741     740     729     730     663     662     651     652
       8     742     741     730     743     664     663     652     665
       8     744     743     730     731     666     665     652     653
       8     723     744     731     721     645     666     653     643
       8     745     724     725     727     667     646     647     649
       8     746     745     727     733     668     667     649     655
       8     747     746     733     748     669     668     655     670
       8     749     748     733     732     671     670     655     654
       8     750     749     732     734     672     671     654     656
       8     751     750     734     735     673     672     656     657
       8     752     751     735     753     674     673     657     675
       8     707     753     735     705     629     675     657     627
       8     754     755     706     736     676     677     628     658
       8     756     754     736     737     678     676     658     659
       8     757     756     737     738     679     678     659     660
       8     758     757     738     714     680     679     660     636
       8     759     758     714     713     681     680     636     635
       8     760     759     713     716     682     681     635     638
       8     761     760     716     739     683     682     638     661
       8     762     761     739     740     684     683     661     662
       8     763     762     740     741     685     684     662     663
       8     764     763     741     742     686     685     663     664
       8     765     764     742     743     687     686     664     665
       8     766     765     743     744     688     687     665     666
       8     767     766     744     723     689     688     666     645
       8     768     767     723     722     690     689     645     644
       8     769     768     722     724     691     690     644     646
       8     770     769     724     745     692     691     646     667
       8     771     770     745     746     693     692     667     668
       8     772     771     746     747     694     693     668     669
       8     773     772     747     748     695     694     669     670
       8     774     773     748     749     696     695     670     671
       8     775     774     749     750     697     696     671     672
       8     776     775     750     751     698     697     672     673
       8     777     776     751     752     699     698     673     674
       8     778     777     752     753     700     699     674     675
       8     779     778     753     707     701     700     675     629
       8     755     779     707     706     677     701     629     628
       8     780     781     782     783     702     703     704     705
       8     782     784     785     783     704     706     707     705
       8     786     781     780     787     708     703     702     709
       8     780     788     789     787     702     710     711     709
       8     790     791     792     786     712     713     714     708
       8     793     794     791     790     715     716     713     712
       8     787     793     790     786     709     715     712     708
       8     795     796     788     797     717     718     710     719
       8     798     799     796     795     720     721     718     717
       8     800     801     799     798     722     723     721     720
       8     802     800     798     803     724     722     720     725
       8     804     789     788     796     726     711     710     718
       8     795     805     803     798     717     727     725     720
       8     780     783     797     788     702     705     719     710
       8     806     793     787     789     728     715     709     711
       8     807     806     789     804     729     728     711     726
       8     808     807     804     809     730     729     726     731
       8     799     809     804     796     721     731     726     718
       8     810     811     805     795     732     733     727     717
       8     812     810     795     797     734     732     717     719
       8     813     812     797     783     735     734     719     705
       8     814     784     782     815     736     706     704     737
       8     816     815     782     781     738     737     704     703
       8     792     816     781     786     714     738     703     708
       8     817     794     793     806     739     716     715     728
       8     818     817     806     807     740     739     728     729
       8     819     818     807     808     741     740     729     730
       8     820     819     808     821     742     741     730     743
       8     822     821     808     809     744     743     730     731
       8     801     822     809     799     723     744     731     721
       8     823     802     803     805     745     724     725     727
       8     824     823     805     811     746     745     727     733
       8     825     824     811     826     747     746     733     748
       8     827     826     811     810     749     748     733     732
       8     828     827     810     812     750     749     732     734
       8     829     828     812     813     751     750     734     735
       8     830     829     813     831     752     751     735     753
       8     785     831     813     783     707     753     735     705
       8     832     833     784     814     754     755     706     736
       8     834     832     814     815     756     754     736     737
       8     835     834     815     816     757     756     737     738
       8     836     835     816     792     758     757     738     714
       8     837     836     792     791     759     758     714     713
       8     838     837     791     794     760     759     713     716
       8     839     838     794     817     761     760     716     739
       8     840     839     817     818     762     761     739     740
       8     841     840     818     819     763     762     740     741
       8     842     841     819     820     764     763     741     742
       8     843     842     820     821     765     764     742     743
       8     844     843     821     822     766     765     743     744
       8     845     844     822     801     767     766     744     723
       8     846     845     801     800     768     767     723     722
       8     847     846     800     802     769     768     722     724
       8     848     847     802     823     770     769     724     745
       8     849     848     823     824     771     770     745     746
       8     850     849     824     825     772     771     746     747
       8     851     850     825     826     773     772     747     748
       8     852     851     826     827     774     773     748     749
       8     853     852     827     828     775     774     749     750
       8     854     853     828     829     776     775     750     751
       8     855     854     829     830     777     776     751     752
       8     856     855     830     831     778     777     752     753
       8     857     856     831     785     779     778     753     707
       8     833     857     785     784     755     779     707     706
       8     858     859     860     861     780     781     782     783
       8     860     862     863     861     782     784     785     783
       8     864     859     858     865     786     781     780     787
       8     858     866     867     865     780     788     789     787
       8     868     869     870     864     790     791     792     786
       8     871     872     869     868     793     794     791     790
       8     865     871     868     864     787     793     790     786
       8     873     874     866     875     795     796     788     797
       8     876     877     874     873     798     799     796     795
       8     878     879     877     876     800     801     799     798
       8     880     878     876     881     802     800     798     803
       8     882     867     866     874     804     789     788     796
       8     873     883     881     876     795     805     803     798
       8     858     861     875     866     780     783     797     788
       8     884     871     865     867     806     793     787     789
       8     885     884     867     882     807     806     789     804
       8     886     885     882     887     808     807     804     809
       8     877     887     882     874     799     809     804     796
       8     888     889     883     873     810     811     805     795
       8     890     888     873     875     812     810     795     797
       8     891     890     875     861     813     812     797     783
       8     892     862     860     893     814     784     782     815
       8     894     893     860     859     816     815     782     781
       8     870     894     859     864     792     816     781     786
       8     895     872     871     884     817     794     793     806
       8     896     895     884     885     818     817     806     807
       8     897     896     885     886     819     818     807     808
       8     898     897     886     899     820     819     808     821
       8     900     899     886     887     822     821     808     809
       8     879     900     887     877     801     822     809     799
       8     901     880     881     883     823     802     803     805
       8     902     901     883     889     824     823     805     811
       8     903     902     889     904     825     824     811     826
       8     905     904     889     888     827     826     811     810
       8     906     905     888     890     828     827     810     812
       8     907     906     890     891     829     828     812     813
       8     908     907     891     909     830     829     813     831
       8     863     909     891     861     785     831     813     783
       8     910     911     862     892     832     833     784     814
       8     912     910     892     893     834     832     814     815
       8     913     912     893     894     835     834     815     816
       8     914     913     894     870     836     835     816     792
       8     915     914     870     869     837     836     792     791
       8     916     915     869     872     838     837     791     794
       8     917     916     872     895     839     838     794     817
       8     918     917     895     896     840     839     817     818
       8     919     918     896     897     841     840     818     819
       8     920     919     897     898     842     841     819     820
       8     921     920     898     899     843     842     820     821
       8     922     921     899     900     844     843     821     822
       8     923     922     900     879     845     844     822     801
       8     924     923     879     878     846     845     801     800
       8     925     924     878     880     847     846     800     802
       8     926     925     880     901     848     847     802     823
       8     927     926     901     902     849     848     823     824
       8     928     927     902     903     850     849     824     825
       8     929     928     903     904     851     850     825     826
       8     930     929     904     905     852     851     826     827
       8     931     930     905     906     853     852     827     828
       8     932     931     906     907     854     853     828     829
       8     933     932     907     908     855     854     829     830
       8     934     933     908     909     856     855     830     831
       8     935     934     909     863     857     856     831     785
       8     911     935     863     862     833     857     785     784
       8     936     937     938     939     858     859     860     861
       8     938     940     941     939     860     862     863     861
       8     942     937     936     943     864     859     858     865
       8     936     944     945     943     858     866     867     865
       8     946     947     948     942     868     869     870     864
       8     949     950     947     946     871     872     869     868
       8     943     949     946     942     865     871     868     864
       8     951     952     944     953     873     874     866     875
       8     954     955     952     951     876     877     874     873
       8     956     957     955     954     878     879     877     876
       8     958     956     954     959     880     878     876     881
       8     960     945     944     952     882     867     866     874
       8     951     961     959     954     873     883     881     876
       8     936     939     953     944     858     861     875     866
       8     962     949     943     945     884     871     865     867
       8     963     962     945     960     885     884     867     882
       8     964     963     960     965     886     885     882     887
       8     955     965     960     952     877     887     882     874
       8     966     967     961     951     888     889     883     873
       8     968     966     951     953     890     888     873     875
       8     969     968     953     939     891     890     875     861
       8     970     940     938     971     892     862     860     893
       8     972     971     938     937     894     893     860     859
       8     948     972     937     942     870     894     859     864
       8     973     950     949     962     895     872     871     884
       8     974     973     962     963     896     895     884     885
       8     975     974     963     964     897     896     885     886
       8     976     975     964     977     898     897     886     899
       8     978     977     964     965     900     899     886     887
       8     957     978     965     955     879     900     887     877
       8     979     958     959     961     901     880     881     883
       8     980     979     961     967     902     901     883     889
       8     981     980     967     982     903     902     889     904
       8     983     982     967     966     905     904     889     888
       8     984     983     966     968     906     905     888     890
       8     985     984     968     969     907     906     890     891
       8     986     985     969     987     908     907     891     909
       8     941     987     969     939     863     909     891     861
       8     988     989     940     970     910     911     862     892
       8     990     988     970     971     912     910     892     893
       8     991     990     971     972     913     912     893     894
       8     992     991     972     948     914     913     894     870
       8     993     992     948     947     915     914     870     869
       8     994     993     947     950     916     915     869     872
       8     995     994     950     973     917     916     872     895
       8     996     995     973     974     918     917     895     896
       8     997     996     974     975     919     918     896     897
       8     998     997     975     976     920     919     897     898
       8     999     998     976     977     921     920     898     899
       8    1000     999     977     978     922     921     899     900
       8    1001    1000     978     957     923     922     900     879
       8    1002    1001     957     956     924     923     879     878
       8    1003    1002     956     958     925     924     878     880
       8    1004    1003     958     979     926     925     880     901
       8    1005    1004     979     980     927     926     901     902
       8    1006    1005     980     981     928     927     902     903
       8    1007    1006     981     982     929     928     903     904
       8    1008    1007     982     983     930     929     904     905
       8    1009    1008     983     984     931     930     905     906
       8    1010    1009     984     985     932     931     906     907
       8    1011    1010     985     986     933     932     907     908
       8    1012    1011     986     987     934     933     908     909
       8    1013    1012     987     941     935     934     909     863
       8     989    1013     941     940     911     935     863     862
       8    1014    1015    1016    1017     936     937     938     939
       8    1016    1018    1019    1017     938     940     941     939
       8    1020    1015    1014    1021     942     937     936     943
       8    1014    1022    1023    1021     936     944     945     943
       8    1024    1025    1026    1020     946     947     948     942
       8    1027    1028    1025    1024     949     950     947     946
       8    1021    1027    1024    1020     943     949     946     942
       8    1029    1030    1022    1031     951     952     944     953
       8    1032    1033    1030    1029     954     955     952     951
       8    1034    1035    1033    1032     956     957     955     954
       8    1036    1034    1032    1037     958     956     954     959
       8    1038    1023    1022    1030     960     945     944     952
       8    1029    1039    1037    1032     951     961     959     954
       8    1014    1017    1031    1022     936     939     953     944
       8    1040    1027    1021    1023     962     949     943     945
       8    1041    1040    1023    1038     963     962     945     960
       8    1042    1041    1038    1043     964     963     960     965
       8    1033    1043    1038    1030     955     965     960     952
       8    1044    1045    1039    1029     966     967     961     951
       8    1046    1044    1029    1031     968     966     951     953
       8    1047    1046    1031    1017     969     968     953     939
       8    1048    1018    1016    1049     970     940     938     971
       8    1050    1049    1016    1015     972     971     938     937
       8    1026    1050    1015    1020     948     972     937     942
       8    1051    1028    1027    1040     973     950     949     962
       8    1052    1051    1040    1041     974     973     962     963
       8    1053    1052    1041    1042     975     974     963     964
       8    1054    1053    1042    1055     976     975     964     977
       8    1056    1055    1042    1043     978     977     964     965
       8    1035    1056    1043    1033     957     978     965     955
       8    1057    1036    1037    1039     979     958     959     961
       8    1058    1057    1039    1045     980     979     961     967
       8    1059    1058    1045    1060     981     980     967     982
       8    1061    1060    1045    1044     983     982     967     966
       8    1062    1061    1044    1046     984     983     966     968
       8    1063    1062    1046    1047     985     984     968     969
       8    1064    1063    1047    1065     986     985     969     987
       8    1019    1065    1047    1017     941     987     969     939
       8    1066    1067    1018    1048     988     989     940     970
       8    1068    1066    1048    1049     990     988     970     971
       8    1069    1068    1049    1050     991     990     971     972
       8    1070    1069    1050    1026     992     991     972     948
       8    1071    1070    1026    1025     993     992     948     947
       8    1072    1071    1025    1028     994     993     947     950
       8    1073    1072    1028    1051     995     994     950     973
       8    1074    1073    1051    1052     996     995     973     974
       8    1075    1074    1052    1053     997     996     974     975
       8    1076    1075    1053    1054     998     997     975     976
       8    1077    1076    1054    1055     999     998     976     977
       8    1078    1077    1055    1056    1000     999     977     978
       8    1079    1078    1056    1035    1001    1000     978     957
       8    1080    1079    1035    1034    1002    1001     957     956
       8    1081    1080    1034    1036    1003    1002     956     958
       8    1082    1081    1036    1057    1004    1003     958     979
       8    1083    1082    1057    1058    1005    1004     979     980
       8    1084    1083    1058    1059    1006    1005     980     981
       8    1085    1084    1059    1060    1007    1006     981     982
       8    1086    1085    1060    1061    1008    1007     982     983
       8    1087    1086    1061    1062    1009    1008     983     984
       8    1088    1087    1062    1063    1010    1009     984     985
       8    1089    1088    1063    1064    1011    1010     985     986
       8    1090    1089    1064    1065    1012    1011     986     987
       8    1091    1090    1065    1019    1013    1012     987     941
       8    1067    1091    1019    1018     989    1013     941     940
       8    1092    1093    1094    1095    1014    1015    1016    1017
       8    1094    1096    1097    1095    1016    1018    1019    1017
       8    1098    1093    1092    1099    1020    1015    1014    1021
       8    1092    1100    1101    1099    1014    1022    1023    1021
       8    1102    1103    1104    1098    1024    1025    1026    1020
       8    1105    1106    1103    1102    1027    1028    1025    1024
       8    1099    1105    1102    1098    1021    1027    1024    1020
       8    1107    1108    1100    1109    1029    1030    1022    1031
       8    1110    1111    1108    1107    1032    1033    1030    1029
       8    1112    1113    1111    1110    1034    1035    1033    1032
       8    1114    1112    1110    1115    1036    1034    1032    1037
       8    1116    1101    1100    1108    1038    1023    1022    1030
       8    1107    1117    1115    1110    1029    1039    1037    1032
       8    1092    1095    1109    1100    1014    1017    1031    1022
       8    1118    1105    1099    1101    1040    1027    1021    1023
       8    1119    1118    1101    1116    1041    1040    1023    1038
       8    1120    1119    1116    1121    1042    1041    1038    1043
       8    1111    1121    1116    1108    1033    1043    1038    1030
       8    1122    1123    1117    1107    1044    1045    1039    1029
       8    1124    1122    1107    1109    1046    1044    1029    1031
       8    1125    1124    1109    1095    1047    1046    1031    1017
       8    1126    1096    1094    1127    1048    1018    1016    1049
       8    1128    1127    1094    1093    1050    1049    1016    1015
       8    1104    1128    1093    1098    1026    1050    1015    1020
       8    1129    1106    1105    1118    1051    1028    1027    1040
       8    1130    1129    1118    1119    1052    1051    1040    1041
       8    1131    1130    1119    1120    1053    1052    1041    1042
       8    1132    1131    1120    1133    1054    1053    1042    1055
       8    1134    1133    1120    1121    1056    1055    1042    1043
       8    1113    1134    1121    1111    1035    1056    1043    1033
       8    1135    1114    1115    1117    1057    1036    1037    1039
       8    1136    1135    1117    1123    1058    1057    1039    1045
       8    1137    1136    1123    1138    1059    1058    1045    1060
       8    1139    1138    1123    1122    1061    1060    1045    1044
       8    1140    1139    1122    1124    1062    1061    1044    1046
       8    1141    1140    1124    1125    1063    1062    1046    1047
       8    1142    1141    1125    1143    1064    1063    1047    1065
       8    1097    1143    1125    1095    1019    1065    1047    1017
       8    1144    1145    1096    1126    1066    1067    1018    1048
       8    1146    1144    1126    1127    1068    1066    1048    1049
       8    1147    1146    1127    1128    1069    1068    1049    1050
       8    1148    1147    1128    1104    1070    1069    1050    1026
       8    1149    1148    1104    1103    1071    1070    1026    1025
       8    1150    1149    1103    1106    1072    1071    1025    1028
       8    1151    1150    1106    1129    1073    1072    1028    1051
       8    1152    1151    1129    1130    1074    1073    1051    1052
       8    1153    1152    1130    1131    1075    1074    1052    1053
       8    1154    1153    1131    1132    1076    1075    1053    1054
       8    1155    1154    1132    1133    1077    1076    1054    1055
       8    1156    1155    1133    1134    1078    1077    1055    1056
       8    1157    1156    1134    1113    1079    1078    1056    1035
       8    1158    1157    1113    1112    1080    1079    1035    1034
       8    1159    1158    1112    1114    1081    1080    1034    1036
       8    1160    1159    1114    1135    1082    1081    1036    1057
       8    1161    1160    1135    1136    1083    1082    1057    1058
       8    1162    1161    1136    1137    1084    1083    1058    1059
       8    1163    1162    1137    1138    1085    1084    1059    1060
       8    1164    1163    1138    1139    1086    1085    1060    1061
       8    1165    1164    1139    1140    1087    1086    1061    1062
       8    1166    1165    1140    1141    1088    1087    1062    1063
       8    1167    1166    1141    1142    1089    1088    1063    1064
       8    1168    1167    1142    1143    1090    1089    1064    1065
       8    1169    1168    1143    1097    1091    1090    1065    1019
       8    1145    1169    1097    1096    1067    1091    1019    1018
       8    1170    1171    1172    1173    1092    1093    1094    1095
       8    1172    1174    1175    1173    1094    1096    1097    1095
       8    1176    1171    1170    1177    1098    1093    1092    1099
       8    1170    1178    1179    1177    1092    1100    1101    1099
       8    1180    1181    1182    1176    1102    1103    1104    1098
       8    1183    1184    1181    1180    1105    1106    1103    1102
       8    1177    1183    1180    1176    1099    1105    1102    1098
       8    1185    1186    1178    1187    1107    1108    1100    1109
       8    1188    1189    1186    1185    1110    1111    1108    1107
       8    1190    1191    1189    1188    1112    1113    1111    1110
       8    1192    1190    1188    1193    1114    1112    1110    1115
       8    1194    1179    1178    1186    1116    1101    1100    1108
       8    1185    1195    1193    1188    1107    1117    1115    1110
       8    1170    1173    1187    1178    1092    1095    1109    1100
       8    1196    1183    1177    1179    1118    1105    1099    1101
       8    1197    1196    1179    1194    1119    1118    1101    1116
       8    1198    1197    1194    1199    1120    1119    1116    1121
       8    1189    1199    1194    1186    1111    1121    1116    1108
       8    1200    1201    1195    1185    1122    1123    1117    1107
       8    1202    1200    1185    1187    1124    1122    1107    1109
       8    1203    1202    1187    1173    1125    1124    1109    1095
       8    1204    1174    1172    1205    1126    1096    1094    1127
       8    1206    1205    1172    1171    1128    1127    1094    1093
       8    1182    1206    1171    1176    1104    1128    1093    1098
       8    1207    1184    1183    1196    1129    1106    1105    1118
       8    1208    1207    1196    1197    1130    1129    1118    1119
       8    1209    1208    1197    1198    1131    1130    1119    1120
       8    1210    1209    1198    1211    1132    1131    1120    1133
       8    1212    1211    1198    1199    1134    1133    1120    1121
       8    1191    1212    1199    1189    1113    1134    1121    1111
       8    1213    1192    1193    1195    1135    1114    1115    1117
       8    1214    1213    1195    1201    1136    1135    1117    1123
       8    1215    1214    1201    1216    1137    1136    1123    1138
       8    1217    1216    1201    1200    1139    1138    1123    1122
       8    1218    1217    1200    1202    1140    1139    1122    1124
       8    1219    1218    1202    1203    1141    1140    1124    1125
       8    1220    1219    1203    1221    1142    1141    1125    1143
       8    1175    1221    1203    1173    1097    1143    1125    1095
       8    1222    1223    1174    1204    1144    1145    1096    1126
       8    1224    1222    1204    1205    1146    1144    1126    1127
       8    1225    1224    1205    1206    1147    1146    1127    1128
       8    1226    1225    1206    1182    1148    1147    1128    1104
       8    1227    1226    1182    1181    1149    1148    1104    1103
       8    1228    1227    1181    1184    1150    1149    1103    1106
       8    1229    1228    1184    1207    1151    1150    1106    1129
       8    1230    1229    1207    1208    1152    1151    1129    1130
       8    1231    1230    1208    1209    1153    1152    1130    1131
       8    1232    1231    1209    1210    1154    1153    1131    1132
       8    1233    1232    1210    1211    1155    1154    1132    1133
       8    1234    1233    1211    1212    1156    1155    1133    1134
       8    1235    1234    1212    1191    1157    1156    1134    1113
       8    1236    1235    1191    1190    1158    1157    1113    1112
       8    1237    1236    1190    1192    1159    1158    1112    1114
       8    1238    1237    1192    1213    1160    1159    1114    1135
       8    1239    1238    1213    1214    1161    1160    1135    1136
       8    1240    1239    1214    1215    1162    1161    1136    1137
       8    1241    1240    1215    1216    1163    1162    1137    1138
       8    1242    1241    1216    1217    1164    1163    1138    1139
       8    1243    1242    1217    1218    1165    1164    1139    1140
       8    1244    1243    1218    1219    1166    1165    1140    1141
       8    1245    1244    1219    1220    1167    1166    1141    1142
       8    1246    1245    1220    1221    1168    1167    1142    1143
       8    1247    1246    1221    1175    1169    1168    1143    1097
       8    1223    1247    1175    1174    1145    1169    1097    1096
       8    1248    1249    1250    1251    1170    1171    1172    1173
       8    1250    1252    1253    1251    1172    1174    1175    1173
       8    1254    1249    1248    1255    1176    1171    1170    1177
       8    1248    1256    1257    1255    1170    1178    1179    1177
       8    1258    1259    1260    1254    1180    1181    1182    1176
       8    1261    1262    1259    1258    1183    1184    1181    1180
       8    1255    1261    1258    1254    1177    1183    1180    1176
       8    1263    1264    1256    1265    1185    1186    1178    1187
       8    1266    1267    1264    1263    1188    1189    1186    1185
       8    1268    1269    1267    1266    1190    1191    1189    1188
       8    1270    1268    1266    1271    1192    1190    1188    1193
       8    1272    1257    1256    1264    1194    1179    1178    1186
       8    1263    1273    1271    1266    1185    1195    1193    1188
       8    1248    1251    1265    1256    1170    1173    1187    1178
       8    1274    1261    1255    1257    1196    1183    1177    1179
       8    1275    1274    1257    1272    1197    1196    1179    1194
       8    1276    1275    1272    1277    1198    1197    1194    1199
       8    1267    1277    1272    1264    1189    1199    1194    1186
       8    1278    1279    1273    1263    1200    1201    1195    1185
       8    1280    1278    1263    1265    1202    1200    1185    1187
       8    1281    1280    1265    1251    1203    1202    1187    1173
       8    1282    1252    1250    1283    1204    1174    1172    1205
       8    1284    1283    1250    1249    1206    1205    1172    1171
       8    1260    1284    1249    1254    1182    1206    1171    1176
       8    1285    1262    1261    1274    1207    1184    1183    1196
       8    1286    1285    1274    1275    1208    1207    1196    1197
       8    1287    1286    1275    1276    1209    1208    1197    1198
       8    1288    1287    1276    1289    1210    1209    1198    1211
       8    1290    1289    1276    1277    1212    1211    1198    1199
       8    1269    1290    1277    1267    1191    1212    1199    1189
       8    1291    1270    1271    1273    1213    1192    1193    1195
       8    1292    1291    1273    1279    1214    1213    1195    1201
       8    1293    1292    1279    1294    1215    1214    1201    1216
       8    1295    1294    1279    1278    1217    1216    1201    1200
       8    1296    1295    1278    1280    1218    1217    1200    1202
       8    1297    1296    1280    1281    1219    1218    1202    1203
       8    1298    1297    1281    1299    1220    1219    1203    1221
       8    1253    1299    1281    1251    1175    1221    1203    1173
       8    1300    1301    1252    1282    1222    1223    1174    1204
       8    1302    1300    1282    1283    1224    1222    1204    1205
       8    1303    1302    1283    1284    1225    1224    1205    1206
       8    1304    1303    1284    1260    1226    1225    1206    1182
       8    1305    1304    1260    1259    1227    1226    1182    1181
       8    1306    1305    1259    1262    1228    1227    1181    1184
       8    1307    1306    1262    1285    1229    1228    1184    1207
       8    1308    1307    1285    1286    1230    1229    1207    1208
       8    1309    1308    1286    1287    1231    1230    1208    1209
       8    1310    1309    1287    1288    1232    1231    1209    1210
       8    1311    1310    1288    1289    1233    1232    1210    1211
       8    1312    1311    1289    1290    1234    1233    1211    1212
       8    1313    1312    1290    1269    1235    1234    1212    1191
       8    1314    1313    1269    1268    1236    1235    1191    1190
       8    1315    1314    1268    1270    1237    1236    1190    1192
       8    1316    1315    1270    1291    1238    1237    1192    1213
       8    1317    1316    1291    1292    1239    1238    1213    1214
       8    1318    1317    1292    1293    1240    1239    1214    1215
       8    1319    1318    1293    1294    1241    1240    1215    1216
       8    1320    1319    1294    1295    1242    1241    1216    1217
       8    1321    1320    1295    1296    1243    1242    1217    1218
       8    1322    1321    1296    1297    1244    1243    1218    1219
       8    1323    1322    1297    1298    1245    1244    1219    1220
       8    1324    1323    1298    1299    1246    1245    1220    1221
       8    1325    1324    1299    1253    1247    1246    1221    1175
       8    1301    1325    1253    1252    1223    1247    1175    1174
       8    1326    1327    1328    1329    1248    1249    1250    1251
       8    1328    1330    1331    1329    1250    1252    1253    1251
       8    1332    1327    1326    1333    1254    1249    1248    1255
       8    1326    1334    1335    1333    1248    1256    1257    1255
       8    1336    1337    1338    1332    1258    1259    1260    1254
       8    1339    1340    1337    1336    1261    1262    1259    1258
       8    1333    1339    1336    1332    1255    1261    1258    1254
       8    1341    1342    1334    1343    1263    1264    1256    1265
       8    1344    1345    1342    1341    1266    1267    1264    1263
       8    1346    1347    1345    1344    1268    1269    1267    1266
       8    1348    1346    1344    1349    1270    1268    1266    1271
       8    1350    1335    1334    1342    1272    1257    1256    1264
       8    1341    1351    1349    1344    1263    1273    1271    1266
       8    1326    1329    1343    1334    1248    1251    1265    1256
       8    1352    1339    1333    1335    1274    1261    1255    1257
       8    1353    1352    1335    1350    1275    1274    1257    1272
       8    1354    1353    1350    1355    1276    1275    1272    1277
       8    1345    1355    1350    1342    1267    1277    1272    1264
       8    1356    1357    1351    1341    1278    1279    1273    1263
       8    1358    1356    1341    1343    1280    1278    1263    1265
       8    1359    1358    1343    1329    1281    1280    1265    1251
       8    1360    1330    1328    1361    1282    1252    1250    1283
       8    1362    1361    1328    1327    1284    1283    1250    1249
       8    1338    1362    1327    1332    1260    1284    1249    1254
       8    1363    1340    1339    1352    1285    1262    1261    1274
       8    1364    1363    1352    1353    1286    1285    1274    1275
       8    1365    1364    1353    1354    1287    1286    1275    1276
       8    1366    1365    1354    1367    1288    1287    1276    1289
       8    1368    1367    1354    1355    1290    1289    1276    1277
       8    1347    1368    1355    1345    1269    1290    1277    1267
       8    1369    1348    1349    1351    1291    1270    1271    1273
       8    1370    1369    1351    1357    1292    1291    1273    1279
       8    1371    1370    1357    1372    1293    1292    1279    1294
       8    1373    1372    1357    1356    1295    1294    1279    1278
       8    1374    1373    1356    1358    1296    1295    1278    1280
       8    1375    1374    1358    1359    1297    1296    1280    1281
       8    1376    1375    1359    1377    1298    1297    1281    1299
       8    1331    1377    1359    1329    1253    1299    1281    1251
       8    1378    1379    1330    1360    1300    1301    1252    1282
       8    1380    1378    1360    1361    1302    1300    1282    1283
       8    1381    1380    1361    1362    1303    1302    1283    1284
       8    1382    1381    1362    1338    1304    1303    1284    1260
       8    1383    1382    1338    1337    1305    1304    1260    1259
       8    1384    1383    1337    1340    1306    1305    1259    1262
       8    1385    1384    1340    1363    1307    1306    1262    1285
       8    1386    1385    1363    1364    1308    1307    1285    1286
       8    1387    1386    1364    1365    1309    1308    1286    1287
       8    1388    1387    1365    1366    1310    1309    1287    1288
       8    1389    1388    1366    1367    1311    1310    1288    1289
       8    1390    1389    1367    1368    1312    1311    1289    1290
       8    1391    1390    1368    1347    1313    1312    1290    1269
       8    1392    1391    1347    1346    1314    1313    1269    1268
       8    1393    1392    1346    1348    1315    1314    1268    1270
       8    1394    1393    1348    1369    1316    1315    1270    1291
       8    1395    1394    1369    1370    1317    1316    1291    1292
       8    1396    1395    1370    1371    1318    1317    1292    1293
       8    1397    1396    1371    1372    1319    1318    1293    1294
       8    1398    1397    1372    1373    1320    1319    1294    1295
       8    1399    1398    1373    1374    1321    1320    1295    1296
       8    1400    1399    1374    1375    1322    1321    1296    1297
       8    1401    1400    1375    1376    1323    1322    1297    1298
       8    1402    1401    1376    1377    1324    1323    1298    1299
       8    1403    1402    1377    1331    1325    1324    1299    1253
       8    1379    1403    1331    1330    1301    1325    1253    1252
       8    1404    1405    1406    1407    1326    1327    1328    1329
       8    1406    1408    1409    1407    1328    1330    1331    1329
       8    1410    1405    1404    1411    1332    1327    1326    1333
       8    1404    1412    1413    1411    1326    1334    1335    1333
       8    1414    1415    1416    1410    1336    1337    1338    1332
       8    1417    1418    1415    1414    1339    1340    1337    1336
       8    1411    1417    1414    1410    1333    1339    1336    1332
       8    1419    1420    1412    1421    1341    1342    1334    1343
       8    1422    1423    1420    1419    1344    1345    1342    1341
       8    1424    1425    1423    1422    1346    1347    1345    1344
       8    1426    1424    1422    1427    1348    1346    1344    1349
       8    1428    1413    1412    1420    1350    1335    1334    1342
       8    1419    1429    1427    1422    1341    1351    1349    1344
       8    1404    1407    1421    1412    1326    1329    1343    1334
       8    1430    1417    1411    1413    1352    1339    1333    1335
       8    1431    1430    1413    1428    1353    1352    1335    1350
       8    1432    1431    1428    1433    1354    1353    1350    1355
       8    1423    1433    1428    1420    1345    1355    1350    1342
       8    1434    1435    1429    1419    1356    1357    1351    1341
       8    1436    1434    1419    1421    1358    1356    1341    1343
       8    1437    1436    1421    1407    1359    1358    1343    1329
       8    1438    1408    1406    1439    1360    1330    1328    1361
       8    1440    1439    1406    1405    1362    1361    1328    1327
       8    1416    1440    1405    1410    1338    1362    1327    1332
       8    1441    1418    1417    1430    1363    1340    1339    1352
       8    1442    1441    1430    1431    1364    1363    1352    1353
       8    1443    1442    1431    1432    1365    1364    1353    1354
       8    1444    1443    1432    1445    1366    1365    1354    1367
       8    1446    1445    1432    1433    1368    1367    1354    1355
       8    1425    1446    1433    1423    1347    1368    1355    1345
       8    1447    1426    1427    1429    1369    1348    1349    1351
       8    1448    1447    1429    1435    1370    1369    1351    1357
       8    1449    1448    1435    1450    1371    1370    1357    1372
       8    1451    1450    1435    1434    1373    1372    1357    1356
       8    1452    1451    1434    1436    1374    1373    1356    1358
       8    1453    1452    1436    1437    1375    1374    1358    1359
       8    1454    1453    1437    1455    1376    1375    1359    1377
       8    1409    1455    1437    1407    1331    1377    1359    1329
       8    1456    1457    1408    1438    1378    1379    1330    1360
       8    1458    1456    1438    1439    1380    1378    1360    1361
       8    1459    1458    1439    1440    1381    1380    1361    1362
       8    1460    1459    1440    1416    1382    1381    1362    1338
       8    1461    1460    1416    1415    1383    1382    1338    1337
       8    1462    1461    1415    1418    1384    1383    1337    1340
       8    1463    1462    1418    1441    1385    1384    1340    1363
       8    1464    1463    1441    1442    1386    1385    1363    1364
       8    1465    1464    1442    1443    1387    1386    1364    1365
       8    1466    1465    1443    1444    1388    1387    1365    1366
       8    1467    1466    1444    1445    1389    1388    1366    1367
       8    1468    1467    1445    1446    1390    1389    1367    1368
       8    1469    1468    1446    1425    1391    1390    1368    1347
       8    1470    1469    1425    1424    1392    1391    1347    1346
       8    1471    1470    1424    1426    1393    1392    1346    1348
       8    1472    1471    1426    1447    1394    1393    1348    1369
       8    1473    1472    1447    1448    1395    1394    1369    1370
       8    1474    1473    1448    1449    1396    1395    1370    1371
       8    1475    1474    1449    1450    1397    1396    1371    1372
       8    1476    1475    1450    1451    1398    1397    1372    1373
       8    1477    1476    1451    1452    1399    1398    1373    1374
       8    1478    1477    1452    1453    1400    1399    1374    1375
       8    1479    1478    1453    1454    1401    1400    1375    1376
       8    1480    1479    1454    1455    1402    1401    1376    1377
       8    1481    1480    1455    1409    1403    1402    1377    1331
       8    1457    1481    1409    1408    1379    1403    1331    1330
       8    1482    1483    1484    1485    1404    1405    1406    1407
       8    1484    1486    1487    1485    1406    1408    1409    1407
       8    1488    1483    1482    1489    1410    1405    1404    1411
       8    1482    1490    1491    1489    1404    1412    1413    1411
       8    1492    1493    1494    1488    1414    1415    1416    1410
       8    1495    1496    1493    1492    1417    1418    1415    1414
       8    1489    1495    1492    1488    1411    1417    1414    1410
       8    1497    1498    1490    1499    1419    1420    1412    1421
       8    1500    1501    1498    1497    1422    1423    1420    1419
       8    1502    1503    1501    1500    1424    1425    1423    1422
       8    1504    1502    1500    1505    1426    1424    1422    1427
       8    1506    1491    1490    1498    1428    1413    1412    1420
       8    1497    1507    1505    1500    1419    1429    1427    1422
       8    1482    1485    1499    1490    1404    1407    1421    1412
       8    1508    1495    1489    1491    1430    1417    1411    1413
       8    1509    1508    1491    1506    1431    1430    1413    1428
       8    1510    1509    1506    1511    1432    1431    1428    1433
       8    1501    1511    1506    1498    1423    1433    1428    1420
       8    1512    1513    1507    1497    1434    1435    1429    1419
       8    1514    1512    1497    1499    1436    1434    1419    1421
       8    1515    1514    1499    1485    1437    1436    1421    1407
       8    1516    1486    1484    1517    1438    1408    1406    1439
       8    1518    1517    1484    1483    1440    1439    1406    1405
       8    1494    1518    1483    1488    1416    1440    1405    1410
       8    1519    1496    1495    1508    1441    1418    1417    1430
       8    1520    1519    1508    1509    1442    1441    1430    1431
       8    1521    1520    1509    1510    1443    1442    1431    1432
       8    1522    1521    1510    1523    1444    1443    1432    1445
       8    1524    1523    1510    1511    1446    1445    1432    1433
       8    1503    1524    1511    1501    1425    1446    1433    1423
       8    1525    1504    1505    1507    1447    1426    1427    1429
       8    1526    1525    1507    1513    1448    1447    1429    1435
       8    1527    1526    1513    1528    1449    1448    1435    1450
       8    1529    1528    1513    1512    1451    1450    1435    1434
       8    1530    1529    1512    1514    1452    1451    1434    1436
       8    1531    1530    1514    1515    1453    1452    1436    1437
       8    1532    1531    1515    1533    1454    1453    1437    1455
       8    1487    1533    1515    1485    1409    1455    1437    1407
       8    1534    1535    1486    1516    1456    1457    1408    1438
       8    1536    1534    1516    1517    1458    1456    1438    1439
       8    1537    1536    1517    1518    1459    1458    1439    1440
       8    1538    1537    1518    1494    1460    1459    1440    1416
       8    1539    1538    1494    1493    1461    1460    1416    1415
       8    1540    1539    1493    1496    1462    1461    1415    1418
       8    1541    1540    1496    1519    1463    1462    1418    1441
       8    1542    1541    1519    1520    1464    1463    1441    1442
       8    1543    1542    1520    1521    1465    1464    1442    1443
       8    1544    1543    1521    1522    1466    1465    1443    1444
       8    1545    1544    1522    1523    1467    1466    1444    1445
       8    1546    1545    1523    1524    1468    1467    1445    1446
       8    1547    1546    1524    1503    1469    1468    1446    1425
       8    1548    1547    1503    1502    1470    1469    1425    1424
       8    1549    1548    1502    1504    1471    1470    1424    1426
       8    1550    1549    1504    1525    1472    1471    1426    1447
       8    1551    1550    1525    1526    1473    1472    1447    1448
       8    1552    1551    1526    1527    1474    1473    1448    1449
       8    1553    1552    1527    1528    1475    1474    1449    1450
       8    1554    1553    1528    1529    1476    1475    1450    1451
       8    1555    1554    1529    1530    1477    1476    1451    1452
       8    1556    1555    1530    1531    1478    1477    1452    1453
       8    1557    1556    1531    1532    1479    1478    1453    1454
       8    1558    1557    1532    1533    1480    1479    1454    1455
       8    1559    1558    1533    1487    1481    1480    1455    1409
       8    1535    1559    1487    1486    1457    1481    1409    1408
       8    1560    1561    1562    1563    1482    1483    1484    1485
       8    1562    1564    1565    1563    1484    1486    1487    1485
       8    1566    1561    1560    1567    1488    1483    1482    1489
       8    1560    1568    1569    1567    1482    1490    1491    1489
       8    1570    1571    1572    1566    1492    1493    1494    1488
       8    1573    1574    1571    1570    1495    1496    1493    1492
       8    1567    1573    1570    1566    1489    1495    1492    1488
       8    1575    1576    1568    1577    1497    1498    1490    1499
       8    1578    1579    1576    1575    1500    1501    1498    1497
       8    1580    1581    1579    1578    1502    1503    1501    1500
       8    1582    1580    1578    1583    1504    1502    1500    1505
       8    1584    1569    1568    1576    1506    1491    1490    1498
       8    1575    1585    1583    1578    1497    1507    1505    1500
       8    1560    1563    1577    1568    1482    1485    1499    1490
       8    1586    1573    1567    1569    1508    1495    1489    1491
       8    1587    1586    1569    1584    1509    1508    1491    1506
       8    1588    1587    1584    1589    1510    1509    1506    1511
       8    1579    1589    1584    1576    1501    1511    1506    1498
       8    1590    1591    1585    1575    1512    1513    1507    1497
       8    1592    1590    1575    1577    1514    1512    1497    1499
       8    1593    1592    1577    1563    1515    1514    1499    1485
       8    1594    1564    1562    1595    1516    1486    1484    1517
       8    1596    1595    1562    1561    1518    1517    1484    1483
       8    1572    1596    1561    1566    1494    1518    1483    1488
       8    1597    1574    1573    1586    1519    1496    1495    1508
       8    1598    1597    1586    1587    1520    1519    1508    1509
       8    1599    1598    1587    1588    1521    1520    1509    1510
       8    1600    1599    1588    1601    1522    1521    1510    1523
       8    1602    1601    1588    1589    1524    1523    1510    1511
       8    1581    1602    1589    1579    1503    1524    1511    1501
       8    1603    1582    1583    1585    1525    1504    1505    1507
       8    1604    1603    1585    1591    1526    1525    1507    1513
       8    1605    1604    1591    1606    1527    1526    1513    1528
       8    1607    1606    1591    1590    1529    1528    1513    1512
       8    1608    1607    1590    1592    1530    1529    1512    1514
       8    1609    1608    1592    1593    1531    1530    1514    1515
       8    1610    1609    1593    1611    1532    1531    1515    1533
       8    1565    1611    1593    1563    1487    1533    1515    1485
       8    1612    1613    1564    1594    1534    1535    1486    1516
       8    1614    1612    1594    1595    1536    1534    1516    1517
       8    1615    1614    1595    1596    1537    1536    1517    1518
       8    1616    1615    1596    1572    1538    1537    1518    1494
       8    1617    1616    1572    1571    1539    1538    1494    1493
       8    1618    1617    1571    1574    1540    1539    1493    1496
       8    1619    1618    1574    1597    1541    1540    1496    1519
       8    1620    1619    1597    1598    1542    1541    1519    1520
       8    1621    1620    1598    1599    1543    1542    1520    1521
       8    1622    1621    1599    1600    1544    1543    1521    1522
       8    1623    1622    1600    1601    1545    1544    1522    1523
       8    1624    1623    1601    1602    1546    1545    1523    1524
       8    1625    1624    1602    1581    1547    1546    1524    1503
       8    1626    1625    1581    1580    1548    1547    1503    1502
       8    1627    1626    1580    1582    1549    1548    1502    1504
       8    1628    1627    1582    1603    1550    1549    1504    1525
       8    1629    1628    1603    1604    1551    1550    1525    1526
       8    1630    1629    1604    1605    1552    1551    1526    1527
       8    1631    1630    1605    1606    1553    1552    1527    1528
       8    1632    1631    1606    1607    1554    1553    1528    1529
       8    1633    1632    1607    1608    1555    1554    1529    1530
       8    1634    1633    1608    1609    1556    1555    1530    1531
       8    1635    1634    1609    1610    1557    1556    1531    1532
       8    1636    1635    1610    1611    1558    1557    1532    1533
       8    1637    1636    1611    1565    1559    1558    1533    1487
       8    1613    1637    1565    1564    1535    1559    1487    1486
       8    1638    1639    1640    1641    1560    1561    1562    1563
       8    1640    1642    1643    1641    1562    1564    1565    1563
       8    1644    1639    1638    1645    1566    1561    1560    1567
       8    1638    1646    1647    1645    1560    1568    1569    1567
       8    1648    1649    1650    1644    1570    1571    1572    1566
       8    1651    1652    1649    1648    1573    1574    1571    1570
       8    1645    1651    1648    1644    1567    1573    1570    1566
       8    1653    1654    1646    1655    1575    1576    1568    1577
       8    1656    1657    1654    1653    1578    1579    1576    1575
       8    1658    1659    1657    1656    1580    1581    1579    1578
       8    1660    1658    1656    1661    1582    1580    1578    1583
       8    1662    1647    1646    1654    1584    1569    1568    1576
       8    1653    1663    1661    1656    1575    1585    1583    1578
       8    1638    1641    1655    1646    1560    1563    1577    1568
       8    1664    1651    1645    1647    1586    1573    1567    1569
       8    1665    1664    1647    1662    1587    1586    1569    1584
       8    1666    1665    1662    1667    1588    1587    1584    1589
       8    1657    1667    1662    1654    1579    1589    1584    1576
       8    1668    1669    1663    1653    1590    1591    1585    1575
       8    1670    1668    1653    1655    1592    1590    1575    1577
       8    1671    1670    1655    1641    1593    1592    1577    1563
       8    1672    1642    1640    1673    1594    1564    1562    1595
       8    1674    1673    1640    1639    1596    1595    1562    1561
       8    1650    1674    1639    1644    1572    1596    1561    1566
       8    1675    1652    1651    1664    1597    1574    1573    1586
       8    1676    1675    1664    1665    1598    1597    1586    1587
       8    1677    1676    1665    1666    1599    1598    1587    1588
       8    1678    1677    1666    1679    1600    1599    1588    1601
       8    1680    1679    1666    1667    1602    1601    1588    1589
       8    1659    1680    1667    1657    1581    1602    1589    1579
       8    1681    1660    1661    1663    1603    1582    1583    1585
       8    1682    1681    1663    1669    1604    1603    1585    1591
       8    1683    1682    1669    1684    1605    1604    1591    1606
       8    1685    1684    1669    1668    1607    1606    1591    1590
       8    1686    1685    1668    1670    1608    1607    1590    1592
       8    1687    1686    1670    1671    1609    1608    1592    1593
       8    1688    1687    1671    1689    1610    1609    1593    1611
       8    1643    1689    1671    1641    1565    1611    1593    1563
       8    1690    1691    1642    1672    1612    1613    1564    1594
       8    1692    1690    1672    1673    1614    1612    1594    1595
       8    1693    1692    1673    1674    1615    1614    1595    1596
       8    1694    1693    1674    1650    1616    1615    1596    1572
       8    1695    1694    1650    1649    1617    1616    1572    1571
       8    1696    1695    1649    1652    1618    1617    1571    1574
       8    1697    1696    1652    1675    1619    1618    1574    1597
       8    1698    1697    1675    1676    1620    1619    1597    1598
       8    1699    1698    1676    1677    1621    1620    1598    1599
       8    1700    1699    1677    1678    1622    1621    1599    1600
       8    1701    1700    1678    1679    1623    1622    1600    1601
       8    1702    1701    1679    1680    1624    1623    1601    1602
       8    1703    1702    1680    1659    1625    1624    1602    1581
       8    1704    1703    1659    1658    1626    1625    1581    1580
       8    1705    1704    1658    1660    1627    1626    1580    1582
       8    1706    1705    1660    1681    1628    1627    1582    1603
       8    1707    1706    1681    1682    1629    1628    1603    1604
       8    1708    1707    1682    1683    1630    1629    1604    1605
       8    1709    1708    1683    1684    1631    1630    1605    1606
       8    1710    1709    1684    1685    1632    1631    1606    1607
       8    1711    1710    1685    1686    1633    1632    1607    1608
       8    1712    1711    1686    1687    1634    1633    1608    1609
       8    1713    1712    1687    1688    1635    1634    1609    1610
       8    1714    1713    1688    1689    1636    1635    1610    1611
       8    1715    1714    1689    1643    1637    1636    1611    1565
       8    1691    1715    1643    1642    1613    1637    1565    1564
       8    1716    1717    1718    1719    1638    1639    1640    1641
       8    1718    1720    1721    1719    1640    1642    1643    1641
       8    1722    1717    1716    1723    1644    1639    1638    1645
       8    1716    1724    1725    1723    1638    1646    1647    1645
       8    1726    1727    1728    1722    1648    1649    1650    1644
       8    1729    1730    1727    1726    1651    1652    1649    1648
       8    1723    1729    1726    1722    1645    1651    1648    1644
       8    1731    1732    1724    1733    1653    1654    1646    1655
       8    1734    1735    1732    1731    1656    1657    1654    1653
       8    1736    1737    1735    1734    1658    1659    1657    1656
       8    1738    1736    1734    1739    1660    1658    1656    1661
       8    1740    1725    1724    1732    1662    1647    1646    1654
       8    1731    1741    1739    1734    1653    1663    1661    1656
       8    1716    1719    1733    1724    1638    1641    1655    1646
       8    1742    1729    1723    1725    1664    1651    1645    1647
       8    1743    1742    1725    1740    1665    1664    1647    1662
       8    1744    1743    1740    1745    1666    1665    1662    1667
       8    1735    1745    1740    1732    1657    1667    1662    1654
       8    1746    1747    1741    1731    1668    1669    1663    1653
       8    1748    1746    1731    1733    1670    1668    1653    1655
       8    1749    1748    1733    1719    1671    1670    1655    1641
       8    1750    1720    1718    1751    1672    1642    1640    1673
       8    1752    1751    1718    1717    1674    1673    1640    1639
       8    1728    1752    1717    1722    1650    1674    1639    1644
       8    1753    1730    1729    1742    1675    1652    1651    1664
       8    1754    1753    1742    1743    1676    1675    1664    1665
       8    1755    1754    1743    1744    1677    1676    1665    1666
       8    1756    1755    1744    1757    1678    1677    1666    1679
       8    1758    1757    1744    1745    1680    1679    1666    1667
       8    1737    1758    1745    1735    1659    1680    1667    1657
       8    1759    1738    1739    1741    1681    1660    1661    1663
       8    1760    1759    1741    1747    1682    1681    1663    1669
       8    1761    1760    1747    1762    1683    1682    1669    1684
       8    1763    1762    1747    1746    1685    1684    1669    1668
       8    1764    1763    1746    1748    1686    1685    1668    1670
       8    1765    1764    1748    1749    1687    1686    1670    1671
       8    1766    1765    1749    1767    1688    1687    1671    1689
       8    1721    1767    1749    1719    1643    1689    1671    1641
       8    1768    1769    1720    1750    1690    1691    1642    1672
       8    1770    1768    1750    1751    1692    1690    1672    1673
       8    1771    1770    1751    1752    1693    1692    1673    1674
       8    1772    1771    1752    1728    1694    1693    1674    1650
       8    1773    1772    1728    1727    1695    1694    1650    1649
       8    1774    1773    1727    1730    1696    1695    1649    1652
       8    1775    1774    1730    1753    1697    1696    1652    1675
       8    1776    1775    1753    1754    1698    1697    1675    1676
       8    1777    1776    1754    1755    1699    1698    1676    1677
       8    1778    1777    1755    1756    1700    1699    1677    1678
       8    1779    1778    1756    1757    1701    1700    1678    1679
       8    1780    1779    1757    1758    1702    1701    1679    1680
       8    1781    1780    1758    1737    1703    1702    1680    1659
       8    1782    1781    1737    1736    1704    1703    1659    1658
       8    1783    1782    1736    1738    1705    1704    1658    1660
       8    1784    1783    1738    1759    1706    1705    1660    1681
       8    1785    1784    1759    1760    1707    1706    1681    1682
       8    1786    1785    1760    1761    1708    1707    1682    1683
       8    1787    1786    1761    1762    1709    1708    1683    1684
       8    1788    1787    1762    1763    1710    1709    1684    1685
       8    1789    1788    1763    1764    1711    1710    1685    1686
       8    1790    1789    1764    1765    1712    1711    1686    1687
       8    1791    1790    1765    1766    1713    1712    1687    1688
       8    1792    1791    1766    1767    1714    1713    1688    1689
       8    1793    1792    1767    1721    1715    1714    1689    1643
       8    1769    1793    1721    1720    1691    1715    1643    1642
       8    1794    1795    1796    1797    1716    1717    1718    1719
       8    1796    1798    1799    1797    1718    1720    1721    1719
       8    1800    1795    1794    1801    1722    1717    1716    1723
       8    1794    1802    1803    1801    1716    1724    1725    1723
       8    1804    1805    1806    1800    1726    1727    1728    1722
       8    1807    1808    1805    1804    1729    1730    1727    1726
       8    1801    1807    1804    1800    1723    1729    1726    1722
       8    1809    1810    1802    1811    1731    1732    1724    1733
       8    1812    1813    1810    1809    1734    1735    1732    1731
       8    1814    1815    1813    1812    1736    1737    1735    1734
       8    1816    1814    1812    1817    1738    1736    1734    1739
       8    1818    1803    1802    1810    1740    1725    1724    1732
       8    1809    1819    1817    1812    1731    1741    1739    1734
       8    1794    1797    1811    1802    1716    1719    1733    1724
       8    1820    1807    1801    1803    1742    1729    1723    1725
       8    1821    1820    1803    1818    1743    1742    1725    1740
       8    1822    1821    1818    1823    1744    1743    1740    1745
       8    1813    1823    1818    1810    1735    1745    1740    1732
       8    1824    1825    1819    1809    1746    1747    1741    1731
       8    1826    1824    1809    1811    1748    1746    1731    1733
       8    1827    1826    1811    1797    1749    1748    1733    1719
       8    1828    1798    1796    1829    1750    1720    1718    1751
       8    1830    1829    1796    1795    1752    1751    1718    1717
       8    1806    1830    1795    1800    1728    1752    1717    1722
       8    1831    1808    1807    1820    1753    1730    1729    1742
       8    1832    1831    1820    1821    1754    1753    1742    1743
       8    1833    1832    1821    1822    1755    1754    1743    1744
       8    1834    1833    1822    1835    1756    1755    1744    1757
       8    1836    1835    1822    1823    1758    1757    1744    1745
       8    1815    1836    1823    1813    1737    1758    1745    1735
       8    1837    1816    1817    1819    1759    1738    1739    1741
       8    1838    1837    1819    1825    1760    1759    1741    1747
       8    1839    1838    1825    1840    1761    1760    1747    1762
       8    1841    1840    1825    1824    1763    1762    1747    1746
       8    1842    1841    1824    1826    1764    1763    1746    1748
       8    1843    1842    1826    1827    1765    1764    1748    1749
       8    1844    1843    1827    1845    1766    1765    1749    1767
       8    1799    1845    1827    1797    1721    1767    1749    1719
       8    1846    1847    1798    1828    1768    1769    1720    1750
       8    1848    1846    1828    1829    1770    1768    1750    1751
       8    1849    1848    1829    1830    1771    1770    1751    1752
       8    1850    1849    1830    1806    1772    1771    1752    1728
       8    1851    1850    1806    1805    1773    1772    1728    1727
       8    1852    1851    1805    1808    1774    1773    1727    1730
       8    1853    1852    1808    1831    1775    1774    1730    1753
       8    1854    1853    1831    1832    1776    1775    1753    1754
       8    1855    1854    1832    1833    1777    1776    1754    1755
       8    1856    1855    1833    1834    1778    1777    1755    1756
       8    1857    1856    1834    1835    1779    1778    1756    1757
       8    1858    1857    1835    1836    1780    1779    1757    1758
       8    1859    1858    1836    1815    1781    1780    1758    1737
       8    1860    1859    1815    1814    1782    1781    1737    1736
       8    1861    1860    1814    1816    1783    1782    1736    1738
       8    1862    1861    1816    1837    1784    1783    1738    1759
       8    1863    1862    1837    1838    1785    1784    1759    1760
       8    1864    1863    1838    1839    1786    1785    1760    1761
       8    1865    1864    1839    1840    1787    1786    1761    1762
       8    1866    1865    1840    1841    1788    1787    1762    1763
       8    1867    1866    1841    1842    1789    1788    1763    1764
       8    1868    1867    1842    1843    1790    1789    1764    1765
       8    1869    1868    1843    1844    1791    1790    1765    1766
       8    1870    1869    1844    1845    1792    1791    1766    1767
       8    1871    1870    1845    1799    1793    1792    1767    1721
       8    1847    1871    1799    1798    1769    1793    1721    1720
       8    1872    1873    1874    1875    1794    1795    1796    1797
       8    1874    1876    1877    1875    1796    1798    1799    1797
       8    1878    1873    1872    1879    1800    1795    1794    1801
       8    1872    1880    1881    1879    1794    1802    1803    1801
       8    1882    1883    1884    1878    1804    1805    1806    1800
       8    1885    1886    1883    1882    1807    1808    1805    1804
       8    1879    1885    1882    1878    1801    1807    1804    1800
       8    1887    1888    1880    1889    1809    1810    1802    1811
       8    1890    1891    1888    1887    1812    1813    1810    1809
       8    1892    1893    1891    1890    1814    1815    1813    1812
       8    1894    1892    1890    1895    1816    1814    1812    1817
       8    1896    1881    1880    1888    1818    1803    1802    1810
       8    1887    1897    1895    1890    1809    1819    1817    1812
       8    1872    1875    1889    1880    1794    1797    1811    1802
       8    1898    1885    1879    1881    1820    1807    1801    1803
       8    1899    1898    1881    1896    1821    1820    1803    1818
       8    1900    1899    1896    1901    1822    1821    1818    1823
       8    1891    1901    1896    1888    1813    1823    1818    1810
       8    1902    1903    1897    1887    1824    1825    1819    1809
       8    1904    1902    1887    1889    1826    1824    1809    1811
       8    1905    1904    1889    1875    1827    1826    1811    1797
       8    1906    1876    1874    1907    1828    1798    1796    1829
       8    1908    1907    1874    1873    1830    1829    1796    1795
       8    1884    1908    1873    1878    1806    1830    1795    1800
       8    1909    1886    1885    1898    1831    1808    1807    1820
       8    1910    1909    1898    1899    1832    1831    1820    1821
       8    1911    1910    1899    1900    1833    1832    1821    1822
       8    1912    1911    1900    1913    1834    1833    1822    1835
       8    1914    1913    1900    1901    1836    1835    1822    1823
       8    1893    1914    1901    1891    1815    1836    1823    1813
       8    1915    1894    1895    1897    1837    1816    1817    1819
       8    1916    1915    1897    1903    1838    1837    1819    1825
       8    1917    1916    1903    1918    1839    1838    1825    1840
       8    1919    1918    1903    1902    1841    1840    1825    1824
       8    1920    1919    1902    1904    1842    1841    1824    1826
       8    1921    1920    1904    1905    1843    1842    1826    1827
       8    1922    1921    1905    1923    1844    1843    1827    1845
       8    1877    1923    1905    1875    1799    1845    1827    1797
       8    1924    1925    1876    1906    1846    1847    1798    1828
       8    1926    1924    1906    1907    1848    1846    1828    1829
       8    1927    1926    1907    1908    1849    1848    1829    1830
       8    1928    1927    1908    1884    1850    1849    1830    1806
       8    1929    1928    1884    1883    1851    1850    1806    1805
       8    1930    1929    1883    1886    1852    1851    1805    1808
       8    1931    1930    1886    1909    1853    1852    1808    1831
       8    1932    1931    1909    1910    1854    1853    1831    1832
       8    1933    1932    1910    1911    1855    1854    1832    1833
       8    1934    1933    1911    1912    1856    1855    1833    1834
       8    1935    1934    1912    1913    1857    1856    1834    1835
       8    1936    1935    1913    1914    1858    1857    1835    1836
       8    1937    1936    1914    1893    1859    1858    1836    1815
       8    1938    1937    1893    1892    1860    1859    1815    1814
       8    1939    1938    1892    1894    1861    1860    1814    1816
       8    1940    1939    1894    1915    1862    1861    1816    1837
       8    1941    1940    1915    1916    1863    1862    1837    1838
       8    1942    1941    1916    1917    1864    1863    1838    1839
       8    1943    1942    1917    1918    1865    1864    1839    1840
       8    1944    1943    1918    1919    1866    1865    1840    1841
       8    1945    1944    1919    1920    1867    1866    1841    1842
       8    1946    1945    1920    1921    1868    1867    1842    1843
       8    1947    1946    1921    1922    1869    1868    1843    1844
       8    1948    1947    1922    1923    1870    1869    1844    1845
       8    1949    1948    1923    1877    1871    1870    1845    1799
       8    1925    1949    1877    1876    1847    1871    1799    1798
  
CELL_TYPES    3486
       1
       1
       1
       1
       1
       1
       1
       1
       1
       1
       1
       1
       1
       1
       1
       1
       1
       1
       1
       1
       1
       1
       1
       1
       1
       1
       1
       1
       1
       1
       1
       1
       1
       1
       1
       1
       1
       1
       1
       1
       1
       1
       1
       1
       1
       1
       1
       1
       1
       1
       1
       1
       1
       1
       1
       1
       1
       1
       1
       1
       1
       1
       1
       1
       1
       1
       1
       1
       1
       1
       1
       1
       1
       1
       1
       1
       1
       1
       1
       1
       1
       1
       1
       1
       1
       1
       1
       1
       1
       1
       1
       1
       1
       1
       1
       1
       1
       1
       1
       1
       1
       1
       1
       1
       1
       1
       1
       1
       1
       1
       1
       1
       1
       1
       1
       1
       1
       1
       1
       1
       1
       1
       1
       1
       1
       1
       1
       1
       1
       1
       1
       1
       1
       1
       1
       1
       1
       1
       1
       1
       1
       1
       1
       1
       1
       1
       1
       1
       1
       1
       1
       1
       1
       1
       1
       1
       1
       1
       1
       1
       1
       1
       1
       1
       1
       1
       1
       1
       1
       1
       1
       1
       1
       1
       1
       1
       1
       1
       1
       1
       1
       1
       1
       1
       1
       1
       1
       1
       1
       1
       1
       1
       1
       1
       1
       1
       1
       1
       1
       1
       1
       1
       1
       1
       1
       1
       1
       1
       1
       1
       1
       1
       1
       1
       1
       1
       1
       1
       1
       1
       1
       1
       1
       1
       1
       1
       1
       1
       1
       1
       1
       1
       1
       1
       1
       1
       1
       1
       1
       1
       1
       1
       1
       1
       1
       1
       1
       1
       1
       1
       1
       1
       1
       1
       1
       1
       1
       1
       1
       1
       1
       1
       1
       1
       1
       1
       1
       1
       1
       1
       1
       1
       1
       1
       1
       1
       1
       1
       1
       1
       1
       1
       1
       1
       1
       1
       1
       1
       1
       1
       1
       1
       1
       1
       1
       1
       1
       1
       1
       1
       1
       1
       1
       1
       1
       1
       1
       1
       1
       1
       1
       1
       1
       1
       1
       1
       1
       1
       1
       1
       1
       1
       1
       1
       1
       1
       1
       1
       1
       1
       1
       1
       1
       1
       1
       1
       1
       1
       1
       1
       1
       1
       1
       1
       1
       1
       1
       1
       1
       1
       1
       1
       1
       1
       1
       1
       1
       1
       1
       1
       1
       1
       1
       1
       1
       1
       1
       1
       1
       1
       1
       1
       1
       1
       1
       1
       1
       1
       1
       1
       1
       1
       1
       1
       1
       1
       1
       1
       1
       1
       1
       1
       1
       1
       1
       1
       1
       1
       1
       1
       1
       1
       1
       1
       1
       1
       1
       1
       1
       1
       1
       1
       1
       1
       1
       1
       1
       1
       1
       1
       1
       1
       1
       1
       1
       1
       1
       1
       1
       1
       1
       1
       1
       1
       1
       1
       1
       1
       1
       1
       1
       1
       1
       1
       1
       1
       1
       1
       1
       1
       1
       1
       1
       1
       1
       1
       1
       1
       1
       1
       1
       1
       1
       1
       1
       1
       1
       1
       1
       1
       1
       1
       1
       1
       1
       1
       1
       1
       1
       1
       1
       1
       1
       1
       1
       1
       1
       1
       1
       1
       1
       1
       1
       1
       1
       1
       1
       1
       1
       1
       1
       1
       1
       1
       1
       1
       1
       1
       1
       1
       1
       1
       1
       1
       1
       1
       1
       1
       1
       1
       1
       1
       1
       1
       1
       1
       1
       1
       1
       1
       1
       1
       1
       1
       1
       1
       1
       1
       1
       1
       1
       1
       1
       1
       1
       1
       1
       1
       1
       1
       1
       1
       1
       1
       1
       1
       1
       1
       1
       1
       1
       1
       1
       1
       1
       1
       1
       1
       1
       1
       1
       1
       1
       1
       1
       1
       1
       1
       1
       1
       1
       1
       1
       1
       1
       1
       1
       1
       1
       1
       1
       1
       1
       1
       1
       1
       1
       1
       1
       1
       1
       1
       1
       1
       1
       1
       1
       1
       1
       1
       1
       1
       1
       1
       1
       1
       1
       1
       1
       1
       1
       1
       1
       1
       1
       1
       1
       1
       1
       1
       1
       1
       1
       1
       1
       1
       1
       1
       1
       1
       1
       1
       1
       1
       1
       1
       1
       1
       1
       1
       1
       1
       1
       1
       1
       1
       1
       1
       1
       1
       1
       1
       1
       1
       1
       1
       1
       1
       1
       1
       1
       1
       1
       1
       1
       1
       1
       1
       1
       1
       1
       1
       1
       1
       1
       1
       1
       1
       1
       1
       1
       1
       1
       1
       1
       1
       1
       1
       1
       1
       1
       1
       1
       1
       1
       1
       1
       1
       1
       1
       1
       1
       1
       1
       1
       1
       1
       1
       1
       1
       1
       1
       1
       1
       1
       1
       1
       1
       1
       1
       1
       1
       1
       1
       1
       1
       1
       1
       1
       1
       1
       1
       1
       1
       1
       1
       1
       1
       1
       1
       1
       1
       1
       1
       1
       1
       1
       1
       1
       1
       1
       1
       1
       1
       1
       1
       1
       1
       1
       1
       1
       1
       1
       1
       1
       1
       1
       1
       1
       1
       1
       1
       1
       1
       1
       1
       1
       1
       1
       1
       1
       1
       1
       1
       1
       1
       1
       1
       1
       1
       1
       1
       1
       1
       1
       1
       1
       1
       1
       1
       1
       1
       1
       1
       1
       1
       1
       1
       1
       1
       1
       1
       1
       1
       1
       1
       1
       1
       1
       1
       1
       1
       1
       1
       1
       1
       1
       1
       1
       1
       1
       1
       1
       1
       1
       1
       1
       1
       1
       1
       1
       1
       1
       1
       1
       1
       1
       1
       1
       1
       1
       1
       1
       1
       1
       1
       1
       1
       1
       1
       1
       1
       1
       1
       1
       1
       1
       1
       1
       1
       1
       1
       1
       1
       1
       1
       1
       1
       1
       1
       1
       1
       1
       1
       1
       1
       1
       1
       1
       1
       1
       1
       1
       1
       1
       1
       1
       1
       1
       1
       1
       1
       1
       1
       1
       1
       1
       1
       1
       1
       1
       1
       1
       1
       1
       1
       1
       1
       1
       1
       1
       1
       1
       1
       1
       1
       1
       1
       1
       1
       1
       1
       1
       1
       1
       1
       1
       1
       1
       1
       1
       1
       1
       1
       1
       1
       1
       1
       1
       1
       1
       1
       1
       1
       1
       1
       1
       1
       1
       1
       1
       1
       1
       1
       1
       1
       1
       1
       1
       1
       1
       1
       1
       1
       1
       1
       1
       1
       1
       1
       1
       1
       1
       1
       1
       1
       1
       1
       1
       1
       1
       1
       1
       1
       1
       1
       1
       1
       1
       1
       1
       1
       1
       1
       1
       1
       1
       1
       1
       1
       1
       1
       1
       1
       1
       1
       1
       1
       1
       1
       1
       1
       1
       1
       1
       1
       1
       1
       1
       1
       1
       1
       1
       1
       1
       1
       1
       1
       1
       1
       1
       1
       1
       1
       1
       1
       1
       1
       1
       1
       1
       1
       1
       1
       1
       1
       1
       1
       1
       1
       1
       1
       1
       1
       1
       1
       1
       1
       1
       1
       1
       1
       1
       1
       1
       1
       1
       1
       1
       1
       1
       1
       1
       1
       1
       1
       1
       1
       1
       1
       1
       1
       1
       1
       1
       1
       1
       1
       1
       1
       1
       1
       1
       1
       1
       1
       1
       1
       1
       1
       1
       1
       1
       1
       1
       1
       1
       1
       1
       1
       1
       1
       1
       1
       1
       1
       1
       1
       1
       1
       1
       1
       1
       1
       1
       1
       1
       1
       1
       1
       1
       1
       1
       1
       1
       1
       1
       1
       1
       1
       1
       1
       1
       1
       1
       1
       1
       1
       1
       1
       1
       1
       1
       1
       1
       1
       1
       1
       1
       1
       1
       1
       1
       1
       1
       1
       1
       1
       1
       1
       1
       1
       1
       1
       1
       1
       1
       1
       1
       1
       1
       1
       1
       1
       1
       1
       1
       1
       1
       1
       1
       1
       1
       1
       1
       1
       1
       1
       1
       1
       1
       1
       1
       1
       1
       1
       1
       1
       1
       1
       1
       1
       1
       1
       1
       1
       1
       1
       1
       1
       1
       1
       1
       1
       1
       1
       1
       1
       1
       1
       1
       1
       1
       1
       1
       1
       1
       1
       1
       1
       1
       1
       1
       1
       1
       1
       1
       1
       1
       1
       1
       1
       1
       1
       1
       1
       1
       1
       1
       1
       1
       1
       1
       1
       1
       1
       1
       1
       1
       1
       1
       1
       1
       1
       1
       1
       1
       1
       1
       1
       1
       1
       1
       1
       1
       1
       1
       1
       1
       1
       1
       1
       1
       1
       1
       1
       1
       1
       1
       1
       1
       1
       1
       1
       1
       1
       1
       1
       1
       1
       1
       1
       1
       1
       1
       1
       1
       1
       1
       1
       1
       1
       1
       1
       1
       1
       1
       1
       1
       1
       1
       1
       1
       1
       1
       1
       1
       1
       1
       1
       1
       1
       1
       1
       1
       1
       1
       1
       1
       1
       1
       1
       1
       1
       1
       1
       1
       1
       1
       1
       1
       1
       1
       1
       1
       1
       1
       1
       1
       1
       1
       1
       1
       1
       1
       1
       1
       1
       1
       1
       1
       1
       1
       1
       1
       1
       1
       1
       1
       1
       1
       1
       1
       1
       1
       1
       1
       1
       1
       1
       1
       1
       1
       1
       1
       1
       1
       1
       1
       1
       1
       1
       1
       1
       1
       1
       1
       1
       1
       1
       1
       1
       1
       1
       1
       1
       1
       1
       1
       1
       1
       1
       1
       1
       1
       1
       1
       1
       1
       1
       1
       1
       1
       1
       1
       1
       1
       1
       1
       1
       1
       1
       1
       1
       1
       1
       1
       1
       1
       1
       1
       1
       1
       1
       1
       1
       1
       1
       1
       1
       1
       1
       1
       1
       1
       1
       1
       1
       1
       1
       1
       1
       1
       1
       1
       1
       1
       1
       1
       1
       1
       1
       1
       1
       1
       1
       1
       1
       1
       1
       1
       1
       1
       1
       1
       1
       1
       1
       1
       1
       1
       1
       1
       1
       1
       1
       1
       1
       1
       1
       1
       1
       1
       1
       1
       1
       1
       1
       1
       1
       1
       1
       1
       1
       1
       1
       1
       1
       1
       1
       1
       1
       1
       1
       1
       1
       1
       1
       1
       1
       1
       1
       1
       1
       1
       1
       1
       1
       1
       1
       1
       1
       1
       1
       1
       1
       1
       1
       1
       1
       1
       1
       1
       1
       1
       1
       1
       1
       1
       1
       1
       1
       1
       1
       1
       1
       1
       1
       1
       1
       1
       1
       1
       1
       1
       1
       1
       1
       1
       1
       1
       1
       1
       1
       1
       1
       1
       1
       1
       1
       1
       1
       1
       1
       1
       1
       1
       1
       1
       1
       1
       1
       1
       1
       1
       1
       1
       1
       1
       1
       1
       1
       1
       1
       1
       1
       1
       1
       1
       1
       1
       1
       1
       1
       1
       1
       1
       1
       1
       1
       1
       1
       1
       1
       1
       1
       1
       1
       1
       1
       1
       1
       1
       1
       1
       1
       1
       1
       1
       1
       1
       1
       1
       1
       1
       1
       1
       1
       1
       1
       1
       1
       1
       1
       1
       1
       1
       1
       1
       1
       1
       1
       1
       1
       1
       1
       1
       1
       1
       1
       1
       1
       1
       1
       1
       1
       1
       1
       1
       1
       1
       1
       1
       1
       1
       1
       1
       1
       1
       1
       1
       1
       1
       1
       1
       1
       1
       1
       1
       1
       1
       1
       1
       1
       1
       1
       1
       1
       1
       1
       1
       1
       1
       1
       1
       1
       1
       1
       1
       1
       1
       1
       1
       1
       1
       1
       1
       1
       1
       1
       1
       1
       1
       1
       1
       1
       1
       1
       1
       1
       1
       1
       1
       1
       1
       1
       1
       1
       1
       1
       1
       1
       1
       1
       1
       1
       1
       1
       1
       1
       1
       1
       1
       1
       1
       1
       1
       1
       1
       1
       1
       1
       1
       1
       1
       1
       1
       1
       1
       1
       1
       1
       1
       1
       1
       1
       1
       1
       1
       1
       1
       1
       1
       1
       1
       1
       1
       1
       1
       1
       1
       1
       1
       1
       1
       1
       1
       1
       1
       1
       1
       1
       1
       1
       1
       1
       1
       1
       1
       1
       1
       1
       1
       1
       1
       1
       1
       1
       1
       1
       1
       1
       1
       1
       1
       1
       1
       1
       1
       1
       1
       1
       1
       1
       1
       1
       1
       1
       1
       1
       1
       1
       1
       1
       1
       1
       1
       1
       1
       1
       1
       1
       1
       1
       1
       1
       1
       1
       1
       1
       1
       1
       1
       1
       1
       1
       1
       1
       1
       1
       1
       1
       1
       1
       1
       1
       1
       1
       1
       1
       1
       1
       1
       1
       1
       1
       1
       1
       1
       1
      12
      12
      12
      12
      12
      12
      12
      12
      12
      12
      12
      12
      12
      12
      12
      12
      12
      12
      12
      12
      12
      12
      12
      12
      12
      12
      12
      12
      12
      12
      12
      12
      12
      12
      12
      12
      12
      12
      12
      12
      12
      12
      12
      12
      12
      12
      12
      12
      12
      12
      12
      12
      12
      12
      12
      12
      12
      12
      12
      12
      12
      12
      12
      12
      12
      12
      12
      12
      12
      12
      12
      12
      12
      12
      12
      12
      12
      12
      12
      12
      12
      12
      12
      12
      12
      12
      12
      12
      12
      12
      12
      12
      12
      12
      12
      12
      12
      12
      12
      12
      12
      12
      12
      12
      12
      12
      12
      12
      12
      12
      12
      12
      12
      12
      12
      12
      12
      12
      12
      12
      12
      12
      12
      12
      12
      12
      12
      12
      12
      12
      12
      12
      12
      12
      12
      12
      12
      12
      12
      12
      12
      12
      12
      12
      12
      12
      12
      12
      12
      12
      12
      12
      12
      12
      12
      12
      12
      12
      12
      12
      12
      12
      12
      12
      12
      12
      12
      12
      12
      12
      12
      12
      12
      12
      12
      12
      12
      12
      12
      12
      12
      12
      12
      12
      12
      12
      12
      12
      12
      12
      12
      12
      12
      12
      12
      12
      12
      12
      12
      12
      12
      12
      12
      12
      12
      12
      12
      12
      12
      12
      12
      12
      12
      12
      12
      12
      12
      12
      12
      12
      12
      12
      12
      12
      12
      12
      12
      12
      12
      12
      12
      12
      12
      12
      12
      12
      12
      12
      12
      12
      12
      12
      12
      12
      12
      12
      12
      12
      12
      12
      12
      12
      12
      12
      12
      12
      12
      12
      12
      12
      12
      12
      12
      12
      12
      12
      12
      12
      12
      12
      12
      12
      12
      12
      12
      12
      12
      12
      12
      12
      12
      12
      12
      12
      12
      12
      12
      12
      12
      12
      12
      12
      12
      12
      12
      12
      12
      12
      12
      12
      12
      12
      12
      12
      12
      12
      12
      12
      12
      12
      12
      12
      12
      12
      12
      12
      12
      12
      12
      12
      12
      12
      12
      12
      12
      12
      12
      12
      12
      12
      12
      12
      12
      12
      12
      12
      12
      12
      12
      12
      12
      12
      12
      12
      12
      12
      12
      12
      12
      12
      12
      12
      12
      12
      12
      12
      12
      12
      12
      12
      12
      12
      12
      12
      12
      12
      12
      12
      12
      12
      12
      12
      12
      12
      12
      12
      12
      12
      12
      12
      12
      12
      12
      12
      12
      12
      12
      12
      12
      12
      12
      12
      12
      12
      12
      12
      12
      12
      12
      12
      12
      12
      12
      12
      12
      12
      12
      12
      12
      12
      12
      12
      12
      12
      12
      12
      12
      12
      12
      12
      12
      12
      12
      12
      12
      12
      12
      12
      12
      12
      12
      12
      12
      12
      12
      12
      12
      12
      12
      12
      12
      12
      12
      12
      12
      12
      12
      12
      12
      12
      12
      12
      12
      12
      12
      12
      12
      12
      12
      12
      12
      12
      12
      12
      12
      12
      12
      12
      12
      12
      12
      12
      12
      12
      12
      12
      12
      12
      12
      12
      12
      12
      12
      12
      12
      12
      12
      12
      12
      12
      12
      12
      12
      12
      12
      12
      12
      12
      12
      12
      12
      12
      12
      12
      12
      12
      12
      12
      12
      12
      12
      12
      12
      12
      12
      12
      12
      12
      12
      12
      12
      12
      12
      12
      12
      12
      12
      12
      12
      12
      12
      12
      12
      12
      12
      12
      12
      12
      12
      12
      12
      12
      12
      12
      12
      12
      12
      12
      12
      12
      12
      12
      12
      12
      12
      12
      12
      12
      12
      12
      12
      12
      12
      12
      12
      12
      12
      12
      12
      12
      12
      12
      12
      12
      12
      12
      12
      12
      12
      12
      12
      12
      12
      12
      12
      12
      12
      12
      12
      12
      12
      12
      12
      12
      12
      12
      12
      12
      12
      12
      12
      12
      12
      12
      12
      12
      12
      12
      12
      12
      12
      12
      12
      12
      12
      12
      12
      12
      12
      12
      12
      12
      12
      12
      12
      12
      12
      12
      12
      12
      12
      12
      12
      12
      12
      12
      12
      12
      12
      12
      12
      12
      12
      12
      12
      12
      12
      12
      12
      12
      12
      12
      12
      12
      12
      12
      12
      12
      12
      12
      12
      12
      12
      12
      12
      12
      12
      12
      12
      12
      12
      12
      12
      12
      12
      12
      12
      12
      12
      12
      12
      12
      12
      12
      12
      12
      12
      12
      12
      12
      12
      12
      12
      12
      12
      12
      12
      12
      12
      12
      12
      12
      12
      12
      12
      12
      12
      12
      12
      12
      12
      12
      12
      12
      12
      12
      12
      12
      12
      12
      12
      12
      12
      12
      12
      12
      12
      12
      12
      12
      12
      12
      12
      12
      12
      12
      12
      12
      12
      12
      12
      12
      12
      12
      12
      12
      12
      12
      12
      12
      12
      12
      12
      12
      12
      12
      12
      12
      12
      12
      12
      12
      12
      12
      12
      12
      12
      12
      12
      12
      12
      12
      12
      12
      12
      12
      12
      12
      12
      12
      12
      12
      12
      12
      12
      12
      12
      12
      12
      12
      12
      12
      12
      12
      12
      12
      12
      12
      12
      12
      12
      12
      12
      12
      12
      12
      12
      12
      12
      12
      12
      12
      12
      12
      12
      12
      12
      12
      12
      12
      12
      12
      12
      12
      12
      12
      12
      12
      12
      12
      12
      12
      12
      12
      12
      12
      12
      12
      12
      12
      12
      12
      12
      12
      12
      12
      12
      12
      12
      12
      12
      12
      12
      12
      12
      12
      12
      12
      12
      12
      12
      12
      12
      12
      12
      12
      12
      12
      12
      12
      12
      12
      12
      12
      12
      12
      12
      12
      12
      12
      12
      12
      12
      12
      12
      12
      12
      12
      12
      12
      12
      12
      12
      12
      12
      12
      12
      12
      12
      12
      12
      12
      12
      12
      12
      12
      12
      12
      12
      12
      12
      12
      12
      12
      12
      12
      12
      12
      12
      12
      12
      12
      12
      12
      12
      12
      12
      12
      12
      12
      12
      12
      12
      12
      12
      12
      12
      12
      12
      12
      12
      12
      12
      12
      12
      12
      12
      12
      12
      12
      12
      12
      12
      12
      12
      12
      12
      12
      12
      12
      12
      12
      12
      12
      12
      12
      12
      12
      12
      12
      12
      12
      12
      12
      12
      12
      12
      12
      12
      12
      12
      12
      12
      12
      12
      12
      12
      12
      12
      12
      12
      12
      12
      12
      12
      12
      12
      12
      12
      12
      12
      12
      12
      12
      12
      12
      12
      12
      12
      12
      12
      12
      12
      12
      12
      12
      12
      12
      12
      12
      12
      12
      12
      12
      12
      12
      12
      12
      12
      12
      12
      12
      12
      12
      12
      12
      12
      12
      12
      12
      12
      12
      12
      12
      12
      12
      12
      12
      12
      12
      12
      12
      12
      12
      12
      12
      12
      12
      12
      12
      12
      12
      12
      12
      12
      12
      12
      12
      12
      12
      12
      12
      12
      12
      12
      12
      12
      12
      12
      12
      12
      12
      12
      12
      12
      12
      12
      12
      12
      12
      12
      12
      12
      12
      12
      12
      12
      12
      12
      12
      12
      12
      12
      12
      12
      12
      12
      12
      12
      12
      12
      12
      12
      12
      12
      12
      12
      12
      12
      12
      12
      12
      12
      12
      12
      12
      12
      12
      12
      12
      12
      12
      12
      12
      12
      12
      12
      12
      12
      12
      12
      12
      12
      12
      12
      12
      12
      12
      12
      12
      12
      12
      12
      12
      12
      12
      12
      12
      12
      12
      12
      12
      12
      12
      12
      12
      12
      12
      12
      12
      12
      12
      12
      12
      12
      12
      12
      12
      12
      12
      12
      12
      12
      12
      12
      12
      12
      12
      12
      12
      12
      12
      12
      12
      12
      12
      12
      12
      12
      12
      12
      12
      12
      12
      12
      12
      12
      12
      12
      12
      12
      12
      12
      12
      12
      12
      12
      12
      12
      12
      12
      12
      12
      12
      12
      12
      12
      12
      12
      12
      12
      12
      12
      12
      12
      12
      12
      12
      12
      12
      12
      12
      12
      12
      12
      12
      12
      12
      12
      12
      12
      12
      12
      12
      12
      12
      12
      12
      12
      12
      12
      12
      12
      12
      12
      12
      12
      12
      12
      12
      12
      12
      12
      12
      12
      12
      12
      12
      12
      12
      12
      12
      12
      12
      12
      12
      12
      12
      12
      12
      12
      12
      12
      12
      12
      12
      12
      12
      12
      12
      12
      12
      12
      12
      12
      12
      12
      12
      12
      12
      12
      12
      12
      12
      12
      12
      12
      12
      12
      12
      12
      12
      12
      12
      12
      12
      12
      12
      12
      12
      12
      12
      12
      12
      12
      12
      12
      12
      12
      12
      12
      12
      12
      12
      12
      12
      12
      12
      12
      12
      12
      12
      12
      12
      12
      12
      12
      12
      12
      12
      12
      12
      12
      12
      12
      12
      12
      12
      12
      12
      12
      12
      12
      12
      12
      12
      12
      12
      12
      12
      12
      12
      12
      12
      12
      12
      12
      12
      12
      12
      12
      12
      12
      12
      12
      12
      12
      12
      12
      12
      12
      12
      12
      12
      12
      12
      12
      12
      12
      12
      12
      12
      12
      12
      12
      12
      12
      12
      12
      12
      12
      12
      12
      12
      12
      12
      12
      12
      12
      12
      12
      12
      12
      12
      12
      12
      12
      12
      12
      12
      12
      12
      12
      12
      12
      12
      12
      12
      12
      12
      12
      12
      12
      12
      12
      12
      12
      12
      12
      12
      12
      12
      12
      12
      12
      12
      12
      12
      12
      12
      12
      12
      12
      12
      12
      12
      12
      12
      12
      12
      12
      12
      12
      12
      12
      12
      12
      12
      12
      12
      12
      12
      12
      12
      12
      12
      12
      12
      12
      12
      12
      12
      12
      12
      12
      12
      12
      12
      12
      12
      12
      12
      12
      12
      12
      12
      12
      12
      12
      12
      12
      12
      12
      12
      12
      12
      12
      12
      12
      12
      12
      12
      12
      12
      12
      12
  
  
POINT_DATA       1950
  
SCALARS                  material_type  double 1
LOOKUP_TABLE default
                   2
                   2
                   2
                   2
                   2
                   2
                   2
                   2
                   2
                   2
                   2
                   2
                   2
                   2
                   2
                   2
                   2
                   2
                   2
                   2
                   2
                   2
                   2
                   2
                   2
                   2
                   2
                   2
                   2
                   2
                   2
                   2
                   2
                   2
                   2
                   2
                   2
                   2
                   2
                   2
                   2
                   2
                   2
                   2
                   2
                   2
                   2
                   2
                   2
                   2
                   2
                   2
                   2
                   2
                   2
                   2
                   2
                   2
                   2
                   2
                   2
                   2
                   2
                   2
                   2
                   2
                   2
                   2
                   2
                   2
                   2
                   2
                   2
                   2
                   2
                   2
                   2
                   2
                   2
                   2
                   2
                   2
                   2
                   2
                   2
                   2
                   2
                   2
                   2
                   2
                   2
                   2
                   2
                   2
                   2
                   2
                   2
                   2
                   2
                   2
                   2
                   2
                   2
                   2
                   2
                   2
                   2
                   2
                   2
                   2
                   2
                   2
                   2
                   2
                   2
                   2
                   2
                   2
                   2
                   2
                   2
                   2
                   2
                   2
                   2
                   2
                   2
                   2
                   2
                   2
                   2
                   2
                   2
                   2
                   2
                   2
                   2
                   2
                   2
                   2
                   2
                   2
                   2
                   2
                   2
                   2
                   2
                   2
                   2
                   2
                   2
                   2
                   2
                   2
                   2
                   2
                   2
                   2
                   2
                   2
                   2
                   2
                   2
                   2
                   2
                   2
                   2
                   2
                   2
                   2
                   2
                   2
                   2
                   2
                   2
                   2
                   2
                   2
                   2
                   2
                   2
                   2
                   2
                   2
                   2
                   2
                   2
                   2
                   2
                   2
                   2
                   2
                   2
                   2
                   2
                   2
                   2
                   2
                   2
                   2
                   2
                   2
                   2
                   2
                   2
                   2
                   2
                   2
                   2
                   2
                   2
                   2
                   2
                   2
                   2
                   2
                   2
                   2
                   2
                   2
                   2
                   2
                   2
                   2
                   2
                   2
                   2
                   2
                   2
                   2
                   2
                   2
                   2
                   2
                   2
                   2
                   2
                   2
                   2
                   2
                   2
                   2
                   2
                   2
                   2
                   2
                   2
                   2
                   2
                   2
                   2
                   2
                   2
                   2
                   2
                   2
                   2
                   2
                   2
                   2
                   2
                   2
                   2
                   2
                   2
                   2
                   2
                   2
                   2
                   2
                   2
                   2
                   2
                   2
                   2
                   2
                   2
                   2
                   2
                   2
                   2
                   2
                   2
                   2
                   2
                   2
                   2
                   2
                   2
                   2
                   2
                   2
                   2
                   2
                   2
                   2
                   2
                   2
                   2
                   2
                   2
                   2
                   2
                   2
                   2
                   2
                   2
                   2
                   2
                   2
                   2
                   2
                   2
                   2
                   2
                   2
                   2
                   2
                   2
                   2
                   2
                   2
                   2
                   2
                   2
                   2
                   2
                   2
                   2
                   2
                   2
                   2
                   2
                   2
                   2
                   2
                   2
                   2
                   2
                   2
                   2
                   2
                   2
                   2
                   2
                   2
                   2
                   2
                   2
                   2
                   2
                   2
                   2
                   2
                   2
                   2
                   2
                   2
                   2
                   2
                   2
                   2
                   2
                   2
                   2
                   2
                   2
                   2
                   2
                   2
                   2
                   2
                   2
                   2
                   2
                   2
                   2
                   2
                   2
                   2
                   2
                   2
                   2
                   2
                   2
                   2
                   2
                   2
                   2
                   2
                   2
                   2
                   2
                   2
                   2
                   2
                   2
                   2
                   2
                   2
                   2
                   2
                   2
                   2
                   2
                   2
                   2
                   2
                   2
                   2
                   2
                   2
                   2
                   2
                   2
                   2
                   2
                   2
                   2
                   2
                   2
                   2
                   2
                   2
                   2
                   2
                   2
                   2
                   2
                   2
                   2
                   2
                   2
                   2
                   2
                   2
                   2
                   2
                   2
                   2
                   2
                   2
                   2
                   2
                   2
                   2
                   2
                   2
                   2
                   2
                   2
                   2
                   2
                   2
                   2
                   2
                   2
                   2
                   2
                   2
                   2
                   2
                   2
                   2
                   2
                   2
                   2
                   2
                   2
                   2
                   2
                   2
                   2
                   2
                   2
                   2
                   2
                   2
                   2
                   2
                   2
                   2
                   2
                   2
                   2
                   2
                   2
                   2
                   2
                   2
                   2
                   2
                   2
                   2
                   2
                   2
                   2
                   2
                   2
                   2
                   2
                   2
                   2
                   2
                   2
                   2
                   2
                   2
                   2
                   2
                   2
                   2
                   2
                   2
                   2
                   2
                   2
                   2
                   2
                   2
                   2
                   2
                   2
                   2
                   2
                   2
                   2
                   2
                   2
                   2
                   2
                   2
                   2
                   2
                   2
                   2
                   2
                   2
                   2
                   2
                   2
                   2
                   2
                   2
                   2
                   2
                   2
                   2
                   2
                   2
                   2
                   2
                   2
                   2
                   2
                   2
                   2
                   2
                   2
                   2
                   2
                   2
                   2
                   2
                   2
                   2
                   2
                   2
                   2
                   2
                   2
                   2
                   2
                   2
                   2
                   2
                   2
                   2
                   2
                   2
                   2
                   2
                   2
                   2
                   2
                   2
                   2
                   2
                   2
                   2
                   2
                   2
                   2
                   2
                   2
                   2
                   2
                   2
                   2
                   2
                   2
                   2
                   2
                   2
                   2
                   2
                   2
                   2
                   2
                   2
                   2
                   2
                   2
                   2
                   2
                   2
                   2
                   2
                   2
                   2
                   2
                   2
                   2
                   2
                   2
                   2
                   2
                   2
                   2
                   2
                   2
                   2
                   2
                   2
                   2
                   2
                   2
                   2
                   2
                   2
                   2
                   2
                   2
                   2
                   2
                   2
                   2
                   2
                   2
                   2
                   2
                   2
                   2
                   2
                   2
                   2
                   2
                   2
                   2
                   2
                   2
                   2
                   2
                   2
                   2
                   2
                   2
                   2
                   2
                   2
                   2
                   2
                   2
                   2
                   2
                   2
                   2
                   2
                   2
                   2
                   2
                   2
                   2
                   2
                   2
                   2
                   2
                   2
                   2
                   2
                   2
                   2
                   2
                   2
                   2
                   2
                   2
                   2
                   2
                   2
                   2
                   2
                   2
                   2
                   2
                   2
                   2
                   2
                   2
                   2
                   2
                   2
                   2
                   2
                   2
                   2
                   2
                   2
                   2
                   2
                   2
                   2
                   2
                   2
                   2
                   2
                   2
                   2
                   2
                   2
                   2
                   2
                   2
                   2
                   2
                   2
                   2
                   2
                   2
                   2
                   2
                   2
                   2
                   2
                   2
                   2
                   2
                   2
                   2
                   2
                   2
                   2
                   2
                   2
                   2
                   2
                   2
                   2
                   2
                   2
                   2
                   2
                   2
                   2
                   2
                   2
                   2
                   2
                   2
                   2
                   2
                   2
                   2
                   2
                   2
                   2
                   2
                   2
                   2
                   2
                   2
                   2
                   2
                   2
                   2
                   2
                   2
                   2
                   2
                   2
                   2
                   2
                   2
                   2
                   2
                   2
                   2
                   2
                   2
                   2
                   2
                   2
                   2
                   2
                   2
                   2
                   2
                   2
                   2
                   2
                   2
                   2
                   2
                   2
                   2
                   2
                   2
                   2
                   2
                   2
                   2
                   2
                   2
                   2
                   2
                   2
                   2
                   2
                   2
                   2
                   2
                   2
                   2
                   2
                   2
                   2
                   2
                   2
                   2
                   2
                   2
                   2
                   2
                   2
                   2
                   2
                   2
                   2
                   2
                   2
                   2
                   2
                   2
                   2
                   2
                   2
                   2
                   2
                   2
                   2
                   2
                   2
                   2
                   2
                   2
                   2
                   2
                   2
                   2
                   2
                   2
                   2
                   2
                   2
                   2
                   2
                   2
                   2
                   2
                   2
                   2
                   2
                   2
                   2
                   2
                   2
                   2
                   2
                   2
                   2
                   2
                   2
                   2
                   2
                   2
                   2
                   2
                   2
                   2
                   2
                   2
                   2
                   2
                   2
                   2
                   2
                   2
                   2
                   2
                   2
                   2
                   2
                   2
                   2
                   2
                   2
                   2
                   2
                   2
                   2
                   2
                   2
                   2
                   2
                   2
                   2
                   2
                   2
                   2
                   2
                   2
                   2
                   2
                   2
                   2
                   2
                   2
                   2
                   2
                   2
                   2
                   2
                   2
                   2
                   2
                   2
                   2
                   2
                   2
                   2
                   2
                   2
                   2
                   2
                   2
                   2
                   2
                   2
                   2
                   2
                   2
                   2
                   2
                   2
                   2
                   2
                   2
                   2
                   2
                   2
                   2
                   2
                   2
                   2
                   2
                   2
                   2
                   2
                   2
                   2
                   2
                   2
                   2
                   2
                   2
                   2
                   2
                   2
                   2
                   2
                   2
                   2
                   2
                   2
                   2
                   2
                   2
                   2
                   2
                   2
                   2
                   2
                   2
                   2
                   2
                   2
                   2
                   2
                   2
                   2
                   2
                   2
                   2
                   2
                   2
                   2
                   2
                   2
                   2
                   2
                   2
                   2
                   2
                   2
                   2
                   2
                   2
                   2
                   2
                   2
                   2
                   2
                   2
                   2
                   2
                   2
                   2
                   2
                   2
                   2
                   2
                   2
                   2
                   2
                   2
                   2
                   2
                   2
                   2
                   2
                   2
                   2
                   2
                   2
                   2
                   2
                   2
                   2
                   2
                   2
                   2
                   2
                   2
                   2
                   2
                   2
                   2
                   2
                   2
                   2
                   2
                   2
                   2
                   2
                   2
                   2
                   2
                   2
                   2
                   2
                   2
                   2
                   2
                   2
                   2
                   2
                   2
                   2
                   2
                   2
                   2
                   2
                   2
                   2
                   2
                   2
                   2
                   2
                   2
                   2
                   2
                   2
                   2
                   2
                   2
                   2
                   2
                   2
                   2
                   2
                   2
                   2
                   2
                   2
                   2
                   2
                   2
                   2
                   2
                   2
                   2
                   2
                   2
                   2
                   2
                   2
                   2
                   2
                   2
                   2
                   2
                   2
                   2
                   2
                   2
                   2
                   2
                   2
                   2
                   2
                   2
                   2
                   2
                   2
                   2
                   2
                   2
                   2
                   2
                   2
                   2
                   2
                   2
                   2
                   2
                   2
                   2
                   2
                   2
                   2
                   2
                   2
                   2
                   2
                   2
                   2
                   2
                   2
                   2
                   2
                   2
                   2
                   2
                   2
                   2
                   2
                   2
                   2
                   2
                   2
                   2
                   2
                   2
                   2
                   2
                   2
                   2
                   2
                   2
                   2
                   2
                   2
                   2
                   2
                   2
                   2
                   2
                   2
                   2
                   2
                   2
                   2
                   2
                   2
                   2
                   2
                   2
                   2
                   2
                   2
                   2
                   2
                   2
                   2
                   2
                   2
                   2
                   2
                   2
                   2
                   2
                   2
                   2
                   2
                   2
                   2
                   2
                   2
                   2
                   2
                   2
                   2
                   2
                   2
                   2
                   2
                   2
                   2
                   2
                   2
                   2
                   2
                   2
                   2
                   2
                   2
                   2
                   2
                   2
                   2
                   2
                   2
                   2
                   2
                   2
                   2
                   2
                   2
                   2
                   2
                   2
                   2
                   2
                   2
                   2
                   2
                   2
                   2
                   2
                   2
                   2
                   2
                   2
                   2
                   2
                   2
                   2
                   2
                   2
                   2
                   2
                   2
                   2
                   2
                   2
                   2
                   2
                   2
                   2
                   2
                   2
                   2
                   2
                   2
                   2
                   2
                   2
                   2
                   2
                   2
                   2
                   2
                   2
                   2
                   2
                   2
                   2
                   2
                   2
                   2
                   2
                   2
                   2
                   2
                   2
                   2
                   2
                   2
                   2
                   2
                   2
                   2
                   2
                   2
                   2
                   2
                   2
                   2
                   2
                   2
                   2
                   2
                   2
                   2
                   2
                   2
                   2
                   2
                   2
                   2
                   2
                   2
                   2
                   2
                   2
                   2
                   2
                   2
                   2
                   2
                   2
                   2
                   2
                   2
                   2
                   2
                   2
                   2
                   2
                   2
                   2
                   2
                   2
                   2
                   2
                   2
                   2
                   2
                   2
                   2
                   2
                   2
                   2
                   2
                   2
                   2
                   2
                   2
                   2
                   2
                   2
                   2
                   2
                   2
                   2
                   2
                   2
                   2
                   2
                   2
                   2
                   2
                   2
                   2
                   2
                   2
                   2
                   2
                   2
                   2
                   2
                   2
                   2
                   2
                   2
                   2
                   2
                   2
                   2
                   2
                   2
                   2
                   2
                   2
                   2
                   2
                   2
                   2
                   2
                   2
                   2
                   2
                   2
                   2
                   2
                   2
                   2
                   2
                   2
                   2
                   2
                   2
                   2
                   2
                   2
                   2
                   2
                   2
                   2
                   2
                   2
                   2
                   2
                   2
                   2
                   2
                   2
                   2
                   2
                   2
                   2
                   2
                   2
                   2
                   2
                   2
                   2
                   2
                   2
                   2
                   2
                   2
                   2
                   2
                   2
                   2
                   2
                   2
                   2
                   2
                   2
                   2
                   2
                   2
                   2
                   2
                   2
                   2
                   2
                   2
                   2
                   2
                   2
                   2
                   2
                   2
                   2
                   2
                   2
                   2
                   2
                   2
                   2
                   2
                   2
                   2
                   2
                   2
                   2
                   2
                   2
                   2
                   2
                   2
                   2
                   2
                   2
                   2
                   2
                   2
                   2
                   2
                   2
                   2
                   2
                   2
                   2
                   2
                   2
                   2
                   2
                   2
                   2
                   2
                   2
                   2
                   2
                   2
                   2
                   2
                   2
                   2
                   2
                   2
                   2
                   2
                   2
                   2
                   2
                   2
                   2
                   2
                   2
                   2
                   2
                   2
                   2
                   2
                   2
                   2
                   2
                   2
                   2
                   2
                   2
                   2
                   2
                   2
                   2
                   2
                   2
                   2
                   2
                   2
                   2
                   2
                   2
                   2
                   2
                   2
                   2
                   2
                   2
                   2
                   2
                   2
                   2
                   2
                   2
                   2
                   2
                   2
                   2
                   2
                   2
                   2
                   2
                   2
                   2
                   2
                   2
                   2
                   2
                   2
                   2
                   2
                   2
                   2
                   2
                   2
                   2
                   2
                   2
                   2
                   2
                   2
                   2
                   2
                   2
                   2
                   2
                   2
                   2
                   2
                   2
                   2
                   2
                   2
                   2
                   2
                   2
                   2
                   2
                   2
                   2
                   2
                   2
                   2
                   2
                   2
                   2
                   2
                   2
                   2
                   2
                   2
                   2
                   2
                   2
                   2
                   2
                   2
                   2
                   2
                   2
                   2
                   2
                   2
                   2
                   2
                   2
                   2
                   2
                   2
                   2
                   2
                   2
                   2
                   2
                   2
                   2
                   2
                   2
                   2
                   2
                   2
                   2
                   2
                   2
                   2
                   2
                   2
                   2
                   2
                   2
                   2
                   2
                   2
                   2
                   2
                   2
                   2
                   2
                   2
                   2
                   2
                   2
                   2
                   2
                   2
                   2
                   2
                   2
                   2
                   2
                   2
                   2
                   2
                   2
                   2
                   2
                   2
                   2
                   2
                   2
                   2
                   2
                   2
                   2
                   2
                   2
                   2
                   2
                   2
                   2
                   2
                   2
                   2
                   2
                   2
                   2
                   2
                   2
                   2
                   2
                   2
                   2
                   2
                   2
                   2
                   2
                   2
                   2
                   2
                   2
                   2
                   2
                   2
                   2
                   2
                   2
                   2
                   2
                   2
                   2
                   2
                   2
                   2
                   2
                   2
                   2
                   2
                   2
                   2
                   2
                   2
                   2
                   2
                   2
                   2
                   2
                   2
                   2
                   2
                   2
                   2
                   2
                   2
                   2
                   2
                   2
                   2
                   2
                   2
                   2
                   2
                   2
                   2
                   2
                   2
                   2
                   2
                   2
                   2
                   2
                   2
                   2
                   2
                   2
                   2
                   2
                   2
                   2
                   2
                   2
                   2
                   2
                   2
                   2
                   2
                   2
                   2
                   2
                   2
                   2
                   2
                   2
                   2
                   2
                   2
                   2
                   2
                   2
                   2
                   2
                   2
                   2
                   2
                   2
                   2
                   2
                   2
                   2
                   2
                   2
                   2
                   2
                   2
                   2
                   2
                   2
                   2
                   2
                   2
                   2
                   2
                   2
                   2
                   2
                   2
                   2
                   2
                   2
                   2
                   2
                   2
                   2
                   2
                   2
                   2
                   2
                   2
                   2
                   2
                   2
                   2
                   2
                   2
                   2
                   2
                   2
                   2
                   2
                   2
                   2
                   2
                   2
                   2
                   2
                   2
                   2
                   2
                   2
                   2
                   2
                   2
                   2
                   2
                   2
                   2
                   2
                   2
                   2
                   2
                   2
                   2
                   2
                   2
                   2
                   2
                   2
                   2
                   2
                   2
                   2
                   2
                   2
                   2
                   2
                   2
                   2
                   2
                   2
                   2
                   2
                   2
                   2
                   2
                   2
                   2
                   2
                   2
                   2
                   2
                   2
                   2
                   2
                   2
                   2
                   2
                   2
                   2
                   2
                   2
                   2
                   2
                   2
                   2
                   2
                   2
                   2
                   2
                   2
                   2
                   2
                   2
                   2
                   2
                   2
                   2
                   2
                   2
                   2
                   2
                   2
                   2
                   2
                   2
                   2
                   2
  
SCALARS                        node_id  double 1
LOOKUP_TABLE default
                   1
                   2
                   3
                   4
                   5
                   6
                   7
                   8
                   9
                  10
                  11
                  12
                  13
                  14
                  15
                  16
                  17
                  18
                  19
                  20
                  21
                  22
                  23
                  24
                  25
                  26
                  27
                  28
                  29
                  30
                  31
                  32
                  33
                  34
                  35
                  36
                  37
                  38
                  39
                  40
                  41
                  42
                  43
                  44
                  45
                  46
                  47
                  48
                  49
                  50
                  51
                  52
                  53
                  54
                  55
                  56
                  57
                  58
                  59
                  60
                  61
                  62
                  63
                  64
                  65
                  66
                  67
                  68
                  69
                  70
                  71
                  72
                  73
                  74
                  75
                  76
                  77
                  78
                  79
                  80
                  81
                  82
                  83
                  84
                  85
                  86
                  87
                  88
                  89
                  90
                  91
                  92
                  93
                  94
                  95
                  96
                  97
                  98
                  99
                 100
                 101
                 102
                 103
                 104
                 105
                 106
                 107
                 108
                 109
                 110
                 111
                 112
                 113
                 114
                 115
                 116
                 117
                 118
                 119
                 120
                 121
                 122
                 123
                 124
                 125
                 126
                 127
                 128
                 129
                 130
                 131
                 132
                 133
                 134
                 135
                 136
                 137
                 138
                 139
                 140
                 141
                 142
                 143
                 144
                 145
                 146
                 147
                 148
                 149
                 150
                 151
                 152
                 153
                 154
                 155
                 156
                 157
                 158
                 159
                 160
                 161
                 162
                 163
                 164
                 165
                 166
                 167
                 168
                 169
                 170
                 171
                 172
                 173
                 174
                 175
                 176
                 177
                 178
                 179
                 180
                 181
                 182
                 183
                 184
                 185
                 186
                 187
                 188
                 189
                 190
                 191
                 192
                 193
                 194
                 195
                 196
                 197
                 198
                 199
                 200
                 201
                 202
                 203
                 204
                 205
                 206
                 207
                 208
                 209
                 210
                 211
                 212
                 213
                 214
                 215
                 216
                 217
                 218
                 219
                 220
                 221
                 222
                 223
                 224
                 225
                 226
                 227
                 228
                 229
                 230
                 231
                 232
                 233
                 234
                 235
                 236
                 237
                 238
                 239
                 240
                 241
                 242
                 243
                 244
                 245
                 246
                 247
                 248
                 249
                 250
                 251
                 252
                 253
                 254
                 255
                 256
                 257
                 258
                 259
                 260
                 261
                 262
                 263
                 264
                 265
                 266
                 267
                 268
                 269
                 270
                 271
                 272
                 273
                 274
                 275
                 276
                 277
                 278
                 279
                 280
                 281
                 282
                 283
                 284
                 285
                 286
                 287
                 288
                 289
                 290
                 291
                 292
                 293
                 294
                 295
                 296
                 297
                 298
                 299
                 300
                 301
                 302
                 303
                 304
                 305
                 306
                 307
                 308
                 309
                 310
                 311
                 312
                 313
                 314
                 315
                 316
                 317
                 318
                 319
                 320
                 321
                 322
                 323
                 324
                 325
                 326
                 327
                 328
                 329
                 330
                 331
                 332
                 333
                 334
                 335
                 336
                 337
                 338
                 339
                 340
                 341
                 342
                 343
                 344
                 345
                 346
                 347
                 348
                 349
                 350
                 351
                 352
                 353
                 354
                 355
                 356
                 357
                 358
                 359
                 360
                 361
                 362
                 363
                 364
                 365
                 366
                 367
                 368
                 369
                 370
                 371
                 372
                 373
                 374
                 375
                 376
                 377
                 378
                 379
                 380
                 381
                 382
                 383
                 384
                 385
                 386
                 387
                 388
                 389
                 390
                 391
                 392
                 393
                 394
                 395
                 396
                 397
                 398
                 399
                 400
                 401
                 402
                 403
                 404
                 405
                 406
                 407
                 408
                 409
                 410
                 411
                 412
                 413
                 414
                 415
                 416
                 417
                 418
                 419
                 420
                 421
                 422
                 423
                 424
                 425
                 426
                 427
                 428
                 429
                 430
                 431
                 432
                 433
                 434
                 435
                 436
                 437
                 438
                 439
                 440
                 441
                 442
                 443
                 444
                 445
                 446
                 447
                 448
                 449
                 450
                 451
                 452
                 453
                 454
                 455
                 456
                 457
                 458
                 459
                 460
                 461
                 462
                 463
                 464
                 465
                 466
                 467
                 468
                 469
                 470
                 471
                 472
                 473
                 474
                 475
                 476
                 477
                 478
                 479
                 480
                 481
                 482
                 483
                 484
                 485
                 486
                 487
                 488
                 489
                 490
                 491
                 492
                 493
                 494
                 495
                 496
                 497
                 498
                 499
                 500
                 501
                 502
                 503
                 504
                 505
                 506
                 507
                 508
                 509
                 510
                 511
                 512
                 513
                 514
                 515
                 516
                 517
                 518
                 519
                 520
                 521
                 522
                 523
                 524
                 525
                 526
                 527
                 528
                 529
                 530
                 531
                 532
                 533
                 534
                 535
                 536
                 537
                 538
                 539
                 540
                 541
                 542
                 543
                 544
                 545
                 546
                 547
                 548
                 549
                 550
                 551
                 552
                 553
                 554
                 555
                 556
                 557
                 558
                 559
                 560
                 561
                 562
                 563
                 564
                 565
                 566
                 567
                 568
                 569
                 570
                 571
                 572
                 573
                 574
                 575
                 576
                 577
                 578
                 579
                 580
                 581
                 582
                 583
                 584
                 585
                 586
                 587
                 588
                 589
                 590
                 591
                 592
                 593
                 594
                 595
                 596
                 597
                 598
                 599
                 600
                 601
                 602
                 603
                 604
                 605
                 606
                 607
                 608
                 609
                 610
                 611
                 612
                 613
                 614
                 615
                 616
                 617
                 618
                 619
                 620
                 621
                 622
                 623
                 624
                 625
                 626
                 627
                 628
                 629
                 630
                 631
                 632
                 633
                 634
                 635
                 636
                 637
                 638
                 639
                 640
                 641
                 642
                 643
                 644
                 645
                 646
                 647
                 648
                 649
                 650
                 651
                 652
                 653
                 654
                 655
                 656
                 657
                 658
                 659
                 660
                 661
                 662
                 663
                 664
                 665
                 666
                 667
                 668
                 669
                 670
                 671
                 672
                 673
                 674
                 675
                 676
                 677
                 678
                 679
                 680
                 681
                 682
                 683
                 684
                 685
                 686
                 687
                 688
                 689
                 690
                 691
                 692
                 693
                 694
                 695
                 696
                 697
                 698
                 699
                 700
                 701
                 702
                 703
                 704
                 705
                 706
                 707
                 708
                 709
                 710
                 711
                 712
                 713
                 714
                 715
                 716
                 717
                 718
                 719
                 720
                 721
                 722
                 723
                 724
                 725
                 726
                 727
                 728
                 729
                 730
                 731
                 732
                 733
                 734
                 735
                 736
                 737
                 738
                 739
                 740
                 741
                 742
                 743
                 744
                 745
                 746
                 747
                 748
                 749
                 750
                 751
                 752
                 753
                 754
                 755
                 756
                 757
                 758
                 759
                 760
                 761
                 762
                 763
                 764
                 765
                 766
                 767
                 768
                 769
                 770
                 771
                 772
                 773
                 774
                 775
                 776
                 777
                 778
                 779
                 780
                 781
                 782
                 783
                 784
                 785
                 786
                 787
                 788
                 789
                 790
                 791
                 792
                 793
                 794
                 795
                 796
                 797
                 798
                 799
                 800
                 801
                 802
                 803
                 804
                 805
                 806
                 807
                 808
                 809
                 810
                 811
                 812
                 813
                 814
                 815
                 816
                 817
                 818
                 819
                 820
                 821
                 822
                 823
                 824
                 825
                 826
                 827
                 828
                 829
                 830
                 831
                 832
                 833
                 834
                 835
                 836
                 837
                 838
                 839
                 840
                 841
                 842
                 843
                 844
                 845
                 846
                 847
                 848
                 849
                 850
                 851
                 852
                 853
                 854
                 855
                 856
                 857
                 858
                 859
                 860
                 861
                 862
                 863
                 864
                 865
                 866
                 867
                 868
                 869
                 870
                 871
                 872
                 873
                 874
                 875
                 876
                 877
                 878
                 879
                 880
                 881
                 882
                 883
                 884
                 885
                 886
                 887
                 888
                 889
                 890
                 891
                 892
                 893
                 894
                 895
                 896
                 897
                 898
                 899
                 900
                 901
                 902
                 903
                 904
                 905
                 906
                 907
                 908
                 909
                 910
                 911
                 912
                 913
                 914
                 915
                 916
                 917
                 918
                 919
                 920
                 921
                 922
                 923
                 924
                 925
                 926
                 927
                 928
                 929
                 930
                 931
                 932
                 933
                 934
                 935
                 936
                 937
                 938
                 939
                 940
                 941
                 942
                 943
                 944
                 945
                 946
                 947
                 948
                 949
                 950
                 951
                 952
                 953
                 954
                 955
                 956
                 957
                 958
                 959
                 960
                 961
                 962
                 963
                 964
                 965
                 966
                 967
                 968
                 969
                 970
                 971
                 972
                 973
                 974
                 975
                 976
                 977
                 978
                 979
                 980
                 981
                 982
                 983
                 984
                 985
                 986
                 987
                 988
                 989
                 990
                 991
                 992
                 993
                 994
                 995
                 996
                 997
                 998
                 999
                1000
                1001
                1002
                1003
                1004
                1005
                1006
                1007
                1008
                1009
                1010
                1011
                1012
                1013
                1014
                1015
                1016
                1017
                1018
                1019
                1020
                1021
                1022
                1023
                1024
                1025
                1026
                1027
                1028
                1029
                1030
                1031
                1032
                1033
                1034
                1035
                1036
                1037
                1038
                1039
                1040
                1041
                1042
                1043
                1044
                1045
                1046
                1047
                1048
                1049
                1050
                1051
                1052
                1053
                1054
                1055
                1056
                1057
                1058
                1059
                1060
                1061
                1062
                1063
                1064
                1065
                1066
                1067
                1068
                1069
                1070
                1071
                1072
                1073
                1074
                1075
                1076
                1077
                1078
                1079
                1080
                1081
                1082
                1083
                1084
                1085
                1086
                1087
                1088
                1089
                1090
                1091
                1092
                1093
                1094
                1095
                1096
                1097
                1098
                1099
                1100
                1101
                1102
                1103
                1104
                1105
                1106
                1107
                1108
                1109
                1110
                1111
                1112
                1113
                1114
                1115
                1116
                1117
                1118
                1119
                1120
                1121
                1122
                1123
                1124
                1125
                1126
                1127
                1128
                1129
                1130
                1131
                1132
                1133
                1134
                1135
                1136
                1137
                1138
                1139
                1140
                1141
                1142
                1143
                1144
                1145
                1146
                1147
                1148
                1149
                1150
                1151
                1152
                1153
                1154
                1155
                1156
                1157
                1158
                1159
                1160
                1161
                1162
                1163
                1164
                1165
                1166
                1167
                1168
                1169
                1170
                1171
                1172
                1173
                1174
                1175
                1176
                1177
                1178
                1179
                1180
                1181
                1182
                1183
                1184
                1185
                1186
                1187
                1188
                1189
                1190
                1191
                1192
                1193
                1194
                1195
                1196
                1197
                1198
                1199
                1200
                1201
                1202
                1203
                1204
                1205
                1206
                1207
                1208
                1209
                1210
                1211
                1212
                1213
                1214
                1215
                1216
                1217
                1218
                1219
                1220
                1221
                1222
                1223
                1224
                1225
                1226
                1227
                1228
                1229
                1230
                1231
                1232
                1233
                1234
                1235
                1236
                1237
                1238
                1239
                1240
                1241
                1242
                1243
                1244
                1245
                1246
                1247
                1248
                1249
                1250
                1251
                1252
                1253
                1254
                1255
                1256
                1257
                1258
                1259
                1260
                1261
                1262
                1263
                1264
                1265
                1266
                1267
                1268
                1269
                1270
                1271
                1272
                1273
                1274
                1275
                1276
                1277
                1278
                1279
                1280
                1281
                1282
                1283
                1284
                1285
                1286
                1287
                1288
                1289
                1290
                1291
                1292
                1293
                1294
                1295
                1296
                1297
                1298
                1299
                1300
                1301
                1302
                1303
                1304
                1305
                1306
                1307
                1308
                1309
                1310
                1311
                1312
                1313
                1314
                1315
                1316
                1317
                1318
                1319
                1320
                1321
                1322
                1323
                1324
                1325
                1326
                1327
                1328
                1329
                1330
                1331
                1332
                1333
                1334
                1335
                1336
                1337
                1338
                1339
                1340
                1341
                1342
                1343
                1344
                1345
                1346
                1347
                1348
                1349
                1350
                1351
                1352
                1353
                1354
                1355
                1356
                1357
                1358
                1359
                1360
                1361
                1362
                1363
                1364
                1365
                1366
                1367
                1368
                1369
                1370
                1371
                1372
                1373
                1374
                1375
                1376
                1377
                1378
                1379
                1380
                1381
                1382
                1383
                1384
                1385
                1386
                1387
                1388
                1389
                1390
                1391
                1392
                1393
                1394
                1395
                1396
                1397
                1398
                1399
                1400
                1401
                1402
                1403
                1404
                1405
                1406
                1407
                1408
                1409
                1410
                1411
                1412
                1413
                1414
                1415
                1416
                1417
                1418
                1419
                1420
                1421
                1422
                1423
                1424
                1425
                1426
                1427
                1428
                1429
                1430
                1431
                1432
                1433
                1434
                1435
                1436
                1437
                1438
                1439
                1440
                1441
                1442
                1443
                1444
                1445
                1446
                1447
                1448
                1449
                1450
                1451
                1452
                1453
                1454
                1455
                1456
                1457
                1458
                1459
                1460
                1461
                1462
                1463
                1464
                1465
                1466
                1467
                1468
                1469
                1470
                1471
                1472
                1473
                1474
                1475
                1476
                1477
                1478
                1479
                1480
                1481
                1482
                1483
                1484
                1485
                1486
                1487
                1488
                1489
                1490
                1491
                1492
                1493
                1494
                1495
                1496
                1497
                1498
                1499
                1500
                1501
                1502
                1503
                1504
                1505
                1506
                1507
                1508
                1509
                1510
                1511
                1512
                1513
                1514
                1515
                1516
                1517
                1518
                1519
                1520
                1521
                1522
                1523
                1524
                1525
                1526
                1527
                1528
                1529
                1530
                1531
                1532
                1533
                1534
                1535
                1536
                1537
                1538
                1539
                1540
                1541
                1542
                1543
                1544
                1545
                1546
                1547
                1548
                1549
                1550
                1551
                1552
                1553
                1554
                1555
                1556
                1557
                1558
                1559
                1560
                1561
                1562
                1563
                1564
                1565
                1566
                1567
                1568
                1569
                1570
                1571
                1572
                1573
                1574
                1575
                1576
                1577
                1578
                1579
                1580
                1581
                1582
                1583
                1584
                1585
                1586
                1587
                1588
                1589
                1590
                1591
                1592
                1593
                1594
                1595
                1596
                1597
                1598
                1599
                1600
                1601
                1602
                1603
                1604
                1605
                1606
                1607
                1608
                1609
                1610
                1611
                1612
                1613
                1614
                1615
                1616
                1617
                1618
                1619
                1620
                1621
                1622
                1623
                1624
                1625
                1626
                1627
                1628
                1629
                1630
                1631
                1632
                1633
                1634
                1635
                1636
                1637
                1638
                1639
                1640
                1641
                1642
                1643
                1644
                1645
                1646
                1647
                1648
                1649
                1650
                1651
                1652
                1653
                1654
                1655
                1656
                1657
                1658
                1659
                1660
                1661
                1662
                1663
                1664
                1665
                1666
                1667
                1668
                1669
                1670
                1671
                1672
                1673
                1674
                1675
                1676
                1677
                1678
                1679
                1680
                1681
                1682
                1683
                1684
                1685
                1686
                1687
                1688
                1689
                1690
                1691
                1692
                1693
                1694
                1695
                1696
                1697
                1698
                1699
                1700
                1701
                1702
                1703
                1704
                1705
                1706
                1707
                1708
                1709
                1710
                1711
                1712
                1713
                1714
                1715
                1716
                1717
                1718
                1719
                1720
                1721
                1722
                1723
                1724
                1725
                1726
                1727
                1728
                1729
                1730
                1731
                1732
                1733
                1734
                1735
                1736
                1737
                1738
                1739
                1740
                1741
                1742
                1743
                1744
                1745
                1746
                1747
                1748
                1749
                1750
                1751
                1752
                1753
                1754
                1755
                1756
                1757
                1758
                1759
                1760
                1761
                1762
                1763
                1764
                1765
                1766
                1767
                1768
                1769
                1770
                1771
                1772
                1773
                1774
                1775
                1776
                1777
                1778
                1779
                1780
                1781
                1782
                1783
                1784
                1785
                1786
                1787
                1788
                1789
                1790
                1791
                1792
                1793
                1794
                1795
                1796
                1797
                1798
                1799
                1800
                1801
                1802
                1803
                1804
                1805
                1806
                1807
                1808
                1809
                1810
                1811
                1812
                1813
                1814
                1815
                1816
                1817
                1818
                1819
                1820
                1821
                1822
                1823
                1824
                1825
                1826
                1827
                1828
                1829
                1830
                1831
                1832
                1833
                1834
                1835
                1836
                1837
                1838
                1839
                1840
                1841
                1842
                1843
                1844
                1845
                1846
                1847
                1848
                1849
                1850
                1851
                1852
                1853
                1854
                1855
                1856
                1857
                1858
                1859
                1860
                1861
                1862
                1863
                1864
                1865
                1866
                1867
                1868
                1869
                1870
                1871
                1872
                1873
                1874
                1875
                1876
                1877
                1878
                1879
                1880
                1881
                1882
                1883
                1884
                1885
                1886
                1887
                1888
                1889
                1890
                1891
                1892
                1893
                1894
                1895
                1896
                1897
                1898
                1899
                1900
                1901
                1902
                1903
                1904
                1905
                1906
                1907
                1908
                1909
                1910
                1911
                1912
                1913
                1914
                1915
                1916
                1917
                1918
                1919
                1920
                1921
                1922
                1923
                1924
                1925
                1926
                1927
                1928
                1929
                1930
                1931
                1932
                1933
                1934
                1935
                1936
                1937
                1938
                1939
                1940
                1941
                1942
                1943
                1944
                1945
                1946
                1947
                1948
                1949
                1950
  
SCALARS                         bodyid  double 1
LOOKUP_TABLE default
                   1
                   1
                   1
                   1
                   1
                   1
                   1
                   1
                   1
                   1
                   1
                   1
                   1
                   1
                   1
                   1
                   1
                   1
                   1
                   1
                   1
                   1
                   1
                   1
                   1
                   1
                   1
                   1
                   1
                   1
                   1
                   1
                   1
                   1
                   1
                   1
                   1
                   1
                   1
                   1
                   1
                   1
                   1
                   1
                   1
                   1
                   1
                   1
                   1
                   1
                   1
                   1
                   1
                   1
                   1
                   1
                   1
                   1
                   1
                   1
                   1
                   1
                   1
                   1
                   1
                   1
                   1
                   1
                   1
                   1
                   1
                   1
                   1
                   1
                   1
                   1
                   1
                   1
                   1
                   1
                   1
                   1
                   1
                   1
                   1
                   1
                   1
                   1
                   1
                   1
                   1
                   1
                   1
                   1
                   1
                   1
                   1
                   1
                   1
                   1
                   1
                   1
                   1
                   1
                   1
                   1
                   1
                   1
                   1
                   1
                   1
                   1
                   1
                   1
                   1
                   1
                   1
                   1
                   1
                   1
                   1
                   1
                   1
                   1
                   1
                   1
                   1
                   1
                   1
                   1
                   1
                   1
                   1
                   1
                   1
                   1
                   1
                   1
                   1
                   1
                   1
                   1
                   1
                   1
                   1
                   1
                   1
                   1
                   1
                   1
                   1
                   1
                   1
                   1
                   1
                   1
                   1
                   1
                   1
                   1
                   1
                   1
                   1
                   1
                   1
                   1
                   1
                   1
                   1
                   1
                   1
                   1
                   1
                   1
                   1
                   1
                   1
                   1
                   1
                   1
                   1
                   1
                   1
                   1
                   1
                   1
                   1
                   1
                   1
                   1
                   1
                   1
                   1
                   1
                   1
                   1
                   1
                   1
                   1
                   1
                   1
                   1
                   1
                   1
                   1
                   1
                   1
                   1
                   1
                   1
                   1
                   1
                   1
                   1
                   1
                   1
                   1
                   1
                   1
                   1
                   1
                   1
                   1
                   1
                   1
                   1
                   1
                   1
                   1
                   1
                   1
                   1
                   1
                   1
                   1
                   1
                   1
                   1
                   1
                   1
                   1
                   1
                   1
                   1
                   1
                   1
                   1
                   1
                   1
                   1
                   1
                   1
                   1
                   1
                   1
                   1
                   1
                   1
                   1
                   1
                   1
                   1
                   1
                   1
                   1
                   1
                   1
                   1
                   1
                   1
                   1
                   1
                   1
                   1
                   1
                   1
                   1
                   1
                   1
                   1
                   1
                   1
                   1
                   1
                   1
                   1
                   1
                   1
                   1
                   1
                   1
                   1
                   1
                   1
                   1
                   1
                   1
                   1
                   1
                   1
                   1
                   1
                   1
                   1
                   1
                   1
                   1
                   1
                   1
                   1
                   1
                   1
                   1
                   1
                   1
                   1
                   1
                   1
                   1
                   1
                   1
                   1
                   1
                   1
                   1
                   1
                   1
                   1
                   1
                   1
                   1
                   1
                   1
                   1
                   1
                   1
                   1
                   1
                   1
                   1
                   1
                   1
                   1
                   1
                   1
                   1
                   1
                   1
                   1
                   1
                   1
                   1
                   1
                   1
                   1
                   1
                   1
                   1
                   1
                   1
                   1
                   1
                   1
                   1
                   1
                   1
                   1
                   1
                   1
                   1
                   1
                   1
                   1
                   1
                   1
                   1
                   1
                   1
                   1
                   1
                   1
                   1
                   1
                   1
                   1
                   1
                   1
                   1
                   1
                   1
                   1
                   1
                   1
                   1
                   1
                   1
                   1
                   1
                   1
                   1
                   1
                   1
                   1
                   1
                   1
                   1
                   1
                   1
                   1
                   1
                   1
                   1
                   1
                   1
                   1
                   1
                   1
                   1
                   1
                   1
                   1
                   1
                   1
                   1
                   1
                   1
                   1
                   1
                   1
                   1
                   1
                   1
                   1
                   1
                   1
                   1
                   1
                   1
                   1
                   1
                   1
                   1
                   1
                   1
                   1
                   1
                   1
                   1
                   1
                   1
                   1
                   1
                   1
                   1
                   1
                   1
                   1
                   1
                   1
                   1
                   1
                   1
                   1
                   1
                   1
                   1
                   1
                   1
                   1
                   1
                   1
                   1
                   1
                   1
                   1
                   1
                   1
                   1
                   1
                   1
                   1
                   1
                   1
                   1
                   1
                   1
                   1
                   1
                   1
                   1
                   1
                   1
                   1
                   1
                   1
                   1
                   1
                   1
                   1
                   1
                   1
                   1
                   1
                   1
                   1
                   1
                   1
                   1
                   1
                   1
                   1
                   1
                   1
                   1
                   1
                   1
                   1
                   1
                   1
                   1
                   1
                   1
                   1
                   1
                   1
                   1
                   1
                   1
                   1
                   1
                   1
                   1
                   1
                   1
                   1
                   1
                   1
                   1
                   1
                   1
                   1
                   1
                   1
                   1
                   1
                   1
                   1
                   1
                   1
                   1
                   1
                   1
                   1
                   1
                   1
                   1
                   1
                   1
                   1
                   1
                   1
                   1
                   1
                   1
                   1
                   1
                   1
                   1
                   1
                   1
                   1
                   1
                   1
                   1
                   1
                   1
                   1
                   1
                   1
                   1
                   1
                   1
                   1
                   1
                   1
                   1
                   1
                   1
                   1
                   1
                   1
                   1
                   1
                   1
                   1
                   1
                   1
                   1
                   1
                   1
                   1
                   1
                   1
                   1
                   1
                   1
                   1
                   1
                   1
                   1
                   1
                   1
                   1
                   1
                   1
                   1
                   1
                   1
                   1
                   1
                   1
                   1
                   1
                   1
                   1
                   1
                   1
                   1
                   1
                   1
                   1
                   1
                   1
                   1
                   1
                   1
                   1
                   1
                   1
                   1
                   1
                   1
                   1
                   1
                   1
                   1
                   1
                   1
                   1
                   1
                   1
                   1
                   1
                   1
                   1
                   1
                   1
                   1
                   1
                   1
                   1
                   1
                   1
                   1
                   1
                   1
                   1
                   1
                   1
                   1
                   1
                   1
                   1
                   1
                   1
                   1
                   1
                   1
                   1
                   1
                   1
                   1
                   1
                   1
                   1
                   1
                   1
                   1
                   1
                   1
                   1
                   1
                   1
                   1
                   1
                   1
                   1
                   1
                   1
                   1
                   1
                   1
                   1
                   1
                   1
                   1
                   1
                   1
                   1
                   1
                   1
                   1
                   1
                   1
                   1
                   1
                   1
                   1
                   1
                   1
                   1
                   1
                   1
                   1
                   1
                   1
                   1
                   1
                   1
                   1
                   1
                   1
                   1
                   1
                   1
                   1
                   1
                   1
                   1
                   1
                   1
                   1
                   1
                   1
                   1
                   1
                   1
                   1
                   1
                   1
                   1
                   1
                   1
                   1
                   1
                   1
                   1
                   1
                   1
                   1
                   1
                   1
                   1
                   1
                   1
                   1
                   1
                   1
                   1
                   1
                   1
                   1
                   1
                   1
                   1
                   1
                   1
                   1
                   1
                   1
                   1
                   1
                   1
                   1
                   1
                   1
                   1
                   1
                   1
                   1
                   1
                   1
                   1
                   1
                   1
                   1
                   1
                   1
                   1
                   1
                   1
                   1
                   1
                   1
                   1
                   1
                   1
                   1
                   1
                   1
                   1
                   1
                   1
                   1
                   1
                   1
                   1
                   1
                   1
                   1
                   1
                   1
                   1
                   1
                   1
                   1
                   1
                   1
                   1
                   1
                   1
                   1
                   1
                   1
                   1
                   1
                   1
                   1
                   1
                   1
                   1
                   1
                   1
                   1
                   1
                   1
                   1
                   1
                   1
                   1
                   1
                   1
                   1
                   1
                   1
                   1
                   1
                   1
                   1
                   1
                   1
                   1
                   1
                   1
                   1
                   1
                   1
                   1
                   1
                   1
                   1
                   1
                   1
                   1
                   1
                   1
                   1
                   1
                   1
                   1
                   1
                   1
                   1
                   1
                   1
                   1
                   1
                   1
                   1
                   1
                   1
                   1
                   1
                   1
                   1
                   1
                   1
                   1
                   1
                   1
                   1
                   1
                   1
                   1
                   1
                   1
                   1
                   1
                   1
                   1
                   1
                   1
                   1
                   1
                   1
                   1
                   1
                   1
                   1
                   1
                   1
                   1
                   1
                   1
                   1
                   1
                   1
                   1
                   1
                   1
                   1
                   1
                   1
                   1
                   1
                   1
                   1
                   1
                   1
                   1
                   1
                   1
                   1
                   1
                   1
                   1
                   1
                   1
                   1
                   1
                   1
                   1
                   1
                   1
                   1
                   1
                   1
                   1
                   1
                   1
                   1
                   1
                   1
                   1
                   1
                   1
                   1
                   1
                   1
                   1
                   1
                   1
                   1
                   1
                   1
                   1
                   1
                   1
                   1
                   1
                   1
                   1
                   1
                   1
                   1
                   1
                   1
                   1
                   1
                   1
                   1
                   1
                   1
                   1
                   1
                   1
                   1
                   1
                   1
                   1
                   1
                   1
                   1
                   1
                   1
                   1
                   1
                   1
                   1
                   1
                   1
                   1
                   1
                   1
                   1
                   1
                   1
                   1
                   1
                   1
                   1
                   1
                   1
                   1
                   1
                   1
                   1
                   1
                   1
                   1
                   1
                   1
                   1
                   1
                   1
                   1
                   1
                   1
                   1
                   1
                   1
                   1
                   1
                   1
                   1
                   1
                   1
                   1
                   1
                   1
                   1
                   1
                   1
                   1
                   1
                   1
                   1
                   1
                   1
                   1
                   1
                   1
                   1
                   1
                   1
                   1
                   1
                   1
                   1
                   1
                   1
                   1
                   1
                   1
                   1
                   1
                   1
                   1
                   1
                   1
                   1
                   1
                   1
                   1
                   1
                   1
                   1
                   1
                   1
                   1
                   1
                   1
                   1
                   1
                   1
                   1
                   1
                   1
                   1
                   1
                   1
                   1
                   1
                   1
                   1
                   1
                   1
                   1
                   1
                   1
                   1
                   1
                   1
                   1
                   1
                   1
                   1
                   1
                   1
                   1
                   1
                   1
                   1
                   1
                   1
                   1
                   1
                   1
                   1
                   1
                   1
                   1
                   1
                   1
                   1
                   1
                   1
                   1
                   1
                   1
                   1
                   1
                   1
                   1
                   1
                   1
                   1
                   1
                   1
                   1
                   1
                   1
                   1
                   1
                   1
                   1
                   1
                   1
                   1
                   1
                   1
                   1
                   1
                   1
                   1
                   1
                   1
                   1
                   1
                   1
                   1
                   1
                   1
                   1
                   1
                   1
                   1
                   1
                   1
                   1
                   1
                   1
                   1
                   1
                   1
                   1
                   1
                   1
                   1
                   1
                   1
                   1
                   1
                   1
                   1
                   1
                   1
                   1
                   1
                   1
                   1
                   1
                   1
                   1
                   1
                   1
                   1
                   1
                   1
                   1
                   1
                   1
                   1
                   1
                   1
                   1
                   1
                   1
                   1
                   1
                   1
                   1
                   1
                   1
                   1
                   1
                   1
                   1
                   1
                   1
                   1
                   1
                   1
                   1
                   1
                   1
                   1
                   1
                   1
                   1
                   1
                   1
                   1
                   1
                   1
                   1
                   1
                   1
                   1
                   1
                   1
                   1
                   1
                   1
                   1
                   1
                   1
                   1
                   1
                   1
                   1
                   1
                   1
                   1
                   1
                   1
                   1
                   1
                   1
                   1
                   1
                   1
                   1
                   1
                   1
                   1
                   1
                   1
                   1
                   1
                   1
                   1
                   1
                   1
                   1
                   1
                   1
                   1
                   1
                   1
                   1
                   1
                   1
                   1
                   1
                   1
                   1
                   1
                   1
                   1
                   1
                   1
                   1
                   1
                   1
                   1
                   1
                   1
                   1
                   1
                   1
                   1
                   1
                   1
                   1
                   1
                   1
                   1
                   1
                   1
                   1
                   1
                   1
                   1
                   1
                   1
                   1
                   1
                   1
                   1
                   1
                   1
                   1
                   1
                   1
                   1
                   1
                   1
                   1
                   1
                   1
                   1
                   1
                   1
                   1
                   1
                   1
                   1
                   1
                   1
                   1
                   1
                   1
                   1
                   1
                   1
                   1
                   1
                   1
                   1
                   1
                   1
                   1
                   1
                   1
                   1
                   1
                   1
                   1
                   1
                   1
                   1
                   1
                   1
                   1
                   1
                   1
                   1
                   1
                   1
                   1
                   1
                   1
                   1
                   1
                   1
                   1
                   1
                   1
                   1
                   1
                   1
                   1
                   1
                   1
                   1
                   1
                   1
                   1
                   1
                   1
                   1
                   1
                   1
                   1
                   1
                   1
                   1
                   1
                   1
                   1
                   1
                   1
                   1
                   1
                   1
                   1
                   1
                   1
                   1
                   1
                   1
                   1
                   1
                   1
                   1
                   1
                   1
                   1
                   1
                   1
                   1
                   1
                   1
                   1
                   1
                   1
                   1
                   1
                   1
                   1
                   1
                   1
                   1
                   1
                   1
                   1
                   1
                   1
                   1
                   1
                   1
                   1
                   1
                   1
                   1
                   1
                   1
                   1
                   1
                   1
                   1
                   1
                   1
                   1
                   1
                   1
                   1
                   1
                   1
                   1
                   1
                   1
                   1
                   1
                   1
                   1
                   1
                   1
                   1
                   1
                   1
                   1
                   1
                   1
                   1
                   1
                   1
                   1
                   1
                   1
                   1
                   1
                   1
                   1
                   1
                   1
                   1
                   1
                   1
                   1
                   1
                   1
                   1
                   1
                   1
                   1
                   1
                   1
                   1
                   1
                   1
                   1
                   1
                   1
                   1
                   1
                   1
                   1
                   1
                   1
                   1
                   1
                   1
                   1
                   1
                   1
                   1
                   1
                   1
                   1
                   1
                   1
                   1
                   1
                   1
                   1
                   1
                   1
                   1
                   1
                   1
                   1
                   1
                   1
                   1
                   1
                   1
                   1
                   1
                   1
                   1
                   1
                   1
                   1
                   1
                   1
                   1
                   1
                   1
                   1
                   1
                   1
                   1
                   1
                   1
                   1
                   1
                   1
                   1
                   1
                   1
                   1
                   1
                   1
                   1
                   1
                   1
                   1
                   1
                   1
                   1
                   1
                   1
                   1
                   1
                   1
                   1
                   1
                   1
                   1
                   1
                   1
                   1
                   1
                   1
                   1
                   1
                   1
                   1
                   1
                   1
                   1
                   1
                   1
                   1
                   1
                   1
                   1
                   1
                   1
                   1
                   1
                   1
                   1
                   1
                   1
                   1
                   1
                   1
                   1
                   1
                   1
                   1
                   1
                   1
                   1
                   1
                   1
                   1
                   1
                   1
                   1
                   1
                   1
                   1
                   1
                   1
                   1
                   1
                   1
                   1
                   1
                   1
                   1
                   1
                   1
                   1
                   1
                   1
                   1
                   1
                   1
                   1
                   1
                   1
                   1
                   1
                   1
                   1
                   1
                   1
                   1
                   1
                   1
                   1
                   1
                   1
                   1
                   1
                   1
                   1
                   1
                   1
                   1
                   1
                   1
                   1
                   1
                   1
                   1
                   1
                   1
                   1
                   1
                   1
                   1
                   1
                   1
                   1
                   1
                   1
                   1
                   1
                   1
                   1
                   1
                   1
                   1
                   1
                   1
                   1
                   1
                   1
                   1
                   1
                   1
                   1
                   1
                   1
                   1
                   1
                   1
                   1
                   1
                   1
                   1
                   1
                   1
                   1
                   1
                   1
                   1
                   1
                   1
                   1
                   1
                   1
                   1
                   1
                   1
                   1
                   1
                   1
                   1
                   1
                   1
                   1
                   1
                   1
                   1
                   1
                   1
                   1
                   1
                   1
                   1
                   1
                   1
                   1
                   1
                   1
                   1
                   1
                   1
                   1
                   1
                   1
                   1
                   1
                   1
                   1
                   1
                   1
                   1
                   1
                   1
                   1
                   1
                   1
                   1
                   1
                   1
                   1
                   1
                   1
                   1
                   1
                   1
                   1
                   1
                   1
                   1
                   1
                   1
                   1
                   1
                   1
                   1
                   1
                   1
                   1
                   1
                   1
                   1
                   1
                   1
                   1
                   1
                   1
                   1
                   1
                   1
                   1
                   1
                   1
                   1
                   1
                   1
                   1
                   1
                   1
                   1
                   1
                   1
                   1
                   1
                   1
                   1
                   1
                   1
                   1
                   1
                   1
                   1
                   1
                   1
                   1
                   1
                   1
                   1
                   1
                   1
                   1
                   1
                   1
                   1
                   1
                   1
                   1
                   1
                   1
                   1
                   1
                   1
                   1
                   1
                   1
                   1
                   1
                   1
                   1
                   1
                   1
                   1
                   1
                   1
                   1
                   1
                   1
                   1
                   1
                   1
                   1
                   1
                   1
                   1
                   1
                   1
                   1
                   1
                   1
                   1
                   1
                   1
                   1
                   1
                   1
                   1
                   1
                   1
                   1
                   1
                   1
                   1
                   1
                   1
                   1
                   1
                   1
                   1
                   1
                   1
                   1
                   1
                   1
                   1
                   1
                   1
                   1
                   1
                   1
                   1
                   1
                   1
                   1
                   1
                   1
                   1
                   1
                   1
                   1
                   1
                   1
                   1
                   1
                   1
                   1
                   1
                   1
                   1
                   1
                   1
                   1
                   1
                   1
                   1
                   1
                   1
                   1
                   1
                   1
                   1
                   1
                   1
                   1
                   1
                   1
                   1
                   1
                   1
                   1
                   1
                   1
                   1
                   1
                   1
                   1
                   1
                   1
  
SCALARS                  material_type  double 1
LOOKUP_TABLE default
                   2
                   2
                   2
                   2
                   2
                   2
                   2
                   2
                   2
                   2
                   2
                   2
                   2
                   2
                   2
                   2
                   2
                   2
                   2
                   2
                   2
                   2
                   2
                   2
                   2
                   2
                   2
                   2
                   2
                   2
                   2
                   2
                   2
                   2
                   2
                   2
                   2
                   2
                   2
                   2
                   2
                   2
                   2
                   2
                   2
                   2
                   2
                   2
                   2
                   2
                   2
                   2
                   2
                   2
                   2
                   2
                   2
                   2
                   2
                   2
                   2
                   2
                   2
                   2
                   2
                   2
                   2
                   2
                   2
                   2
                   2
                   2
                   2
                   2
                   2
                   2
                   2
                   2
                   2
                   2
                   2
                   2
                   2
                   2
                   2
                   2
                   2
                   2
                   2
                   2
                   2
                   2
                   2
                   2
                   2
                   2
                   2
                   2
                   2
                   2
                   2
                   2
                   2
                   2
                   2
                   2
                   2
                   2
                   2
                   2
                   2
                   2
                   2
                   2
                   2
                   2
                   2
                   2
                   2
                   2
                   2
                   2
                   2
                   2
                   2
                   2
                   2
                   2
                   2
                   2
                   2
                   2
                   2
                   2
                   2
                   2
                   2
                   2
                   2
                   2
                   2
                   2
                   2
                   2
                   2
                   2
                   2
                   2
                   2
                   2
                   2
                   2
                   2
                   2
                   2
                   2
                   2
                   2
                   2
                   2
                   2
                   2
                   2
                   2
                   2
                   2
                   2
                   2
                   2
                   2
                   2
                   2
                   2
                   2
                   2
                   2
                   2
                   2
                   2
                   2
                   2
                   2
                   2
                   2
                   2
                   2
                   2
                   2
                   2
                   2
                   2
                   2
                   2
                   2
                   2
                   2
                   2
                   2
                   2
                   2
                   2
                   2
                   2
                   2
                   2
                   2
                   2
                   2
                   2
                   2
                   2
                   2
                   2
                   2
                   2
                   2
                   2
                   2
                   2
                   2
                   2
                   2
                   2
                   2
                   2
                   2
                   2
                   2
                   2
                   2
                   2
                   2
                   2
                   2
                   2
                   2
                   2
                   2
                   2
                   2
                   2
                   2
                   2
                   2
                   2
                   2
                   2
                   2
                   2
                   2
                   2
                   2
                   2
                   2
                   2
                   2
                   2
                   2
                   2
                   2
                   2
                   2
                   2
                   2
                   2
                   2
                   2
                   2
                   2
                   2
                   2
                   2
                   2
                   2
                   2
                   2
                   2
                   2
                   2
                   2
                   2
                   2
                   2
                   2
                   2
                   2
                   2
                   2
                   2
                   2
                   2
                   2
                   2
                   2
                   2
                   2
                   2
                   2
                   2
                   2
                   2
                   2
                   2
                   2
                   2
                   2
                   2
                   2
                   2
                   2
                   2
                   2
                   2
                   2
                   2
                   2
                   2
                   2
                   2
                   2
                   2
                   2
                   2
                   2
                   2
                   2
                   2
                   2
                   2
                   2
                   2
                   2
                   2
                   2
                   2
                   2
                   2
                   2
                   2
                   2
                   2
                   2
                   2
                   2
                   2
                   2
                   2
                   2
                   2
                   2
                   2
                   2
                   2
                   2
                   2
                   2
                   2
                   2
                   2
                   2
                   2
                   2
                   2
                   2
                   2
                   2
                   2
                   2
                   2
                   2
                   2
                   2
                   2
                   2
                   2
                   2
                   2
                   2
                   2
                   2
                   2
                   2
                   2
                   2
                   2
                   2
                   2
                   2
                   2
                   2
                   2
                   2
                   2
                   2
                   2
                   2
                   2
                   2
                   2
                   2
                   2
                   2
                   2
                   2
                   2
                   2
                   2
                   2
                   2
                   2
                   2
                   2
                   2
                   2
                   2
                   2
                   2
                   2
                   2
                   2
                   2
                   2
                   2
                   2
                   2
                   2
                   2
                   2
                   2
                   2
                   2
                   2
                   2
                   2
                   2
                   2
                   2
                   2
                   2
                   2
                   2
                   2
                   2
                   2
                   2
                   2
                   2
                   2
                   2
                   2
                   2
                   2
                   2
                   2
                   2
                   2
                   2
                   2
                   2
                   2
                   2
                   2
                   2
                   2
                   2
                   2
                   2
                   2
                   2
                   2
                   2
                   2
                   2
                   2
                   2
                   2
                   2
                   2
                   2
                   2
                   2
                   2
                   2
                   2
                   2
                   2
                   2
                   2
                   2
                   2
                   2
                   2
                   2
                   2
                   2
                   2
                   2
                   2
                   2
                   2
                   2
                   2
                   2
                   2
                   2
                   2
                   2
                   2
                   2
                   2
                   2
                   2
                   2
                   2
                   2
                   2
                   2
                   2
                   2
                   2
                   2
                   2
                   2
                   2
                   2
                   2
                   2
                   2
                   2
                   2
                   2
                   2
                   2
                   2
                   2
                   2
                   2
                   2
                   2
                   2
                   2
                   2
                   2
                   2
                   2
                   2
                   2
                   2
                   2
                   2
                   2
                   2
                   2
                   2
                   2
                   2
                   2
                   2
                   2
                   2
                   2
                   2
                   2
                   2
                   2
                   2
                   2
                   2
                   2
                   2
                   2
                   2
                   2
                   2
                   2
                   2
                   2
                   2
                   2
                   2
                   2
                   2
                   2
                   2
                   2
                   2
                   2
                   2
                   2
                   2
                   2
                   2
                   2
                   2
                   2
                   2
                   2
                   2
                   2
                   2
                   2
                   2
                   2
                   2
                   2
                   2
                   2
                   2
                   2
                   2
                   2
                   2
                   2
                   2
                   2
                   2
                   2
                   2
                   2
                   2
                   2
                   2
                   2
                   2
                   2
                   2
                   2
                   2
                   2
                   2
                   2
                   2
                   2
                   2
                   2
                   2
                   2
                   2
                   2
                   2
                   2
                   2
                   2
                   2
                   2
                   2
                   2
                   2
                   2
                   2
                   2
                   2
                   2
                   2
                   2
                   2
                   2
                   2
                   2
                   2
                   2
                   2
                   2
                   2
                   2
                   2
                   2
                   2
                   2
                   2
                   2
                   2
                   2
                   2
                   2
                   2
                   2
                   2
                   2
                   2
                   2
                   2
                   2
                   2
                   2
                   2
                   2
                   2
                   2
                   2
                   2
                   2
                   2
                   2
                   2
                   2
                   2
                   2
                   2
                   2
                   2
                   2
                   2
                   2
                   2
                   2
                   2
                   2
                   2
                   2
                   2
                   2
                   2
                   2
                   2
                   2
                   2
                   2
                   2
                   2
                   2
                   2
                   2
                   2
                   2
                   2
                   2
                   2
                   2
                   2
                   2
                   2
                   2
                   2
                   2
                   2
                   2
                   2
                   2
                   2
                   2
                   2
                   2
                   2
                   2
                   2
                   2
                   2
                   2
                   2
                   2
                   2
                   2
                   2
                   2
                   2
                   2
                   2
                   2
                   2
                   2
                   2
                   2
                   2
                   2
                   2
                   2
                   2
                   2
                   2
                   2
                   2
                   2
                   2
                   2
                   2
                   2
                   2
                   2
                   2
                   2
                   2
                   2
                   2
                   2
                   2
                   2
                   2
                   2
                   2
                   2
                   2
                   2
                   2
                   2
                   2
                   2
                   2
                   2
                   2
                   2
                   2
                   2
                   2
                   2
                   2
                   2
                   2
                   2
                   2
                   2
                   2
                   2
                   2
                   2
                   2
                   2
                   2
                   2
                   2
                   2
                   2
                   2
                   2
                   2
                   2
                   2
                   2
                   2
                   2
                   2
                   2
                   2
                   2
                   2
                   2
                   2
                   2
                   2
                   2
                   2
                   2
                   2
                   2
                   2
                   2
                   2
                   2
                   2
                   2
                   2
                   2
                   2
                   2
                   2
                   2
                   2
                   2
                   2
                   2
                   2
                   2
                   2
                   2
                   2
                   2
                   2
                   2
                   2
                   2
                   2
                   2
                   2
                   2
                   2
                   2
                   2
                   2
                   2
                   2
                   2
                   2
                   2
                   2
                   2
                   2
                   2
                   2
                   2
                   2
                   2
                   2
                   2
                   2
                   2
                   2
                   2
                   2
                   2
                   2
                   2
                   2
                   2
                   2
                   2
                   2
                   2
                   2
                   2
                   2
                   2
                   2
                   2
                   2
                   2
                   2
                   2
                   2
                   2
                   2
                   2
                   2
                   2
                   2
                   2
                   2
                   2
                   2
                   2
                   2
                   2
                   2
                   2
                   2
                   2
                   2
                   2
                   2
                   2
                   2
                   2
                   2
                   2
                   2
                   2
                   2
                   2
                   2
                   2
                   2
                   2
                   2
                   2
                   2
                   2
                   2
                   2
                   2
                   2
                   2
                   2
                   2
                   2
                   2
                   2
                   2
                   2
                   2
                   2
                   2
                   2
                   2
                   2
                   2
                   2
                   2
                   2
                   2
                   2
                   2
                   2
                   2
                   2
                   2
                   2
                   2
                   2
                   2
                   2
                   2
                   2
                   2
                   2
                   2
                   2
                   2
                   2
                   2
                   2
                   2
                   2
                   2
                   2
                   2
                   2
                   2
                   2
                   2
                   2
                   2
                   2
                   2
                   2
                   2
                   2
                   2
                   2
                   2
                   2
                   2
                   2
                   2
                   2
                   2
                   2
                   2
                   2
                   2
                   2
                   2
                   2
                   2
                   2
                   2
                   2
                   2
                   2
                   2
                   2
                   2
                   2
                   2
                   2
                   2
                   2
                   2
                   2
                   2
                   2
                   2
                   2
                   2
                   2
                   2
                   2
                   2
                   2
                   2
                   2
                   2
                   2
                   2
                   2
                   2
                   2
                   2
                   2
                   2
                   2
                   2
                   2
                   2
                   2
                   2
                   2
                   2
                   2
                   2
                   2
                   2
                   2
                   2
                   2
                   2
                   2
                   2
                   2
                   2
                   2
                   2
                   2
                   2
                   2
                   2
                   2
                   2
                   2
                   2
                   2
                   2
                   2
                   2
                   2
                   2
                   2
                   2
                   2
                   2
                   2
                   2
                   2
                   2
                   2
                   2
                   2
                   2
                   2
                   2
                   2
                   2
                   2
                   2
                   2
                   2
                   2
                   2
                   2
                   2
                   2
                   2
                   2
                   2
                   2
                   2
                   2
                   2
                   2
                   2
                   2
                   2
                   2
                   2
                   2
                   2
                   2
                   2
                   2
                   2
                   2
                   2
                   2
                   2
                   2
                   2
                   2
                   2
                   2
                   2
                   2
                   2
                   2
                   2
                   2
                   2
                   2
                   2
                   2
                   2
                   2
                   2
                   2
                   2
                   2
                   2
                   2
                   2
                   2
                   2
                   2
                   2
                   2
                   2
                   2
                   2
                   2
                   2
                   2
                   2
                   2
                   2
                   2
                   2
                   2
                   2
                   2
                   2
                   2
                   2
                   2
                   2
                   2
                   2
                   2
                   2
                   2
                   2
                   2
                   2
                   2
                   2
                   2
                   2
                   2
                   2
                   2
                   2
                   2
                   2
                   2
                   2
                   2
                   2
                   2
                   2
                   2
                   2
                   2
                   2
                   2
                   2
                   2
                   2
                   2
                   2
                   2
                   2
                   2
                   2
                   2
                   2
                   2
                   2
                   2
                   2
                   2
                   2
                   2
                   2
                   2
                   2
                   2
                   2
                   2
                   2
                   2
                   2
                   2
                   2
                   2
                   2
                   2
                   2
                   2
                   2
                   2
                   2
                   2
                   2
                   2
                   2
                   2
                   2
                   2
                   2
                   2
                   2
                   2
                   2
                   2
                   2
                   2
                   2
                   2
                   2
                   2
                   2
                   2
                   2
                   2
                   2
                   2
                   2
                   2
                   2
                   2
                   2
                   2
                   2
                   2
                   2
                   2
                   2
                   2
                   2
                   2
                   2
                   2
                   2
                   2
                   2
                   2
                   2
                   2
                   2
                   2
                   2
                   2
                   2
                   2
                   2
                   2
                   2
                   2
                   2
                   2
                   2
                   2
                   2
                   2
                   2
                   2
                   2
                   2
                   2
                   2
                   2
                   2
                   2
                   2
                   2
                   2
                   2
                   2
                   2
                   2
                   2
                   2
                   2
                   2
                   2
                   2
                   2
                   2
                   2
                   2
                   2
                   2
                   2
                   2
                   2
                   2
                   2
                   2
                   2
                   2
                   2
                   2
                   2
                   2
                   2
                   2
                   2
                   2
                   2
                   2
                   2
                   2
                   2
                   2
                   2
                   2
                   2
                   2
                   2
                   2
                   2
                   2
                   2
                   2
                   2
                   2
                   2
                   2
                   2
                   2
                   2
                   2
                   2
                   2
                   2
                   2
                   2
                   2
                   2
                   2
                   2
                   2
                   2
                   2
                   2
                   2
                   2
                   2
                   2
                   2
                   2
                   2
                   2
                   2
                   2
                   2
                   2
                   2
                   2
                   2
                   2
                   2
                   2
                   2
                   2
                   2
                   2
                   2
                   2
                   2
                   2
                   2
                   2
                   2
                   2
                   2
                   2
                   2
                   2
                   2
                   2
                   2
                   2
                   2
                   2
                   2
                   2
                   2
                   2
                   2
                   2
                   2
                   2
                   2
                   2
                   2
                   2
                   2
                   2
                   2
                   2
                   2
                   2
                   2
                   2
                   2
                   2
                   2
                   2
                   2
                   2
                   2
                   2
                   2
                   2
                   2
                   2
                   2
                   2
                   2
                   2
                   2
                   2
                   2
                   2
                   2
                   2
                   2
                   2
                   2
                   2
                   2
                   2
                   2
                   2
                   2
                   2
                   2
                   2
                   2
                   2
                   2
                   2
                   2
                   2
                   2
                   2
                   2
                   2
                   2
                   2
                   2
                   2
                   2
                   2
                   2
                   2
                   2
                   2
                   2
                   2
                   2
                   2
                   2
                   2
                   2
                   2
                   2
                   2
                   2
                   2
                   2
                   2
                   2
                   2
                   2
                   2
                   2
                   2
                   2
                   2
                   2
                   2
                   2
                   2
                   2
                   2
                   2
                   2
                   2
                   2
                   2
                   2
                   2
                   2
                   2
                   2
                   2
                   2
                   2
                   2
                   2
                   2
                   2
                   2
                   2
                   2
                   2
                   2
                   2
                   2
                   2
                   2
                   2
                   2
                   2
                   2
                   2
                   2
                   2
                   2
                   2
                   2
                   2
                   2
                   2
                   2
                   2
                   2
                   2
                   2
                   2
                   2
                   2
                   2
                   2
                   2
                   2
                   2
                   2
                   2
                   2
                   2
                   2
                   2
                   2
                   2
                   2
                   2
                   2
                   2
                   2
                   2
                   2
                   2
                   2
                   2
                   2
                   2
                   2
                   2
                   2
                   2
                   2
                   2
                   2
                   2
                   2
                   2
                   2
                   2
                   2
                   2
                   2
                   2
                   2
                   2
                   2
                   2
                   2
                   2
                   2
                   2
                   2
                   2
                   2
                   2
                   2
                   2
                   2
                   2
                   2
                   2
                   2
                   2
                   2
                   2
                   2
                   2
                   2
                   2
                   2
                   2
                   2
                   2
                   2
                   2
                   2
                   2
                   2
                   2
                   2
                   2
                   2
                   2
                   2
                   2
                   2
                   2
                   2
                   2
                   2
                   2
                   2
                   2
                   2
                   2
                   2
                   2
                   2
                   2
                   2
                   2
                   2
                   2
                   2
                   2
                   2
                   2
                   2
                   2
                   2
                   2
                   2
                   2
                   2
                   2
                   2
                   2
                   2
                   2
                   2
                   2
                   2
                   2
                   2
                   2
                   2
                   2
                   2
                   2
                   2
                   2
                   2
                   2
                   2
                   2
                   2
                   2
                   2
                   2
                   2
                   2
                   2
                   2
                   2
                   2
                   2
                   2
                   2
                   2
                   2
                   2
                   2
                   2
                   2
                   2
                   2
                   2
                   2
                   2
                   2
                   2
                   2
                   2
                   2
                   2
                   2
                   2
                   2
                   2
                   2
                   2
                   2
                   2
                   2
                   2
                   2
                   2
                   2
                   2
                   2
                   2
                   2
                   2
                   2
                   2
                   2
                   2
                   2
                   2
                   2
                   2
                   2
                   2
                   2
                   2
                   2
                   2
                   2
                   2
                   2
                   2
                   2
                   2
                   2
                   2
                   2
                   2
                   2
                   2
                   2
                   2
                   2
                   2
                   2
                   2
                   2
                   2
                   2
                   2
                   2
                   2
                   2
                   2
                   2
                   2
                   2
                   2
                   2
                   2
                   2
                   2
                   2
                   2
                   2
                   2
                   2
                   2
                   2
                   2
                   2
                   2
                   2
                   2
                   2
                   2
                   2
                   2
                   2
                   2
                   2
                   2
                   2
                   2
                   2
                   2
                   2
                   2
                   2
                   2
                   2
                   2
                   2
                   2
                   2
                   2
                   2
                   2
                   2
                   2
                   2
                   2
                   2
                   2
                   2
                   2
                   2
                   2
                   2
                   2
                   2
                   2
                   2
                   2
                   2
                   2
                   2
                   2
                   2
                   2
                   2
                   2
                   2
                   2
                   2
                   2
                   2
                   2
                   2
                   2
                   2
                   2
                   2
                   2
                   2
                   2
                   2
                   2
                   2
                   2
                   2
                   2
                   2
                   2
                   2
                   2
                   2
                   2
                   2
                   2
                   2
                   2
                   2
                   2
                   2
                   2
                   2
                   2
                   2
                   2
                   2
                   2
                   2
                   2
                   2
                   2
                   2
                   2
                   2
                   2
                   2
                   2
                   2
                   2
                   2
                   2
                   2
                   2
                   2
                   2
                   2
                   2
                   2
                   2
  
SCALARS                       fixity_x  double 1
LOOKUP_TABLE default
                   0
                   0
                   0
                   0
                   0
                   0
                   0
                   0
                   0
                   0
                   0
                   0
                   0
                   0
                   0
                   0
                   0
                   0
                   0
                   0
                   0
                   0
                   0
                   0
                   0
                   0
                   0
                   0
                   0
                   0
                   0
                   0
                   0
                   0
                   0
                   0
                   0
                   0
                   0
                   0
                   0
                   0
                   0
                   0
                   0
                   0
                   0
                   0
                   0
                   0
                   0
                   0
                   0
                   0
                   0
                   0
                   0
                   0
                   0
                   0
                   0
                   0
                   0
                   0
                   0
                   0
                   0
                   0
                   0
                   0
                   0
                   0
                   0
                   0
                   0
                   0
                   0
                   0
                   0
                   0
                   0
                   0
                   0
                   0
                   0
                   0
                   0
                   0
                   0
                   0
                   0
                   0
                   0
                   0
                   0
                   0
                   0
                   0
                   0
                   0
                   0
                   0
                   0
                   0
                   0
                   0
                   0
                   0
                   0
                   0
                   0
                   0
                   0
                   0
                   0
                   0
                   0
                   0
                   0
                   0
                   0
                   0
                   0
                   0
                   0
                   0
                   0
                   0
                   0
                   0
                   0
                   0
                   0
                   0
                   0
                   0
                   0
                   0
                   0
                   0
                   0
                   0
                   0
                   0
                   0
                   0
                   0
                   0
                   0
                   0
                   0
                   0
                   0
                   0
                   0
                   0
                   0
                   0
                   0
                   0
                   0
                   0
                   0
                   0
                   0
                   0
                   0
                   0
                   0
                   0
                   0
                   0
                   0
                   0
                   0
                   0
                   0
                   0
                   0
                   0
                   0
                   0
                   0
                   0
                   0
                   0
                   0
                   0
                   0
                   0
                   0
                   0
                   0
                   0
                   0
                   0
                   0
                   0
                   0
                   0
                   0
                   0
                   0
                   0
                   0
                   0
                   0
                   0
                   0
                   0
                   0
                   0
                   0
                   0
                   0
                   0
                   0
                   0
                   0
                   0
                   0
                   0
                   0
                   0
                   0
                   0
                   0
                   0
                   0
                   0
                   0
                   0
                   0
                   0
                   0
                   0
                   0
                   0
                   0
                   0
                   0
                   0
                   0
                   0
                   0
                   0
                   0
                   0
                   0
                   0
                   0
                   0
                   0
                   0
                   0
                   0
                   0
                   0
                   0
                   0
                   0
                   0
                   0
                   0
                   0
                   0
                   0
                   0
                   0
                   0
                   0
                   0
                   0
                   0
                   0
                   0
                   0
                   0
                   0
                   0
                   0
                   0
                   0
                   0
                   0
                   0
                   0
                   0
                   0
                   0
                   0
                   0
                   0
                   0
                   0
                   0
                   0
                   0
                   0
                   0
                   0
                   0
                   0
                   0
                   0
                   0
                   0
                   0
                   0
                   0
                   0
                   0
                   0
                   0
                   0
                   0
                   0
                   0
                   0
                   0
                   0
                   0
                   0
                   0
                   0
                   0
                   0
                   0
                   0
                   0
                   0
                   0
                   0
                   0
                   0
                   0
                   0
                   0
                   0
                   0
                   0
                   0
                   0
                   0
                   0
                   0
                   0
                   0
                   0
                   0
                   0
                   0
                   0
                   0
                   0
                   0
                   0
                   0
                   0
                   0
                   0
                   0
                   0
                   0
                   0
                   0
                   0
                   0
                   0
                   0
                   0
                   0
                   0
                   0
                   0
                   0
                   0
                   0
                   0
                   0
                   0
                   0
                   0
                   0
                   0
                   0
                   0
                   0
                   0
                   0
                   0
                   0
                   0
                   0
                   0
                   0
                   0
                   0
                   0
                   0
                   0
                   0
                   0
                   0
                   0
                   0
                   0
                   0
                   0
                   0
                   0
                   0
                   0
                   0
                   0
                   0
                   0
                   0
                   0
                   0
                   0
                   0
                   0
                   0
                   0
                   0
                   0
                   0
                   0
                   0
                   0
                   0
                   0
                   0
                   0
                   0
                   0
                   0
                   0
                   0
                   0
                   0
                   0
                   0
                   0
                   0
                   0
                   0
                   0
                   0
                   0
                   0
                   0
                   0
                   0
                   0
                   0
                   0
                   0
                   0
                   0
                   0
                   0
                   0
                   0
                   0
                   0
                   0
                   0
                   0
                   0
                   0
                   0
                   0
                   0
                   0
                   0
                   0
                   0
                   0
                   0
                   0
                   0
                   0
                   0
                   0
                   0
                   0
                   0
                   0
                   0
                   0
                   0
                   0
                   0
                   0
                   0
                   0
                   0
                   0
                   0
                   0
                   0
                   0
                   0
                   0
                   0
                   0
                   0
                   0
                   0
                   0
                   0
                   0
                   0
                   0
                   0
                   0
                   0
                   0
                   0
                   0
                   0
                   0
                   0
                   0
                   0
                   0
                   0
                   0
                   0
                   0
                   0
                   0
                   0
                   0
                   0
                   0
                   0
                   0
                   0
                   0
                   0
                   0
                   0
                   0
                   0
                   0
                   0
                   0
                   0
                   0
                   0
                   0
                   0
                   0
                   0
                   0
                   0
                   0
                   0
                   0
                   0
                   0
                   0
                   0
                   0
                   0
                   0
                   0
                   0
                   0
                   0
                   0
                   0
                   0
                   0
                   0
                   0
                   0
                   0
                   0
                   0
                   0
                   0
                   0
                   0
                   0
                   0
                   0
                   0
                   0
                   0
                   0
                   0
                   0
                   0
                   0
                   0
                   0
                   0
                   0
                   0
                   0
                   0
                   0
                   0
                   0
                   0
                   0
                   0
                   0
                   0
                   0
                   0
                   0
                   0
                   0
                   0
                   0
                   0
                   0
                   0
                   0
                   0
                   0
                   0
                   0
                   0
                   0
                   0
                   0
                   0
                   0
                   0
                   0
                   0
                   0
                   0
                   0
                   0
                   0
                   0
                   0
                   0
                   0
                   0
                   0
                   0
                   0
                   0
                   0
                   0
                   0
                   0
                   0
                   0
                   0
                   0
                   0
                   0
                   0
                   0
                   0
                   0
                   0
                   0
                   0
                   0
                   0
                   0
                   0
                   0
                   0
                   0
                   0
                   0
                   0
                   0
                   0
                   0
                   0
                   0
                   0
                   0
                   0
                   0
                   0
                   0
                   0
                   0
                   0
                   0
                   0
                   0
                   0
                   0
                   0
                   0
                   0
                   0
                   0
                   0
                   0
                   0
                   0
                   0
                   0
                   0
                   0
                   0
                   0
                   0
                   0
                   0
                   0
                   0
                   0
                   0
                   0
                   0
                   0
                   0
                   0
                   0
                   0
                   0
                   0
                   0
                   0
                   0
                   0
                   0
                   0
                   0
                   0
                   0
                   0
                   0
                   0
                   0
                   0
                   0
                   0
                   0
                   0
                   0
                   0
                   0
                   0
                   0
                   0
                   0
                   0
                   0
                   0
                   0
                   0
                   0
                   0
                   0
                   0
                   0
                   0
                   0
                   0
                   0
                   0
                   0
                   0
                   0
                   0
                   0
                   0
                   0
                   0
                   0
                   0
                   0
                   0
                   0
                   0
                   0
                   0
                   0
                   0
                   0
                   0
                   0
                   0
                   0
                   0
                   0
                   0
                   0
                   0
                   0
                   0
                   0
                   0
                   0
                   0
                   0
                   0
                   0
                   0
                   0
                   0
                   0
                   0
                   0
                   0
                   0
                   0
                   0
                   0
                   0
                   0
                   0
                   0
                   0
                   0
                   0
                   0
                   0
                   0
                   0
                   0
                   0
                   0
                   0
                   0
                   0
                   0
                   0
                   0
                   0
                   0
                   0
                   0
                   0
                   0
                   0
                   0
                   0
                   0
                   0
                   0
                   0
                   0
                   0
                   0
                   0
                   0
                   0
                   0
                   0
                   0
                   0
                   0
                   0
                   0
                   0
                   0
                   0
                   0
                   0
                   0
                   0
                   0
                   0
                   0
                   0
                   0
                   0
                   0
                   0
                   0
                   0
                   0
                   0
                   0
                   0
                   0
                   0
                   0
                   0
                   0
                   0
                   0
                   0
                   0
                   0
                   0
                   0
                   0
                   0
                   0
                   0
                   0
                   0
                   0
                   0
                   0
                   0
                   0
                   0
                   0
                   0
                   0
                   0
                   0
                   0
                   0
                   0
                   0
                   0
                   0
                   0
                   0
                   0
                   0
                   0
                   0
                   0
                   0
                   0
                   0
                   0
                   0
                   0
                   0
                   0
                   0
                   0
                   0
                   0
                   0
                   0
                   0
                   0
                   0
                   0
                   0
                   0
                   0
                   0
                   0
                   0
                   0
                   0
                   0
                   0
                   0
                   0
                   0
                   0
                   0
                   0
                   0
                   0
                   0
                   0
                   0
                   0
                   0
                   0
                   0
                   0
                   0
                   0
                   0
                   0
                   0
                   0
                   0
                   0
                   0
                   0
                   0
                   0
                   0
                   0
                   0
                   0
                   0
                   0
                   0
                   0
                   0
                   0
                   0
                   0
                   0
                   0
                   0
                   0
                   0
                   0
                   0
                   0
                   0
                   0
                   0
                   0
                   0
                   0
                   0
                   0
                   0
                   0
                   0
                   0
                   0
                   0
                   0
                   0
                   0
                   0
                   0
                   0
                   0
                   0
                   0
                   0
                   0
                   0
                   0
                   0
                   0
                   0
                   0
                   0
                   0
                   0
                   0
                   0
                   0
                   0
                   0
                   0
                   0
                   0
                   0
                   0
                   0
                   0
                   0
                   0
                   0
                   0
                   0
                   0
                   0
                   0
                   0
                   0
                   0
                   0
                   0
                   0
                   0
                   0
                   0
                   0
                   0
                   0
                   0
                   0
                   0
                   0
                   0
                   0
                   0
                   0
                   0
                   0
                   0
                   0
                   0
                   0
                   0
                   0
                   0
                   0
                   0
                   0
                   0
                   0
                   0
                   0
                   0
                   0
                   0
                   0
                   0
                   0
                   0
                   0
                   0
                   0
                   0
                   0
                   0
                   0
                   0
                   0
                   0
                   0
                   0
                   0
                   0
                   0
                   0
                   0
                   0
                   0
                   0
                   0
                   0
                   0
                   0
                   0
                   0
                   0
                   0
                   0
                   0
                   0
                   0
                   0
                   0
                   0
                   0
                   0
                   0
                   0
                   0
                   0
                   0
                   0
                   0
                   0
                   0
                   0
                   0
                   0
                   0
                   0
                   0
                   0
                   0
                   0
                   0
                   0
                   0
                   0
                   0
                   0
                   0
                   0
                   0
                   0
                   0
                   0
                   0
                   0
                   0
                   0
                   0
                   0
                   0
                   0
                   0
                   0
                   0
                   0
                   0
                   0
                   0
                   0
                   0
                   0
                   0
                   0
                   0
                   0
                   0
                   0
                   0
                   0
                   0
                   0
                   0
                   0
                   0
                   0
                   0
                   0
                   0
                   0
                   0
                   0
                   0
                   0
                   0
                   0
                   0
                   0
                   0
                   0
                   0
                   0
                   0
                   0
                   0
                   0
                   0
                   0
                   0
                   0
                   0
                   0
                   0
                   0
                   0
                   0
                   0
                   0
                   0
                   0
                   0
                   0
                   0
                   0
                   0
                   0
                   0
                   0
                   0
                   0
                   0
                   0
                   0
                   0
                   0
                   0
                   0
                   0
                   0
                   0
                   0
                   0
                   0
                   0
                   0
                   0
                   0
                   0
                   0
                   0
                   0
                   0
                   0
                   0
                   0
                   0
                   0
                   0
                   0
                   0
                   0
                   0
                   0
                   0
                   0
                   0
                   0
                   0
                   0
                   0
                   0
                   0
                   0
                   0
                   0
                   0
                   0
                   0
                   0
                   0
                   0
                   0
                   0
                   0
                   0
                   0
                   0
                   0
                   0
                   0
                   0
                   0
                   0
                   0
                   0
                   0
                   0
                   0
                   0
                   0
                   0
                   0
                   0
                   0
                   0
                   0
                   0
                   0
                   0
                   0
                   0
                   0
                   0
                   0
                   0
                   0
                   0
                   0
                   0
                   0
                   0
                   0
                   0
                   0
                   0
                   0
                   0
                   0
                   0
                   0
                   0
                   0
                   0
                   0
                   0
                   0
                   0
                   0
                   0
                   0
                   0
                   0
                   0
                   0
                   0
                   0
                   0
                   0
                   0
                   0
                   0
                   0
                   0
                   0
                   0
                   0
                   0
                   0
                   0
                   0
                   0
                   0
                   0
                   0
                   0
                   0
                   0
                   0
                   0
                   0
                   0
                   0
                   0
                   0
                   0
                   0
                   0
                   0
                   0
                   0
                   0
                   0
                   0
                   0
                   0
                   0
                   0
                   0
                   0
                   0
                   0
                   0
                   0
                   0
                   0
                   0
                   0
                   0
                   0
                   0
                   0
                   0
                   0
                   0
                   0
                   0
                   0
                   0
                   0
                   0
                   0
                   0
                   0
                   0
                   0
                   0
                   0
                   0
                   0
                   0
                   0
                   0
                   0
                   0
                   0
                   0
                   0
                   0
                   0
                   0
                   0
                   0
                   0
                   0
                   0
                   0
                   0
                   0
                   0
                   0
                   0
                   0
                   0
                   0
                   0
                   0
                   0
                   0
                   0
                   0
                   0
                   0
                   0
                   0
                   0
                   0
                   0
                   0
                   0
                   0
                   0
                   0
                   0
                   0
                   0
                   0
                   0
                   0
                   0
                   0
                   0
                   0
                   0
                   0
                   0
                   0
                   0
                   0
                   0
                   0
                   0
                   0
                   0
                   0
                   0
                   0
                   0
                   0
                   0
                   0
                   0
                   0
                   0
                   0
                   0
                   0
                   0
                   0
                   0
                   0
                   0
                   0
                   0
                   0
                   0
                   0
                   0
                   0
                   0
                   0
                   0
                   0
                   0
                   0
                   0
                   0
                   0
                   0
                   0
                   0
                   0
                   0
                   0
                   0
                   0
                   0
                   0
                   0
                   0
                   0
                   0
                   0
                   0
                   0
                   0
                   0
                   0
                   0
                   0
                   0
                   0
                   0
                   0
                   0
                   0
                   0
                   0
                   0
                   0
                   0
                   0
                   0
                   0
                   0
                   0
                   0
                   0
                   0
                   0
                   0
                   0
                   0
                   0
                   0
                   0
                   0
                   0
                   0
                   0
                   0
                   0
                   0
                   0
                   0
                   0
                   0
                   0
                   0
                   0
                   0
                   0
                   0
                   0
                   0
                   0
                   0
                   0
                   0
                   0
                   0
                   0
                   0
                   0
                   0
                   0
                   0
                   0
                   0
                   0
                   0
                   0
                   0
                   0
                   0
                   0
                   0
                   0
                   0
                   0
                   0
                   0
                   0
                   0
                   0
                   0
                   0
                   0
                   0
                   0
                   0
                   0
                   0
                   0
                   0
                   0
                   0
                   0
                   0
                   0
                   0
                   0
                   0
                   0
                   0
                   0
                   0
                   0
                   0
                   0
                   0
                   0
                   0
                   0
                   0
                   0
                   0
                   0
                   0
                   0
                   0
                   0
                   0
                   0
                   0
                   0
                   0
                   0
                   0
                   0
                   0
                   0
                   0
                   0
                   0
                   0
                   0
                   0
                   0
                   0
                   0
                   0
                   0
                   0
                   0
                   0
                   0
                   0
                   0
                   0
                   0
                   0
                   0
                   0
                   0
                   0
                   0
                   0
                   0
                   0
                   0
                   0
                   0
                   0
                   0
                   0
                   0
                   0
                   0
                   0
                   0
                   0
                   0
                   0
                   0
                   0
                   0
                   0
                   0
                   0
                   0
                   0
                   0
                   0
                   0
                   0
                   0
                   0
                   0
                   0
                   0
                   0
                   0
                   0
                   0
                   0
                   0
                   0
                   0
                   0
                   0
                   0
                   0
                   0
                   0
                   0
                   0
                   0
                   0
                   0
                   0
                   0
                   0
                   0
                   0
                   0
                   0
                   0
                   0
                   0
                   0
                   0
                   0
                   0
                   0
                   0
                   0
                   0
                   0
                   0
                   0
                   0
                   0
                   0
                   0
                   0
                   0
                   0
                   0
                   0
                   0
                   0
                   0
                   0
                   0
                   0
                   0
                   0
                   0
                   0
                   0
                   0
                   0
                   0
                   0
                   0
                   0
                   0
                   0
                   0
                   0
                   0
                   0
                   0
                   0
                   0
                   0
                   0
                   0
                   0
                   0
                   0
                   0
                   0
                   0
                   0
                   0
                   0
                   0
                   0
                   0
                   0
                   0
                   0
                   0
                   0
                   0
                   0
                   0
                   0
                   0
                   0
                   0
                   0
                   0
                   0
                   0
                   0
                   0
                   0
                   0
                   0
                   0
                   0
                   0
                   0
                   0
                   0
                   0
                   0
                   0
                   0
                   0
                   0
                   0
                   0
                   0
                   0
                   0
                   0
                   0
                   0
                   0
                   0
                   0
                   0
                   0
                   0
                   0
                   0
                   0
                   0
                   0
                   0
                   0
                   0
                   0
                   0
                   0
                   0
                   0
                   0
                   0
                   0
                   0
                   0
                   0
                   0
                   0
                   0
                   0
                   0
                   0
                   0
                   0
                   0
                   0
                   0
                   0
                   0
                   0
                   0
                   0
                   0
                   0
                   0
                   0
                   0
                   0
                   0
                   0
                   0
                   0
                   0
                   0
                   0
                   0
                   0
                   0
                   0
                   0
                   0
                   0
                   0
                   0
                   0
                   0
                   0
                   0
                   0
                   0
                   0
                   0
                   0
                   0
                   0
                   0
                   0
                   0
                   0
                   0
                   0
                   0
                   0
                   0
                   0
                   0
                   0
                   0
                   0
  
SCALARS                       fixity_y  double 1
LOOKUP_TABLE default
                   0
                   0
                   0
                   0
                   0
                   0
                   0
                   0
                   0
                   0
                   0
                   0
                   0
                   0
                   0
                   0
                   0
                   0
                   0
                   0
                   0
                   0
                   0
                   0
                   0
                   0
                   0
                   0
                   0
                   0
                   0
                   0
                   0
                   0
                   0
                   0
                   0
                   0
                   0
                   0
                   0
                   0
                   0
                   0
                   0
                   0
                   0
                   0
                   0
                   0
                   0
                   0
                   0
                   0
                   0
                   0
                   0
                   0
                   0
                   0
                   0
                   0
                   0
                   0
                   0
                   0
                   0
                   0
                   0
                   0
                   0
                   0
                   0
                   0
                   0
                   0
                   0
                   0
                   0
                   0
                   0
                   0
                   0
                   0
                   0
                   0
                   0
                   0
                   0
                   0
                   0
                   0
                   0
                   0
                   0
                   0
                   0
                   0
                   0
                   0
                   0
                   0
                   0
                   0
                   0
                   0
                   0
                   0
                   0
                   0
                   0
                   0
                   0
                   0
                   0
                   0
                   0
                   0
                   0
                   0
                   0
                   0
                   0
                   0
                   0
                   0
                   0
                   0
                   0
                   0
                   0
                   0
                   0
                   0
                   0
                   0
                   0
                   0
                   0
                   0
                   0
                   0
                   0
                   0
                   0
                   0
                   0
                   0
                   0
                   0
                   0
                   0
                   0
                   0
                   0
                   0
                   0
                   0
                   0
                   0
                   0
                   0
                   0
                   0
                   0
                   0
                   0
                   0
                   0
                   0
                   0
                   0
                   0
                   0
                   0
                   0
                   0
                   0
                   0
                   0
                   0
                   0
                   0
                   0
                   0
                   0
                   0
                   0
                   0
                   0
                   0
                   0
                   0
                   0
                   0
                   0
                   0
                   0
                   0
                   0
                   0
                   0
                   0
                   0
                   0
                   0
                   0
                   0
                   0
                   0
                   0
                   0
                   0
                   0
                   0
                   0
                   0
                   0
                   0
                   0
                   0
                   0
                   0
                   0
                   0
                   0
                   0
                   0
                   0
                   0
                   0
                   0
                   0
                   0
                   0
                   0
                   0
                   0
                   0
                   0
                   0
                   0
                   0
                   0
                   0
                   0
                   0
                   0
                   0
                   0
                   0
                   0
                   0
                   0
                   0
                   0
                   0
                   0
                   0
                   0
                   0
                   0
                   0
                   0
                   0
                   0
                   0
                   0
                   0
                   0
                   0
                   0
                   0
                   0
                   0
                   0
                   0
                   0
                   0
                   0
                   0
                   0
                   0
                   0
                   0
                   0
                   0
                   0
                   0
                   0
                   0
                   0
                   0
                   0
                   0
                   0
                   0
                   0
                   0
                   0
                   0
                   0
                   0
                   0
                   0
                   0
                   0
                   0
                   0
                   0
                   0
                   0
                   0
                   0
                   0
                   0
                   0
                   0
                   0
                   0
                   0
                   0
                   0
                   0
                   0
                   0
                   0
                   0
                   0
                   0
                   0
                   0
                   0
                   0
                   0
                   0
                   0
                   0
                   0
                   0
                   0
                   0
                   0
                   0
                   0
                   0
                   0
                   0
                   0
                   0
                   0
                   0
                   0
                   0
                   0
                   0
                   0
                   0
                   0
                   0
                   0
                   0
                   0
                   0
                   0
                   0
                   0
                   0
                   0
                   0
                   0
                   0
                   0
                   0
                   0
                   0
                   0
                   0
                   0
                   0
                   0
                   0
                   0
                   0
                   0
                   0
                   0
                   0
                   0
                   0
                   0
                   0
                   0
                   0
                   0
                   0
                   0
                   0
                   0
                   0
                   0
                   0
                   0
                   0
                   0
                   0
                   0
                   0
                   0
                   0
                   0
                   0
                   0
                   0
                   0
                   0
                   0
                   0
                   0
                   0
                   0
                   0
                   0
                   0
                   0
                   0
                   0
                   0
                   0
                   0
                   0
                   0
                   0
                   0
                   0
                   0
                   0
                   0
                   0
                   0
                   0
                   0
                   0
                   0
                   0
                   0
                   0
                   0
                   0
                   0
                   0
                   0
                   0
                   0
                   0
                   0
                   0
                   0
                   0
                   0
                   0
                   0
                   0
                   0
                   0
                   0
                   0
                   0
                   0
                   0
                   0
                   0
                   0
                   0
                   0
                   0
                   0
                   0
                   0
                   0
                   0
                   0
                   0
                   0
                   0
                   0
                   0
                   0
                   0
                   0
                   0
                   0
                   0
                   0
                   0
                   0
                   0
                   0
                   0
                   0
                   0
                   0
                   0
                   0
                   0
                   0
                   0
                   0
                   0
                   0
                   0
                   0
                   0
                   0
                   0
                   0
                   0
                   0
                   0
                   0
                   0
                   0
                   0
                   0
                   0
                   0
                   0
                   0
                   0
                   0
                   0
                   0
                   0
                   0
                   0
                   0
                   0
                   0
                   0
                   0
                   0
                   0
                   0
                   0
                   0
                   0
                   0
                   0
                   0
                   0
                   0
                   0
                   0
                   0
                   0
                   0
                   0
                   0
                   0
                   0
                   0
                   0
                   0
                   0
                   0
                   0
                   0
                   0
                   0
                   0
                   0
                   0
                   0
                   0
                   0
                   0
                   0
                   0
                   0
                   0
                   0
                   0
                   0
                   0
                   0
                   0
                   0
                   0
                   0
                   0
                   0
                   0
                   0
                   0
                   0
                   0
                   0
                   0
                   0
                   0
                   0
                   0
                   0
                   0
                   0
                   0
                   0
                   0
                   0
                   0
                   0
                   0
                   0
                   0
                   0
                   0
                   0
                   0
                   0
                   0
                   0
                   0
                   0
                   0
                   0
                   0
                   0
                   0
                   0
                   0
                   0
                   0
                   0
                   0
                   0
                   0
                   0
                   0
                   0
                   0
                   0
                   0
                   0
                   0
                   0
                   0
                   0
                   0
                   0
                   0
                   0
                   0
                   0
                   0
                   0
                   0
                   0
                   0
                   0
                   0
                   0
                   0
                   0
                   0
                   0
                   0
                   0
                   0
                   0
                   0
                   0
                   0
                   0
                   0
                   0
                   0
                   0
                   0
                   0
                   0
                   0
                   0
                   0
                   0
                   0
                   0
                   0
                   0
                   0
                   0
                   0
                   0
                   0
                   0
                   0
                   0
                   0
                   0
                   0
                   0
                   0
                   0
                   0
                   0
                   0
                   0
                   0
                   0
                   0
                   0
                   0
                   0
                   0
                   0
                   0
                   0
                   0
                   0
                   0
                   0
                   0
                   0
                   0
                   0
                   0
                   0
                   0
                   0
                   0
                   0
                   0
                   0
                   0
                   0
                   0
                   0
                   0
                   0
                   0
                   0
                   0
                   0
                   0
                   0
                   0
                   0
                   0
                   0
                   0
                   0
                   0
                   0
                   0
                   0
                   0
                   0
                   0
                   0
                   0
                   0
                   0
                   0
                   0
                   0
                   0
                   0
                   0
                   0
                   0
                   0
                   0
                   0
                   0
                   0
                   0
                   0
                   0
                   0
                   0
                   0
                   0
                   0
                   0
                   0
                   0
                   0
                   0
                   0
                   0
                   0
                   0
                   0
                   0
                   0
                   0
                   0
                   0
                   0
                   0
                   0
                   0
                   0
                   0
                   0
                   0
                   0
                   0
                   0
                   0
                   0
                   0
                   0
                   0
                   0
                   0
                   0
                   0
                   0
                   0
                   0
                   0
                   0
                   0
                   0
                   0
                   0
                   0
                   0
                   0
                   0
                   0
                   0
                   0
                   0
                   0
                   0
                   0
                   0
                   0
                   0
                   0
                   0
                   0
                   0
                   0
                   0
                   0
                   0
                   0
                   0
                   0
                   0
                   0
                   0
                   0
                   0
                   0
                   0
                   0
                   0
                   0
                   0
                   0
                   0
                   0
                   0
                   0
                   0
                   0
                   0
                   0
                   0
                   0
                   0
                   0
                   0
                   0
                   0
                   0
                   0
                   0
                   0
                   0
                   0
                   0
                   0
                   0
                   0
                   0
                   0
                   0
                   0
                   0
                   0
                   0
                   0
                   0
                   0
                   0
                   0
                   0
                   0
                   0
                   0
                   0
                   0
                   0
                   0
                   0
                   0
                   0
                   0
                   0
                   0
                   0
                   0
                   0
                   0
                   0
                   0
                   0
                   0
                   0
                   0
                   0
                   0
                   0
                   0
                   0
                   0
                   0
                   0
                   0
                   0
                   0
                   0
                   0
                   0
                   0
                   0
                   0
                   0
                   0
                   0
                   0
                   0
                   0
                   0
                   0
                   0
                   0
                   0
                   0
                   0
                   0
                   0
                   0
                   0
                   0
                   0
                   0
                   0
                   0
                   0
                   0
                   0
                   0
                   0
                   0
                   0
                   0
                   0
                   0
                   0
                   0
                   0
                   0
                   0
                   0
                   0
                   0
                   0
                   0
                   0
                   0
                   0
                   0
                   0
                   0
                   0
                   0
                   0
                   0
                   0
                   0
                   0
                   0
                   0
                   0
                   0
                   0
                   0
                   0
                   0
                   0
                   0
                   0
                   0
                   0
                   0
                   0
                   0
                   0
                   0
                   0
                   0
                   0
                   0
                   0
                   0
                   0
                   0
                   0
                   0
                   0
                   0
                   0
                   0
                   0
                   0
                   0
                   0
                   0
                   0
                   0
                   0
                   0
                   0
                   0
                   0
                   0
                   0
                   0
                   0
                   0
                   0
                   0
                   0
                   0
                   0
                   0
                   0
                   0
                   0
                   0
                   0
                   0
                   0
                   0
                   0
                   0
                   0
                   0
                   0
                   0
                   0
                   0
                   0
                   0
                   0
                   0
                   0
                   0
                   0
                   0
                   0
                   0
                   0
                   0
                   0
                   0
                   0
                   0
                   0
                   0
                   0
                   0
                   0
                   0
                   0
                   0
                   0
                   0
                   0
                   0
                   0
                   0
                   0
                   0
                   0
                   0
                   0
                   0
                   0
                   0
                   0
                   0
                   0
                   0
                   0
                   0
                   0
                   0
                   0
                   0
                   0
                   0
                   0
                   0
                   0
                   0
                   0
                   0
                   0
                   0
                   0
                   0
                   0
                   0
                   0
                   0
                   0
                   0
                   0
                   0
                   0
                   0
                   0
                   0
                   0
                   0
                   0
                   0
                   0
                   0
                   0
                   0
                   0
                   0
                   0
                   0
                   0
                   0
                   0
                   0
                   0
                   0
                   0
                   0
                   0
                   0
                   0
                   0
                   0
                   0
                   0
                   0
                   0
                   0
                   0
                   0
                   0
                   0
                   0
                   0
                   0
                   0
                   0
                   0
                   0
                   0
                   0
                   0
                   0
                   0
                   0
                   0
                   0
                   0
                   0
                   0
                   0
                   0
                   0
                   0
                   0
                   0
                   0
                   0
                   0
                   0
                   0
                   0
                   0
                   0
                   0
                   0
                   0
                   0
                   0
                   0
                   0
                   0
                   0
                   0
                   0
                   0
                   0
                   0
                   0
                   0
                   0
                   0
                   0
                   0
                   0
                   0
                   0
                   0
                   0
                   0
                   0
                   0
                   0
                   0
                   0
                   0
                   0
                   0
                   0
                   0
                   0
                   0
                   0
                   0
                   0
                   0
                   0
                   0
                   0
                   0
                   0
                   0
                   0
                   0
                   0
                   0
                   0
                   0
                   0
                   0
                   0
                   0
                   0
                   0
                   0
                   0
                   0
                   0
                   0
                   0
                   0
                   0
                   0
                   0
                   0
                   0
                   0
                   0
                   0
                   0
                   0
                   0
                   0
                   0
                   0
                   0
                   0
                   0
                   0
                   0
                   0
                   0
                   0
                   0
                   0
                   0
                   0
                   0
                   0
                   0
                   0
                   0
                   0
                   0
                   0
                   0
                   0
                   0
                   0
                   0
                   0
                   0
                   0
                   0
                   0
                   0
                   0
                   0
                   0
                   0
                   0
                   0
                   0
                   0
                   0
                   0
                   0
                   0
                   0
                   0
                   0
                   0
                   0
                   0
                   0
                   0
                   0
                   0
                   0
                   0
                   0
                   0
                   0
                   0
                   0
                   0
                   0
                   0
                   0
                   0
                   0
                   0
                   0
                   0
                   0
                   0
                   0
                   0
                   0
                   0
                   0
                   0
                   0
                   0
                   0
                   0
                   0
                   0
                   0
                   0
                   0
                   0
                   0
                   0
                   0
                   0
                   0
                   0
                   0
                   0
                   0
                   0
                   0
                   0
                   0
                   0
                   0
                   0
                   0
                   0
                   0
                   0
                   0
                   0
                   0
                   0
                   0
                   0
                   0
                   0
                   0
                   0
                   0
                   0
                   0
                   0
                   0
                   0
                   0
                   0
                   0
                   0
                   0
                   0
                   0
                   0
                   0
                   0
                   0
                   0
                   0
                   0
                   0
                   0
                   0
                   0
                   0
                   0
                   0
                   0
                   0
                   0
                   0
                   0
                   0
                   0
                   0
                   0
                   0
                   0
                   0
                   0
                   0
                   0
                   0
                   0
                   0
                   0
                   0
                   0
                   0
                   0
                   0
                   0
                   0
                   0
                   0
                   0
                   0
                   0
                   0
                   0
                   0
                   0
                   0
                   0
                   0
                   0
                   0
                   0
                   0
                   0
                   0
                   0
                   0
                   0
                   0
                   0
                   0
                   0
                   0
                   0
                   0
                   0
                   0
                   0
                   0
                   0
                   0
                   0
                   0
                   0
                   0
                   0
                   0
                   0
                   0
                   0
                   0
                   0
                   0
                   0
                   0
                   0
                   0
                   0
                   0
                   0
                   0
                   0
                   0
                   0
                   0
                   0
                   0
                   0
                   0
                   0
                   0
                   0
                   0
                   0
                   0
                   0
                   0
                   0
                   0
                   0
                   0
                   0
                   0
                   0
                   0
                   0
                   0
                   0
                   0
                   0
                   0
                   0
                   0
                   0
                   0
                   0
                   0
                   0
                   0
                   0
                   0
                   0
                   0
                   0
                   0
                   0
                   0
                   0
                   0
                   0
                   0
                   0
                   0
                   0
                   0
                   0
                   0
                   0
                   0
                   0
                   0
                   0
                   0
                   0
                   0
                   0
                   0
                   0
                   0
                   0
                   0
                   0
                   0
                   0
                   0
                   0
                   0
                   0
                   0
                   0
                   0
                   0
                   0
                   0
                   0
                   0
                   0
                   0
                   0
                   0
                   0
                   0
                   0
                   0
                   0
                   0
                   0
                   0
                   0
                   0
                   0
                   0
                   0
                   0
                   0
                   0
                   0
                   0
                   0
                   0
                   0
                   0
                   0
                   0
                   0
                   0
                   0
                   0
                   0
                   0
                   0
                   0
                   0
                   0
                   0
                   0
                   0
                   0
                   0
                   0
                   0
                   0
                   0
                   0
                   0
                   0
                   0
                   0
                   0
                   0
                   0
                   0
                   0
                   0
                   0
                   0
                   0
                   0
                   0
                   0
                   0
                   0
                   0
                   0
                   0
                   0
                   0
                   0
                   0
                   0
                   0
                   0
                   0
                   0
                   0
                   0
                   0
                   0
                   0
                   0
                   0
                   0
                   0
                   0
                   0
                   0
                   0
                   0
                   0
                   0
                   0
                   0
                   0
                   0
                   0
                   0
                   0
                   0
                   0
                   0
                   0
                   0
                   0
                   0
                   0
                   0
                   0
                   0
                   0
                   0
                   0
                   0
                   0
                   0
                   0
                   0
                   0
                   0
                   0
                   0
                   0
                   0
                   0
                   0
                   0
                   0
                   0
                   0
                   0
                   0
                   0
                   0
                   0
                   0
                   0
                   0
                   0
                   0
                   0
                   0
                   0
                   0
                   0
                   0
                   0
                   0
                   0
                   0
                   0
                   0
                   0
                   0
                   0
                   0
                   0
                   0
                   0
                   0
                   0
                   0
                   0
                   0
                   0
                   0
                   0
                   0
                   0
                   0
                   0
                   0
                   0
                   0
                   0
                   0
                   0
                   0
                   0
                   0
                   0
                   0
                   0
                   0
                   0
                   0
                   0
                   0
                   0
                   0
                   0
                   0
                   0
                   0
                   0
                   0
                   0
                   0
                   0
                   0
                   0
                   0
                   0
                   0
                   0
                   0
                   0
                   0
                   0
                   0
                   0
                   0
                   0
                   0
                   0
                   0
                   0
                   0
                   0
                   0
                   0
                   0
                   0
                   0
                   0
                   0
                   0
                   0
                   0
                   0
                   0
                   0
                   0
                   0
                   0
                   0
                   0
                   0
                   0
                   0
                   0
                   0
                   0
                   0
                   0
                   0
                   0
                   0
                   0
                   0
                   0
                   0
                   0
                   0
                   0
                   0
                   0
                   0
                   0
                   0
                   0
                   0
                   0
                   0
                   0
                   0
                   0
                   0
                   0
                   0
                   0
                   0
                   0
                   0
                   0
                   0
                   0
                   0
                   0
                   0
                   0
                   0
                   0
                   0
                   0
                   0
                   0
                   0
                   0
                   0
                   0
                   0
                   0
                   0
                   0
                   0
                   0
                   0
                   0
                   0
                   0
                   0
                   0
                   0
                   0
                   0
                   0
                   0
                   0
                   0
                   0
                   0
                   0
                   0
                   0
                   0
                   0
                   0
                   0
                   0
                   0
                   0
                   0
                   0
                   0
                   0
                   0
                   0
                   0
                   0
                   0
                   0
                   0
                   0
                   0
                   0
                   0
                   0
                   0
                   0
                   0
                   0
                   0
                   0
                   0
                   0
                   0
                   0
                   0
                   0
                   0
                   0
                   0
  
SCALARS                       fixity_z  double 1
LOOKUP_TABLE default
                   0
                   0
                   0
                   0
                   1
                   1
                   1
                   1
                   0
                   0
                   1
                   1
                   0
                   0
                   1
                   1
                   0
                   0
                   1
                   1
                   0
                   0
                   0
                   1
                   1
                   1
                   0
                   0
                   1
                   1
                   0
                   0
                   0
                   1
                   1
                   1
                   0
                   0
                   1
                   1
                   0
                   0
                   1
                   1
                   0
                   0
                   1
                   1
                   0
                   1
                   0
                   1
                   0
                   1
                   0
                   1
                   0
                   0
                   1
                   1
                   0
                   0
                   1
                   1
                   0
                   1
                   0
                   1
                   0
                   0
                   1
                   1
                   0
                   1
                   0
                   1
                   0
                   1
                   0
                   1
                   0
                   0
                   1
                   1
                   0
                   1
                   0
                   1
                   0
                   1
                   0
                   0
                   1
                   1
                   0
                   1
                   0
                   1
                   0
                   1
                   0
                   0
                   1
                   1
                   0
                   0
                   1
                   1
                   0
                   1
                   0
                   1
                   0
                   1
                   0
                   1
                   0
                   1
                   0
                   1
                   0
                   1
                   0
                   1
                   0
                   1
                   0
                   1
                   0
                   1
                   0
                   1
                   0
                   1
                   0
                   1
                   0
                   1
                   0
                   1
                   0
                   1
                   0
                   1
                   0
                   1
                   0
                   1
                   0
                   1
                   0
                   1
                   0
                   1
                   0
                   1
                   0
                   0
                   0
                   0
                   0
                   0
                   0
                   0
                   0
                   0
                   0
                   0
                   0
                   0
                   0
                   0
                   0
                   0
                   0
                   0
                   0
                   0
                   0
                   0
                   0
                   0
                   0
                   0
                   0
                   0
                   0
                   0
                   0
                   0
                   0
                   0
                   0
                   0
                   0
                   0
                   0
                   0
                   0
                   0
                   0
                   0
                   0
                   0
                   0
                   0
                   0
                   0
                   0
                   0
                   0
                   0
                   0
                   0
                   0
                   0
                   0
                   0
                   0
                   0
                   0
                   0
                   0
                   0
                   0
                   0
                   0
                   0
                   0
                   0
                   0
                   0
                   0
                   0
                   0
                   0
                   0
                   0
                   0
                   0
                   0
                   0
                   0
                   0
                   0
                   0
                   0
                   0
                   0
                   0
                   0
                   0
                   0
                   0
                   0
                   0
                   0
                   0
                   0
                   0
                   0
                   0
                   0
                   0
                   0
                   0
                   0
                   0
                   0
                   0
                   0
                   0
                   0
                   0
                   0
                   0
                   0
                   0
                   0
                   0
                   0
                   0
                   0
                   0
                   0
                   0
                   0
                   0
                   0
                   0
                   0
                   0
                   0
                   0
                   0
                   0
                   0
                   0
                   0
                   0
                   0
                   0
                   0
                   0
                   0
                   0
                   0
                   0
                   0
                   0
                   0
                   0
                   0
                   0
                   0
                   0
                   0
                   0
                   0
                   0
                   0
                   0
                   0
                   0
                   0
                   0
                   0
                   0
                   0
                   0
                   0
                   0
                   0
                   0
                   0
                   0
                   0
                   0
                   0
                   0
                   0
                   0
                   0
                   0
                   0
                   0
                   0
                   0
                   0
                   0
                   0
                   0
                   0
                   0
                   0
                   0
                   0
                   0
                   0
                   0
                   0
                   0
                   0
                   0
                   0
                   0
                   0
                   0
                   0
                   0
                   0
                   0
                   0
                   0
                   0
                   0
                   0
                   0
                   0
                   0
                   0
                   0
                   0
                   0
                   0
                   0
                   0
                   0
                   0
                   0
                   0
                   0
                   0
                   0
                   0
                   0
                   0
                   0
                   0
                   0
                   0
                   0
                   0
                   0
                   0
                   0
                   0
                   0
                   0
                   0
                   0
                   0
                   0
                   0
                   0
                   0
                   0
                   0
                   0
                   0
                   0
                   0
                   0
                   0
                   0
                   0
                   0
                   0
                   0
                   0
                   0
                   0
                   0
                   0
                   0
                   0
                   0
                   0
                   0
                   0
                   0
                   0
                   0
                   0
                   0
                   0
                   0
                   0
                   0
                   0
                   0
                   0
                   0
                   0
                   0
                   0
                   0
                   0
                   0
                   0
                   0
                   0
                   0
                   0
                   0
                   0
                   0
                   0
                   0
                   0
                   0
                   0
                   0
                   0
                   0
                   0
                   0
                   0
                   0
                   0
                   0
                   0
                   0
                   0
                   0
                   0
                   0
                   0
                   0
                   0
                   0
                   0
                   0
                   0
                   0
                   0
                   0
                   0
                   0
                   0
                   0
                   0
                   0
                   0
                   0
                   0
                   0
                   0
                   0
                   0
                   0
                   0
                   0
                   0
                   0
                   0
                   0
                   0
                   0
                   0
                   0
                   0
                   0
                   0
                   0
                   0
                   0
                   0
                   0
                   0
                   0
                   0
                   0
                   0
                   0
                   0
                   0
                   0
                   0
                   0
                   0
                   0
                   0
                   0
                   0
                   0
                   0
                   0
                   0
                   0
                   0
                   0
                   0
                   0
                   0
                   0
                   0
                   0
                   0
                   0
                   0
                   0
                   0
                   0
                   0
                   0
                   0
                   0
                   0
                   0
                   0
                   0
                   0
                   0
                   0
                   0
                   0
                   0
                   0
                   0
                   0
                   0
                   0
                   0
                   0
                   0
                   0
                   0
                   0
                   0
                   0
                   0
                   0
                   0
                   0
                   0
                   0
                   0
                   0
                   0
                   0
                   0
                   0
                   0
                   0
                   0
                   0
                   0
                   0
                   0
                   0
                   0
                   0
                   0
                   0
                   0
                   0
                   0
                   0
                   0
                   0
                   0
                   0
                   0
                   0
                   0
                   0
                   0
                   0
                   0
                   0
                   0
                   0
                   0
                   0
                   0
                   0
                   0
                   0
                   0
                   0
                   0
                   0
                   0
                   0
                   0
                   0
                   0
                   0
                   0
                   0
                   0
                   0
                   0
                   0
                   0
                   0
                   0
                   0
                   0
                   0
                   0
                   0
                   0
                   0
                   0
                   0
                   0
                   0
                   0
                   0
                   0
                   0
                   0
                   0
                   0
                   0
                   0
                   0
                   0
                   0
                   0
                   0
                   0
                   0
                   0
                   0
                   0
                   0
                   0
                   0
                   0
                   0
                   0
                   0
                   0
                   0
                   0
                   0
                   0
                   0
                   0
                   0
                   0
                   0
                   0
                   0
                   0
                   0
                   0
                   0
                   0
                   0
                   0
                   0
                   0
                   0
                   0
                   0
                   0
                   0
                   0
                   0
                   0
                   0
                   0
                   0
                   0
                   0
                   0
                   0
                   0
                   0
                   0
                   0
                   0
                   0
                   0
                   0
                   0
                   0
                   0
                   0
                   0
                   0
                   0
                   0
                   0
                   0
                   0
                   0
                   0
                   0
                   0
                   0
                   0
                   0
                   0
                   0
                   0
                   0
                   0
                   0
                   0
                   0
                   0
                   0
                   0
                   0
                   0
                   0
                   0
                   0
                   0
                   0
                   0
                   0
                   0
                   0
                   0
                   0
                   0
                   0
                   0
                   0
                   0
                   0
                   0
                   0
                   0
                   0
                   0
                   0
                   0
                   0
                   0
                   0
                   0
                   0
                   0
                   0
                   0
                   0
                   0
                   0
                   0
                   0
                   0
                   0
                   0
                   0
                   0
                   0
                   0
                   0
                   0
                   0
                   0
                   0
                   0
                   0
                   0
                   0
                   0
                   0
                   0
                   0
                   0
                   0
                   0
                   0
                   0
                   0
                   0
                   0
                   0
                   0
                   0
                   0
                   0
                   0
                   0
                   0
                   0
                   0
                   0
                   0
                   0
                   0
                   0
                   0
                   0
                   0
                   0
                   0
                   0
                   0
                   0
                   0
                   0
                   0
                   0
                   0
                   0
                   0
                   0
                   0
                   0
                   0
                   0
                   0
                   0
                   0
                   0
                   0
                   0
                   0
                   0
                   0
                   0
                   0
                   0
                   0
                   0
                   0
                   0
                   0
                   0
                   0
                   0
                   0
                   0
                   0
                   0
                   0
                   0
                   0
                   0
                   0
                   0
                   0
                   0
                   0
                   0
                   0
                   0
                   0
                   0
                   0
                   0
                   0
                   0
                   0
                   0
                   0
                   0
                   0
                   0
                   0
                   0
                   0
                   0
                   0
                   0
                   0
                   0
                   0
                   0
                   0
                   0
                   0
                   0
                   0
                   0
                   0
                   0
                   0
                   0
                   0
                   0
                   0
                   0
                   0
                   0
                   0
                   0
                   0
                   0
                   0
                   0
                   0
                   0
                   0
                   0
                   0
                   0
                   0
                   0
                   0
                   0
                   0
                   0
                   0
                   0
                   0
                   0
                   0
                   0
                   0
                   0
                   0
                   0
                   0
                   0
                   0
                   0
                   0
                   0
                   0
                   0
                   0
                   0
                   0
                   0
                   0
                   0
                   0
                   0
                   0
                   0
                   0
                   0
                   0
                   0
                   0
                   0
                   0
                   0
                   0
                   0
                   0
                   0
                   0
                   0
                   0
                   0
                   0
                   0
                   0
                   0
                   0
                   0
                   0
                   0
                   0
                   0
                   0
                   0
                   0
                   0
                   0
                   0
                   0
                   0
                   0
                   0
                   0
                   0
                   0
                   0
                   0
                   0
                   0
                   0
                   0
                   0
                   0
                   0
                   0
                   0
                   0
                   0
                   0
                   0
                   0
                   0
                   0
                   0
                   0
                   0
                   0
                   0
                   0
                   0
                   0
                   0
                   0
                   0
                   0
                   0
                   0
                   0
                   0
                   0
                   0
                   0
                   0
                   0
                   0
                   0
                   0
                   0
                   0
                   0
                   0
                   0
                   0
                   0
                   0
                   0
                   0
                   0
                   0
                   0
                   0
                   0
                   0
                   0
                   0
                   0
                   0
                   0
                   0
                   0
                   0
                   0
                   0
                   0
                   0
                   0
                   0
                   0
                   0
                   0
                   0
                   0
                   0
                   0
                   0
                   0
                   0
                   0
                   0
                   0
                   0
                   0
                   0
                   0
                   0
                   0
                   0
                   0
                   0
                   0
                   0
                   0
                   0
                   0
                   0
                   0
                   0
                   0
                   0
                   0
                   0
                   0
                   0
                   0
                   0
                   0
                   0
                   0
                   0
                   0
                   0
                   0
                   0
                   0
                   0
                   0
                   0
                   0
                   0
                   0
                   0
                   0
                   0
                   0
                   0
                   0
                   0
                   0
                   0
                   0
                   0
                   0
                   0
                   0
                   0
                   0
                   0
                   0
                   0
                   0
                   0
                   0
                   0
                   0
                   0
                   0
                   0
                   0
                   0
                   0
                   0
                   0
                   0
                   0
                   0
                   0
                   0
                   0
                   0
                   0
                   0
                   0
                   0
                   0
                   0
                   0
                   0
                   0
                   0
                   0
                   0
                   0
                   0
                   0
                   0
                   0
                   0
                   0
                   0
                   0
                   0
                   0
                   0
                   0
                   0
                   0
                   0
                   0
                   0
                   0
                   0
                   0
                   0
                   0
                   0
                   0
                   0
                   0
                   0
                   0
                   0
                   0
                   0
                   0
                   0
                   0
                   0
                   0
                   0
                   0
                   0
                   0
                   0
                   0
                   0
                   0
                   0
                   0
                   0
                   0
                   0
                   0
                   0
                   0
                   0
                   0
                   0
                   0
                   0
                   0
                   0
                   0
                   0
                   0
                   0
                   0
                   0
                   0
                   0
                   0
                   0
                   0
                   0
                   0
                   0
                   0
                   0
                   0
                   0
                   0
                   0
                   0
                   0
                   0
                   0
                   0
                   0
                   0
                   0
                   0
                   0
                   0
                   0
                   0
                   0
                   0
                   0
                   0
                   0
                   0
                   0
                   0
                   0
                   0
                   0
                   0
                   0
                   0
                   0
                   0
                   0
                   0
                   0
                   0
                   0
                   0
                   0
                   0
                   0
                   0
                   0
                   0
                   0
                   0
                   0
                   0
                   0
                   0
                   0
                   0
                   0
                   0
                   0
                   0
                   0
                   0
                   0
                   0
                   0
                   0
                   0
                   0
                   0
                   0
                   0
                   0
                   0
                   0
                   0
                   0
                   0
                   0
                   0
                   0
                   0
                   0
                   0
                   0
                   0
                   0
                   0
                   0
                   0
                   0
                   0
                   0
                   0
                   0
                   0
                   0
                   0
                   0
                   0
                   0
                   0
                   0
                   0
                   0
                   0
                   0
                   0
                   0
                   0
                   0
                   0
                   0
                   0
                   0
                   0
                   0
                   0
                   0
                   0
                   0
                   0
                   0
                   0
                   0
                   0
                   0
                   0
                   0
                   0
                   0
                   0
                   0
                   0
                   0
                   0
                   0
                   0
                   0
                   0
                   0
                   0
                   0
                   0
                   0
                   0
                   0
                   0
                   0
                   0
                   0
                   0
                   0
                   0
                   0
                   0
                   0
                   0
                   0
                   0
                   0
                   0
                   0
                   0
                   0
                   0
                   0
                   0
                   0
                   0
                   0
                   0
                   0
                   0
                   0
                   0
                   0
                   0
                   0
                   0
                   0
                   0
                   0
                   0
                   0
                   0
                   0
                   0
                   0
                   0
                   0
                   0
                   0
                   0
                   0
                   0
                   0
                   0
                   0
                   0
                   0
                   0
                   0
                   0
                   0
                   0
                   0
                   0
                   0
                   0
                   0
                   0
                   0
                   0
                   0
                   0
                   0
                   0
                   0
                   0
                   0
                   0
                   0
                   0
                   0
                   0
                   0
                   0
                   0
                   0
                   0
                   0
                   0
                   0
                   0
                   0
                   0
                   0
                   0
                   0
                   0
                   0
                   0
                   0
                   0
                   0
                   0
                   0
                   0
                   0
                   0
                   0
                   0
                   0
                   0
                   0
                   0
                   0
                   0
                   0
                   0
                   0
                   0
                   0
                   0
                   0
                   0
                   0
                   0
                   0
                   0
                   0
                   0
                   0
                   0
                   0
                   0
                   0
                   0
                   0
                   0
                   0
                   0
                   0
                   0
                   0
                   0
                   0
                   0
                   0
                   0
                   0
                   0
                   0
                   0
                   0
                   0
                   0
                   0
                   0
                   0
                   0
                   0
                   0
                   0
                   0
                   0
                   0
                   0
                   0
                   0
                   0
                   0
                   0
                   0
                   0
                   0
                   0
                   0
                   0
                   0
                   0
                   0
                   0
                   0
                   0
                   0
                   0
                   0
                   0
                   0
                   0
                   0
                   0
                   0
                   0
                   0
                   0
                   0
                   0
                   0
                   0
                   0
                   0
                   0
                   0
                   0
                   0
                   0
                   0
                   0
                   0
                   0
                   0
                   0
                   0
                   0
                   0
                   0
                   0
                   0
                   0
                   0
                   0
                   0
                   0
                   0
                   0
                   0
                   0
                   0
                   0
                   0
                   0
                   0
                   0
                   0
                   0
                   0
                   0
                   0
                   0
                   0
                   0
                   0
                   0
                   0
                   0
                   0
                   0
                   0
                   0
                   0
                   0
                   0
                   0
                   0
                   0
                   0
                   0
                   0
                   0
                   0
                   0
                   0
                   0
                   0
                   0
                   0
                   0
                   0
                   0
                   0
                   0
                   0
                   0
                   0
                   0
                   0
                   0
                   0
                   0
                   0
                   0
                   0
                   0
                   0
                   0
                   0
                   0
                   0
                   0
                   0
                   0
                   0
                   0
                   0
                   0
                   0
                   0
                   0
                   0
                   0
                   0
                   0
                   0
                   0
                   0
                   0
                   0
                   0
                   0
                   0
                   0
                   0
                   0
                   0
                   0
                   0
                   0
                   0
                   0
                   0
                   0
                   0
                   0
                   0
                   0
                   0
                   0
                   0
                   0
                   0
                   0
                   0
                   0
                   0
                   0
                   0
                   0
                   0
                   0
                   0
                   0
                   0
                   0
                   0
                   0
                   0
                   0
                   0
                   0
                   0
                   0
                   0
                   0
                   0
                   0
                   0
                   0
                   0
                   0
                   0
                   0
                   0
                   0
                   0
                   0
                   0
                   0
                   0
                   0
                   0
                   0
                   0
                   0
                   0
                   0
                   0
                   0
                   0
                   0
                   0
                   0
                   0
                   0
                   0
                   0
                   0
                   0
                   0
                   0
                   0
                   0
                   0
                   0
                   0
                   0
                   0
                   0
                   0
                   0
                   0
                   0
                   0
                   0
                   0
                   0
                   0
                   0
                   0
                   0
                   0
                   0
                   0
                   0
                   0
                   0
                   0
                   0
                   0
                   0
                   0
                   0
                   0
                   0
                   0
                   0
                   0
                   0
                   0
                   0
                   0
                   0
                   0
                   0
                   0
                   0
                   0
                   0
                   0
                   0
                   0
                   0
                   0
                   0
                   0
                   0
                   0
                   0
                   0
                   0
                   0
                   0
                   0
                   0
                   0
                   0
                   0
                   0
                   0
                   0
                   0
                   0
                   0
                   0
                   0
                   0
                   0
                   0
                   0
                   0
                   0
                   0
                   0
                   0
                   0
                   0
                   0
                   0
                   0
                   0
                   0
                   0
                   0
                   0
                   0
                   0
                   0
                   0
                   0
                   0
                   0
                   0
                   0
                   0
                   0
                   0
                   0
                   0
                   0
                   0
                   0
                   0
                   0
                   0
                   0
                   0
                   0
                   0
                   0
                   0
                   0
                   0
                   0
                   0
                   0
                   0
                   0
                   0
                   0
                   0
                   0
                   0
                   0
                   0
                   0
                   0
                   0
                   0
                   0
                   0
                   0
  
SCALARS                         Ispace  double 1
LOOKUP_TABLE default
                  12
                  12
                  12
                  12
                  12
                  12
                  12
                  12
                  12
                  12
                  12
                  12
                  12
                  11
                  12
                  11
                  11
                  11
                  11
                  11
                  11
                  12
                  12
                  11
                  12
                  12
                  11
                  11
                  11
                  11
                  11
                  11
                  11
                  11
                  11
                  11
                  11
                  11
                  11
                  11
                  11
                  11
                  11
                  11
                  11
                  11
                  11
                  11
                  11
                  11
                  11
                  11
                  11
                  11
                  11
                  11
                  11
                  11
                  11
                  11
                  11
                  11
                  11
                  11
                  11
                  11
                  12
                  12
                  12
                  12
                  12
                  12
                  12
                  12
                  11
                  11
                  11
                  11
                  11
                  11
                  11
                  11
                  11
                  11
                  11
                  11
                  11
                  11
                  11
                  11
                  11
                  11
                  11
                  11
                  11
                  11
                  12
                  12
                  12
                  12
                  12
                  12
                  12
                  12
                  12
                  12
                  12
                  12
                  12
                  12
                  12
                  12
                  12
                  12
                  12
                  12
                  11
                  11
                  11
                  11
                  11
                  11
                  11
                  11
                  11
                  11
                  11
                  11
                  11
                  11
                  11
                  11
                  11
                  11
                  11
                  11
                  11
                  11
                  11
                  11
                  11
                  11
                  11
                  11
                  11
                  11
                  12
                  12
                  12
                  12
                  12
                  12
                  12
                  12
                  12
                  12
                  12
                  12
                  12
                  12
                  12
                  12
                  12
                  11
                  11
                  11
                  11
                  12
                  12
                  11
                  11
                  11
                  11
                  11
                  11
                  11
                  11
                  11
                  11
                  11
                  11
                  11
                  11
                  11
                  11
                  11
                  11
                  11
                  11
                  12
                  12
                  12
                  12
                  11
                  11
                  11
                  11
                  11
                  11
                  11
                  11
                  11
                  11
                  11
                  12
                  12
                  12
                  12
                  12
                  12
                  12
                  12
                  12
                  12
                  11
                  11
                  11
                  11
                  11
                  11
                  11
                  11
                  11
                  11
                  11
                  11
                  11
                  11
                  11
                  12
                  12
                  12
                  12
                  12
                  12
                  12
                  12
                  12
                  12
                  12
                  12
                  11
                  11
                  11
                  11
                  12
                  12
                  11
                  11
                  11
                  11
                  11
                  11
                  11
                  11
                  11
                  11
                  11
                  11
                  11
                  11
                  11
                  11
                  11
                  11
                  11
                  11
                  12
                  12
                  12
                  12
                  11
                  11
                  11
                  11
                  11
                  11
                  11
                  11
                  11
                  11
                  11
                  12
                  12
                  12
                  12
                  12
                  12
                  12
                  12
                  12
                  12
                  11
                  11
                  11
                  11
                  11
                  11
                  11
                  11
                  11
                  11
                  11
                  11
                  11
                  11
                  11
                  12
                  12
                  12
                  12
                  12
                  12
                  12
                  12
                  12
                  12
                  12
                  12
                  11
                  11
                  11
                  11
                  12
                  12
                  11
                  11
                  11
                  11
                  11
                  11
                  11
                  11
                  11
                  11
                  11
                  11
                  11
                  11
                  11
                  11
                  11
                  11
                  11
                  11
                  12
                  12
                  12
                  12
                  11
                  11
                  11
                  11
                  11
                  11
                  11
                  11
                  11
                  11
                  11
                  12
                  12
                  12
                  12
                  12
                  12
                  12
                  12
                  12
                  12
                  11
                  11
                  11
                  11
                  11
                  11
                  11
                  11
                  11
                  11
                  11
                  11
                  11
                  11
                  11
                  12
                  12
                  12
                  12
                  12
                  12
                  12
                  12
                  12
                  12
                  12
                  12
                  11
                  11
                  11
                  11
                  12
                  12
                  11
                  11
                  11
                  11
                  11
                  11
                  11
                  11
                  11
                  11
                  11
                  11
                  11
                  11
                  11
                  11
                  11
                  11
                  11
                  11
                  12
                  12
                  12
                  12
                  11
                  11
                  11
                  11
                  11
                  11
                  11
                  11
                  11
                  11
                  11
                  12
                  12
                  12
                  12
                  12
                  12
                  12
                  12
                  12
                  12
                  11
                  11
                  11
                  11
                  11
                  11
                  11
                  11
                  11
                  11
                  11
                  11
                  11
                  11
                  11
                  12
                  12
                  12
                  12
                  12
                  12
                  12
                  12
                  12
                  12
                  12
                  12
                  11
                  11
                  11
                  11
                  12
                  12
                  11
                  11
                  11
                  11
                  11
                  11
                  11
                  11
                  11
                  11
                  11
                  11
                  11
                  11
                  11
                  11
                  11
                  11
                  11
                  11
                  12
                  12
                  12
                  12
                  11
                  11
                  11
                  11
                  11
                  11
                  11
                  11
                  11
                  11
                  11
                  12
                  12
                  12
                  12
                  12
                  12
                  12
                  12
                  12
                  12
                  11
                  11
                  11
                  11
                  11
                  11
                  11
                  11
                  11
                  11
                  11
                  11
                  11
                  11
                  11
                  12
                  12
                  12
                  12
                  12
                  12
                  12
                  12
                  12
                  12
                  12
                  12
                  11
                  11
                  11
                  11
                  12
                  12
                  11
                  11
                  11
                  11
                  11
                  11
                  11
                  11
                  11
                  11
                  11
                  11
                  11
                  11
                  11
                  11
                  11
                  11
                  11
                  11
                  12
                  12
                  12
                  12
                  11
                  11
                  11
                  11
                  11
                  11
                  11
                  11
                  11
                  11
                  11
                  12
                  12
                  12
                  12
                  12
                  12
                  12
                  12
                  12
                  12
                  11
                  11
                  11
                  11
                  11
                  11
                  11
                  11
                  11
                  11
                  11
                  11
                  11
                  11
                  11
                  12
                  12
                  12
                  12
                  12
                  12
                  12
                  12
                  12
                  12
                  12
                  12
                  11
                  11
                  11
                  11
                  12
                  12
                  11
                  11
                  11
                  11
                  11
                  11
                  11
                  11
                  11
                  11
                  11
                  11
                  11
                  11
                  11
                  11
                  11
                  11
                  11
                  11
                  12
                  12
                  12
                  12
                  11
                  11
                  11
                  11
                  11
                  11
                  11
                  11
                  11
                  11
                  11
                  12
                  12
                  12
                  12
                  12
                  12
                  12
                  12
                  12
                  12
                  11
                  11
                  11
                  11
                  11
                  11
                  11
                  11
                  11
                  11
                  11
                  11
                  11
                  11
                  11
                  12
                  12
                  12
                  12
                  12
                  12
                  12
                  12
                  12
                  12
                  12
                  12
                  11
                  11
                  11
                  11
                  12
                  12
                  11
                  11
                  11
                  11
                  11
                  11
                  11
                  11
                  11
                  11
                  11
                  11
                  11
                  11
                  11
                  11
                  11
                  11
                  11
                  11
                  12
                  12
                  12
                  12
                  11
                  11
                  11
                  11
                  11
                  11
                  11
                  11
                  11
                  11
                  11
                  12
                  12
                  12
                  12
                  12
                  12
                  12
                  12
                  12
                  12
                  11
                  11
                  11
                  11
                  11
                  11
                  11
                  11
                  11
                  11
                  11
                  11
                  11
                  11
                  11
                  12
                  12
                  12
                  12
                  12
                  12
                  12
                  12
                  12
                  12
                  12
                  12
                  11
                  11
                  11
                  11
                  12
                  12
                  11
                  11
                  11
                  11
                  11
                  11
                  11
                  11
                  11
                  11
                  11
                  11
                  11
                  11
                  11
                  11
                  11
                  11
                  11
                  11
                  12
                  12
                  12
                  12
                  11
                  11
                  11
                  11
                  11
                  11
                  11
                  11
                  11
                  11
                  11
                  12
                  12
                  12
                  12
                  12
                  12
                  12
                  12
                  12
                  12
                  11
                  11
                  11
                  11
                  11
                  11
                  11
                  11
                  11
                  11
                  11
                  11
                  11
                  11
                  11
                  12
                  12
                  12
                  12
                  12
                  12
                  12
                  12
                  12
                  12
                  12
                  12
                  11
                  11
                  11
                  11
                  12
                  12
                  11
                  11
                  11
                  11
                  11
                  11
                  11
                  11
                  11
                  11
                  11
                  11
                  11
                  11
                  11
                  11
                  11
                  11
                  11
                  11
                  12
                  12
                  12
                  12
                  11
                  11
                  11
                  11
                  11
                  11
                  11
                  11
                  11
                  11
                  11
                  12
                  12
                  12
                  12
                  12
                  12
                  12
                  12
                  12
                  12
                  11
                  11
                  11
                  11
                  11
                  11
                  11
                  11
                  11
                  11
                  11
                  11
                  11
                  11
                  11
                  12
                  12
                  12
                  12
                  12
                  12
                  12
                  12
                  12
                  12
                  12
                  12
                  11
                  11
                  11
                  11
                  12
                  12
                  11
                  11
                  11
                  11
                  11
                  11
                  11
                  11
                  11
                  11
                  11
                  11
                  11
                  11
                  11
                  11
                  11
                  11
                  11
                  11
                  12
                  12
                  12
                  12
                  11
                  11
                  11
                  11
                  11
                  11
                  11
                  11
                  11
                  11
                  11
                  12
                  12
                  12
                  12
                  12
                  12
                  12
                  12
                  12
                  12
                  11
                  11
                  11
                  11
                  11
                  11
                  11
                  11
                  11
                  11
                  11
                  11
                  11
                  11
                  11
                  12
                  12
                  12
                  12
                  12
                  12
                  12
                  12
                  12
                  12
                  12
                  12
                  11
                  11
                  11
                  11
                  12
                  12
                  11
                  11
                  11
                  11
                  11
                  11
                  11
                  11
                  11
                  11
                  11
                  11
                  11
                  11
                  11
                  11
                  11
                  11
                  11
                  11
                  12
                  12
                  12
                  12
                  11
                  11
                  11
                  11
                  11
                  11
                  11
                  11
                  11
                  11
                  11
                  12
                  12
                  12
                  12
                  12
                  12
                  12
                  12
                  12
                  12
                  11
                  11
                  11
                  11
                  11
                  11
                  11
                  11
                  11
                  11
                  11
                  11
                  11
                  11
                  11
                  12
                  12
                  12
                  12
                  12
                  12
                  12
                  12
                  12
                  12
                  12
                  12
                  11
                  11
                  11
                  11
                  12
                  12
                  11
                  11
                  11
                  11
                  11
                  11
                  11
                  11
                  11
                  11
                  11
                  11
                  11
                  11
                  11
                  11
                  11
                  11
                  11
                  11
                  12
                  12
                  12
                  12
                  11
                  11
                  11
                  11
                  11
                  11
                  11
                  11
                  11
                  11
                  11
                  12
                  12
                  12
                  12
                  12
                  12
                  12
                  12
                  12
                  12
                  11
                  11
                  11
                  11
                  11
                  11
                  11
                  11
                  11
                  11
                  11
                  11
                  11
                  11
                  11
                  12
                  12
                  12
                  12
                  12
                  12
                  12
                  12
                  12
                  12
                  12
                  12
                  11
                  11
                  11
                  11
                  12
                  12
                  11
                  11
                  11
                  11
                  11
                  11
                  11
                  11
                  11
                  11
                  11
                  11
                  11
                  11
                  11
                  11
                  11
                  11
                  11
                  11
                  12
                  12
                  12
                  12
                  11
                  11
                  11
                  11
                  11
                  11
                  11
                  11
                  11
                  11
                  11
                  12
                  12
                  12
                  12
                  12
                  12
                  12
                  12
                  12
                  12
                  11
                  11
                  11
                  11
                  11
                  11
                  11
                  11
                  11
                  11
                  11
                  11
                  11
                  11
                  11
                  12
                  12
                  12
                  12
                  12
                  12
                  12
                  12
                  12
                  12
                  12
                  12
                  11
                  11
                  11
                  11
                  12
                  12
                  11
                  11
                  11
                  11
                  11
                  11
                  11
                  11
                  11
                  11
                  11
                  11
                  11
                  11
                  11
                  11
                  11
                  11
                  11
                  11
                  12
                  12
                  12
                  12
                  11
                  11
                  11
                  11
                  11
                  11
                  11
                  11
                  11
                  11
                  11
                  12
                  12
                  12
                  12
                  12
                  12
                  12
                  12
                  12
                  12
                  11
                  11
                  11
                  11
                  11
                  11
                  11
                  11
                  11
                  11
                  11
                  11
                  11
                  11
                  11
                  12
                  12
                  12
                  12
                  12
                  12
                  12
                  12
                  12
                  12
                  12
                  12
                  11
                  11
                  11
                  11
                  12
                  12
                  11
                  11
                  11
                  11
                  11
                  11
                  11
                  11
                  11
                  11
                  11
                  11
                  11
                  11
                  11
                  11
                  11
                  11
                  11
                  11
                  12
                  12
                  12
                  12
                  11
                  11
                  11
                  11
                  11
                  11
                  11
                  11
                  11
                  11
                  11
                  12
                  12
                  12
                  12
                  12
                  12
                  12
                  12
                  12
                  12
                  11
                  11
                  11
                  11
                  11
                  11
                  11
                  11
                  11
                  11
                  11
                  11
                  11
                  11
                  11
                  12
                  12
                  12
                  12
                  12
                  12
                  12
                  12
                  12
                  12
                  12
                  12
                  11
                  11
                  11
                  11
                  12
                  12
                  11
                  11
                  11
                  11
                  11
                  11
                  11
                  11
                  11
                  11
                  11
                  11
                  11
                  11
                  11
                  11
                  11
                  11
                  11
                  11
                  12
                  12
                  12
                  12
                  11
                  11
                  11
                  11
                  11
                  11
                  11
                  11
                  11
                  11
                  11
                  12
                  12
                  12
                  12
                  12
                  12
                  12
                  12
                  12
                  12
                  11
                  11
                  11
                  11
                  11
                  11
                  11
                  11
                  11
                  11
                  11
                  11
                  11
                  11
                  11
                  12
                  12
                  12
                  12
                  12
                  12
                  12
                  12
                  12
                  12
                  12
                  12
                  11
                  11
                  11
                  11
                  12
                  12
                  11
                  11
                  11
                  11
                  11
                  11
                  11
                  11
                  11
                  11
                  11
                  11
                  11
                  11
                  11
                  11
                  11
                  11
                  11
                  11
                  12
                  12
                  12
                  12
                  11
                  11
                  11
                  11
                  11
                  11
                  11
                  11
                  11
                  11
                  11
                  12
                  12
                  12
                  12
                  12
                  12
                  12
                  12
                  12
                  12
                  11
                  11
                  11
                  11
                  11
                  11
                  11
                  11
                  11
                  11
                  11
                  11
                  11
                  11
                  11
                  12
                  12
                  12
                  12
                  12
                  12
                  12
                  12
                  12
                  12
                  12
                  12
                  11
                  11
                  11
                  11
                  12
                  12
                  11
                  11
                  11
                  11
                  11
                  11
                  11
                  11
                  11
                  11
                  11
                  11
                  11
                  11
                  11
                  11
                  11
                  11
                  11
                  11
                  12
                  12
                  12
                  12
                  11
                  11
                  11
                  11
                  11
                  11
                  11
                  11
                  11
                  11
                  11
                  12
                  12
                  12
                  12
                  12
                  12
                  12
                  12
                  12
                  12
                  11
                  11
                  11
                  11
                  11
                  11
                  11
                  11
                  11
                  11
                  11
                  11
                  11
                  11
                  11
                  12
                  12
                  12
                  12
                  12
                  12
                  12
                  12
                  12
                  12
                  12
                  12
                  11
                  11
                  11
                  11
                  12
                  12
                  11
                  11
                  11
                  11
                  11
                  11
                  11
                  11
                  11
                  11
                  11
                  11
                  11
                  11
                  11
                  11
                  11
                  11
                  11
                  11
                  12
                  12
                  12
                  12
                  11
                  11
                  11
                  11
                  11
                  11
                  11
                  11
                  11
                  11
                  11
                  12
                  12
                  12
                  12
                  12
                  12
                  12
                  12
                  12
                  12
                  11
                  11
                  11
                  11
                  11
                  11
                  11
                  11
                  11
                  11
                  11
                  11
                  11
                  11
                  11
                  12
                  12
                  12
                  12
                  12
                  12
                  12
                  12
                  12
                  12
                  12
                  12
                  11
                  11
                  11
                  11
                  12
                  12
                  11
                  11
                  11
                  11
                  11
                  11
                  11
                  11
                  11
                  11
                  11
                  11
                  11
                  11
                  11
                  11
                  11
                  11
                  11
                  11
                  12
                  12
                  12
                  12
                  11
                  11
                  11
                  11
                  11
                  11
                  11
                  11
                  11
                  11
                  11
                  12
                  12
                  12
                  12
                  12
                  12
                  12
                  12
                  12
                  12
                  11
                  11
                  11
                  11
                  11
                  11
                  11
                  11
                  11
                  11
                  11
                  11
                  11
                  11
                  11
                  12
                  12
                  12
                  12
                  12
                  12
                  12
                  12
                  12
                  12
                  12
                  12
                  11
                  11
                  11
                  11
                  12
                  12
                  11
                  11
                  11
                  11
                  11
                  11
                  11
                  11
                  11
                  11
                  11
                  11
                  11
                  11
                  11
                  11
                  11
                  11
                  11
                  11
                  12
                  12
                  12
                  12
                  11
                  11
                  11
                  11
                  11
                  11
                  11
                  11
                  11
                  11
                  11
                  12
                  12
                  12
                  12
                  12
                  12
                  12
                  12
                  12
                  12
                  11
                  11
                  11
                  11
                  11
                  11
                  11
                  11
                  11
                  11
                  11
                  11
                  11
                  11
                  11
                  12
                  12
                  12
                  12
                  12
                  12
                  12
                  12
                  12
                  12
                  12
                  12
                  11
                  11
                  11
                  11
                  12
                  12
                  11
                  11
                  11
                  11
                  11
                  11
                  11
                  11
                  11
                  11
                  11
                  11
                  11
                  11
                  11
                  11
                  11
                  11
                  11
                  11
                  12
                  12
                  12
                  12
                  11
                  11
                  11
                  11
                  11
                  11
                  11
                  11
                  11
                  11
                  11
                  12
                  12
                  12
                  12
                  12
                  12
                  12
                  12
                  12
                  12
                  11
                  11
                  11
                  11
                  11
                  11
                  11
                  11
                  11
                  11
                  11
                  11
                  11
                  11
                  11
                  12
                  12
                  12
                  12
                  12
  
SCALARS                         Jspace  double 1
LOOKUP_TABLE default
                  11
                  12
                  11
                  11
                  11
                  12
                  11
                  11
                  11
                  11
                  11
                  11
                  12
                  12
                  12
                  12
                  11
                  12
                  11
                  12
                  12
                  12
                  12
                  12
                  12
                  12
                  12
                  12
                  12
                  12
                  11
                  11
                  11
                  11
                  11
                  11
                  11
                  11
                  11
                  11
                  11
                  11
                  11
                  11
                  11
                  11
                  11
                  11
                  11
                  11
                  11
                  11
                  12
                  12
                  12
                  12
                  12
                  11
                  12
                  11
                  11
                  11
                  11
                  11
                  11
                  11
                  11
                  11
                  11
                  12
                  11
                  12
                  12
                  12
                  12
                  12
                  12
                  12
                  12
                  12
                  12
                  12
                  12
                  12
                  11
                  11
                  11
                  11
                  11
                  11
                  11
                  11
                  11
                  11
                  11
                  11
                  11
                  11
                  11
                  11
                  11
                  11
                  11
                  11
                  11
                  11
                  11
                  11
                  12
                  12
                  12
                  12
                  12
                  12
                  12
                  12
                  12
                  12
                  12
                  12
                  12
                  12
                  12
                  12
                  12
                  12
                  12
                  12
                  11
                  11
                  11
                  11
                  11
                  11
                  11
                  11
                  11
                  11
                  11
                  11
                  11
                  11
                  11
                  11
                  11
                  11
                  11
                  11
                  11
                  11
                  11
                  11
                  11
                  11
                  11
                  11
                  11
                  12
                  11
                  11
                  11
                  11
                  12
                  12
                  11
                  12
                  12
                  12
                  12
                  12
                  12
                  11
                  11
                  11
                  11
                  11
                  11
                  11
                  11
                  11
                  11
                  11
                  12
                  12
                  12
                  11
                  11
                  11
                  11
                  11
                  11
                  12
                  12
                  12
                  12
                  12
                  12
                  12
                  11
                  11
                  11
                  11
                  11
                  11
                  11
                  11
                  11
                  11
                  11
                  11
                  12
                  12
                  12
                  12
                  12
                  12
                  12
                  12
                  12
                  12
                  11
                  11
                  11
                  11
                  11
                  11
                  11
                  11
                  11
                  11
                  11
                  11
                  11
                  11
                  11
                  12
                  11
                  11
                  11
                  11
                  12
                  12
                  11
                  12
                  12
                  12
                  12
                  12
                  12
                  11
                  11
                  11
                  11
                  11
                  11
                  11
                  11
                  11
                  11
                  11
                  12
                  12
                  12
                  11
                  11
                  11
                  11
                  11
                  11
                  12
                  12
                  12
                  12
                  12
                  12
                  12
                  11
                  11
                  11
                  11
                  11
                  11
                  11
                  11
                  11
                  11
                  11
                  11
                  12
                  12
                  12
                  12
                  12
                  12
                  12
                  12
                  12
                  12
                  11
                  11
                  11
                  11
                  11
                  11
                  11
                  11
                  11
                  11
                  11
                  11
                  11
                  11
                  11
                  12
                  11
                  11
                  11
                  11
                  12
                  12
                  11
                  12
                  12
                  12
                  12
                  12
                  12
                  11
                  11
                  11
                  11
                  11
                  11
                  11
                  11
                  11
                  11
                  11
                  12
                  12
                  12
                  11
                  11
                  11
                  11
                  11
                  11
                  12
                  12
                  12
                  12
                  12
                  12
                  12
                  11
                  11
                  11
                  11
                  11
                  11
                  11
                  11
                  11
                  11
                  11
                  11
                  12
                  12
                  12
                  12
                  12
                  12
                  12
                  12
                  12
                  12
                  11
                  11
                  11
                  11
                  11
                  11
                  11
                  11
                  11
                  11
                  11
                  11
                  11
                  11
                  11
                  12
                  11
                  11
                  11
                  11
                  12
                  12
                  11
                  12
                  12
                  12
                  12
                  12
                  12
                  11
                  11
                  11
                  11
                  11
                  11
                  11
                  11
                  11
                  11
                  11
                  12
                  12
                  12
                  11
                  11
                  11
                  11
                  11
                  11
                  12
                  12
                  12
                  12
                  12
                  12
                  12
                  11
                  11
                  11
                  11
                  11
                  11
                  11
                  11
                  11
                  11
                  11
                  11
                  12
                  12
                  12
                  12
                  12
                  12
                  12
                  12
                  12
                  12
                  11
                  11
                  11
                  11
                  11
                  11
                  11
                  11
                  11
                  11
                  11
                  11
                  11
                  11
                  11
                  12
                  11
                  11
                  11
                  11
                  12
                  12
                  11
                  12
                  12
                  12
                  12
                  12
                  12
                  11
                  11
                  11
                  11
                  11
                  11
                  11
                  11
                  11
                  11
                  11
                  12
                  12
                  12
                  11
                  11
                  11
                  11
                  11
                  11
                  12
                  12
                  12
                  12
                  12
                  12
                  12
                  11
                  11
                  11
                  11
                  11
                  11
                  11
                  11
                  11
                  11
                  11
                  11
                  12
                  12
                  12
                  12
                  12
                  12
                  12
                  12
                  12
                  12
                  11
                  11
                  11
                  11
                  11
                  11
                  11
                  11
                  11
                  11
                  11
                  11
                  11
                  11
                  11
                  12
                  11
                  11
                  11
                  11
                  12
                  12
                  11
                  12
                  12
                  12
                  12
                  12
                  12
                  11
                  11
                  11
                  11
                  11
                  11
                  11
                  11
                  11
                  11
                  11
                  12
                  12
                  12
                  11
                  11
                  11
                  11
                  11
                  11
                  12
                  12
                  12
                  12
                  12
                  12
                  12
                  11
                  11
                  11
                  11
                  11
                  11
                  11
                  11
                  11
                  11
                  11
                  11
                  12
                  12
                  12
                  12
                  12
                  12
                  12
                  12
                  12
                  12
                  11
                  11
                  11
                  11
                  11
                  11
                  11
                  11
                  11
                  11
                  11
                  11
                  11
                  11
                  11
                  12
                  11
                  11
                  11
                  11
                  12
                  12
                  11
                  12
                  12
                  12
                  12
                  12
                  12
                  11
                  11
                  11
                  11
                  11
                  11
                  11
                  11
                  11
                  11
                  11
                  12
                  12
                  12
                  11
                  11
                  11
                  11
                  11
                  11
                  12
                  12
                  12
                  12
                  12
                  12
                  12
                  11
                  11
                  11
                  11
                  11
                  11
                  11
                  11
                  11
                  11
                  11
                  11
                  12
                  12
                  12
                  12
                  12
                  12
                  12
                  12
                  12
                  12
                  11
                  11
                  11
                  11
                  11
                  11
                  11
                  11
                  11
                  11
                  11
                  11
                  11
                  11
                  11
                  12
                  11
                  11
                  11
                  11
                  12
                  12
                  11
                  12
                  12
                  12
                  12
                  12
                  12
                  11
                  11
                  11
                  11
                  11
                  11
                  11
                  11
                  11
                  11
                  11
                  12
                  12
                  12
                  11
                  11
                  11
                  11
                  11
                  11
                  12
                  12
                  12
                  12
                  12
                  12
                  12
                  11
                  11
                  11
                  11
                  11
                  11
                  11
                  11
                  11
                  11
                  11
                  11
                  12
                  12
                  12
                  12
                  12
                  12
                  12
                  12
                  12
                  12
                  11
                  11
                  11
                  11
                  11
                  11
                  11
                  11
                  11
                  11
                  11
                  11
                  11
                  11
                  11
                  12
                  11
                  11
                  11
                  11
                  12
                  12
                  11
                  12
                  12
                  12
                  12
                  12
                  12
                  11
                  11
                  11
                  11
                  11
                  11
                  11
                  11
                  11
                  11
                  11
                  12
                  12
                  12
                  11
                  11
                  11
                  11
                  11
                  11
                  12
                  12
                  12
                  12
                  12
                  12
                  12
                  11
                  11
                  11
                  11
                  11
                  11
                  11
                  11
                  11
                  11
                  11
                  11
                  12
                  12
                  12
                  12
                  12
                  12
                  12
                  12
                  12
                  12
                  11
                  11
                  11
                  11
                  11
                  11
                  11
                  11
                  11
                  11
                  11
                  11
                  11
                  11
                  11
                  12
                  11
                  11
                  11
                  11
                  12
                  12
                  11
                  12
                  12
                  12
                  12
                  12
                  12
                  11
                  11
                  11
                  11
                  11
                  11
                  11
                  11
                  11
                  11
                  11
                  12
                  12
                  12
                  11
                  11
                  11
                  11
                  11
                  11
                  12
                  12
                  12
                  12
                  12
                  12
                  12
                  11
                  11
                  11
                  11
                  11
                  11
                  11
                  11
                  11
                  11
                  11
                  11
                  12
                  12
                  12
                  12
                  12
                  12
                  12
                  12
                  12
                  12
                  11
                  11
                  11
                  11
                  11
                  11
                  11
                  11
                  11
                  11
                  11
                  11
                  11
                  11
                  11
                  12
                  11
                  11
                  11
                  11
                  12
                  12
                  11
                  12
                  12
                  12
                  12
                  12
                  12
                  11
                  11
                  11
                  11
                  11
                  11
                  11
                  11
                  11
                  11
                  11
                  12
                  12
                  12
                  11
                  11
                  11
                  11
                  11
                  11
                  12
                  12
                  12
                  12
                  12
                  12
                  12
                  11
                  11
                  11
                  11
                  11
                  11
                  11
                  11
                  11
                  11
                  11
                  11
                  12
                  12
                  12
                  12
                  12
                  12
                  12
                  12
                  12
                  12
                  11
                  11
                  11
                  11
                  11
                  11
                  11
                  11
                  11
                  11
                  11
                  11
                  11
                  11
                  11
                  12
                  11
                  11
                  11
                  11
                  12
                  12
                  11
                  12
                  12
                  12
                  12
                  12
                  12
                  11
                  11
                  11
                  11
                  11
                  11
                  11
                  11
                  11
                  11
                  11
                  12
                  12
                  12
                  11
                  11
                  11
                  11
                  11
                  11
                  12
                  12
                  12
                  12
                  12
                  12
                  12
                  11
                  11
                  11
                  11
                  11
                  11
                  11
                  11
                  11
                  11
                  11
                  11
                  12
                  12
                  12
                  12
                  12
                  12
                  12
                  12
                  12
                  12
                  11
                  11
                  11
                  11
                  11
                  11
                  11
                  11
                  11
                  11
                  11
                  11
                  11
                  11
                  11
                  12
                  11
                  11
                  11
                  11
                  12
                  12
                  11
                  12
                  12
                  12
                  12
                  12
                  12
                  11
                  11
                  11
                  11
                  11
                  11
                  11
                  11
                  11
                  11
                  11
                  12
                  12
                  12
                  11
                  11
                  11
                  11
                  11
                  11
                  12
                  12
                  12
                  12
                  12
                  12
                  12
                  11
                  11
                  11
                  11
                  11
                  11
                  11
                  11
                  11
                  11
                  11
                  11
                  12
                  12
                  12
                  12
                  12
                  12
                  12
                  12
                  12
                  12
                  11
                  11
                  11
                  11
                  11
                  11
                  11
                  11
                  11
                  11
                  11
                  11
                  11
                  11
                  11
                  12
                  11
                  11
                  11
                  11
                  12
                  12
                  11
                  12
                  12
                  12
                  12
                  12
                  12
                  11
                  11
                  11
                  11
                  11
                  11
                  11
                  11
                  11
                  11
                  11
                  12
                  12
                  12
                  11
                  11
                  11
                  11
                  11
                  11
                  12
                  12
                  12
                  12
                  12
                  12
                  12
                  11
                  11
                  11
                  11
                  11
                  11
                  11
                  11
                  11
                  11
                  11
                  11
                  12
                  12
                  12
                  12
                  12
                  12
                  12
                  12
                  12
                  12
                  11
                  11
                  11
                  11
                  11
                  11
                  11
                  11
                  11
                  11
                  11
                  11
                  11
                  11
                  11
                  12
                  11
                  11
                  11
                  11
                  12
                  12
                  11
                  12
                  12
                  12
                  12
                  12
                  12
                  11
                  11
                  11
                  11
                  11
                  11
                  11
                  11
                  11
                  11
                  11
                  12
                  12
                  12
                  11
                  11
                  11
                  11
                  11
                  11
                  12
                  12
                  12
                  12
                  12
                  12
                  12
                  11
                  11
                  11
                  11
                  11
                  11
                  11
                  11
                  11
                  11
                  11
                  11
                  12
                  12
                  12
                  12
                  12
                  12
                  12
                  12
                  12
                  12
                  11
                  11
                  11
                  11
                  11
                  11
                  11
                  11
                  11
                  11
                  11
                  11
                  11
                  11
                  11
                  12
                  11
                  11
                  11
                  11
                  12
                  12
                  11
                  12
                  12
                  12
                  12
                  12
                  12
                  11
                  11
                  11
                  11
                  11
                  11
                  11
                  11
                  11
                  11
                  11
                  12
                  12
                  12
                  11
                  11
                  11
                  11
                  11
                  11
                  12
                  12
                  12
                  12
                  12
                  12
                  12
                  11
                  11
                  11
                  11
                  11
                  11
                  11
                  11
                  11
                  11
                  11
                  11
                  12
                  12
                  12
                  12
                  12
                  12
                  12
                  12
                  12
                  12
                  11
                  11
                  11
                  11
                  11
                  11
                  11
                  11
                  11
                  11
                  11
                  11
                  11
                  11
                  11
                  12
                  11
                  11
                  11
                  11
                  12
                  12
                  11
                  12
                  12
                  12
                  12
                  12
                  12
                  11
                  11
                  11
                  11
                  11
                  11
                  11
                  11
                  11
                  11
                  11
                  12
                  12
                  12
                  11
                  11
                  11
                  11
                  11
                  11
                  12
                  12
                  12
                  12
                  12
                  12
                  12
                  11
                  11
                  11
                  11
                  11
                  11
                  11
                  11
                  11
                  11
                  11
                  11
                  12
                  12
                  12
                  12
                  12
                  12
                  12
                  12
                  12
                  12
                  11
                  11
                  11
                  11
                  11
                  11
                  11
                  11
                  11
                  11
                  11
                  11
                  11
                  11
                  11
                  12
                  11
                  11
                  11
                  11
                  12
                  12
                  11
                  12
                  12
                  12
                  12
                  12
                  12
                  11
                  11
                  11
                  11
                  11
                  11
                  11
                  11
                  11
                  11
                  11
                  12
                  12
                  12
                  11
                  11
                  11
                  11
                  11
                  11
                  12
                  12
                  12
                  12
                  12
                  12
                  12
                  11
                  11
                  11
                  11
                  11
                  11
                  11
                  11
                  11
                  11
                  11
                  11
                  12
                  12
                  12
                  12
                  12
                  12
                  12
                  12
                  12
                  12
                  11
                  11
                  11
                  11
                  11
                  11
                  11
                  11
                  11
                  11
                  11
                  11
                  11
                  11
                  11
                  12
                  11
                  11
                  11
                  11
                  12
                  12
                  11
                  12
                  12
                  12
                  12
                  12
                  12
                  11
                  11
                  11
                  11
                  11
                  11
                  11
                  11
                  11
                  11
                  11
                  12
                  12
                  12
                  11
                  11
                  11
                  11
                  11
                  11
                  12
                  12
                  12
                  12
                  12
                  12
                  12
                  11
                  11
                  11
                  11
                  11
                  11
                  11
                  11
                  11
                  11
                  11
                  11
                  12
                  12
                  12
                  12
                  12
                  12
                  12
                  12
                  12
                  12
                  11
                  11
                  11
                  11
                  11
                  11
                  11
                  11
                  11
                  11
                  11
                  11
                  11
                  11
                  11
                  12
                  11
                  11
                  11
                  11
                  12
                  12
                  11
                  12
                  12
                  12
                  12
                  12
                  12
                  11
                  11
                  11
                  11
                  11
                  11
                  11
                  11
                  11
                  11
                  11
                  12
                  12
                  12
                  11
                  11
                  11
                  11
                  11
                  11
                  12
                  12
                  12
                  12
                  12
                  12
                  12
                  11
                  11
                  11
                  11
                  11
                  11
                  11
                  11
                  11
                  11
                  11
                  11
                  12
                  12
                  12
                  12
                  12
                  12
                  12
                  12
                  12
                  12
                  11
                  11
                  11
                  11
                  11
                  11
                  11
                  11
                  11
                  11
                  11
                  11
                  11
                  11
                  11
                  12
                  11
                  11
                  11
                  11
                  12
                  12
                  11
                  12
                  12
                  12
                  12
                  12
                  12
                  11
                  11
                  11
                  11
                  11
                  11
                  11
                  11
                  11
                  11
                  11
                  12
                  12
                  12
                  11
                  11
                  11
                  11
                  11
                  11
                  12
                  12
                  12
                  12
                  12
                  12
                  12
                  11
                  11
                  11
                  11
                  11
                  11
                  11
                  11
                  11
                  11
                  11
                  11
                  12
                  12
                  12
                  12
                  12
                  12
                  12
                  12
                  12
                  12
                  11
                  11
                  11
                  11
                  11
                  11
                  11
                  11
                  11
                  11
                  11
                  11
                  11
                  11
                  11
                  12
                  11
                  11
                  11
                  11
                  12
                  12
                  11
                  12
                  12
                  12
                  12
                  12
                  12
                  11
                  11
                  11
                  11
                  11
                  11
                  11
                  11
                  11
                  11
                  11
                  12
                  12
                  12
                  11
                  11
                  11
                  11
                  11
                  11
                  12
                  12
                  12
                  12
                  12
                  12
                  12
                  11
                  11
                  11
                  11
                  11
                  11
                  11
                  11
                  11
                  11
                  11
                  11
                  12
                  12
                  12
                  12
                  12
                  12
                  12
                  12
                  12
                  12
                  11
                  11
                  11
                  11
                  11
                  11
                  11
                  11
                  11
                  11
                  11
                  11
                  11
                  11
                  11
                  12
                  11
                  11
                  11
                  11
                  12
                  12
                  11
                  12
                  12
                  12
                  12
                  12
                  12
                  11
                  11
                  11
                  11
                  11
                  11
                  11
                  11
                  11
                  11
                  11
                  12
                  12
                  12
                  11
                  11
                  11
                  11
                  11
                  11
                  12
                  12
                  12
                  12
                  12
                  12
                  12
                  11
                  11
                  11
                  11
                  11
                  11
                  11
                  11
                  11
                  11
                  11
                  11
                  12
                  12
                  12
                  12
                  12
                  12
                  12
                  12
                  12
                  12
                  11
                  11
                  11
                  11
                  11
                  11
                  11
                  11
                  11
                  11
                  11
                  11
                  11
                  11
  
SCALARS                         Kspace  double 1
LOOKUP_TABLE default
                  11
                  11
                  11
                  11
                  11
                  11
                  11
                  11
                  11
                  11
                  11
                  11
                  11
                  11
                  11
                  11
                  11
                  11
                  11
                  11
                  11
                  11
                  11
                  11
                  11
                  11
                  11
                  11
                  11
                  11
                  11
                  11
                  11
                  11
                  11
                  11
                  11
                  11
                  11
                  11
                  11
                  11
                  11
                  11
                  11
                  11
                  11
                  11
                  11
                  11
                  11
                  11
                  11
                  11
                  11
                  11
                  11
                  11
                  11
                  11
                  11
                  11
                  11
                  11
                  11
                  11
                  11
                  11
                  11
                  11
                  11
                  11
                  11
                  11
                  11
                  11
                  11
                  11
                  11
                  11
                  11
                  11
                  11
                  11
                  11
                  11
                  11
                  11
                  11
                  11
                  11
                  11
                  11
                  11
                  11
                  11
                  11
                  11
                  11
                  11
                  11
                  11
                  11
                  11
                  11
                  11
                  11
                  11
                  11
                  11
                  11
                  11
                  11
                  11
                  11
                  11
                  11
                  11
                  11
                  11
                  11
                  11
                  11
                  11
                  11
                  11
                  11
                  11
                  11
                  11
                  11
                  11
                  11
                  11
                  11
                  11
                  11
                  11
                  11
                  11
                  11
                  11
                  11
                  11
                  11
                  11
                  11
                  11
                  11
                  11
                  11
                  11
                  11
                  11
                  11
                  11
                  11
                  11
                  11
                  11
                  11
                  11
                  11
                  11
                  11
                  11
                  11
                  11
                  11
                  11
                  11
                  11
                  11
                  11
                  11
                  11
                  11
                  11
                  11
                  11
                  11
                  11
                  11
                  11
                  11
                  11
                  11
                  11
                  11
                  11
                  11
                  11
                  11
                  11
                  11
                  11
                  11
                  11
                  11
                  11
                  11
                  11
                  11
                  11
                  11
                  11
                  11
                  11
                  11
                  11
                  11
                  11
                  11
                  11
                  11
                  11
                  11
                  11
                  11
                  11
                  11
                  11
                  11
                  11
                  11
                  11
                  11
                  11
                  11
                  11
                  11
                  11
                  11
                  11
                  11
                  11
                  11
                  11
                  11
                  11
                  11
                  11
                  11
                  11
                  11
                  11
                  11
                  11
                  11
                  11
                  11
                  11
                  11
                  11
                  11
                  11
                  11
                  11
                  11
                  11
                  11
                  11
                  11
                  11
                  11
                  11
                  11
                  11
                  11
                  11
                  11
                  11
                  11
                  11
                  11
                  11
                  11
                  11
                  11
                  11
                  11
                  11
                  11
                  11
                  11
                  11
                  11
                  11
                  11
                  11
                  11
                  11
                  11
                  11
                  11
                  11
                  11
                  11
                  11
                  11
                  11
                  11
                  11
                  11
                  11
                  11
                  11
                  11
                  11
                  11
                  11
                  11
                  12
                  12
                  12
                  12
                  12
                  12
                  12
                  12
                  12
                  12
                  12
                  12
                  12
                  12
                  12
                  12
                  12
                  12
                  12
                  12
                  12
                  12
                  12
                  12
                  12
                  12
                  12
                  12
                  12
                  12
                  12
                  12
                  12
                  12
                  12
                  12
                  12
                  12
                  12
                  12
                  12
                  12
                  12
                  12
                  12
                  12
                  12
                  12
                  12
                  12
                  12
                  12
                  12
                  12
                  12
                  12
                  12
                  12
                  12
                  12
                  12
                  12
                  12
                  12
                  12
                  12
                  12
                  12
                  12
                  12
                  12
                  12
                  12
                  12
                  12
                  12
                  12
                  12
                  12
                  12
                  12
                  12
                  12
                  12
                  12
                  12
                  12
                  12
                  12
                  12
                  12
                  12
                  12
                  12
                  12
                  12
                  12
                  12
                  12
                  12
                  12
                  12
                  12
                  12
                  12
                  12
                  12
                  12
                  12
                  12
                  12
                  12
                  12
                  12
                  12
                  12
                  12
                  12
                  12
                  12
                  12
                  12
                  12
                  12
                  12
                  12
                  12
                  12
                  12
                  12
                  12
                  12
                  12
                  12
                  12
                  12
                  12
                  12
                  12
                  12
                  12
                  12
                  12
                  12
                  12
                  12
                  12
                  12
                  12
                  12
                  12
                  12
                  12
                  12
                  12
                  12
                  12
                  12
                  12
                  12
                  12
                  12
                  12
                  12
                  12
                  12
                  12
                  12
                  12
                  12
                  12
                  12
                  12
                  12
                  12
                  12
                  12
                  12
                  12
                  12
                  12
                  12
                  12
                  12
                  12
                  12
                  12
                  12
                  12
                  12
                  12
                  12
                  12
                  12
                  12
                  12
                  12
                  12
                  12
                  12
                  12
                  12
                  12
                  12
                  12
                  12
                  12
                  12
                  12
                  12
                  12
                  12
                  12
                  12
                  12
                  12
                  12
                  12
                  12
                  12
                  12
                  12
                  12
                  12
                  12
                  12
                  12
                  12
                  12
                  12
                  12
                  12
                  12
                  12
                  13
                  13
                  13
                  13
                  13
                  13
                  13
                  13
                  13
                  13
                  13
                  13
                  13
                  13
                  13
                  13
                  13
                  13
                  13
                  13
                  13
                  13
                  13
                  13
                  13
                  13
                  13
                  13
                  13
                  13
                  13
                  13
                  13
                  13
                  13
                  13
                  13
                  13
                  13
                  13
                  13
                  13
                  13
                  13
                  13
                  13
                  13
                  13
                  13
                  13
                  13
                  13
                  13
                  13
                  13
                  13
                  13
                  13
                  13
                  13
                  13
                  13
                  13
                  13
                  13
                  13
                  13
                  13
                  13
                  13
                  13
                  13
                  13
                  13
                  13
                  13
                  13
                  13
                  13
                  13
                  13
                  13
                  13
                  13
                  13
                  13
                  13
                  13
                  13
                  13
                  13
                  13
                  13
                  13
                  13
                  13
                  13
                  13
                  13
                  13
                  13
                  13
                  13
                  13
                  13
                  13
                  13
                  13
                  13
                  13
                  13
                  13
                  13
                  13
                  13
                  13
                  13
                  13
                  13
                  13
                  13
                  13
                  13
                  13
                  13
                  13
                  13
                  13
                  13
                  13
                  13
                  13
                  13
                  13
                  13
                  13
                  13
                  13
                  13
                  13
                  13
                  13
                  13
                  13
                  13
                  13
                  13
                  13
                  13
                  13
                  13
                  13
                  13
                  13
                  13
                  13
                  13
                  13
                  13
                  13
                  13
                  13
                  13
                  13
                  13
                  13
                  13
                  13
                  13
                  13
                  13
                  13
                  13
                  13
                  13
                  13
                  13
                  13
                  13
                  13
                  13
                  13
                  13
                  13
                  13
                  13
                  13
                  13
                  13
                  13
                  13
                  13
                  13
                  13
                  13
                  13
                  13
                  13
                  13
                  13
                  13
                  13
                  13
                  13
                  13
                  13
                  13
                  13
                  13
                  13
                  13
                  13
                  13
                  13
                  13
                  13
                  13
                  13
                  13
                  13
                  13
                  13
                  13
                  13
                  13
                  13
                  13
                  13
                  13
                  13
                  13
                  13
                  13
                  13
                  14
                  14
                  14
                  14
                  14
                  14
                  14
                  14
                  14
                  14
                  14
                  14
                  14
                  14
                  14
                  14
                  14
                  14
                  14
                  14
                  14
                  14
                  14
                  14
                  14
                  14
                  14
                  14
                  14
                  14
                  14
                  14
                  14
                  14
                  14
                  14
                  14
                  14
                  14
                  14
                  14
                  14
                  14
                  14
                  14
                  14
                  14
                  14
                  14
                  14
                  14
                  14
                  14
                  14
                  14
                  14
                  14
                  14
                  14
                  14
                  14
                  14
                  14
                  14
                  14
                  14
                  14
                  14
                  14
                  14
                  14
                  14
                  14
                  14
                  14
                  14
                  14
                  14
                  14
                  14
                  14
                  14
                  14
                  14
                  14
                  14
                  14
                  14
                  14
                  14
                  14
                  14
                  14
                  14
                  14
                  14
                  14
                  14
                  14
                  14
                  14
                  14
                  14
                  14
                  14
                  14
                  14
                  14
                  14
                  14
                  14
                  14
                  14
                  14
                  14
                  14
                  14
                  14
                  14
                  14
                  14
                  14
                  14
                  14
                  14
                  14
                  14
                  14
                  14
                  14
                  14
                  14
                  14
                  14
                  14
                  14
                  14
                  14
                  14
                  14
                  14
                  14
                  14
                  14
                  14
                  14
                  14
                  14
                  14
                  14
                  14
                  14
                  14
                  14
                  14
                  14
                  14
                  14
                  14
                  14
                  14
                  14
                  14
                  14
                  14
                  14
                  14
                  14
                  14
                  14
                  14
                  14
                  14
                  14
                  14
                  14
                  14
                  14
                  14
                  14
                  14
                  14
                  14
                  14
                  14
                  14
                  14
                  14
                  14
                  14
                  14
                  14
                  14
                  14
                  14
                  14
                  14
                  14
                  14
                  14
                  14
                  14
                  14
                  14
                  14
                  14
                  14
                  14
                  14
                  14
                  14
                  14
                  14
                  14
                  14
                  14
                  14
                  14
                  14
                  14
                  14
                  14
                  14
                  14
                  14
                  14
                  14
                  14
                  14
                  14
                  14
                  14
                  14
                  14
                  15
                  15
                  15
                  15
                  15
                  15
                  15
                  15
                  15
                  15
                  15
                  15
                  15
                  15
                  15
                  15
                  15
                  15
                  15
                  15
                  15
                  15
                  15
                  15
                  15
                  15
                  15
                  15
                  15
                  15
                  15
                  15
                  15
                  15
                  15
                  15
                  15
                  15
                  15
                  15
                  15
                  15
                  15
                  15
                  15
                  15
                  15
                  15
                  15
                  15
                  15
                  15
                  15
                  15
                  15
                  15
                  15
                  15
                  15
                  15
                  15
                  15
                  15
                  15
                  15
                  15
                  15
                  15
                  15
                  15
                  15
                  15
                  15
                  15
                  15
                  15
                  15
                  15
                  15
                  15
                  15
                  15
                  15
                  15
                  15
                  15
                  15
                  15
                  15
                  15
                  15
                  15
                  15
                  15
                  15
                  15
                  15
                  15
                  15
                  15
                  15
                  15
                  15
                  15
                  15
                  15
                  15
                  15
                  15
                  15
                  15
                  15
                  15
                  15
                  15
                  15
                  15
                  15
                  15
                  15
                  15
                  15
                  15
                  15
                  15
                  15
                  15
                  15
                  15
                  15
                  15
                  15
                  15
                  15
                  15
                  15
                  15
                  15
                  15
                  15
                  15
                  15
                  15
                  15
                  15
                  15
                  15
                  15
                  15
                  15
                  15
                  15
                  15
                  15
                  15
                  15
                  15
                  15
                  15
                  15
                  15
                  15
                  15
                  15
                  15
                  15
                  15
                  15
                  15
                  15
                  15
                  15
                  15
                  15
                  15
                  15
                  15
                  15
                  15
                  15
                  15
                  15
                  15
                  15
                  15
                  15
                  15
                  15
                  15
                  15
                  15
                  15
                  15
                  15
                  15
                  15
                  15
                  15
                  15
                  15
                  15
                  15
                  15
                  15
                  15
                  15
                  15
                  15
                  15
                  15
                  15
                  15
                  15
                  15
                  15
                  15
                  15
                  15
                  15
                  15
                  15
                  15
                  15
                  15
                  15
                  15
                  15
                  15
                  15
                  15
                  15
                  15
                  15
                  15
                  15
                  15
                  15
                  15
                  15
                  15
                  15
                  15
                  15
                  15
                  15
                  15
                  15
                  15
                  15
                  15
                  15
                  15
                  15
                  15
                  15
                  15
                  15
                  15
                  15
                  15
                  15
                  15
                  15
                  15
                  15
                  15
                  15
                  15
                  15
                  15
                  15
                  15
                  15
                  15
                  15
                  15
                  15
                  15
                  15
                  15
                  15
                  15
                  15
                  15
                  15
                  15
                  15
                  15
                  15
                  15
                  15
                  15
                  15
                  15
                  15
                  15
                  15
                  15
                  15
                  15
                  15
                  15
                  15
                  15
                  15
                  15
                  15
                  15
                  15
                  15
                  15
                  15
                  16
                  16
                  16
                  16
                  16
                  16
                  16
                  16
                  16
                  16
                  16
                  16
                  16
                  16
                  16
                  16
                  16
                  16
                  16
                  16
                  16
                  16
                  16
                  16
                  16
                  16
                  16
                  16
                  16
                  16
                  16
                  16
                  16
                  16
                  16
                  16
                  16
                  16
                  16
                  16
                  16
                  16
                  16
                  16
                  16
                  16
                  16
                  16
                  16
                  16
                  16
                  16
                  16
                  16
                  16
                  16
                  16
                  16
                  16
                  16
                  16
                  16
                  16
                  16
                  16
                  16
                  16
                  16
                  16
                  16
                  16
                  16
                  16
                  16
                  16
                  16
                  16
                  16
                  16
                  16
                  16
                  16
                  16
                  16
                  16
                  16
                  16
                  16
                  16
                  16
                  16
                  16
                  16
                  16
                  16
                  16
                  16
                  16
                  16
                  16
                  16
                  16
                  16
                  16
                  16
                  16
                  16
                  16
                  16
                  16
                  16
                  16
                  16
                  16
                  16
                  16
                  16
                  16
                  16
                  16
                  16
                  16
                  16
                  16
                  16
                  16
                  16
                  16
                  16
                  16
                  16
                  16
                  16
                  16
                  16
                  16
                  16
                  16
                  16
                  16
                  16
                  16
                  16
                  16
                  16
                  16
                  16
                  16
                  16
                  16
                  16
                  16
                  16
                  16
                  16
                  16
                  16
                  16
                  16
                  16
                  16
                  16
                  16
                  16
                  16
                  16
                  16
                  16
                  16
                  16
                  16
                  16
                  16
                  16
                  16
                  16
                  16
                  16
                  16
                  16
                  16
                  16
                  16
                  16
                  16
                  16
                  16
                  16
                  16
                  16
                  16
                  16
                  16
                  16
                  16
                  16
                  16
                  16
                  16
                  16
                  16
                  16
                  16
                  16
                  16
                  16
                  16
                  16
                  16
                  16
                  16
                  16
                  16
                  16
                  16
                  16
                  16
                  16
                  16
                  16
                  16
                  16
                  16
                  16
                  16
                  16
                  16
                  16
                  16
                  16
                  16
                  16
                  16
                  16
                  17
                  17
                  17
                  17
                  17
                  17
                  17
                  17
                  17
                  17
                  17
                  17
                  17
                  17
                  17
                  17
                  17
                  17
                  17
                  17
                  17
                  17
                  17
                  17
                  17
                  17
                  17
                  17
                  17
                  17
                  17
                  17
                  17
                  17
                  17
                  17
                  17
                  17
                  17
                  17
                  17
                  17
                  17
                  17
                  17
                  17
                  17
                  17
                  17
                  17
                  17
                  17
                  17
                  17
                  17
                  17
                  17
                  17
                  17
                  17
                  17
                  17
                  17
                  17
                  17
                  17
                  17
                  17
                  17
                  17
                  17
                  17
                  17
                  17
                  17
                  17
                  17
                  17
                  17
                  17
                  17
                  17
                  17
                  17
                  17
                  17
                  17
                  17
                  17
                  17
                  17
                  17
                  17
                  17
                  17
                  17
                  17
                  17
                  17
                  17
                  17
                  17
                  17
                  17
                  17
                  17
                  17
                  17
                  17
                  17
                  17
                  17
                  17
                  17
                  17
                  17
                  17
                  17
                  17
                  17
                  17
                  17
                  17
                  17
                  17
                  17
                  17
                  17
                  17
                  17
                  17
                  17
                  17
                  17
                  17
                  17
                  17
                  17
                  17
                  17
                  17
                  17
                  17
                  17
                  17
                  17
                  17
                  17
                  17
                  17
                  17
                  17
                  17
                  17
                  17
                  17
                  17
                  17
                  17
                  17
                  17
                  17
                  17
                  17
                  17
                  17
                  17
                  17
                  17
                  17
                  17
                  17
                  17
                  17
                  17
                  17
                  17
                  17
                  17
                  17
                  17
                  17
                  17
                  17
                  17
                  17
                  17
                  17
                  17
                  17
                  17
                  17
                  17
                  17
                  17
                  17
                  17
                  17
                  17
                  17
                  17
                  17
                  17
                  17
                  17
                  17
                  17
                  17
                  17
                  17
                  17
                  17
                  17
                  17
                  17
                  17
                  17
                  17
                  17
                  17
                  17
                  17
                  17
                  17
                  17
                  17
                  17
                  17
                  17
                  17
                  17
                  17
                  17
                  17
                  18
                  18
                  18
                  18
                  18
                  18
                  18
                  18
                  18
                  18
                  18
                  18
                  18
                  18
                  18
                  18
                  18
                  18
                  18
                  18
                  18
                  18
                  18
                  18
                  18
                  18
                  18
                  18
                  18
                  18
                  18
                  18
                  18
                  18
                  18
                  18
                  18
                  18
                  18
                  18
                  18
                  18
                  18
                  18
                  18
                  18
                  18
                  18
                  18
                  18
                  18
                  18
                  18
                  18
                  18
                  18
                  18
                  18
                  18
                  18
                  18
                  18
                  18
                  18
                  18
                  18
                  18
                  18
                  18
                  18
                  18
                  18
                  18
                  18
                  18
                  18
                  18
                  18
                  18
                  18
                  18
                  18
                  18
                  18
                  18
                  18
                  18
                  18
                  18
                  18
                  18
                  18
                  18
                  18
                  18
                  18
                  18
                  18
                  18
                  18
                  18
                  18
                  18
                  18
                  18
                  18
                  18
                  18
                  18
                  18
                  18
                  18
                  18
                  18
                  18
                  18
                  18
                  18
                  18
                  18
                  18
                  18
                  18
                  18
                  18
                  18
                  18
                  18
                  18
                  18
                  18
                  18
                  18
                  18
                  18
                  18
                  18
                  18
                  18
                  18
                  18
                  18
                  18
                  18
                  18
                  18
                  18
                  18
                  18
                  18
                  18
                  18
                  18
                  18
                  18
                  18
  
SCALARS                 displacement_x  double 1
LOOKUP_TABLE default
         0.00000E+00
         0.00000E+00
         0.00000E+00
         0.00000E+00
         0.00000E+00
         0.00000E+00
         0.00000E+00
         0.00000E+00
         0.00000E+00
         0.00000E+00
         0.00000E+00
         0.00000E+00
         0.00000E+00
         0.00000E+00
         0.00000E+00
         0.00000E+00
         0.00000E+00
         0.00000E+00
         0.00000E+00
         0.00000E+00
         0.00000E+00
         0.00000E+00
         0.00000E+00
         0.00000E+00
         0.00000E+00
         0.00000E+00
         0.00000E+00
         0.00000E+00
         0.00000E+00
         0.00000E+00
         0.00000E+00
         0.00000E+00
         0.00000E+00
         0.00000E+00
         0.00000E+00
         0.00000E+00
         0.00000E+00
         0.00000E+00
         0.00000E+00
         0.00000E+00
         0.00000E+00
         0.00000E+00
         0.00000E+00
         0.00000E+00
         0.00000E+00
         0.00000E+00
         0.00000E+00
         0.00000E+00
         0.00000E+00
         0.00000E+00
         0.00000E+00
         0.00000E+00
         0.00000E+00
         0.00000E+00
         0.00000E+00
         0.00000E+00
         0.00000E+00
         0.00000E+00
         0.00000E+00
         0.00000E+00
         0.00000E+00
         0.00000E+00
         0.00000E+00
         0.00000E+00
         0.00000E+00
         0.00000E+00
         0.00000E+00
         0.00000E+00
         0.00000E+00
         0.00000E+00
         0.00000E+00
         0.00000E+00
         0.00000E+00
         0.00000E+00
         0.00000E+00
         0.00000E+00
         0.00000E+00
         0.00000E+00
         0.00000E+00
         0.00000E+00
         0.00000E+00
         0.00000E+00
         0.00000E+00
         0.00000E+00
         0.00000E+00
         0.00000E+00
         0.00000E+00
         0.00000E+00
         0.00000E+00
         0.00000E+00
         0.00000E+00
         0.00000E+00
         0.00000E+00
         0.00000E+00
         0.00000E+00
         0.00000E+00
         0.00000E+00
         0.00000E+00
         0.00000E+00
         0.00000E+00
         0.00000E+00
         0.00000E+00
         0.00000E+00
         0.00000E+00
         0.00000E+00
         0.00000E+00
         0.00000E+00
         0.00000E+00
         0.00000E+00
         0.00000E+00
         0.00000E+00
         0.00000E+00
         0.00000E+00
         0.00000E+00
         0.00000E+00
         0.00000E+00
         0.00000E+00
         0.00000E+00
         0.00000E+00
         0.00000E+00
         0.00000E+00
         0.00000E+00
         0.00000E+00
         0.00000E+00
         0.00000E+00
         0.00000E+00
         0.00000E+00
         0.00000E+00
         0.00000E+00
         0.00000E+00
         0.00000E+00
         0.00000E+00
         0.00000E+00
         0.00000E+00
         0.00000E+00
         0.00000E+00
         0.00000E+00
         0.00000E+00
         0.00000E+00
         0.00000E+00
         0.00000E+00
         0.00000E+00
         0.00000E+00
         0.00000E+00
         0.00000E+00
         0.00000E+00
         0.00000E+00
         0.00000E+00
         0.00000E+00
         0.00000E+00
         0.00000E+00
         0.00000E+00
         0.00000E+00
         0.00000E+00
         0.00000E+00
         0.00000E+00
         0.00000E+00
         0.00000E+00
         0.00000E+00
         0.00000E+00
         0.00000E+00
         0.00000E+00
         0.00000E+00
         0.00000E+00
         0.00000E+00
         0.00000E+00
         0.00000E+00
         0.00000E+00
         0.00000E+00
         0.00000E+00
         0.00000E+00
         0.00000E+00
         0.00000E+00
         0.00000E+00
         0.00000E+00
         0.00000E+00
         0.00000E+00
         0.00000E+00
         0.00000E+00
         0.00000E+00
         0.00000E+00
         0.00000E+00
         0.00000E+00
         0.00000E+00
         0.00000E+00
         0.00000E+00
         0.00000E+00
         0.00000E+00
         0.00000E+00
         0.00000E+00
         0.00000E+00
         0.00000E+00
         0.00000E+00
         0.00000E+00
         0.00000E+00
         0.00000E+00
         0.00000E+00
         0.00000E+00
         0.00000E+00
         0.00000E+00
         0.00000E+00
         0.00000E+00
         0.00000E+00
         0.00000E+00
         0.00000E+00
         0.00000E+00
         0.00000E+00
         0.00000E+00
         0.00000E+00
         0.00000E+00
         0.00000E+00
         0.00000E+00
         0.00000E+00
         0.00000E+00
         0.00000E+00
         0.00000E+00
         0.00000E+00
         0.00000E+00
         0.00000E+00
         0.00000E+00
         0.00000E+00
         0.00000E+00
         0.00000E+00
         0.00000E+00
         0.00000E+00
         0.00000E+00
         0.00000E+00
         0.00000E+00
         0.00000E+00
         0.00000E+00
         0.00000E+00
         0.00000E+00
         0.00000E+00
         0.00000E+00
         0.00000E+00
         0.00000E+00
         0.00000E+00
         0.00000E+00
         0.00000E+00
         0.00000E+00
         0.00000E+00
         0.00000E+00
         0.00000E+00
         0.00000E+00
         0.00000E+00
         0.00000E+00
         0.00000E+00
         0.00000E+00
         0.00000E+00
         0.00000E+00
         0.00000E+00
         0.00000E+00
         0.00000E+00
         0.00000E+00
         0.00000E+00
         0.00000E+00
         0.00000E+00
         0.00000E+00
         0.00000E+00
         0.00000E+00
         0.00000E+00
         0.00000E+00
         0.00000E+00
         0.00000E+00
         0.00000E+00
         0.00000E+00
         0.00000E+00
         0.00000E+00
         0.00000E+00
         0.00000E+00
         0.00000E+00
         0.00000E+00
         0.00000E+00
         0.00000E+00
         0.00000E+00
         0.00000E+00
         0.00000E+00
         0.00000E+00
         0.00000E+00
         0.00000E+00
         0.00000E+00
         0.00000E+00
         0.00000E+00
         0.00000E+00
         0.00000E+00
         0.00000E+00
         0.00000E+00
         0.00000E+00
         0.00000E+00
         0.00000E+00
         0.00000E+00
         0.00000E+00
         0.00000E+00
         0.00000E+00
         0.00000E+00
         0.00000E+00
         0.00000E+00
         0.00000E+00
         0.00000E+00
         0.00000E+00
         0.00000E+00
         0.00000E+00
         0.00000E+00
         0.00000E+00
         0.00000E+00
         0.00000E+00
         0.00000E+00
         0.00000E+00
         0.00000E+00
         0.00000E+00
         0.00000E+00
         0.00000E+00
         0.00000E+00
         0.00000E+00
         0.00000E+00
         0.00000E+00
         0.00000E+00
         0.00000E+00
         0.00000E+00
         0.00000E+00
         0.00000E+00
         0.00000E+00
         0.00000E+00
         0.00000E+00
         0.00000E+00
         0.00000E+00
         0.00000E+00
         0.00000E+00
         0.00000E+00
         0.00000E+00
         0.00000E+00
         0.00000E+00
         0.00000E+00
         0.00000E+00
         0.00000E+00
         0.00000E+00
         0.00000E+00
         0.00000E+00
         0.00000E+00
         0.00000E+00
         0.00000E+00
         0.00000E+00
         0.00000E+00
         0.00000E+00
         0.00000E+00
         0.00000E+00
         0.00000E+00
         0.00000E+00
         0.00000E+00
         0.00000E+00
         0.00000E+00
         0.00000E+00
         0.00000E+00
         0.00000E+00
         0.00000E+00
         0.00000E+00
         0.00000E+00
         0.00000E+00
         0.00000E+00
         0.00000E+00
         0.00000E+00
         0.00000E+00
         0.00000E+00
         0.00000E+00
         0.00000E+00
         0.00000E+00
         0.00000E+00
         0.00000E+00
         0.00000E+00
         0.00000E+00
         0.00000E+00
         0.00000E+00
         0.00000E+00
         0.00000E+00
         0.00000E+00
         0.00000E+00
         0.00000E+00
         0.00000E+00
         0.00000E+00
         0.00000E+00
         0.00000E+00
         0.00000E+00
         0.00000E+00
         0.00000E+00
         0.00000E+00
         0.00000E+00
         0.00000E+00
         0.00000E+00
         0.00000E+00
         0.00000E+00
         0.00000E+00
         0.00000E+00
         0.00000E+00
         0.00000E+00
         0.00000E+00
         0.00000E+00
         0.00000E+00
         0.00000E+00
         0.00000E+00
         0.00000E+00
         0.00000E+00
         0.00000E+00
         0.00000E+00
         0.00000E+00
         0.00000E+00
         0.00000E+00
         0.00000E+00
         0.00000E+00
         0.00000E+00
         0.00000E+00
         0.00000E+00
         0.00000E+00
         0.00000E+00
         0.00000E+00
         0.00000E+00
         0.00000E+00
         0.00000E+00
         0.00000E+00
         0.00000E+00
         0.00000E+00
         0.00000E+00
         0.00000E+00
         0.00000E+00
         0.00000E+00
         0.00000E+00
         0.00000E+00
         0.00000E+00
         0.00000E+00
         0.00000E+00
         0.00000E+00
         0.00000E+00
         0.00000E+00
         0.00000E+00
         0.00000E+00
         0.00000E+00
         0.00000E+00
         0.00000E+00
         0.00000E+00
         0.00000E+00
         0.00000E+00
         0.00000E+00
         0.00000E+00
         0.00000E+00
         0.00000E+00
         0.00000E+00
         0.00000E+00
         0.00000E+00
         0.00000E+00
         0.00000E+00
         0.00000E+00
         0.00000E+00
         0.00000E+00
         0.00000E+00
         0.00000E+00
         0.00000E+00
         0.00000E+00
         0.00000E+00
         0.00000E+00
         0.00000E+00
         0.00000E+00
         0.00000E+00
         0.00000E+00
         0.00000E+00
         0.00000E+00
         0.00000E+00
         0.00000E+00
         0.00000E+00
         0.00000E+00
         0.00000E+00
         0.00000E+00
         0.00000E+00
         0.00000E+00
         0.00000E+00
         0.00000E+00
         0.00000E+00
         0.00000E+00
         0.00000E+00
         0.00000E+00
         0.00000E+00
         0.00000E+00
         0.00000E+00
         0.00000E+00
         0.00000E+00
         0.00000E+00
         0.00000E+00
         0.00000E+00
         0.00000E+00
         0.00000E+00
         0.00000E+00
         0.00000E+00
         0.00000E+00
         0.00000E+00
         0.00000E+00
         0.00000E+00
         0.00000E+00
         0.00000E+00
         0.00000E+00
         0.00000E+00
         0.00000E+00
         0.00000E+00
         0.00000E+00
         0.00000E+00
         0.00000E+00
         0.00000E+00
         0.00000E+00
         0.00000E+00
         0.00000E+00
         0.00000E+00
         0.00000E+00
         0.00000E+00
         0.00000E+00
         0.00000E+00
         0.00000E+00
         0.00000E+00
         0.00000E+00
         0.00000E+00
         0.00000E+00
         0.00000E+00
         0.00000E+00
         0.00000E+00
         0.00000E+00
         0.00000E+00
         0.00000E+00
         0.00000E+00
         0.00000E+00
         0.00000E+00
         0.00000E+00
         0.00000E+00
         0.00000E+00
         0.00000E+00
         0.00000E+00
         0.00000E+00
         0.00000E+00
         0.00000E+00
         0.00000E+00
         0.00000E+00
         0.00000E+00
         0.00000E+00
         0.00000E+00
         0.00000E+00
         0.00000E+00
         0.00000E+00
         0.00000E+00
         0.00000E+00
         0.00000E+00
         0.00000E+00
         0.00000E+00
         0.00000E+00
         0.00000E+00
         0.00000E+00
         0.00000E+00
         0.00000E+00
         0.00000E+00
         0.00000E+00
         0.00000E+00
         0.00000E+00
         0.00000E+00
         0.00000E+00
         0.00000E+00
         0.00000E+00
         0.00000E+00
         0.00000E+00
         0.00000E+00
         0.00000E+00
         0.00000E+00
         0.00000E+00
         0.00000E+00
         0.00000E+00
         0.00000E+00
         0.00000E+00
         0.00000E+00
         0.00000E+00
         0.00000E+00
         0.00000E+00
         0.00000E+00
         0.00000E+00
         0.00000E+00
         0.00000E+00
         0.00000E+00
         0.00000E+00
         0.00000E+00
         0.00000E+00
         0.00000E+00
         0.00000E+00
         0.00000E+00
         0.00000E+00
         0.00000E+00
         0.00000E+00
         0.00000E+00
         0.00000E+00
         0.00000E+00
         0.00000E+00
         0.00000E+00
         0.00000E+00
         0.00000E+00
         0.00000E+00
         0.00000E+00
         0.00000E+00
         0.00000E+00
         0.00000E+00
         0.00000E+00
         0.00000E+00
         0.00000E+00
         0.00000E+00
         0.00000E+00
         0.00000E+00
         0.00000E+00
         0.00000E+00
         0.00000E+00
         0.00000E+00
         0.00000E+00
         0.00000E+00
         0.00000E+00
         0.00000E+00
         0.00000E+00
         0.00000E+00
         0.00000E+00
         0.00000E+00
         0.00000E+00
         0.00000E+00
         0.00000E+00
         0.00000E+00
         0.00000E+00
         0.00000E+00
         0.00000E+00
         0.00000E+00
         0.00000E+00
         0.00000E+00
         0.00000E+00
         0.00000E+00
         0.00000E+00
         0.00000E+00
         0.00000E+00
         0.00000E+00
         0.00000E+00
         0.00000E+00
         0.00000E+00
         0.00000E+00
         0.00000E+00
         0.00000E+00
         0.00000E+00
         0.00000E+00
         0.00000E+00
         0.00000E+00
         0.00000E+00
         0.00000E+00
         0.00000E+00
         0.00000E+00
         0.00000E+00
         0.00000E+00
         0.00000E+00
         0.00000E+00
         0.00000E+00
         0.00000E+00
         0.00000E+00
         0.00000E+00
         0.00000E+00
         0.00000E+00
         0.00000E+00
         0.00000E+00
         0.00000E+00
         0.00000E+00
         0.00000E+00
         0.00000E+00
         0.00000E+00
         0.00000E+00
         0.00000E+00
         0.00000E+00
         0.00000E+00
         0.00000E+00
         0.00000E+00
         0.00000E+00
         0.00000E+00
         0.00000E+00
         0.00000E+00
         0.00000E+00
         0.00000E+00
         0.00000E+00
         0.00000E+00
         0.00000E+00
         0.00000E+00
         0.00000E+00
         0.00000E+00
         0.00000E+00
         0.00000E+00
         0.00000E+00
         0.00000E+00
         0.00000E+00
         0.00000E+00
         0.00000E+00
         0.00000E+00
         0.00000E+00
         0.00000E+00
         0.00000E+00
         0.00000E+00
         0.00000E+00
         0.00000E+00
         0.00000E+00
         0.00000E+00
         0.00000E+00
         0.00000E+00
         0.00000E+00
         0.00000E+00
         0.00000E+00
         0.00000E+00
         0.00000E+00
         0.00000E+00
         0.00000E+00
         0.00000E+00
         0.00000E+00
         0.00000E+00
         0.00000E+00
         0.00000E+00
         0.00000E+00
         0.00000E+00
         0.00000E+00
         0.00000E+00
         0.00000E+00
         0.00000E+00
         0.00000E+00
         0.00000E+00
         0.00000E+00
         0.00000E+00
         0.00000E+00
         0.00000E+00
         0.00000E+00
         0.00000E+00
         0.00000E+00
         0.00000E+00
         0.00000E+00
         0.00000E+00
         0.00000E+00
         0.00000E+00
         0.00000E+00
         0.00000E+00
         0.00000E+00
         0.00000E+00
         0.00000E+00
         0.00000E+00
         0.00000E+00
         0.00000E+00
         0.00000E+00
         0.00000E+00
         0.00000E+00
         0.00000E+00
         0.00000E+00
         0.00000E+00
         0.00000E+00
         0.00000E+00
         0.00000E+00
         0.00000E+00
         0.00000E+00
         0.00000E+00
         0.00000E+00
         0.00000E+00
         0.00000E+00
         0.00000E+00
         0.00000E+00
         0.00000E+00
         0.00000E+00
         0.00000E+00
         0.00000E+00
         0.00000E+00
         0.00000E+00
         0.00000E+00
         0.00000E+00
         0.00000E+00
         0.00000E+00
         0.00000E+00
         0.00000E+00
         0.00000E+00
         0.00000E+00
         0.00000E+00
         0.00000E+00
         0.00000E+00
         0.00000E+00
         0.00000E+00
         0.00000E+00
         0.00000E+00
         0.00000E+00
         0.00000E+00
         0.00000E+00
         0.00000E+00
         0.00000E+00
         0.00000E+00
         0.00000E+00
         0.00000E+00
         0.00000E+00
         0.00000E+00
         0.00000E+00
         0.00000E+00
         0.00000E+00
         0.00000E+00
         0.00000E+00
         0.00000E+00
         0.00000E+00
         0.00000E+00
         0.00000E+00
         0.00000E+00
         0.00000E+00
         0.00000E+00
         0.00000E+00
         0.00000E+00
         0.00000E+00
         0.00000E+00
         0.00000E+00
         0.00000E+00
         0.00000E+00
         0.00000E+00
         0.00000E+00
         0.00000E+00
         0.00000E+00
         0.00000E+00
         0.00000E+00
         0.00000E+00
         0.00000E+00
         0.00000E+00
         0.00000E+00
         0.00000E+00
         0.00000E+00
         0.00000E+00
         0.00000E+00
         0.00000E+00
         0.00000E+00
         0.00000E+00
         0.00000E+00
         0.00000E+00
         0.00000E+00
         0.00000E+00
         0.00000E+00
         0.00000E+00
         0.00000E+00
         0.00000E+00
         0.00000E+00
         0.00000E+00
         0.00000E+00
         0.00000E+00
         0.00000E+00
         0.00000E+00
         0.00000E+00
         0.00000E+00
         0.00000E+00
         0.00000E+00
         0.00000E+00
         0.00000E+00
         0.00000E+00
         0.00000E+00
         0.00000E+00
         0.00000E+00
         0.00000E+00
         0.00000E+00
         0.00000E+00
         0.00000E+00
         0.00000E+00
         0.00000E+00
         0.00000E+00
         0.00000E+00
         0.00000E+00
         0.00000E+00
         0.00000E+00
         0.00000E+00
         0.00000E+00
         0.00000E+00
         0.00000E+00
         0.00000E+00
         0.00000E+00
         0.00000E+00
         0.00000E+00
         0.00000E+00
         0.00000E+00
         0.00000E+00
         0.00000E+00
         0.00000E+00
         0.00000E+00
         0.00000E+00
         0.00000E+00
         0.00000E+00
         0.00000E+00
         0.00000E+00
         0.00000E+00
         0.00000E+00
         0.00000E+00
         0.00000E+00
         0.00000E+00
         0.00000E+00
         0.00000E+00
         0.00000E+00
         0.00000E+00
         0.00000E+00
         0.00000E+00
         0.00000E+00
         0.00000E+00
         0.00000E+00
         0.00000E+00
         0.00000E+00
         0.00000E+00
         0.00000E+00
         0.00000E+00
         0.00000E+00
         0.00000E+00
         0.00000E+00
         0.00000E+00
         0.00000E+00
         0.00000E+00
         0.00000E+00
         0.00000E+00
         0.00000E+00
         0.00000E+00
         0.00000E+00
         0.00000E+00
         0.00000E+00
         0.00000E+00
         0.00000E+00
         0.00000E+00
         0.00000E+00
         0.00000E+00
         0.00000E+00
         0.00000E+00
         0.00000E+00
         0.00000E+00
         0.00000E+00
         0.00000E+00
         0.00000E+00
         0.00000E+00
         0.00000E+00
         0.00000E+00
         0.00000E+00
         0.00000E+00
         0.00000E+00
         0.00000E+00
         0.00000E+00
         0.00000E+00
         0.00000E+00
         0.00000E+00
         0.00000E+00
         0.00000E+00
         0.00000E+00
         0.00000E+00
         0.00000E+00
         0.00000E+00
         0.00000E+00
         0.00000E+00
         0.00000E+00
         0.00000E+00
         0.00000E+00
         0.00000E+00
         0.00000E+00
         0.00000E+00
         0.00000E+00
         0.00000E+00
         0.00000E+00
         0.00000E+00
         0.00000E+00
         0.00000E+00
         0.00000E+00
         0.00000E+00
         0.00000E+00
         0.00000E+00
         0.00000E+00
         0.00000E+00
         0.00000E+00
         0.00000E+00
         0.00000E+00
         0.00000E+00
         0.00000E+00
         0.00000E+00
         0.00000E+00
         0.00000E+00
         0.00000E+00
         0.00000E+00
         0.00000E+00
         0.00000E+00
         0.00000E+00
         0.00000E+00
         0.00000E+00
         0.00000E+00
         0.00000E+00
         0.00000E+00
         0.00000E+00
         0.00000E+00
         0.00000E+00
         0.00000E+00
         0.00000E+00
         0.00000E+00
         0.00000E+00
         0.00000E+00
         0.00000E+00
         0.00000E+00
         0.00000E+00
         0.00000E+00
         0.00000E+00
         0.00000E+00
         0.00000E+00
         0.00000E+00
         0.00000E+00
         0.00000E+00
         0.00000E+00
         0.00000E+00
         0.00000E+00
         0.00000E+00
         0.00000E+00
         0.00000E+00
         0.00000E+00
         0.00000E+00
         0.00000E+00
         0.00000E+00
         0.00000E+00
         0.00000E+00
         0.00000E+00
         0.00000E+00
         0.00000E+00
         0.00000E+00
         0.00000E+00
         0.00000E+00
         0.00000E+00
         0.00000E+00
         0.00000E+00
         0.00000E+00
         0.00000E+00
         0.00000E+00
         0.00000E+00
         0.00000E+00
         0.00000E+00
         0.00000E+00
         0.00000E+00
         0.00000E+00
         0.00000E+00
         0.00000E+00
         0.00000E+00
         0.00000E+00
         0.00000E+00
         0.00000E+00
         0.00000E+00
         0.00000E+00
         0.00000E+00
         0.00000E+00
         0.00000E+00
         0.00000E+00
         0.00000E+00
         0.00000E+00
         0.00000E+00
         0.00000E+00
         0.00000E+00
         0.00000E+00
         0.00000E+00
         0.00000E+00
         0.00000E+00
         0.00000E+00
         0.00000E+00
         0.00000E+00
         0.00000E+00
         0.00000E+00
         0.00000E+00
         0.00000E+00
         0.00000E+00
         0.00000E+00
         0.00000E+00
         0.00000E+00
         0.00000E+00
         0.00000E+00
         0.00000E+00
         0.00000E+00
         0.00000E+00
         0.00000E+00
         0.00000E+00
         0.00000E+00
         0.00000E+00
         0.00000E+00
         0.00000E+00
         0.00000E+00
         0.00000E+00
         0.00000E+00
         0.00000E+00
         0.00000E+00
         0.00000E+00
         0.00000E+00
         0.00000E+00
         0.00000E+00
         0.00000E+00
         0.00000E+00
         0.00000E+00
         0.00000E+00
         0.00000E+00
         0.00000E+00
         0.00000E+00
         0.00000E+00
         0.00000E+00
         0.00000E+00
         0.00000E+00
         0.00000E+00
         0.00000E+00
         0.00000E+00
         0.00000E+00
         0.00000E+00
         0.00000E+00
         0.00000E+00
         0.00000E+00
         0.00000E+00
         0.00000E+00
         0.00000E+00
         0.00000E+00
         0.00000E+00
         0.00000E+00
         0.00000E+00
         0.00000E+00
         0.00000E+00
         0.00000E+00
         0.00000E+00
         0.00000E+00
         0.00000E+00
         0.00000E+00
         0.00000E+00
         0.00000E+00
         0.00000E+00
         0.00000E+00
         0.00000E+00
         0.00000E+00
         0.00000E+00
         0.00000E+00
         0.00000E+00
         0.00000E+00
         0.00000E+00
         0.00000E+00
         0.00000E+00
         0.00000E+00
         0.00000E+00
         0.00000E+00
         0.00000E+00
         0.00000E+00
         0.00000E+00
         0.00000E+00
         0.00000E+00
         0.00000E+00
         0.00000E+00
         0.00000E+00
         0.00000E+00
         0.00000E+00
         0.00000E+00
         0.00000E+00
         0.00000E+00
         0.00000E+00
         0.00000E+00
         0.00000E+00
         0.00000E+00
         0.00000E+00
         0.00000E+00
         0.00000E+00
         0.00000E+00
         0.00000E+00
         0.00000E+00
         0.00000E+00
         0.00000E+00
         0.00000E+00
         0.00000E+00
         0.00000E+00
         0.00000E+00
         0.00000E+00
         0.00000E+00
         0.00000E+00
         0.00000E+00
         0.00000E+00
         0.00000E+00
         0.00000E+00
         0.00000E+00
         0.00000E+00
         0.00000E+00
         0.00000E+00
         0.00000E+00
         0.00000E+00
         0.00000E+00
         0.00000E+00
         0.00000E+00
         0.00000E+00
         0.00000E+00
         0.00000E+00
         0.00000E+00
         0.00000E+00
         0.00000E+00
         0.00000E+00
         0.00000E+00
         0.00000E+00
         0.00000E+00
         0.00000E+00
         0.00000E+00
         0.00000E+00
         0.00000E+00
         0.00000E+00
         0.00000E+00
         0.00000E+00
         0.00000E+00
         0.00000E+00
         0.00000E+00
         0.00000E+00
         0.00000E+00
         0.00000E+00
         0.00000E+00
         0.00000E+00
         0.00000E+00
         0.00000E+00
         0.00000E+00
         0.00000E+00
         0.00000E+00
         0.00000E+00
         0.00000E+00
         0.00000E+00
         0.00000E+00
         0.00000E+00
         0.00000E+00
         0.00000E+00
         0.00000E+00
         0.00000E+00
         0.00000E+00
         0.00000E+00
         0.00000E+00
         0.00000E+00
         0.00000E+00
         0.00000E+00
         0.00000E+00
         0.00000E+00
         0.00000E+00
         0.00000E+00
         0.00000E+00
         0.00000E+00
         0.00000E+00
         0.00000E+00
         0.00000E+00
         0.00000E+00
         0.00000E+00
         0.00000E+00
         0.00000E+00
         0.00000E+00
         0.00000E+00
         0.00000E+00
         0.00000E+00
         0.00000E+00
         0.00000E+00
         0.00000E+00
         0.00000E+00
         0.00000E+00
         0.00000E+00
         0.00000E+00
         0.00000E+00
         0.00000E+00
         0.00000E+00
         0.00000E+00
         0.00000E+00
         0.00000E+00
         0.00000E+00
         0.00000E+00
         0.00000E+00
         0.00000E+00
         0.00000E+00
         0.00000E+00
         0.00000E+00
         0.00000E+00
         0.00000E+00
         0.00000E+00
         0.00000E+00
         0.00000E+00
         0.00000E+00
         0.00000E+00
         0.00000E+00
         0.00000E+00
         0.00000E+00
         0.00000E+00
         0.00000E+00
         0.00000E+00
         0.00000E+00
         0.00000E+00
         0.00000E+00
         0.00000E+00
         0.00000E+00
         0.00000E+00
         0.00000E+00
         0.00000E+00
         0.00000E+00
         0.00000E+00
         0.00000E+00
         0.00000E+00
         0.00000E+00
         0.00000E+00
         0.00000E+00
         0.00000E+00
         0.00000E+00
         0.00000E+00
         0.00000E+00
         0.00000E+00
         0.00000E+00
         0.00000E+00
         0.00000E+00
         0.00000E+00
         0.00000E+00
         0.00000E+00
         0.00000E+00
         0.00000E+00
         0.00000E+00
         0.00000E+00
         0.00000E+00
         0.00000E+00
         0.00000E+00
         0.00000E+00
         0.00000E+00
         0.00000E+00
         0.00000E+00
         0.00000E+00
         0.00000E+00
         0.00000E+00
         0.00000E+00
         0.00000E+00
         0.00000E+00
         0.00000E+00
         0.00000E+00
         0.00000E+00
         0.00000E+00
         0.00000E+00
         0.00000E+00
         0.00000E+00
         0.00000E+00
         0.00000E+00
         0.00000E+00
         0.00000E+00
         0.00000E+00
         0.00000E+00
         0.00000E+00
         0.00000E+00
         0.00000E+00
         0.00000E+00
         0.00000E+00
         0.00000E+00
         0.00000E+00
         0.00000E+00
         0.00000E+00
         0.00000E+00
         0.00000E+00
         0.00000E+00
         0.00000E+00
         0.00000E+00
         0.00000E+00
         0.00000E+00
         0.00000E+00
         0.00000E+00
         0.00000E+00
         0.00000E+00
         0.00000E+00
         0.00000E+00
         0.00000E+00
         0.00000E+00
         0.00000E+00
         0.00000E+00
         0.00000E+00
         0.00000E+00
         0.00000E+00
         0.00000E+00
         0.00000E+00
         0.00000E+00
         0.00000E+00
         0.00000E+00
         0.00000E+00
         0.00000E+00
         0.00000E+00
         0.00000E+00
         0.00000E+00
         0.00000E+00
         0.00000E+00
         0.00000E+00
         0.00000E+00
         0.00000E+00
         0.00000E+00
         0.00000E+00
         0.00000E+00
         0.00000E+00
         0.00000E+00
         0.00000E+00
         0.00000E+00
         0.00000E+00
         0.00000E+00
         0.00000E+00
         0.00000E+00
         0.00000E+00
         0.00000E+00
         0.00000E+00
         0.00000E+00
         0.00000E+00
         0.00000E+00
         0.00000E+00
         0.00000E+00
         0.00000E+00
         0.00000E+00
         0.00000E+00
         0.00000E+00
         0.00000E+00
         0.00000E+00
         0.00000E+00
         0.00000E+00
         0.00000E+00
         0.00000E+00
         0.00000E+00
         0.00000E+00
         0.00000E+00
         0.00000E+00
         0.00000E+00
         0.00000E+00
         0.00000E+00
         0.00000E+00
         0.00000E+00
         0.00000E+00
         0.00000E+00
         0.00000E+00
         0.00000E+00
         0.00000E+00
         0.00000E+00
         0.00000E+00
         0.00000E+00
         0.00000E+00
         0.00000E+00
         0.00000E+00
         0.00000E+00
         0.00000E+00
         0.00000E+00
         0.00000E+00
         0.00000E+00
         0.00000E+00
         0.00000E+00
         0.00000E+00
         0.00000E+00
         0.00000E+00
         0.00000E+00
         0.00000E+00
         0.00000E+00
         0.00000E+00
         0.00000E+00
         0.00000E+00
         0.00000E+00
         0.00000E+00
         0.00000E+00
         0.00000E+00
         0.00000E+00
         0.00000E+00
         0.00000E+00
         0.00000E+00
         0.00000E+00
         0.00000E+00
         0.00000E+00
         0.00000E+00
         0.00000E+00
         0.00000E+00
         0.00000E+00
         0.00000E+00
         0.00000E+00
         0.00000E+00
         0.00000E+00
         0.00000E+00
         0.00000E+00
         0.00000E+00
         0.00000E+00
         0.00000E+00
         0.00000E+00
         0.00000E+00
         0.00000E+00
         0.00000E+00
         0.00000E+00
         0.00000E+00
         0.00000E+00
         0.00000E+00
         0.00000E+00
         0.00000E+00
         0.00000E+00
         0.00000E+00
         0.00000E+00
         0.00000E+00
         0.00000E+00
         0.00000E+00
         0.00000E+00
         0.00000E+00
         0.00000E+00
         0.00000E+00
         0.00000E+00
         0.00000E+00
         0.00000E+00
         0.00000E+00
         0.00000E+00
         0.00000E+00
         0.00000E+00
         0.00000E+00
         0.00000E+00
         0.00000E+00
         0.00000E+00
         0.00000E+00
         0.00000E+00
         0.00000E+00
         0.00000E+00
         0.00000E+00
         0.00000E+00
         0.00000E+00
         0.00000E+00
         0.00000E+00
         0.00000E+00
         0.00000E+00
         0.00000E+00
         0.00000E+00
         0.00000E+00
         0.00000E+00
         0.00000E+00
         0.00000E+00
         0.00000E+00
         0.00000E+00
         0.00000E+00
         0.00000E+00
         0.00000E+00
         0.00000E+00
         0.00000E+00
         0.00000E+00
         0.00000E+00
         0.00000E+00
         0.00000E+00
         0.00000E+00
         0.00000E+00
         0.00000E+00
         0.00000E+00
         0.00000E+00
         0.00000E+00
         0.00000E+00
         0.00000E+00
         0.00000E+00
         0.00000E+00
         0.00000E+00
         0.00000E+00
         0.00000E+00
         0.00000E+00
         0.00000E+00
         0.00000E+00
         0.00000E+00
         0.00000E+00
         0.00000E+00
         0.00000E+00
         0.00000E+00
         0.00000E+00
         0.00000E+00
         0.00000E+00
         0.00000E+00
         0.00000E+00
         0.00000E+00
         0.00000E+00
         0.00000E+00
         0.00000E+00
         0.00000E+00
         0.00000E+00
         0.00000E+00
         0.00000E+00
         0.00000E+00
         0.00000E+00
         0.00000E+00
         0.00000E+00
         0.00000E+00
         0.00000E+00
         0.00000E+00
         0.00000E+00
         0.00000E+00
         0.00000E+00
         0.00000E+00
         0.00000E+00
         0.00000E+00
         0.00000E+00
         0.00000E+00
         0.00000E+00
         0.00000E+00
         0.00000E+00
         0.00000E+00
         0.00000E+00
         0.00000E+00
         0.00000E+00
         0.00000E+00
         0.00000E+00
         0.00000E+00
         0.00000E+00
         0.00000E+00
         0.00000E+00
         0.00000E+00
         0.00000E+00
         0.00000E+00
         0.00000E+00
         0.00000E+00
         0.00000E+00
         0.00000E+00
         0.00000E+00
         0.00000E+00
         0.00000E+00
         0.00000E+00
         0.00000E+00
         0.00000E+00
         0.00000E+00
         0.00000E+00
         0.00000E+00
         0.00000E+00
         0.00000E+00
         0.00000E+00
         0.00000E+00
         0.00000E+00
         0.00000E+00
         0.00000E+00
         0.00000E+00
         0.00000E+00
         0.00000E+00
         0.00000E+00
         0.00000E+00
         0.00000E+00
         0.00000E+00
         0.00000E+00
         0.00000E+00
         0.00000E+00
         0.00000E+00
         0.00000E+00
         0.00000E+00
         0.00000E+00
         0.00000E+00
         0.00000E+00
         0.00000E+00
         0.00000E+00
         0.00000E+00
         0.00000E+00
         0.00000E+00
         0.00000E+00
         0.00000E+00
         0.00000E+00
         0.00000E+00
         0.00000E+00
         0.00000E+00
         0.00000E+00
         0.00000E+00
         0.00000E+00
         0.00000E+00
         0.00000E+00
         0.00000E+00
         0.00000E+00
         0.00000E+00
         0.00000E+00
         0.00000E+00
         0.00000E+00
         0.00000E+00
         0.00000E+00
         0.00000E+00
         0.00000E+00
         0.00000E+00
         0.00000E+00
         0.00000E+00
         0.00000E+00
         0.00000E+00
         0.00000E+00
         0.00000E+00
         0.00000E+00
         0.00000E+00
         0.00000E+00
         0.00000E+00
         0.00000E+00
         0.00000E+00
         0.00000E+00
         0.00000E+00
         0.00000E+00
         0.00000E+00
         0.00000E+00
         0.00000E+00
         0.00000E+00
         0.00000E+00
         0.00000E+00
         0.00000E+00
         0.00000E+00
         0.00000E+00
         0.00000E+00
         0.00000E+00
         0.00000E+00
         0.00000E+00
         0.00000E+00
         0.00000E+00
         0.00000E+00
         0.00000E+00
         0.00000E+00
         0.00000E+00
         0.00000E+00
         0.00000E+00
         0.00000E+00
         0.00000E+00
         0.00000E+00
         0.00000E+00
         0.00000E+00
         0.00000E+00
         0.00000E+00
         0.00000E+00
         0.00000E+00
         0.00000E+00
         0.00000E+00
         0.00000E+00
         0.00000E+00
         0.00000E+00
         0.00000E+00
         0.00000E+00
         0.00000E+00
         0.00000E+00
         0.00000E+00
         0.00000E+00
         0.00000E+00
         0.00000E+00
         0.00000E+00
         0.00000E+00
         0.00000E+00
         0.00000E+00
         0.00000E+00
         0.00000E+00
         0.00000E+00
         0.00000E+00
         0.00000E+00
         0.00000E+00
         0.00000E+00
         0.00000E+00
         0.00000E+00
         0.00000E+00
         0.00000E+00
         0.00000E+00
         0.00000E+00
         0.00000E+00
         0.00000E+00
         0.00000E+00
         0.00000E+00
         0.00000E+00
         0.00000E+00
         0.00000E+00
         0.00000E+00
         0.00000E+00
         0.00000E+00
         0.00000E+00
         0.00000E+00
         0.00000E+00
         0.00000E+00
         0.00000E+00
         0.00000E+00
         0.00000E+00
         0.00000E+00
         0.00000E+00
         0.00000E+00
         0.00000E+00
         0.00000E+00
         0.00000E+00
         0.00000E+00
         0.00000E+00
         0.00000E+00
         0.00000E+00
         0.00000E+00
         0.00000E+00
         0.00000E+00
         0.00000E+00
         0.00000E+00
         0.00000E+00
         0.00000E+00
         0.00000E+00
         0.00000E+00
         0.00000E+00
         0.00000E+00
         0.00000E+00
         0.00000E+00
         0.00000E+00
         0.00000E+00
         0.00000E+00
         0.00000E+00
         0.00000E+00
         0.00000E+00
         0.00000E+00
         0.00000E+00
         0.00000E+00
         0.00000E+00
         0.00000E+00
         0.00000E+00
         0.00000E+00
         0.00000E+00
         0.00000E+00
         0.00000E+00
         0.00000E+00
         0.00000E+00
         0.00000E+00
         0.00000E+00
         0.00000E+00
         0.00000E+00
         0.00000E+00
         0.00000E+00
         0.00000E+00
         0.00000E+00
         0.00000E+00
         0.00000E+00
         0.00000E+00
         0.00000E+00
         0.00000E+00
         0.00000E+00
         0.00000E+00
         0.00000E+00
         0.00000E+00
         0.00000E+00
         0.00000E+00
         0.00000E+00
         0.00000E+00
         0.00000E+00
         0.00000E+00
         0.00000E+00
         0.00000E+00
         0.00000E+00
         0.00000E+00
         0.00000E+00
         0.00000E+00
         0.00000E+00
         0.00000E+00
         0.00000E+00
         0.00000E+00
         0.00000E+00
         0.00000E+00
         0.00000E+00
         0.00000E+00
         0.00000E+00
         0.00000E+00
         0.00000E+00
         0.00000E+00
         0.00000E+00
         0.00000E+00
         0.00000E+00
         0.00000E+00
         0.00000E+00
         0.00000E+00
         0.00000E+00
         0.00000E+00
         0.00000E+00
         0.00000E+00
         0.00000E+00
         0.00000E+00
         0.00000E+00
         0.00000E+00
         0.00000E+00
         0.00000E+00
         0.00000E+00
         0.00000E+00
         0.00000E+00
         0.00000E+00
         0.00000E+00
         0.00000E+00
         0.00000E+00
         0.00000E+00
         0.00000E+00
         0.00000E+00
         0.00000E+00
         0.00000E+00
         0.00000E+00
         0.00000E+00
         0.00000E+00
         0.00000E+00
         0.00000E+00
         0.00000E+00
         0.00000E+00
         0.00000E+00
         0.00000E+00
         0.00000E+00
         0.00000E+00
         0.00000E+00
         0.00000E+00
         0.00000E+00
         0.00000E+00
         0.00000E+00
         0.00000E+00
         0.00000E+00
         0.00000E+00
         0.00000E+00
         0.00000E+00
         0.00000E+00
         0.00000E+00
         0.00000E+00
         0.00000E+00
         0.00000E+00
         0.00000E+00
         0.00000E+00
         0.00000E+00
         0.00000E+00
         0.00000E+00
         0.00000E+00
         0.00000E+00
         0.00000E+00
         0.00000E+00
         0.00000E+00
         0.00000E+00
         0.00000E+00
         0.00000E+00
         0.00000E+00
         0.00000E+00
         0.00000E+00
         0.00000E+00
         0.00000E+00
         0.00000E+00
         0.00000E+00
         0.00000E+00
         0.00000E+00
         0.00000E+00
         0.00000E+00
         0.00000E+00
         0.00000E+00
         0.00000E+00
         0.00000E+00
         0.00000E+00
         0.00000E+00
         0.00000E+00
         0.00000E+00
         0.00000E+00
         0.00000E+00
         0.00000E+00
         0.00000E+00
         0.00000E+00
         0.00000E+00
         0.00000E+00
         0.00000E+00
         0.00000E+00
         0.00000E+00
         0.00000E+00
         0.00000E+00
         0.00000E+00
         0.00000E+00
         0.00000E+00
         0.00000E+00
         0.00000E+00
         0.00000E+00
         0.00000E+00
         0.00000E+00
         0.00000E+00
         0.00000E+00
         0.00000E+00
         0.00000E+00
         0.00000E+00
         0.00000E+00
         0.00000E+00
         0.00000E+00
         0.00000E+00
         0.00000E+00
         0.00000E+00
         0.00000E+00
         0.00000E+00
         0.00000E+00
         0.00000E+00
         0.00000E+00
         0.00000E+00
         0.00000E+00
         0.00000E+00
         0.00000E+00
         0.00000E+00
         0.00000E+00
         0.00000E+00
         0.00000E+00
         0.00000E+00
         0.00000E+00
         0.00000E+00
  
SCALARS                 displacement_y  double 1
LOOKUP_TABLE default
         0.00000E+00
         0.00000E+00
         0.00000E+00
         0.00000E+00
         0.00000E+00
         0.00000E+00
         0.00000E+00
         0.00000E+00
         0.00000E+00
         0.00000E+00
         0.00000E+00
         0.00000E+00
         0.00000E+00
         0.00000E+00
         0.00000E+00
         0.00000E+00
         0.00000E+00
         0.00000E+00
         0.00000E+00
         0.00000E+00
         0.00000E+00
         0.00000E+00
         0.00000E+00
         0.00000E+00
         0.00000E+00
         0.00000E+00
         0.00000E+00
         0.00000E+00
         0.00000E+00
         0.00000E+00
         0.00000E+00
         0.00000E+00
         0.00000E+00
         0.00000E+00
         0.00000E+00
         0.00000E+00
         0.00000E+00
         0.00000E+00
         0.00000E+00
         0.00000E+00
         0.00000E+00
         0.00000E+00
         0.00000E+00
         0.00000E+00
         0.00000E+00
         0.00000E+00
         0.00000E+00
         0.00000E+00
         0.00000E+00
         0.00000E+00
         0.00000E+00
         0.00000E+00
         0.00000E+00
         0.00000E+00
         0.00000E+00
         0.00000E+00
         0.00000E+00
         0.00000E+00
         0.00000E+00
         0.00000E+00
         0.00000E+00
         0.00000E+00
         0.00000E+00
         0.00000E+00
         0.00000E+00
         0.00000E+00
         0.00000E+00
         0.00000E+00
         0.00000E+00
         0.00000E+00
         0.00000E+00
         0.00000E+00
         0.00000E+00
         0.00000E+00
         0.00000E+00
         0.00000E+00
         0.00000E+00
         0.00000E+00
         0.00000E+00
         0.00000E+00
         0.00000E+00
         0.00000E+00
         0.00000E+00
         0.00000E+00
         0.00000E+00
         0.00000E+00
         0.00000E+00
         0.00000E+00
         0.00000E+00
         0.00000E+00
         0.00000E+00
         0.00000E+00
         0.00000E+00
         0.00000E+00
         0.00000E+00
         0.00000E+00
         0.00000E+00
         0.00000E+00
         0.00000E+00
         0.00000E+00
         0.00000E+00
         0.00000E+00
         0.00000E+00
         0.00000E+00
         0.00000E+00
         0.00000E+00
         0.00000E+00
         0.00000E+00
         0.00000E+00
         0.00000E+00
         0.00000E+00
         0.00000E+00
         0.00000E+00
         0.00000E+00
         0.00000E+00
         0.00000E+00
         0.00000E+00
         0.00000E+00
         0.00000E+00
         0.00000E+00
         0.00000E+00
         0.00000E+00
         0.00000E+00
         0.00000E+00
         0.00000E+00
         0.00000E+00
         0.00000E+00
         0.00000E+00
         0.00000E+00
         0.00000E+00
         0.00000E+00
         0.00000E+00
         0.00000E+00
         0.00000E+00
         0.00000E+00
         0.00000E+00
         0.00000E+00
         0.00000E+00
         0.00000E+00
         0.00000E+00
         0.00000E+00
         0.00000E+00
         0.00000E+00
         0.00000E+00
         0.00000E+00
         0.00000E+00
         0.00000E+00
         0.00000E+00
         0.00000E+00
         0.00000E+00
         0.00000E+00
         0.00000E+00
         0.00000E+00
         0.00000E+00
         0.00000E+00
         0.00000E+00
         0.00000E+00
         0.00000E+00
         0.00000E+00
         0.00000E+00
         0.00000E+00
         0.00000E+00
         0.00000E+00
         0.00000E+00
         0.00000E+00
         0.00000E+00
         0.00000E+00
         0.00000E+00
         0.00000E+00
         0.00000E+00
         0.00000E+00
         0.00000E+00
         0.00000E+00
         0.00000E+00
         0.00000E+00
         0.00000E+00
         0.00000E+00
         0.00000E+00
         0.00000E+00
         0.00000E+00
         0.00000E+00
         0.00000E+00
         0.00000E+00
         0.00000E+00
         0.00000E+00
         0.00000E+00
         0.00000E+00
         0.00000E+00
         0.00000E+00
         0.00000E+00
         0.00000E+00
         0.00000E+00
         0.00000E+00
         0.00000E+00
         0.00000E+00
         0.00000E+00
         0.00000E+00
         0.00000E+00
         0.00000E+00
         0.00000E+00
         0.00000E+00
         0.00000E+00
         0.00000E+00
         0.00000E+00
         0.00000E+00
         0.00000E+00
         0.00000E+00
         0.00000E+00
         0.00000E+00
         0.00000E+00
         0.00000E+00
         0.00000E+00
         0.00000E+00
         0.00000E+00
         0.00000E+00
         0.00000E+00
         0.00000E+00
         0.00000E+00
         0.00000E+00
         0.00000E+00
         0.00000E+00
         0.00000E+00
         0.00000E+00
         0.00000E+00
         0.00000E+00
         0.00000E+00
         0.00000E+00
         0.00000E+00
         0.00000E+00
         0.00000E+00
         0.00000E+00
         0.00000E+00
         0.00000E+00
         0.00000E+00
         0.00000E+00
         0.00000E+00
         0.00000E+00
         0.00000E+00
         0.00000E+00
         0.00000E+00
         0.00000E+00
         0.00000E+00
         0.00000E+00
         0.00000E+00
         0.00000E+00
         0.00000E+00
         0.00000E+00
         0.00000E+00
         0.00000E+00
         0.00000E+00
         0.00000E+00
         0.00000E+00
         0.00000E+00
         0.00000E+00
         0.00000E+00
         0.00000E+00
         0.00000E+00
         0.00000E+00
         0.00000E+00
         0.00000E+00
         0.00000E+00
         0.00000E+00
         0.00000E+00
         0.00000E+00
         0.00000E+00
         0.00000E+00
         0.00000E+00
         0.00000E+00
         0.00000E+00
         0.00000E+00
         0.00000E+00
         0.00000E+00
         0.00000E+00
         0.00000E+00
         0.00000E+00
         0.00000E+00
         0.00000E+00
         0.00000E+00
         0.00000E+00
         0.00000E+00
         0.00000E+00
         0.00000E+00
         0.00000E+00
         0.00000E+00
         0.00000E+00
         0.00000E+00
         0.00000E+00
         0.00000E+00
         0.00000E+00
         0.00000E+00
         0.00000E+00
         0.00000E+00
         0.00000E+00
         0.00000E+00
         0.00000E+00
         0.00000E+00
         0.00000E+00
         0.00000E+00
         0.00000E+00
         0.00000E+00
         0.00000E+00
         0.00000E+00
         0.00000E+00
         0.00000E+00
         0.00000E+00
         0.00000E+00
         0.00000E+00
         0.00000E+00
         0.00000E+00
         0.00000E+00
         0.00000E+00
         0.00000E+00
         0.00000E+00
         0.00000E+00
         0.00000E+00
         0.00000E+00
         0.00000E+00
         0.00000E+00
         0.00000E+00
         0.00000E+00
         0.00000E+00
         0.00000E+00
         0.00000E+00
         0.00000E+00
         0.00000E+00
         0.00000E+00
         0.00000E+00
         0.00000E+00
         0.00000E+00
         0.00000E+00
         0.00000E+00
         0.00000E+00
         0.00000E+00
         0.00000E+00
         0.00000E+00
         0.00000E+00
         0.00000E+00
         0.00000E+00
         0.00000E+00
         0.00000E+00
         0.00000E+00
         0.00000E+00
         0.00000E+00
         0.00000E+00
         0.00000E+00
         0.00000E+00
         0.00000E+00
         0.00000E+00
         0.00000E+00
         0.00000E+00
         0.00000E+00
         0.00000E+00
         0.00000E+00
         0.00000E+00
         0.00000E+00
         0.00000E+00
         0.00000E+00
         0.00000E+00
         0.00000E+00
         0.00000E+00
         0.00000E+00
         0.00000E+00
         0.00000E+00
         0.00000E+00
         0.00000E+00
         0.00000E+00
         0.00000E+00
         0.00000E+00
         0.00000E+00
         0.00000E+00
         0.00000E+00
         0.00000E+00
         0.00000E+00
         0.00000E+00
         0.00000E+00
         0.00000E+00
         0.00000E+00
         0.00000E+00
         0.00000E+00
         0.00000E+00
         0.00000E+00
         0.00000E+00
         0.00000E+00
         0.00000E+00
         0.00000E+00
         0.00000E+00
         0.00000E+00
         0.00000E+00
         0.00000E+00
         0.00000E+00
         0.00000E+00
         0.00000E+00
         0.00000E+00
         0.00000E+00
         0.00000E+00
         0.00000E+00
         0.00000E+00
         0.00000E+00
         0.00000E+00
         0.00000E+00
         0.00000E+00
         0.00000E+00
         0.00000E+00
         0.00000E+00
         0.00000E+00
         0.00000E+00
         0.00000E+00
         0.00000E+00
         0.00000E+00
         0.00000E+00
         0.00000E+00
         0.00000E+00
         0.00000E+00
         0.00000E+00
         0.00000E+00
         0.00000E+00
         0.00000E+00
         0.00000E+00
         0.00000E+00
         0.00000E+00
         0.00000E+00
         0.00000E+00
         0.00000E+00
         0.00000E+00
         0.00000E+00
         0.00000E+00
         0.00000E+00
         0.00000E+00
         0.00000E+00
         0.00000E+00
         0.00000E+00
         0.00000E+00
         0.00000E+00
         0.00000E+00
         0.00000E+00
         0.00000E+00
         0.00000E+00
         0.00000E+00
         0.00000E+00
         0.00000E+00
         0.00000E+00
         0.00000E+00
         0.00000E+00
         0.00000E+00
         0.00000E+00
         0.00000E+00
         0.00000E+00
         0.00000E+00
         0.00000E+00
         0.00000E+00
         0.00000E+00
         0.00000E+00
         0.00000E+00
         0.00000E+00
         0.00000E+00
         0.00000E+00
         0.00000E+00
         0.00000E+00
         0.00000E+00
         0.00000E+00
         0.00000E+00
         0.00000E+00
         0.00000E+00
         0.00000E+00
         0.00000E+00
         0.00000E+00
         0.00000E+00
         0.00000E+00
         0.00000E+00
         0.00000E+00
         0.00000E+00
         0.00000E+00
         0.00000E+00
         0.00000E+00
         0.00000E+00
         0.00000E+00
         0.00000E+00
         0.00000E+00
         0.00000E+00
         0.00000E+00
         0.00000E+00
         0.00000E+00
         0.00000E+00
         0.00000E+00
         0.00000E+00
         0.00000E+00
         0.00000E+00
         0.00000E+00
         0.00000E+00
         0.00000E+00
         0.00000E+00
         0.00000E+00
         0.00000E+00
         0.00000E+00
         0.00000E+00
         0.00000E+00
         0.00000E+00
         0.00000E+00
         0.00000E+00
         0.00000E+00
         0.00000E+00
         0.00000E+00
         0.00000E+00
         0.00000E+00
         0.00000E+00
         0.00000E+00
         0.00000E+00
         0.00000E+00
         0.00000E+00
         0.00000E+00
         0.00000E+00
         0.00000E+00
         0.00000E+00
         0.00000E+00
         0.00000E+00
         0.00000E+00
         0.00000E+00
         0.00000E+00
         0.00000E+00
         0.00000E+00
         0.00000E+00
         0.00000E+00
         0.00000E+00
         0.00000E+00
         0.00000E+00
         0.00000E+00
         0.00000E+00
         0.00000E+00
         0.00000E+00
         0.00000E+00
         0.00000E+00
         0.00000E+00
         0.00000E+00
         0.00000E+00
         0.00000E+00
         0.00000E+00
         0.00000E+00
         0.00000E+00
         0.00000E+00
         0.00000E+00
         0.00000E+00
         0.00000E+00
         0.00000E+00
         0.00000E+00
         0.00000E+00
         0.00000E+00
         0.00000E+00
         0.00000E+00
         0.00000E+00
         0.00000E+00
         0.00000E+00
         0.00000E+00
         0.00000E+00
         0.00000E+00
         0.00000E+00
         0.00000E+00
         0.00000E+00
         0.00000E+00
         0.00000E+00
         0.00000E+00
         0.00000E+00
         0.00000E+00
         0.00000E+00
         0.00000E+00
         0.00000E+00
         0.00000E+00
         0.00000E+00
         0.00000E+00
         0.00000E+00
         0.00000E+00
         0.00000E+00
         0.00000E+00
         0.00000E+00
         0.00000E+00
         0.00000E+00
         0.00000E+00
         0.00000E+00
         0.00000E+00
         0.00000E+00
         0.00000E+00
         0.00000E+00
         0.00000E+00
         0.00000E+00
         0.00000E+00
         0.00000E+00
         0.00000E+00
         0.00000E+00
         0.00000E+00
         0.00000E+00
         0.00000E+00
         0.00000E+00
         0.00000E+00
         0.00000E+00
         0.00000E+00
         0.00000E+00
         0.00000E+00
         0.00000E+00
         0.00000E+00
         0.00000E+00
         0.00000E+00
         0.00000E+00
         0.00000E+00
         0.00000E+00
         0.00000E+00
         0.00000E+00
         0.00000E+00
         0.00000E+00
         0.00000E+00
         0.00000E+00
         0.00000E+00
         0.00000E+00
         0.00000E+00
         0.00000E+00
         0.00000E+00
         0.00000E+00
         0.00000E+00
         0.00000E+00
         0.00000E+00
         0.00000E+00
         0.00000E+00
         0.00000E+00
         0.00000E+00
         0.00000E+00
         0.00000E+00
         0.00000E+00
         0.00000E+00
         0.00000E+00
         0.00000E+00
         0.00000E+00
         0.00000E+00
         0.00000E+00
         0.00000E+00
         0.00000E+00
         0.00000E+00
         0.00000E+00
         0.00000E+00
         0.00000E+00
         0.00000E+00
         0.00000E+00
         0.00000E+00
         0.00000E+00
         0.00000E+00
         0.00000E+00
         0.00000E+00
         0.00000E+00
         0.00000E+00
         0.00000E+00
         0.00000E+00
         0.00000E+00
         0.00000E+00
         0.00000E+00
         0.00000E+00
         0.00000E+00
         0.00000E+00
         0.00000E+00
         0.00000E+00
         0.00000E+00
         0.00000E+00
         0.00000E+00
         0.00000E+00
         0.00000E+00
         0.00000E+00
         0.00000E+00
         0.00000E+00
         0.00000E+00
         0.00000E+00
         0.00000E+00
         0.00000E+00
         0.00000E+00
         0.00000E+00
         0.00000E+00
         0.00000E+00
         0.00000E+00
         0.00000E+00
         0.00000E+00
         0.00000E+00
         0.00000E+00
         0.00000E+00
         0.00000E+00
         0.00000E+00
         0.00000E+00
         0.00000E+00
         0.00000E+00
         0.00000E+00
         0.00000E+00
         0.00000E+00
         0.00000E+00
         0.00000E+00
         0.00000E+00
         0.00000E+00
         0.00000E+00
         0.00000E+00
         0.00000E+00
         0.00000E+00
         0.00000E+00
         0.00000E+00
         0.00000E+00
         0.00000E+00
         0.00000E+00
         0.00000E+00
         0.00000E+00
         0.00000E+00
         0.00000E+00
         0.00000E+00
         0.00000E+00
         0.00000E+00
         0.00000E+00
         0.00000E+00
         0.00000E+00
         0.00000E+00
         0.00000E+00
         0.00000E+00
         0.00000E+00
         0.00000E+00
         0.00000E+00
         0.00000E+00
         0.00000E+00
         0.00000E+00
         0.00000E+00
         0.00000E+00
         0.00000E+00
         0.00000E+00
         0.00000E+00
         0.00000E+00
         0.00000E+00
         0.00000E+00
         0.00000E+00
         0.00000E+00
         0.00000E+00
         0.00000E+00
         0.00000E+00
         0.00000E+00
         0.00000E+00
         0.00000E+00
         0.00000E+00
         0.00000E+00
         0.00000E+00
         0.00000E+00
         0.00000E+00
         0.00000E+00
         0.00000E+00
         0.00000E+00
         0.00000E+00
         0.00000E+00
         0.00000E+00
         0.00000E+00
         0.00000E+00
         0.00000E+00
         0.00000E+00
         0.00000E+00
         0.00000E+00
         0.00000E+00
         0.00000E+00
         0.00000E+00
         0.00000E+00
         0.00000E+00
         0.00000E+00
         0.00000E+00
         0.00000E+00
         0.00000E+00
         0.00000E+00
         0.00000E+00
         0.00000E+00
         0.00000E+00
         0.00000E+00
         0.00000E+00
         0.00000E+00
         0.00000E+00
         0.00000E+00
         0.00000E+00
         0.00000E+00
         0.00000E+00
         0.00000E+00
         0.00000E+00
         0.00000E+00
         0.00000E+00
         0.00000E+00
         0.00000E+00
         0.00000E+00
         0.00000E+00
         0.00000E+00
         0.00000E+00
         0.00000E+00
         0.00000E+00
         0.00000E+00
         0.00000E+00
         0.00000E+00
         0.00000E+00
         0.00000E+00
         0.00000E+00
         0.00000E+00
         0.00000E+00
         0.00000E+00
         0.00000E+00
         0.00000E+00
         0.00000E+00
         0.00000E+00
         0.00000E+00
         0.00000E+00
         0.00000E+00
         0.00000E+00
         0.00000E+00
         0.00000E+00
         0.00000E+00
         0.00000E+00
         0.00000E+00
         0.00000E+00
         0.00000E+00
         0.00000E+00
         0.00000E+00
         0.00000E+00
         0.00000E+00
         0.00000E+00
         0.00000E+00
         0.00000E+00
         0.00000E+00
         0.00000E+00
         0.00000E+00
         0.00000E+00
         0.00000E+00
         0.00000E+00
         0.00000E+00
         0.00000E+00
         0.00000E+00
         0.00000E+00
         0.00000E+00
         0.00000E+00
         0.00000E+00
         0.00000E+00
         0.00000E+00
         0.00000E+00
         0.00000E+00
         0.00000E+00
         0.00000E+00
         0.00000E+00
         0.00000E+00
         0.00000E+00
         0.00000E+00
         0.00000E+00
         0.00000E+00
         0.00000E+00
         0.00000E+00
         0.00000E+00
         0.00000E+00
         0.00000E+00
         0.00000E+00
         0.00000E+00
         0.00000E+00
         0.00000E+00
         0.00000E+00
         0.00000E+00
         0.00000E+00
         0.00000E+00
         0.00000E+00
         0.00000E+00
         0.00000E+00
         0.00000E+00
         0.00000E+00
         0.00000E+00
         0.00000E+00
         0.00000E+00
         0.00000E+00
         0.00000E+00
         0.00000E+00
         0.00000E+00
         0.00000E+00
         0.00000E+00
         0.00000E+00
         0.00000E+00
         0.00000E+00
         0.00000E+00
         0.00000E+00
         0.00000E+00
         0.00000E+00
         0.00000E+00
         0.00000E+00
         0.00000E+00
         0.00000E+00
         0.00000E+00
         0.00000E+00
         0.00000E+00
         0.00000E+00
         0.00000E+00
         0.00000E+00
         0.00000E+00
         0.00000E+00
         0.00000E+00
         0.00000E+00
         0.00000E+00
         0.00000E+00
         0.00000E+00
         0.00000E+00
         0.00000E+00
         0.00000E+00
         0.00000E+00
         0.00000E+00
         0.00000E+00
         0.00000E+00
         0.00000E+00
         0.00000E+00
         0.00000E+00
         0.00000E+00
         0.00000E+00
         0.00000E+00
         0.00000E+00
         0.00000E+00
         0.00000E+00
         0.00000E+00
         0.00000E+00
         0.00000E+00
         0.00000E+00
         0.00000E+00
         0.00000E+00
         0.00000E+00
         0.00000E+00
         0.00000E+00
         0.00000E+00
         0.00000E+00
         0.00000E+00
         0.00000E+00
         0.00000E+00
         0.00000E+00
         0.00000E+00
         0.00000E+00
         0.00000E+00
         0.00000E+00
         0.00000E+00
         0.00000E+00
         0.00000E+00
         0.00000E+00
         0.00000E+00
         0.00000E+00
         0.00000E+00
         0.00000E+00
         0.00000E+00
         0.00000E+00
         0.00000E+00
         0.00000E+00
         0.00000E+00
         0.00000E+00
         0.00000E+00
         0.00000E+00
         0.00000E+00
         0.00000E+00
         0.00000E+00
         0.00000E+00
         0.00000E+00
         0.00000E+00
         0.00000E+00
         0.00000E+00
         0.00000E+00
         0.00000E+00
         0.00000E+00
         0.00000E+00
         0.00000E+00
         0.00000E+00
         0.00000E+00
         0.00000E+00
         0.00000E+00
         0.00000E+00
         0.00000E+00
         0.00000E+00
         0.00000E+00
         0.00000E+00
         0.00000E+00
         0.00000E+00
         0.00000E+00
         0.00000E+00
         0.00000E+00
         0.00000E+00
         0.00000E+00
         0.00000E+00
         0.00000E+00
         0.00000E+00
         0.00000E+00
         0.00000E+00
         0.00000E+00
         0.00000E+00
         0.00000E+00
         0.00000E+00
         0.00000E+00
         0.00000E+00
         0.00000E+00
         0.00000E+00
         0.00000E+00
         0.00000E+00
         0.00000E+00
         0.00000E+00
         0.00000E+00
         0.00000E+00
         0.00000E+00
         0.00000E+00
         0.00000E+00
         0.00000E+00
         0.00000E+00
         0.00000E+00
         0.00000E+00
         0.00000E+00
         0.00000E+00
         0.00000E+00
         0.00000E+00
         0.00000E+00
         0.00000E+00
         0.00000E+00
         0.00000E+00
         0.00000E+00
         0.00000E+00
         0.00000E+00
         0.00000E+00
         0.00000E+00
         0.00000E+00
         0.00000E+00
         0.00000E+00
         0.00000E+00
         0.00000E+00
         0.00000E+00
         0.00000E+00
         0.00000E+00
         0.00000E+00
         0.00000E+00
         0.00000E+00
         0.00000E+00
         0.00000E+00
         0.00000E+00
         0.00000E+00
         0.00000E+00
         0.00000E+00
         0.00000E+00
         0.00000E+00
         0.00000E+00
         0.00000E+00
         0.00000E+00
         0.00000E+00
         0.00000E+00
         0.00000E+00
         0.00000E+00
         0.00000E+00
         0.00000E+00
         0.00000E+00
         0.00000E+00
         0.00000E+00
         0.00000E+00
         0.00000E+00
         0.00000E+00
         0.00000E+00
         0.00000E+00
         0.00000E+00
         0.00000E+00
         0.00000E+00
         0.00000E+00
         0.00000E+00
         0.00000E+00
         0.00000E+00
         0.00000E+00
         0.00000E+00
         0.00000E+00
         0.00000E+00
         0.00000E+00
         0.00000E+00
         0.00000E+00
         0.00000E+00
         0.00000E+00
         0.00000E+00
         0.00000E+00
         0.00000E+00
         0.00000E+00
         0.00000E+00
         0.00000E+00
         0.00000E+00
         0.00000E+00
         0.00000E+00
         0.00000E+00
         0.00000E+00
         0.00000E+00
         0.00000E+00
         0.00000E+00
         0.00000E+00
         0.00000E+00
         0.00000E+00
         0.00000E+00
         0.00000E+00
         0.00000E+00
         0.00000E+00
         0.00000E+00
         0.00000E+00
         0.00000E+00
         0.00000E+00
         0.00000E+00
         0.00000E+00
         0.00000E+00
         0.00000E+00
         0.00000E+00
         0.00000E+00
         0.00000E+00
         0.00000E+00
         0.00000E+00
         0.00000E+00
         0.00000E+00
         0.00000E+00
         0.00000E+00
         0.00000E+00
         0.00000E+00
         0.00000E+00
         0.00000E+00
         0.00000E+00
         0.00000E+00
         0.00000E+00
         0.00000E+00
         0.00000E+00
         0.00000E+00
         0.00000E+00
         0.00000E+00
         0.00000E+00
         0.00000E+00
         0.00000E+00
         0.00000E+00
         0.00000E+00
         0.00000E+00
         0.00000E+00
         0.00000E+00
         0.00000E+00
         0.00000E+00
         0.00000E+00
         0.00000E+00
         0.00000E+00
         0.00000E+00
         0.00000E+00
         0.00000E+00
         0.00000E+00
         0.00000E+00
         0.00000E+00
         0.00000E+00
         0.00000E+00
         0.00000E+00
         0.00000E+00
         0.00000E+00
         0.00000E+00
         0.00000E+00
         0.00000E+00
         0.00000E+00
         0.00000E+00
         0.00000E+00
         0.00000E+00
         0.00000E+00
         0.00000E+00
         0.00000E+00
         0.00000E+00
         0.00000E+00
         0.00000E+00
         0.00000E+00
         0.00000E+00
         0.00000E+00
         0.00000E+00
         0.00000E+00
         0.00000E+00
         0.00000E+00
         0.00000E+00
         0.00000E+00
         0.00000E+00
         0.00000E+00
         0.00000E+00
         0.00000E+00
         0.00000E+00
         0.00000E+00
         0.00000E+00
         0.00000E+00
         0.00000E+00
         0.00000E+00
         0.00000E+00
         0.00000E+00
         0.00000E+00
         0.00000E+00
         0.00000E+00
         0.00000E+00
         0.00000E+00
         0.00000E+00
         0.00000E+00
         0.00000E+00
         0.00000E+00
         0.00000E+00
         0.00000E+00
         0.00000E+00
         0.00000E+00
         0.00000E+00
         0.00000E+00
         0.00000E+00
         0.00000E+00
         0.00000E+00
         0.00000E+00
         0.00000E+00
         0.00000E+00
         0.00000E+00
         0.00000E+00
         0.00000E+00
         0.00000E+00
         0.00000E+00
         0.00000E+00
         0.00000E+00
         0.00000E+00
         0.00000E+00
         0.00000E+00
         0.00000E+00
         0.00000E+00
         0.00000E+00
         0.00000E+00
         0.00000E+00
         0.00000E+00
         0.00000E+00
         0.00000E+00
         0.00000E+00
         0.00000E+00
         0.00000E+00
         0.00000E+00
         0.00000E+00
         0.00000E+00
         0.00000E+00
         0.00000E+00
         0.00000E+00
         0.00000E+00
         0.00000E+00
         0.00000E+00
         0.00000E+00
         0.00000E+00
         0.00000E+00
         0.00000E+00
         0.00000E+00
         0.00000E+00
         0.00000E+00
         0.00000E+00
         0.00000E+00
         0.00000E+00
         0.00000E+00
         0.00000E+00
         0.00000E+00
         0.00000E+00
         0.00000E+00
         0.00000E+00
         0.00000E+00
         0.00000E+00
         0.00000E+00
         0.00000E+00
         0.00000E+00
         0.00000E+00
         0.00000E+00
         0.00000E+00
         0.00000E+00
         0.00000E+00
         0.00000E+00
         0.00000E+00
         0.00000E+00
         0.00000E+00
         0.00000E+00
         0.00000E+00
         0.00000E+00
         0.00000E+00
         0.00000E+00
         0.00000E+00
         0.00000E+00
         0.00000E+00
         0.00000E+00
         0.00000E+00
         0.00000E+00
         0.00000E+00
         0.00000E+00
         0.00000E+00
         0.00000E+00
         0.00000E+00
         0.00000E+00
         0.00000E+00
         0.00000E+00
         0.00000E+00
         0.00000E+00
         0.00000E+00
         0.00000E+00
         0.00000E+00
         0.00000E+00
         0.00000E+00
         0.00000E+00
         0.00000E+00
         0.00000E+00
         0.00000E+00
         0.00000E+00
         0.00000E+00
         0.00000E+00
         0.00000E+00
         0.00000E+00
         0.00000E+00
         0.00000E+00
         0.00000E+00
         0.00000E+00
         0.00000E+00
         0.00000E+00
         0.00000E+00
         0.00000E+00
         0.00000E+00
         0.00000E+00
         0.00000E+00
         0.00000E+00
         0.00000E+00
         0.00000E+00
         0.00000E+00
         0.00000E+00
         0.00000E+00
         0.00000E+00
         0.00000E+00
         0.00000E+00
         0.00000E+00
         0.00000E+00
         0.00000E+00
         0.00000E+00
         0.00000E+00
         0.00000E+00
         0.00000E+00
         0.00000E+00
         0.00000E+00
         0.00000E+00
         0.00000E+00
         0.00000E+00
         0.00000E+00
         0.00000E+00
         0.00000E+00
         0.00000E+00
         0.00000E+00
         0.00000E+00
         0.00000E+00
         0.00000E+00
         0.00000E+00
         0.00000E+00
         0.00000E+00
         0.00000E+00
         0.00000E+00
         0.00000E+00
         0.00000E+00
         0.00000E+00
         0.00000E+00
         0.00000E+00
         0.00000E+00
         0.00000E+00
         0.00000E+00
         0.00000E+00
         0.00000E+00
         0.00000E+00
         0.00000E+00
         0.00000E+00
         0.00000E+00
         0.00000E+00
         0.00000E+00
         0.00000E+00
         0.00000E+00
         0.00000E+00
         0.00000E+00
         0.00000E+00
         0.00000E+00
         0.00000E+00
         0.00000E+00
         0.00000E+00
         0.00000E+00
         0.00000E+00
         0.00000E+00
         0.00000E+00
         0.00000E+00
         0.00000E+00
         0.00000E+00
         0.00000E+00
         0.00000E+00
         0.00000E+00
         0.00000E+00
         0.00000E+00
         0.00000E+00
         0.00000E+00
         0.00000E+00
         0.00000E+00
         0.00000E+00
         0.00000E+00
         0.00000E+00
         0.00000E+00
         0.00000E+00
         0.00000E+00
         0.00000E+00
         0.00000E+00
         0.00000E+00
         0.00000E+00
         0.00000E+00
         0.00000E+00
         0.00000E+00
         0.00000E+00
         0.00000E+00
         0.00000E+00
         0.00000E+00
         0.00000E+00
         0.00000E+00
         0.00000E+00
         0.00000E+00
         0.00000E+00
         0.00000E+00
         0.00000E+00
         0.00000E+00
         0.00000E+00
         0.00000E+00
         0.00000E+00
         0.00000E+00
         0.00000E+00
         0.00000E+00
         0.00000E+00
         0.00000E+00
         0.00000E+00
         0.00000E+00
         0.00000E+00
         0.00000E+00
         0.00000E+00
         0.00000E+00
         0.00000E+00
         0.00000E+00
         0.00000E+00
         0.00000E+00
         0.00000E+00
         0.00000E+00
         0.00000E+00
         0.00000E+00
         0.00000E+00
         0.00000E+00
         0.00000E+00
         0.00000E+00
         0.00000E+00
         0.00000E+00
         0.00000E+00
         0.00000E+00
         0.00000E+00
         0.00000E+00
         0.00000E+00
         0.00000E+00
         0.00000E+00
         0.00000E+00
         0.00000E+00
         0.00000E+00
         0.00000E+00
         0.00000E+00
         0.00000E+00
         0.00000E+00
         0.00000E+00
         0.00000E+00
         0.00000E+00
         0.00000E+00
         0.00000E+00
         0.00000E+00
         0.00000E+00
         0.00000E+00
         0.00000E+00
         0.00000E+00
         0.00000E+00
         0.00000E+00
         0.00000E+00
         0.00000E+00
         0.00000E+00
         0.00000E+00
         0.00000E+00
         0.00000E+00
         0.00000E+00
         0.00000E+00
         0.00000E+00
         0.00000E+00
         0.00000E+00
         0.00000E+00
         0.00000E+00
         0.00000E+00
         0.00000E+00
         0.00000E+00
         0.00000E+00
         0.00000E+00
         0.00000E+00
         0.00000E+00
         0.00000E+00
         0.00000E+00
         0.00000E+00
         0.00000E+00
         0.00000E+00
         0.00000E+00
         0.00000E+00
         0.00000E+00
         0.00000E+00
         0.00000E+00
         0.00000E+00
         0.00000E+00
         0.00000E+00
         0.00000E+00
         0.00000E+00
         0.00000E+00
         0.00000E+00
         0.00000E+00
         0.00000E+00
         0.00000E+00
         0.00000E+00
         0.00000E+00
         0.00000E+00
         0.00000E+00
         0.00000E+00
         0.00000E+00
         0.00000E+00
         0.00000E+00
         0.00000E+00
         0.00000E+00
         0.00000E+00
         0.00000E+00
         0.00000E+00
         0.00000E+00
         0.00000E+00
         0.00000E+00
         0.00000E+00
         0.00000E+00
         0.00000E+00
         0.00000E+00
         0.00000E+00
         0.00000E+00
         0.00000E+00
         0.00000E+00
         0.00000E+00
         0.00000E+00
         0.00000E+00
         0.00000E+00
         0.00000E+00
         0.00000E+00
         0.00000E+00
         0.00000E+00
         0.00000E+00
         0.00000E+00
         0.00000E+00
         0.00000E+00
         0.00000E+00
         0.00000E+00
         0.00000E+00
         0.00000E+00
         0.00000E+00
         0.00000E+00
         0.00000E+00
         0.00000E+00
         0.00000E+00
         0.00000E+00
         0.00000E+00
         0.00000E+00
         0.00000E+00
         0.00000E+00
         0.00000E+00
         0.00000E+00
         0.00000E+00
         0.00000E+00
         0.00000E+00
         0.00000E+00
         0.00000E+00
         0.00000E+00
         0.00000E+00
         0.00000E+00
         0.00000E+00
         0.00000E+00
         0.00000E+00
         0.00000E+00
         0.00000E+00
         0.00000E+00
         0.00000E+00
         0.00000E+00
         0.00000E+00
         0.00000E+00
         0.00000E+00
         0.00000E+00
         0.00000E+00
         0.00000E+00
         0.00000E+00
         0.00000E+00
         0.00000E+00
         0.00000E+00
         0.00000E+00
         0.00000E+00
         0.00000E+00
         0.00000E+00
         0.00000E+00
         0.00000E+00
         0.00000E+00
         0.00000E+00
         0.00000E+00
         0.00000E+00
         0.00000E+00
         0.00000E+00
         0.00000E+00
         0.00000E+00
         0.00000E+00
         0.00000E+00
         0.00000E+00
         0.00000E+00
         0.00000E+00
         0.00000E+00
         0.00000E+00
         0.00000E+00
         0.00000E+00
         0.00000E+00
         0.00000E+00
         0.00000E+00
         0.00000E+00
         0.00000E+00
         0.00000E+00
         0.00000E+00
         0.00000E+00
         0.00000E+00
         0.00000E+00
         0.00000E+00
         0.00000E+00
         0.00000E+00
         0.00000E+00
         0.00000E+00
         0.00000E+00
         0.00000E+00
         0.00000E+00
         0.00000E+00
         0.00000E+00
         0.00000E+00
         0.00000E+00
         0.00000E+00
         0.00000E+00
         0.00000E+00
         0.00000E+00
         0.00000E+00
         0.00000E+00
         0.00000E+00
         0.00000E+00
         0.00000E+00
         0.00000E+00
         0.00000E+00
         0.00000E+00
         0.00000E+00
         0.00000E+00
         0.00000E+00
         0.00000E+00
         0.00000E+00
         0.00000E+00
         0.00000E+00
         0.00000E+00
         0.00000E+00
         0.00000E+00
         0.00000E+00
         0.00000E+00
         0.00000E+00
         0.00000E+00
         0.00000E+00
         0.00000E+00
         0.00000E+00
         0.00000E+00
         0.00000E+00
         0.00000E+00
         0.00000E+00
         0.00000E+00
         0.00000E+00
         0.00000E+00
         0.00000E+00
         0.00000E+00
         0.00000E+00
         0.00000E+00
         0.00000E+00
         0.00000E+00
         0.00000E+00
         0.00000E+00
         0.00000E+00
         0.00000E+00
         0.00000E+00
         0.00000E+00
         0.00000E+00
         0.00000E+00
         0.00000E+00
         0.00000E+00
         0.00000E+00
         0.00000E+00
         0.00000E+00
         0.00000E+00
         0.00000E+00
         0.00000E+00
         0.00000E+00
         0.00000E+00
         0.00000E+00
         0.00000E+00
         0.00000E+00
         0.00000E+00
         0.00000E+00
         0.00000E+00
         0.00000E+00
         0.00000E+00
         0.00000E+00
         0.00000E+00
         0.00000E+00
         0.00000E+00
         0.00000E+00
         0.00000E+00
         0.00000E+00
         0.00000E+00
         0.00000E+00
         0.00000E+00
         0.00000E+00
         0.00000E+00
         0.00000E+00
         0.00000E+00
         0.00000E+00
         0.00000E+00
         0.00000E+00
         0.00000E+00
         0.00000E+00
         0.00000E+00
         0.00000E+00
         0.00000E+00
         0.00000E+00
         0.00000E+00
         0.00000E+00
         0.00000E+00
         0.00000E+00
         0.00000E+00
         0.00000E+00
         0.00000E+00
         0.00000E+00
         0.00000E+00
         0.00000E+00
         0.00000E+00
         0.00000E+00
         0.00000E+00
         0.00000E+00
         0.00000E+00
         0.00000E+00
         0.00000E+00
         0.00000E+00
         0.00000E+00
         0.00000E+00
         0.00000E+00
         0.00000E+00
         0.00000E+00
         0.00000E+00
         0.00000E+00
         0.00000E+00
         0.00000E+00
         0.00000E+00
         0.00000E+00
         0.00000E+00
         0.00000E+00
         0.00000E+00
         0.00000E+00
         0.00000E+00
         0.00000E+00
         0.00000E+00
         0.00000E+00
         0.00000E+00
         0.00000E+00
         0.00000E+00
         0.00000E+00
         0.00000E+00
         0.00000E+00
         0.00000E+00
         0.00000E+00
         0.00000E+00
         0.00000E+00
         0.00000E+00
         0.00000E+00
         0.00000E+00
         0.00000E+00
         0.00000E+00
         0.00000E+00
         0.00000E+00
         0.00000E+00
         0.00000E+00
         0.00000E+00
         0.00000E+00
         0.00000E+00
         0.00000E+00
         0.00000E+00
         0.00000E+00
         0.00000E+00
         0.00000E+00
         0.00000E+00
         0.00000E+00
         0.00000E+00
         0.00000E+00
         0.00000E+00
         0.00000E+00
         0.00000E+00
         0.00000E+00
         0.00000E+00
         0.00000E+00
         0.00000E+00
         0.00000E+00
         0.00000E+00
         0.00000E+00
         0.00000E+00
         0.00000E+00
         0.00000E+00
         0.00000E+00
         0.00000E+00
         0.00000E+00
         0.00000E+00
         0.00000E+00
         0.00000E+00
         0.00000E+00
         0.00000E+00
         0.00000E+00
         0.00000E+00
         0.00000E+00
         0.00000E+00
         0.00000E+00
         0.00000E+00
         0.00000E+00
         0.00000E+00
         0.00000E+00
         0.00000E+00
         0.00000E+00
         0.00000E+00
         0.00000E+00
         0.00000E+00
         0.00000E+00
         0.00000E+00
         0.00000E+00
         0.00000E+00
         0.00000E+00
         0.00000E+00
         0.00000E+00
         0.00000E+00
         0.00000E+00
         0.00000E+00
         0.00000E+00
         0.00000E+00
         0.00000E+00
         0.00000E+00
         0.00000E+00
         0.00000E+00
         0.00000E+00
         0.00000E+00
         0.00000E+00
         0.00000E+00
         0.00000E+00
         0.00000E+00
         0.00000E+00
         0.00000E+00
         0.00000E+00
         0.00000E+00
         0.00000E+00
         0.00000E+00
         0.00000E+00
         0.00000E+00
         0.00000E+00
         0.00000E+00
         0.00000E+00
         0.00000E+00
         0.00000E+00
         0.00000E+00
         0.00000E+00
         0.00000E+00
         0.00000E+00
         0.00000E+00
         0.00000E+00
         0.00000E+00
         0.00000E+00
         0.00000E+00
         0.00000E+00
         0.00000E+00
         0.00000E+00
         0.00000E+00
         0.00000E+00
         0.00000E+00
         0.00000E+00
         0.00000E+00
         0.00000E+00
         0.00000E+00
         0.00000E+00
         0.00000E+00
         0.00000E+00
         0.00000E+00
         0.00000E+00
         0.00000E+00
         0.00000E+00
         0.00000E+00
         0.00000E+00
         0.00000E+00
         0.00000E+00
         0.00000E+00
         0.00000E+00
         0.00000E+00
         0.00000E+00
         0.00000E+00
         0.00000E+00
         0.00000E+00
         0.00000E+00
         0.00000E+00
         0.00000E+00
         0.00000E+00
         0.00000E+00
         0.00000E+00
         0.00000E+00
         0.00000E+00
         0.00000E+00
         0.00000E+00
         0.00000E+00
         0.00000E+00
         0.00000E+00
         0.00000E+00
         0.00000E+00
         0.00000E+00
         0.00000E+00
         0.00000E+00
         0.00000E+00
         0.00000E+00
         0.00000E+00
         0.00000E+00
         0.00000E+00
         0.00000E+00
         0.00000E+00
         0.00000E+00
         0.00000E+00
         0.00000E+00
         0.00000E+00
         0.00000E+00
         0.00000E+00
         0.00000E+00
         0.00000E+00
         0.00000E+00
         0.00000E+00
         0.00000E+00
         0.00000E+00
         0.00000E+00
         0.00000E+00
         0.00000E+00
         0.00000E+00
         0.00000E+00
         0.00000E+00
         0.00000E+00
         0.00000E+00
         0.00000E+00
         0.00000E+00
         0.00000E+00
         0.00000E+00
         0.00000E+00
         0.00000E+00
         0.00000E+00
         0.00000E+00
         0.00000E+00
         0.00000E+00
         0.00000E+00
         0.00000E+00
         0.00000E+00
         0.00000E+00
         0.00000E+00
         0.00000E+00
         0.00000E+00
         0.00000E+00
         0.00000E+00
         0.00000E+00
         0.00000E+00
         0.00000E+00
         0.00000E+00
         0.00000E+00
         0.00000E+00
  
SCALARS                 displacement_z  double 1
LOOKUP_TABLE default
        -0.32612E-02
        -0.32560E-02
        -0.32552E-02
        -0.32648E-02
        -0.20041E-16
        -0.22472E-16
        -0.21518E-16
        -0.19549E-16
        -0.32455E-02
        -0.32570E-02
        -0.20208E-16
        -0.19557E-16
        -0.32503E-02
        -0.32577E-02
        -0.24011E-16
        -0.22576E-16
        -0.32616E-02
        -0.32630E-02
        -0.17742E-16
        -0.19678E-16
        -0.32464E-02
        -0.32420E-02
        -0.32441E-02
        -0.23797E-16
        -0.20783E-16
        -0.21461E-16
        -0.32555E-02
        -0.32526E-02
        -0.22830E-16
        -0.19253E-16
        -0.32657E-02
        -0.32682E-02
        -0.32640E-02
        -0.19483E-16
        -0.18113E-16
        -0.17610E-16
        -0.32554E-02
        -0.32659E-02
        -0.20612E-16
        -0.18809E-16
        -0.32523E-02
        -0.32612E-02
        -0.17815E-16
        -0.15771E-16
        -0.32441E-02
        -0.32483E-02
        -0.19522E-16
        -0.21813E-16
        -0.32690E-02
        -0.19071E-16
        -0.32540E-02
        -0.22410E-16
        -0.32651E-02
        -0.20139E-16
        -0.32683E-02
        -0.19318E-16
        -0.32595E-02
        -0.32665E-02
        -0.19683E-16
        -0.19169E-16
        -0.32634E-02
        -0.32540E-02
        -0.19738E-16
        -0.22313E-16
        -0.32628E-02
        -0.19046E-16
        -0.32589E-02
        -0.20786E-16
        -0.32309E-02
        -0.32422E-02
        -0.20008E-16
        -0.20965E-16
        -0.32465E-02
        -0.21141E-16
        -0.32586E-02
        -0.16702E-16
        -0.32575E-02
        -0.16212E-16
        -0.32468E-02
        -0.17094E-16
        -0.32347E-02
        -0.32499E-02
        -0.16287E-16
        -0.16980E-16
        -0.32622E-02
        -0.15815E-16
        -0.32452E-02
        -0.20739E-16
        -0.32408E-02
        -0.21226E-16
        -0.32297E-02
        -0.32447E-02
        -0.20384E-16
        -0.20622E-16
        -0.32549E-02
        -0.18731E-16
        -0.32535E-02
        -0.18464E-16
        -0.32453E-02
        -0.19766E-16
        -0.32337E-02
        -0.32473E-02
        -0.19383E-16
        -0.19952E-16
        -0.31999E-02
        -0.32052E-02
        -0.15049E-16
        -0.14154E-16
        -0.32046E-02
        -0.14369E-16
        -0.32007E-02
        -0.13778E-16
        -0.32011E-02
        -0.13586E-16
        -0.32005E-02
        -0.12839E-16
        -0.32036E-02
        -0.11406E-16
        -0.32050E-02
        -0.10271E-16
        -0.32042E-02
        -0.10199E-16
        -0.32035E-02
        -0.11061E-16
        -0.31988E-02
        -0.11624E-16
        -0.32049E-02
        -0.10614E-16
        -0.32070E-02
        -0.95675E-17
        -0.32065E-02
        -0.95567E-17
        -0.32040E-02
        -0.10682E-16
        -0.32016E-02
        -0.12180E-16
        -0.32004E-02
        -0.13085E-16
        -0.32041E-02
        -0.14132E-16
        -0.32005E-02
        -0.15140E-16
        -0.32060E-02
        -0.13869E-16
        -0.32041E-02
        -0.12167E-16
        -0.32024E-02
        -0.12129E-16
        -0.32054E-02
        -0.13271E-16
        -0.32011E-02
        -0.14148E-16
        -0.32055E-02
        -0.13426E-16
        -0.32055E-02
        -0.12980E-16
        -0.45965E-02
        -0.45956E-02
        -0.45955E-02
        -0.45969E-02
        -0.45941E-02
        -0.45958E-02
        -0.45947E-02
        -0.45958E-02
        -0.45968E-02
        -0.45969E-02
        -0.45943E-02
        -0.45937E-02
        -0.45938E-02
        -0.45955E-02
        -0.45952E-02
        -0.45970E-02
        -0.45976E-02
        -0.45970E-02
        -0.45956E-02
        -0.45973E-02
        -0.45951E-02
        -0.45966E-02
        -0.45939E-02
        -0.45946E-02
        -0.45977E-02
        -0.45953E-02
        -0.45971E-02
        -0.45975E-02
        -0.45961E-02
        -0.45973E-02
        -0.45969E-02
        -0.45953E-02
        -0.45968E-02
        -0.45960E-02
        -0.45921E-02
        -0.45935E-02
        -0.45941E-02
        -0.45962E-02
        -0.45960E-02
        -0.45942E-02
        -0.45925E-02
        -0.45947E-02
        -0.45967E-02
        -0.45939E-02
        -0.45933E-02
        -0.45919E-02
        -0.45938E-02
        -0.45955E-02
        -0.45952E-02
        -0.45939E-02
        -0.45924E-02
        -0.45943E-02
        -0.45887E-02
        -0.45896E-02
        -0.45895E-02
        -0.45891E-02
        -0.45891E-02
        -0.45891E-02
        -0.45896E-02
        -0.45897E-02
        -0.45894E-02
        -0.45892E-02
        -0.45884E-02
        -0.45895E-02
        -0.45900E-02
        -0.45899E-02
        -0.45896E-02
        -0.45892E-02
        -0.45890E-02
        -0.45895E-02
        -0.45889E-02
        -0.45898E-02
        -0.45898E-02
        -0.45894E-02
        -0.45896E-02
        -0.45889E-02
        -0.45897E-02
        -0.45899E-02
        -0.47059E-02
        -0.47059E-02
        -0.47059E-02
        -0.47059E-02
        -0.47059E-02
        -0.47059E-02
        -0.47059E-02
        -0.47059E-02
        -0.47059E-02
        -0.47059E-02
        -0.47059E-02
        -0.47059E-02
        -0.47059E-02
        -0.47059E-02
        -0.47059E-02
        -0.47059E-02
        -0.47059E-02
        -0.47059E-02
        -0.47059E-02
        -0.47059E-02
        -0.47059E-02
        -0.47059E-02
        -0.47059E-02
        -0.47059E-02
        -0.47059E-02
        -0.47059E-02
        -0.47059E-02
        -0.47059E-02
        -0.47059E-02
        -0.47059E-02
        -0.47059E-02
        -0.47059E-02
        -0.47059E-02
        -0.47059E-02
        -0.47059E-02
        -0.47059E-02
        -0.47059E-02
        -0.47059E-02
        -0.47059E-02
        -0.47059E-02
        -0.47059E-02
        -0.47059E-02
        -0.47059E-02
        -0.47059E-02
        -0.47059E-02
        -0.47059E-02
        -0.47059E-02
        -0.47059E-02
        -0.47059E-02
        -0.47059E-02
        -0.47059E-02
        -0.47059E-02
        -0.47059E-02
        -0.47059E-02
        -0.47059E-02
        -0.47059E-02
        -0.47059E-02
        -0.47059E-02
        -0.47059E-02
        -0.47059E-02
        -0.47059E-02
        -0.47059E-02
        -0.47059E-02
        -0.47059E-02
        -0.47059E-02
        -0.47059E-02
        -0.47059E-02
        -0.47059E-02
        -0.47059E-02
        -0.47059E-02
        -0.47059E-02
        -0.47059E-02
        -0.47059E-02
        -0.47059E-02
        -0.47059E-02
        -0.47059E-02
        -0.47059E-02
        -0.47059E-02
        -0.47059E-02
        -0.47059E-02
        -0.47059E-02
        -0.47059E-02
        -0.47059E-02
        -0.47059E-02
        -0.47059E-02
        -0.47059E-02
        -0.47059E-02
        -0.47059E-02
        -0.47059E-02
        -0.47059E-02
        -0.47059E-02
        -0.47059E-02
        -0.47059E-02
        -0.47059E-02
        -0.47059E-02
        -0.47059E-02
        -0.47059E-02
        -0.47059E-02
        -0.47059E-02
        -0.47059E-02
        -0.47059E-02
        -0.47059E-02
        -0.47059E-02
        -0.47059E-02
        -0.47059E-02
        -0.47059E-02
        -0.47059E-02
        -0.47059E-02
        -0.47059E-02
        -0.47059E-02
        -0.47059E-02
        -0.47059E-02
        -0.47059E-02
        -0.47059E-02
        -0.47059E-02
        -0.47059E-02
        -0.47059E-02
        -0.47059E-02
        -0.47059E-02
        -0.47059E-02
        -0.47059E-02
        -0.47059E-02
        -0.47059E-02
        -0.47059E-02
        -0.47059E-02
        -0.47059E-02
        -0.47059E-02
        -0.47059E-02
        -0.47059E-02
        -0.47059E-02
        -0.47059E-02
        -0.47059E-02
        -0.47059E-02
        -0.47059E-02
        -0.47059E-02
        -0.47059E-02
        -0.47059E-02
        -0.47059E-02
        -0.47059E-02
        -0.47059E-02
        -0.47059E-02
        -0.47059E-02
        -0.47059E-02
        -0.47059E-02
        -0.47059E-02
        -0.47059E-02
        -0.47059E-02
        -0.47059E-02
        -0.47059E-02
        -0.47059E-02
        -0.47059E-02
        -0.47059E-02
        -0.47059E-02
        -0.47059E-02
        -0.47059E-02
        -0.47059E-02
        -0.47059E-02
        -0.47059E-02
        -0.47059E-02
        -0.47059E-02
        -0.47059E-02
        -0.47059E-02
        -0.47059E-02
        -0.47059E-02
        -0.47059E-02
        -0.47059E-02
        -0.47059E-02
        -0.47059E-02
        -0.47059E-02
        -0.47059E-02
        -0.47059E-02
        -0.47059E-02
        -0.47059E-02
        -0.47059E-02
        -0.47059E-02
        -0.47059E-02
        -0.47059E-02
        -0.47059E-02
        -0.47059E-02
        -0.47059E-02
        -0.47059E-02
        -0.47059E-02
        -0.47059E-02
        -0.47059E-02
        -0.47059E-02
        -0.47059E-02
        -0.47059E-02
        -0.47059E-02
        -0.47059E-02
        -0.47059E-02
        -0.47059E-02
        -0.47059E-02
        -0.47059E-02
        -0.47059E-02
        -0.47059E-02
        -0.47059E-02
        -0.47059E-02
        -0.47059E-02
        -0.47059E-02
        -0.47059E-02
        -0.47059E-02
        -0.47059E-02
        -0.47059E-02
        -0.47059E-02
        -0.47059E-02
        -0.47059E-02
        -0.47059E-02
        -0.47059E-02
        -0.47059E-02
        -0.47059E-02
        -0.47059E-02
        -0.47059E-02
        -0.47059E-02
        -0.47059E-02
        -0.47059E-02
        -0.47059E-02
        -0.47059E-02
        -0.47059E-02
        -0.47059E-02
        -0.47059E-02
        -0.47059E-02
        -0.47059E-02
        -0.47059E-02
        -0.47059E-02
        -0.47059E-02
        -0.47059E-02
        -0.47059E-02
        -0.47059E-02
        -0.47059E-02
        -0.47059E-02
        -0.47059E-02
        -0.47059E-02
        -0.47059E-02
        -0.47059E-02
        -0.47059E-02
        -0.47059E-02
        -0.47059E-02
        -0.47059E-02
        -0.47059E-02
        -0.47059E-02
        -0.47059E-02
        -0.47059E-02
        -0.47059E-02
        -0.47059E-02
        -0.47059E-02
        -0.47059E-02
        -0.47059E-02
        -0.47059E-02
        -0.47059E-02
        -0.47059E-02
        -0.47059E-02
        -0.47059E-02
        -0.47059E-02
        -0.47059E-02
        -0.47059E-02
        -0.47059E-02
        -0.47059E-02
        -0.47059E-02
        -0.47059E-02
        -0.47059E-02
        -0.47059E-02
        -0.47059E-02
        -0.47059E-02
        -0.47059E-02
        -0.47059E-02
        -0.47059E-02
        -0.47059E-02
        -0.47059E-02
        -0.47059E-02
        -0.47059E-02
        -0.47059E-02
        -0.47059E-02
        -0.47059E-02
        -0.47059E-02
        -0.47059E-02
        -0.47059E-02
        -0.47059E-02
        -0.47059E-02
        -0.47059E-02
        -0.47059E-02
        -0.47059E-02
        -0.47059E-02
        -0.47059E-02
        -0.47059E-02
        -0.47059E-02
        -0.47059E-02
        -0.47059E-02
        -0.47059E-02
        -0.47059E-02
        -0.47059E-02
        -0.47059E-02
        -0.47059E-02
        -0.47059E-02
        -0.47059E-02
        -0.47059E-02
        -0.47059E-02
        -0.47059E-02
        -0.47059E-02
        -0.47059E-02
        -0.47059E-02
        -0.47059E-02
        -0.47059E-02
        -0.47059E-02
        -0.47059E-02
        -0.47059E-02
        -0.47059E-02
        -0.47059E-02
        -0.47059E-02
        -0.47059E-02
        -0.47059E-02
        -0.47059E-02
        -0.47059E-02
        -0.47059E-02
        -0.47059E-02
        -0.47059E-02
        -0.47059E-02
        -0.47059E-02
        -0.47059E-02
        -0.47059E-02
        -0.47059E-02
        -0.47059E-02
        -0.47059E-02
        -0.47059E-02
        -0.47059E-02
        -0.47059E-02
        -0.47059E-02
        -0.47059E-02
        -0.47059E-02
        -0.47059E-02
        -0.47059E-02
        -0.47059E-02
        -0.47059E-02
        -0.47059E-02
        -0.47059E-02
        -0.47059E-02
        -0.47059E-02
        -0.47059E-02
        -0.47059E-02
        -0.47059E-02
        -0.47059E-02
        -0.47059E-02
        -0.47059E-02
        -0.47059E-02
        -0.47059E-02
        -0.47059E-02
        -0.47059E-02
        -0.47059E-02
        -0.47059E-02
        -0.47059E-02
        -0.47059E-02
        -0.47059E-02
        -0.47059E-02
        -0.47059E-02
        -0.47059E-02
        -0.47059E-02
        -0.47059E-02
        -0.47059E-02
        -0.47059E-02
        -0.47059E-02
        -0.47059E-02
        -0.47059E-02
        -0.47059E-02
        -0.47059E-02
        -0.47059E-02
        -0.47059E-02
        -0.47059E-02
        -0.47059E-02
        -0.47059E-02
        -0.47059E-02
        -0.47059E-02
        -0.47059E-02
        -0.47059E-02
        -0.47059E-02
        -0.47059E-02
        -0.47059E-02
        -0.47059E-02
        -0.47059E-02
        -0.47059E-02
        -0.47059E-02
        -0.47059E-02
        -0.47059E-02
        -0.47059E-02
        -0.47059E-02
        -0.47059E-02
        -0.47059E-02
        -0.47059E-02
        -0.47059E-02
        -0.47059E-02
        -0.47059E-02
        -0.47059E-02
        -0.47059E-02
        -0.47059E-02
        -0.47059E-02
        -0.47059E-02
        -0.47059E-02
        -0.47059E-02
        -0.47059E-02
        -0.47059E-02
        -0.47059E-02
        -0.47059E-02
        -0.47059E-02
        -0.47059E-02
        -0.47059E-02
        -0.47059E-02
        -0.47059E-02
        -0.47059E-02
        -0.47059E-02
        -0.47059E-02
        -0.47059E-02
        -0.47059E-02
        -0.47059E-02
        -0.47059E-02
        -0.47059E-02
        -0.47059E-02
        -0.47059E-02
        -0.47059E-02
        -0.47059E-02
        -0.47059E-02
        -0.47059E-02
        -0.47059E-02
        -0.47059E-02
        -0.47059E-02
        -0.47059E-02
        -0.47059E-02
        -0.47059E-02
        -0.47059E-02
        -0.47059E-02
        -0.47059E-02
        -0.47059E-02
        -0.47059E-02
        -0.47059E-02
        -0.47059E-02
        -0.47059E-02
        -0.47059E-02
        -0.47059E-02
        -0.47059E-02
        -0.47059E-02
        -0.47059E-02
        -0.47059E-02
        -0.47059E-02
        -0.47059E-02
        -0.47059E-02
        -0.47059E-02
        -0.47059E-02
        -0.47059E-02
        -0.47059E-02
        -0.47059E-02
        -0.47059E-02
        -0.47059E-02
        -0.47059E-02
        -0.47059E-02
        -0.47059E-02
        -0.47059E-02
        -0.47059E-02
        -0.47059E-02
        -0.47059E-02
        -0.47059E-02
        -0.47059E-02
        -0.47059E-02
        -0.47059E-02
        -0.47059E-02
        -0.47059E-02
        -0.47059E-02
        -0.47059E-02
        -0.47059E-02
        -0.47059E-02
        -0.47059E-02
        -0.47059E-02
        -0.47059E-02
        -0.47059E-02
        -0.47059E-02
        -0.47059E-02
        -0.47059E-02
        -0.47059E-02
        -0.47059E-02
        -0.47059E-02
        -0.47059E-02
        -0.47059E-02
        -0.47059E-02
        -0.47059E-02
        -0.47059E-02
        -0.47059E-02
        -0.47059E-02
        -0.47059E-02
        -0.47059E-02
        -0.47059E-02
        -0.47059E-02
        -0.47059E-02
        -0.47059E-02
        -0.47059E-02
        -0.47059E-02
        -0.47059E-02
        -0.47059E-02
        -0.47059E-02
        -0.47059E-02
        -0.47059E-02
        -0.47059E-02
        -0.47059E-02
        -0.47059E-02
        -0.47059E-02
        -0.47059E-02
        -0.47059E-02
        -0.47059E-02
        -0.47059E-02
        -0.47059E-02
        -0.47059E-02
        -0.47059E-02
        -0.47059E-02
        -0.47059E-02
        -0.47059E-02
        -0.47059E-02
        -0.47059E-02
        -0.47059E-02
        -0.47059E-02
        -0.47059E-02
        -0.47059E-02
        -0.47059E-02
        -0.47059E-02
        -0.47059E-02
        -0.47059E-02
        -0.47059E-02
        -0.47059E-02
        -0.47059E-02
        -0.47059E-02
        -0.47059E-02
        -0.47059E-02
        -0.47059E-02
        -0.47059E-02
        -0.47059E-02
        -0.47059E-02
        -0.47059E-02
        -0.47059E-02
        -0.47059E-02
        -0.47059E-02
        -0.47059E-02
        -0.47059E-02
        -0.47059E-02
        -0.47059E-02
        -0.47059E-02
        -0.47059E-02
        -0.47059E-02
        -0.47059E-02
        -0.47059E-02
        -0.47059E-02
        -0.47059E-02
        -0.47059E-02
        -0.47059E-02
        -0.47059E-02
        -0.47059E-02
        -0.47059E-02
        -0.47059E-02
        -0.47059E-02
        -0.47059E-02
        -0.47059E-02
        -0.47059E-02
        -0.47059E-02
        -0.47059E-02
        -0.47059E-02
        -0.47059E-02
        -0.47059E-02
        -0.47059E-02
        -0.47059E-02
        -0.47059E-02
        -0.47059E-02
        -0.47059E-02
        -0.47059E-02
        -0.47059E-02
        -0.47059E-02
        -0.47059E-02
        -0.47059E-02
        -0.47059E-02
        -0.47059E-02
        -0.47059E-02
        -0.47059E-02
        -0.47059E-02
        -0.47059E-02
        -0.47059E-02
        -0.47059E-02
        -0.47059E-02
        -0.47059E-02
        -0.47059E-02
        -0.47059E-02
        -0.47059E-02
        -0.47059E-02
        -0.47059E-02
        -0.47059E-02
        -0.47059E-02
        -0.47059E-02
        -0.47059E-02
        -0.47059E-02
        -0.47059E-02
        -0.47059E-02
        -0.47059E-02
        -0.47059E-02
        -0.47059E-02
        -0.47059E-02
        -0.47059E-02
        -0.47059E-02
        -0.47059E-02
        -0.47059E-02
        -0.47059E-02
        -0.47059E-02
        -0.47059E-02
        -0.47059E-02
        -0.47059E-02
        -0.47059E-02
        -0.47059E-02
        -0.47059E-02
        -0.47059E-02
        -0.47059E-02
        -0.47059E-02
        -0.47059E-02
        -0.47059E-02
        -0.47059E-02
        -0.47059E-02
        -0.47059E-02
        -0.47059E-02
        -0.47059E-02
        -0.47059E-02
        -0.47059E-02
        -0.47059E-02
        -0.47059E-02
        -0.47059E-02
        -0.47059E-02
        -0.47059E-02
        -0.47059E-02
        -0.47059E-02
        -0.47059E-02
        -0.47059E-02
        -0.47059E-02
        -0.47059E-02
        -0.47059E-02
        -0.47059E-02
        -0.47059E-02
        -0.47059E-02
        -0.47059E-02
        -0.47059E-02
        -0.47059E-02
        -0.47059E-02
        -0.47059E-02
        -0.47059E-02
        -0.47059E-02
        -0.47059E-02
        -0.47059E-02
        -0.47059E-02
        -0.47059E-02
        -0.47059E-02
        -0.47059E-02
        -0.47059E-02
        -0.47059E-02
        -0.47059E-02
        -0.47059E-02
        -0.47059E-02
        -0.47059E-02
        -0.47059E-02
        -0.47059E-02
        -0.47059E-02
        -0.47059E-02
        -0.47059E-02
        -0.47059E-02
        -0.47059E-02
        -0.47059E-02
        -0.47059E-02
        -0.47059E-02
        -0.47059E-02
        -0.47059E-02
        -0.47059E-02
        -0.47059E-02
        -0.47059E-02
        -0.47059E-02
        -0.47059E-02
        -0.47059E-02
        -0.47059E-02
        -0.47059E-02
        -0.47059E-02
        -0.47059E-02
        -0.47059E-02
        -0.47059E-02
        -0.47059E-02
        -0.47059E-02
        -0.47059E-02
        -0.47059E-02
        -0.47059E-02
        -0.47059E-02
        -0.47059E-02
        -0.47059E-02
        -0.47059E-02
        -0.47059E-02
        -0.47059E-02
        -0.47059E-02
        -0.47059E-02
        -0.47059E-02
        -0.47059E-02
        -0.47059E-02
        -0.47059E-02
        -0.47059E-02
        -0.47059E-02
        -0.47059E-02
        -0.47059E-02
        -0.47059E-02
        -0.47059E-02
        -0.47059E-02
        -0.47059E-02
        -0.47059E-02
        -0.47059E-02
        -0.47059E-02
        -0.47059E-02
        -0.47059E-02
        -0.47059E-02
        -0.47059E-02
        -0.47059E-02
        -0.47059E-02
        -0.47059E-02
        -0.47059E-02
        -0.47059E-02
        -0.47059E-02
        -0.47059E-02
        -0.47059E-02
        -0.47059E-02
        -0.47059E-02
        -0.47059E-02
        -0.47059E-02
        -0.47059E-02
        -0.47059E-02
        -0.47059E-02
        -0.47059E-02
        -0.47059E-02
        -0.47059E-02
        -0.47059E-02
        -0.47059E-02
        -0.47059E-02
        -0.47059E-02
        -0.47059E-02
        -0.47059E-02
        -0.47059E-02
        -0.47059E-02
        -0.47059E-02
        -0.47059E-02
        -0.47059E-02
        -0.47059E-02
        -0.47059E-02
        -0.47059E-02
        -0.47059E-02
        -0.47059E-02
        -0.47059E-02
        -0.47059E-02
        -0.47059E-02
        -0.47059E-02
        -0.47059E-02
        -0.47059E-02
        -0.47059E-02
        -0.47059E-02
        -0.47059E-02
        -0.47059E-02
        -0.47059E-02
        -0.47059E-02
        -0.47059E-02
        -0.47059E-02
        -0.47059E-02
        -0.47059E-02
        -0.47059E-02
        -0.47059E-02
        -0.47059E-02
        -0.47059E-02
        -0.47059E-02
        -0.47059E-02
        -0.47059E-02
        -0.47059E-02
        -0.47059E-02
        -0.47059E-02
        -0.47059E-02
        -0.47059E-02
        -0.47059E-02
        -0.47059E-02
        -0.47059E-02
        -0.47059E-02
        -0.47059E-02
        -0.47059E-02
        -0.47059E-02
        -0.47059E-02
        -0.47059E-02
        -0.47059E-02
        -0.47059E-02
        -0.47059E-02
        -0.47059E-02
        -0.47059E-02
        -0.47059E-02
        -0.47059E-02
        -0.47059E-02
        -0.47059E-02
        -0.47059E-02
        -0.47059E-02
        -0.47059E-02
        -0.47059E-02
        -0.47059E-02
        -0.47059E-02
        -0.47059E-02
        -0.47059E-02
        -0.47059E-02
        -0.47059E-02
        -0.47059E-02
        -0.47059E-02
        -0.47059E-02
        -0.47059E-02
        -0.47059E-02
        -0.47059E-02
        -0.47059E-02
        -0.47059E-02
        -0.47059E-02
        -0.47059E-02
        -0.47059E-02
        -0.47059E-02
        -0.47059E-02
        -0.47059E-02
        -0.47059E-02
        -0.47059E-02
        -0.47059E-02
        -0.47059E-02
        -0.47059E-02
        -0.47059E-02
        -0.47059E-02
        -0.47059E-02
        -0.47059E-02
        -0.47059E-02
        -0.47059E-02
        -0.47059E-02
        -0.47059E-02
        -0.47059E-02
        -0.47059E-02
        -0.47059E-02
        -0.47059E-02
        -0.47059E-02
        -0.47059E-02
        -0.47059E-02
        -0.47059E-02
        -0.47059E-02
        -0.47059E-02
        -0.47059E-02
        -0.47059E-02
        -0.47059E-02
        -0.47059E-02
        -0.47059E-02
        -0.47059E-02
        -0.47059E-02
        -0.47059E-02
        -0.47059E-02
        -0.47059E-02
        -0.47059E-02
        -0.47059E-02
        -0.47059E-02
        -0.47059E-02
        -0.47059E-02
        -0.47059E-02
        -0.47059E-02
        -0.47059E-02
        -0.47059E-02
        -0.47059E-02
        -0.47059E-02
        -0.47059E-02
        -0.47059E-02
        -0.47059E-02
        -0.47059E-02
        -0.47059E-02
        -0.47059E-02
        -0.47059E-02
        -0.47059E-02
        -0.47059E-02
        -0.47059E-02
        -0.47059E-02
        -0.47059E-02
        -0.47059E-02
        -0.47059E-02
        -0.47059E-02
        -0.47059E-02
        -0.47059E-02
        -0.47059E-02
        -0.47059E-02
        -0.47059E-02
        -0.47059E-02
        -0.47059E-02
        -0.47059E-02
        -0.47059E-02
        -0.47059E-02
        -0.47059E-02
        -0.47059E-02
        -0.47059E-02
        -0.47059E-02
        -0.47059E-02
        -0.47059E-02
        -0.47059E-02
        -0.47059E-02
        -0.47059E-02
        -0.47059E-02
        -0.47059E-02
        -0.47059E-02
        -0.47059E-02
        -0.47059E-02
        -0.47059E-02
        -0.47059E-02
        -0.47059E-02
        -0.47059E-02
        -0.47059E-02
        -0.47059E-02
        -0.47059E-02
        -0.47059E-02
        -0.47059E-02
        -0.47059E-02
        -0.47059E-02
        -0.47059E-02
        -0.47059E-02
        -0.47059E-02
        -0.47059E-02
        -0.47059E-02
        -0.47059E-02
        -0.47059E-02
        -0.47059E-02
        -0.47059E-02
        -0.47059E-02
        -0.47059E-02
        -0.47059E-02
        -0.47059E-02
        -0.47059E-02
        -0.47059E-02
        -0.47059E-02
        -0.47059E-02
        -0.47059E-02
        -0.47059E-02
        -0.47059E-02
        -0.47059E-02
        -0.47059E-02
        -0.47059E-02
        -0.47059E-02
        -0.47059E-02
        -0.47059E-02
        -0.47059E-02
        -0.47059E-02
        -0.47059E-02
        -0.47059E-02
        -0.47059E-02
        -0.47059E-02
        -0.47059E-02
        -0.47059E-02
        -0.47059E-02
        -0.47059E-02
        -0.47059E-02
        -0.47059E-02
        -0.47059E-02
        -0.47059E-02
        -0.47059E-02
        -0.47059E-02
        -0.47059E-02
        -0.47059E-02
        -0.47059E-02
        -0.47059E-02
        -0.47059E-02
        -0.47059E-02
        -0.47059E-02
        -0.47059E-02
        -0.47059E-02
        -0.47059E-02
        -0.47059E-02
        -0.47059E-02
        -0.47059E-02
        -0.47059E-02
        -0.47059E-02
        -0.47059E-02
        -0.47059E-02
        -0.47059E-02
        -0.47059E-02
        -0.47059E-02
        -0.47059E-02
        -0.47059E-02
        -0.47059E-02
        -0.47059E-02
        -0.47059E-02
        -0.47059E-02
        -0.47059E-02
        -0.47059E-02
        -0.47059E-02
        -0.47059E-02
        -0.47059E-02
        -0.47059E-02
        -0.47059E-02
        -0.47059E-02
        -0.47059E-02
        -0.47059E-02
        -0.47059E-02
        -0.47059E-02
        -0.47059E-02
        -0.47059E-02
        -0.47059E-02
        -0.47059E-02
        -0.47059E-02
        -0.47059E-02
        -0.47059E-02
        -0.47059E-02
        -0.47059E-02
        -0.47059E-02
        -0.47059E-02
        -0.47059E-02
        -0.47059E-02
        -0.47059E-02
        -0.47059E-02
        -0.47059E-02
        -0.47059E-02
        -0.47059E-02
        -0.47059E-02
        -0.47059E-02
        -0.47059E-02
        -0.47059E-02
        -0.47059E-02
        -0.47059E-02
        -0.47059E-02
        -0.47059E-02
        -0.47059E-02
        -0.47059E-02
        -0.47059E-02
        -0.47059E-02
        -0.47059E-02
        -0.47059E-02
        -0.47059E-02
        -0.47059E-02
        -0.47059E-02
        -0.47059E-02
        -0.47059E-02
        -0.47059E-02
        -0.47059E-02
        -0.47059E-02
        -0.47059E-02
        -0.47059E-02
        -0.47059E-02
        -0.47059E-02
        -0.47059E-02
        -0.47059E-02
        -0.47059E-02
        -0.47059E-02
        -0.47059E-02
        -0.47059E-02
        -0.47059E-02
        -0.47059E-02
        -0.47059E-02
        -0.47059E-02
        -0.47059E-02
        -0.47059E-02
        -0.47059E-02
        -0.47059E-02
        -0.47059E-02
        -0.47059E-02
        -0.47059E-02
        -0.47059E-02
        -0.47059E-02
        -0.47059E-02
        -0.47059E-02
        -0.47059E-02
        -0.47059E-02
        -0.47059E-02
        -0.47059E-02
        -0.47059E-02
        -0.47059E-02
        -0.47059E-02
        -0.47059E-02
        -0.47059E-02
        -0.47059E-02
        -0.47059E-02
        -0.47059E-02
        -0.47059E-02
        -0.47059E-02
        -0.47059E-02
        -0.47059E-02
        -0.47059E-02
        -0.47059E-02
        -0.47059E-02
        -0.47059E-02
        -0.47059E-02
        -0.47059E-02
        -0.47059E-02
        -0.47059E-02
        -0.47059E-02
        -0.47059E-02
        -0.47059E-02
        -0.47059E-02
        -0.47059E-02
        -0.47059E-02
        -0.47059E-02
        -0.47059E-02
        -0.47059E-02
        -0.47059E-02
        -0.47059E-02
        -0.47059E-02
        -0.47059E-02
        -0.47059E-02
        -0.47059E-02
        -0.47059E-02
        -0.47059E-02
        -0.47059E-02
        -0.47059E-02
        -0.47059E-02
        -0.47059E-02
        -0.47059E-02
        -0.47059E-02
        -0.47059E-02
        -0.47059E-02
        -0.47059E-02
        -0.47059E-02
        -0.47059E-02
        -0.47059E-02
        -0.47059E-02
        -0.47059E-02
        -0.47059E-02
        -0.47059E-02
        -0.47059E-02
        -0.47059E-02
        -0.47059E-02
        -0.47059E-02
        -0.47059E-02
        -0.47059E-02
        -0.47059E-02
        -0.47059E-02
        -0.47059E-02
        -0.47059E-02
        -0.47059E-02
        -0.47059E-02
        -0.47059E-02
        -0.47059E-02
        -0.47059E-02
        -0.47059E-02
        -0.47059E-02
        -0.47059E-02
        -0.47059E-02
        -0.47059E-02
        -0.47059E-02
        -0.47059E-02
        -0.47059E-02
        -0.47059E-02
        -0.47059E-02
        -0.47059E-02
        -0.47059E-02
        -0.47059E-02
        -0.47059E-02
        -0.47059E-02
        -0.47059E-02
        -0.47059E-02
        -0.47059E-02
        -0.47059E-02
        -0.47059E-02
        -0.47059E-02
        -0.47059E-02
        -0.47059E-02
        -0.47059E-02
        -0.47059E-02
        -0.47059E-02
        -0.47059E-02
        -0.47059E-02
        -0.47059E-02
        -0.47059E-02
        -0.47059E-02
        -0.47059E-02
        -0.47059E-02
        -0.47059E-02
        -0.47059E-02
        -0.47059E-02
        -0.47059E-02
        -0.47059E-02
        -0.47059E-02
        -0.47059E-02
        -0.47059E-02
        -0.47059E-02
        -0.47059E-02
        -0.47059E-02
        -0.47059E-02
        -0.47059E-02
        -0.47059E-02
        -0.47059E-02
        -0.47059E-02
        -0.47059E-02
        -0.47059E-02
        -0.47059E-02
        -0.47059E-02
        -0.47059E-02
        -0.47059E-02
        -0.47059E-02
        -0.47059E-02
        -0.47059E-02
        -0.47059E-02
        -0.47059E-02
        -0.47059E-02
        -0.47059E-02
        -0.47059E-02
        -0.47059E-02
        -0.47059E-02
        -0.47059E-02
        -0.47059E-02
        -0.47059E-02
        -0.47059E-02
        -0.47059E-02
        -0.47059E-02
        -0.47059E-02
        -0.47059E-02
        -0.47059E-02
        -0.47059E-02
        -0.47059E-02
        -0.47059E-02
        -0.47059E-02
        -0.47059E-02
        -0.47059E-02
        -0.47059E-02
        -0.47059E-02
        -0.47059E-02
        -0.47059E-02
        -0.47059E-02
        -0.47059E-02
        -0.47059E-02
        -0.47059E-02
        -0.47059E-02
        -0.47059E-02
        -0.47059E-02
        -0.47059E-02
        -0.47059E-02
        -0.47059E-02
        -0.47059E-02
        -0.47059E-02
        -0.47059E-02
        -0.47059E-02
        -0.47059E-02
        -0.47059E-02
        -0.47059E-02
        -0.47059E-02
        -0.47059E-02
        -0.47059E-02
        -0.47059E-02
        -0.47059E-02
        -0.47059E-02
        -0.47059E-02
        -0.47059E-02
        -0.47059E-02
        -0.47059E-02
        -0.47059E-02
        -0.47059E-02
        -0.47059E-02
        -0.47059E-02
        -0.47059E-02
        -0.47059E-02
        -0.47059E-02
        -0.47059E-02
        -0.47059E-02
        -0.47059E-02
        -0.47059E-02
        -0.47059E-02
        -0.47059E-02
        -0.47059E-02
        -0.47059E-02
        -0.47059E-02
        -0.47059E-02
        -0.47059E-02
        -0.47059E-02
        -0.47059E-02
        -0.47059E-02
        -0.47059E-02
        -0.47059E-02
        -0.47059E-02
        -0.47059E-02
        -0.47059E-02
        -0.47059E-02
        -0.47059E-02
        -0.47059E-02
        -0.47059E-02
        -0.47059E-02
        -0.47059E-02
        -0.47059E-02
        -0.47059E-02
        -0.47059E-02
        -0.47059E-02
        -0.47059E-02
        -0.47059E-02
        -0.47059E-02
        -0.47059E-02
        -0.47059E-02
        -0.47059E-02
        -0.47059E-02
        -0.47059E-02
        -0.47059E-02
        -0.47059E-02
        -0.47059E-02
        -0.47059E-02
        -0.47059E-02
        -0.47059E-02
        -0.47059E-02
        -0.47059E-02
        -0.47059E-02
        -0.47059E-02
        -0.47059E-02
        -0.47059E-02
        -0.47059E-02
        -0.47059E-02
        -0.47059E-02
        -0.47059E-02
        -0.47059E-02
        -0.47059E-02
        -0.47059E-02
        -0.47059E-02
        -0.47059E-02
        -0.47059E-02
        -0.47059E-02
        -0.47059E-02
        -0.47059E-02
        -0.47059E-02
        -0.47059E-02
        -0.47059E-02
        -0.47059E-02
        -0.47059E-02
        -0.47059E-02
        -0.47059E-02
        -0.47059E-02
        -0.47059E-02
        -0.47059E-02
        -0.47059E-02
        -0.47059E-02
        -0.47059E-02
        -0.47059E-02
        -0.47059E-02
        -0.47059E-02
        -0.47059E-02
        -0.47059E-02
        -0.47059E-02
        -0.47059E-02
        -0.47059E-02
        -0.47059E-02
        -0.47059E-02
        -0.47059E-02
        -0.47059E-02
        -0.47059E-02
        -0.47059E-02
        -0.47059E-02
        -0.47059E-02
        -0.47059E-02
        -0.47059E-02
        -0.47059E-02
        -0.47059E-02
        -0.47059E-02
        -0.47059E-02
        -0.47059E-02
        -0.47059E-02
        -0.47059E-02
        -0.47059E-02
        -0.47059E-02
        -0.47059E-02
        -0.47059E-02
        -0.47059E-02
        -0.47059E-02
        -0.47059E-02
        -0.47059E-02
        -0.47059E-02
        -0.47059E-02
        -0.47059E-02
        -0.47059E-02
        -0.47059E-02
        -0.47059E-02
        -0.47059E-02
        -0.47059E-02
        -0.47059E-02
        -0.47059E-02
        -0.47059E-02
        -0.47059E-02
        -0.47059E-02
        -0.47059E-02
        -0.47059E-02
        -0.47059E-02
        -0.47059E-02
        -0.47059E-02
        -0.47059E-02
        -0.47059E-02
        -0.47059E-02
        -0.47059E-02
        -0.47059E-02
        -0.47059E-02
        -0.47059E-02
        -0.47059E-02
        -0.47059E-02
        -0.47059E-02
        -0.47059E-02
        -0.47059E-02
        -0.47059E-02
        -0.47059E-02
        -0.47059E-02
        -0.47059E-02
        -0.47059E-02
        -0.47059E-02
        -0.47059E-02
        -0.47059E-02
        -0.47059E-02
        -0.47059E-02
        -0.47059E-02
        -0.47059E-02
        -0.47059E-02
        -0.47059E-02
        -0.47059E-02
        -0.47059E-02
        -0.47059E-02
        -0.47059E-02
        -0.47059E-02
        -0.47059E-02
        -0.47059E-02
        -0.47059E-02
        -0.47059E-02
        -0.47059E-02
        -0.47059E-02
        -0.47059E-02
        -0.47059E-02
        -0.47059E-02
        -0.47059E-02
        -0.47059E-02
        -0.47059E-02
        -0.47059E-02
        -0.47059E-02
        -0.47059E-02
        -0.47059E-02
        -0.47059E-02
        -0.47059E-02
        -0.47059E-02
        -0.47059E-02
        -0.47059E-02
        -0.47059E-02
        -0.47059E-02
        -0.47059E-02
        -0.47059E-02
        -0.47059E-02
        -0.47059E-02
        -0.47059E-02
        -0.47059E-02
        -0.47059E-02
        -0.47059E-02
        -0.47059E-02
        -0.47059E-02
        -0.47059E-02
        -0.47059E-02
        -0.47059E-02
        -0.47059E-02
        -0.47059E-02
        -0.47059E-02
        -0.47059E-02
        -0.47059E-02
        -0.47059E-02
        -0.47059E-02
        -0.47059E-02
        -0.47059E-02
        -0.47059E-02
        -0.47059E-02
        -0.47059E-02
        -0.47059E-02
        -0.47059E-02
        -0.47059E-02
        -0.47059E-02
        -0.47059E-02
        -0.47059E-02
        -0.47059E-02
        -0.47059E-02
        -0.47059E-02
        -0.47059E-02
        -0.47059E-02
        -0.47059E-02
        -0.47059E-02
        -0.47059E-02
        -0.47059E-02
        -0.47059E-02
        -0.47059E-02
        -0.47059E-02
        -0.47059E-02
        -0.47059E-02
        -0.47059E-02
        -0.47059E-02
        -0.47059E-02
        -0.47059E-02
        -0.47059E-02
        -0.47059E-02
        -0.47059E-02
        -0.47059E-02
        -0.47059E-02
        -0.47059E-02
        -0.47059E-02
        -0.47059E-02
        -0.47059E-02
        -0.47059E-02
        -0.47059E-02
        -0.47059E-02
        -0.47059E-02
        -0.47059E-02
        -0.47059E-02
        -0.47059E-02
        -0.47059E-02
        -0.47059E-02
        -0.47059E-02
        -0.47059E-02
        -0.47059E-02
        -0.47059E-02
        -0.47059E-02
        -0.47059E-02
        -0.47059E-02
        -0.47059E-02
        -0.47059E-02
        -0.47059E-02
        -0.47059E-02
        -0.47059E-02
        -0.47059E-02
        -0.47059E-02
        -0.47059E-02
        -0.47059E-02
        -0.47059E-02
        -0.47059E-02
        -0.47059E-02
        -0.47059E-02
        -0.47059E-02
        -0.47059E-02
        -0.47059E-02
        -0.47059E-02
        -0.47059E-02
        -0.47059E-02
        -0.47059E-02
        -0.47059E-02
        -0.47059E-02
        -0.47059E-02
        -0.47059E-02
        -0.47059E-02
        -0.47059E-02
        -0.47059E-02
        -0.47059E-02
        -0.47059E-02
        -0.47059E-02
        -0.47059E-02
        -0.47059E-02
        -0.47059E-02
        -0.47059E-02
        -0.47059E-02
        -0.47059E-02
        -0.47059E-02
        -0.47059E-02
        -0.47059E-02
        -0.47059E-02
        -0.47059E-02
        -0.47059E-02
        -0.47059E-02
        -0.47059E-02
        -0.47059E-02
        -0.47059E-02
        -0.47059E-02
        -0.47059E-02
        -0.47059E-02
        -0.47059E-02
        -0.47059E-02
        -0.47059E-02
        -0.47059E-02
        -0.47059E-02
        -0.47059E-02
        -0.47059E-02
        -0.47059E-02
        -0.47059E-02
        -0.47059E-02
        -0.47059E-02
        -0.47059E-02
        -0.47059E-02
        -0.47059E-02
        -0.47059E-02
        -0.47059E-02
        -0.47059E-02
        -0.47059E-02
        -0.47059E-02
        -0.47059E-02
        -0.47059E-02
        -0.47059E-02
        -0.47059E-02
        -0.47059E-02
        -0.47059E-02
        -0.47059E-02
        -0.47059E-02
        -0.47059E-02
        -0.47059E-02
        -0.47059E-02
        -0.47059E-02
        -0.47059E-02
        -0.47059E-02
        -0.47059E-02
        -0.47059E-02
        -0.47059E-02
        -0.47059E-02
        -0.47059E-02
        -0.47059E-02
        -0.47059E-02
        -0.47059E-02
        -0.47059E-02
        -0.47059E-02
        -0.47059E-02
        -0.47059E-02
        -0.47059E-02
        -0.47059E-02
        -0.47059E-02
        -0.47059E-02
        -0.47059E-02
        -0.47059E-02
        -0.47059E-02
        -0.47059E-02
        -0.47059E-02
        -0.47059E-02
        -0.47059E-02
        -0.47059E-02
        -0.47059E-02
        -0.47059E-02
        -0.47059E-02
        -0.47059E-02
        -0.47059E-02
        -0.47059E-02
        -0.47059E-02
        -0.47059E-02
        -0.47059E-02
        -0.47059E-02
        -0.47059E-02
        -0.47059E-02
        -0.47059E-02
        -0.47059E-02
        -0.47059E-02
        -0.47059E-02
        -0.47059E-02
        -0.47059E-02
        -0.47059E-02
        -0.47059E-02
        -0.47059E-02
        -0.47059E-02
        -0.47059E-02
        -0.47059E-02
        -0.47059E-02
        -0.47059E-02
        -0.47059E-02
        -0.47059E-02
        -0.47059E-02
        -0.47059E-02
        -0.47059E-02
        -0.47059E-02
        -0.47059E-02
        -0.47059E-02
        -0.47059E-02
        -0.47059E-02
        -0.47059E-02
        -0.47059E-02
        -0.47059E-02
        -0.47059E-02
        -0.47059E-02
        -0.47059E-02
        -0.47059E-02
        -0.47059E-02
        -0.47059E-02
        -0.47059E-02
        -0.47059E-02
        -0.47059E-02
        -0.47059E-02
        -0.47059E-02
        -0.47059E-02
        -0.47059E-02
        -0.47059E-02
        -0.47059E-02
        -0.47059E-02
        -0.47059E-02
        -0.47059E-02
        -0.47059E-02
        -0.47059E-02
        -0.47059E-02
        -0.47059E-02
        -0.47059E-02
        -0.47059E-02
        -0.47059E-02
        -0.47059E-02
        -0.47059E-02
        -0.47059E-02
        -0.47059E-02
        -0.47059E-02
        -0.47059E-02
        -0.47059E-02
        -0.47059E-02
        -0.47059E-02
        -0.47059E-02
        -0.47059E-02
        -0.47059E-02
        -0.47059E-02
        -0.47059E-02
        -0.47059E-02
        -0.47059E-02
        -0.47059E-02
        -0.47059E-02
        -0.47059E-02
        -0.47059E-02
        -0.47059E-02
        -0.47059E-02
        -0.47059E-02
        -0.47059E-02
        -0.47059E-02
        -0.47059E-02
        -0.47059E-02
        -0.47059E-02
        -0.47059E-02
        -0.47059E-02
        -0.47059E-02
        -0.47059E-02
        -0.47059E-02
        -0.47059E-02
        -0.47059E-02
        -0.47059E-02
        -0.47059E-02
        -0.47059E-02
        -0.47059E-02
        -0.47059E-02
        -0.47059E-02
        -0.47059E-02
        -0.47059E-02
        -0.47059E-02
        -0.47059E-02
        -0.47059E-02
        -0.47059E-02
        -0.47059E-02
        -0.47059E-02
  
SCALARS                     velocity_x  double 1
LOOKUP_TABLE default
         0.00000E+00
         0.00000E+00
         0.00000E+00
         0.00000E+00
         0.00000E+00
         0.00000E+00
         0.00000E+00
         0.00000E+00
         0.00000E+00
         0.00000E+00
         0.00000E+00
         0.00000E+00
         0.00000E+00
         0.00000E+00
         0.00000E+00
         0.00000E+00
         0.00000E+00
         0.00000E+00
         0.00000E+00
         0.00000E+00
         0.00000E+00
         0.00000E+00
         0.00000E+00
         0.00000E+00
         0.00000E+00
         0.00000E+00
         0.00000E+00
         0.00000E+00
         0.00000E+00
         0.00000E+00
         0.00000E+00
         0.00000E+00
         0.00000E+00
         0.00000E+00
         0.00000E+00
         0.00000E+00
         0.00000E+00
         0.00000E+00
         0.00000E+00
         0.00000E+00
         0.00000E+00
         0.00000E+00
         0.00000E+00
         0.00000E+00
         0.00000E+00
         0.00000E+00
         0.00000E+00
         0.00000E+00
         0.00000E+00
         0.00000E+00
         0.00000E+00
         0.00000E+00
         0.00000E+00
         0.00000E+00
         0.00000E+00
         0.00000E+00
         0.00000E+00
         0.00000E+00
         0.00000E+00
         0.00000E+00
         0.00000E+00
         0.00000E+00
         0.00000E+00
         0.00000E+00
         0.00000E+00
         0.00000E+00
         0.00000E+00
         0.00000E+00
         0.00000E+00
         0.00000E+00
         0.00000E+00
         0.00000E+00
         0.00000E+00
         0.00000E+00
         0.00000E+00
         0.00000E+00
         0.00000E+00
         0.00000E+00
         0.00000E+00
         0.00000E+00
         0.00000E+00
         0.00000E+00
         0.00000E+00
         0.00000E+00
         0.00000E+00
         0.00000E+00
         0.00000E+00
         0.00000E+00
         0.00000E+00
         0.00000E+00
         0.00000E+00
         0.00000E+00
         0.00000E+00
         0.00000E+00
         0.00000E+00
         0.00000E+00
         0.00000E+00
         0.00000E+00
         0.00000E+00
         0.00000E+00
         0.00000E+00
         0.00000E+00
         0.00000E+00
         0.00000E+00
         0.00000E+00
         0.00000E+00
         0.00000E+00
         0.00000E+00
         0.00000E+00
         0.00000E+00
         0.00000E+00
         0.00000E+00
         0.00000E+00
         0.00000E+00
         0.00000E+00
         0.00000E+00
         0.00000E+00
         0.00000E+00
         0.00000E+00
         0.00000E+00
         0.00000E+00
         0.00000E+00
         0.00000E+00
         0.00000E+00
         0.00000E+00
         0.00000E+00
         0.00000E+00
         0.00000E+00
         0.00000E+00
         0.00000E+00
         0.00000E+00
         0.00000E+00
         0.00000E+00
         0.00000E+00
         0.00000E+00
         0.00000E+00
         0.00000E+00
         0.00000E+00
         0.00000E+00
         0.00000E+00
         0.00000E+00
         0.00000E+00
         0.00000E+00
         0.00000E+00
         0.00000E+00
         0.00000E+00
         0.00000E+00
         0.00000E+00
         0.00000E+00
         0.00000E+00
         0.00000E+00
         0.00000E+00
         0.00000E+00
         0.00000E+00
         0.00000E+00
         0.00000E+00
         0.00000E+00
         0.00000E+00
         0.00000E+00
         0.00000E+00
         0.00000E+00
         0.00000E+00
         0.00000E+00
         0.00000E+00
         0.00000E+00
         0.00000E+00
         0.00000E+00
         0.00000E+00
         0.00000E+00
         0.00000E+00
         0.00000E+00
         0.00000E+00
         0.00000E+00
         0.00000E+00
         0.00000E+00
         0.00000E+00
         0.00000E+00
         0.00000E+00
         0.00000E+00
         0.00000E+00
         0.00000E+00
         0.00000E+00
         0.00000E+00
         0.00000E+00
         0.00000E+00
         0.00000E+00
         0.00000E+00
         0.00000E+00
         0.00000E+00
         0.00000E+00
         0.00000E+00
         0.00000E+00
         0.00000E+00
         0.00000E+00
         0.00000E+00
         0.00000E+00
         0.00000E+00
         0.00000E+00
         0.00000E+00
         0.00000E+00
         0.00000E+00
         0.00000E+00
         0.00000E+00
         0.00000E+00
         0.00000E+00
         0.00000E+00
         0.00000E+00
         0.00000E+00
         0.00000E+00
         0.00000E+00
         0.00000E+00
         0.00000E+00
         0.00000E+00
         0.00000E+00
         0.00000E+00
         0.00000E+00
         0.00000E+00
         0.00000E+00
         0.00000E+00
         0.00000E+00
         0.00000E+00
         0.00000E+00
         0.00000E+00
         0.00000E+00
         0.00000E+00
         0.00000E+00
         0.00000E+00
         0.00000E+00
         0.00000E+00
         0.00000E+00
         0.00000E+00
         0.00000E+00
         0.00000E+00
         0.00000E+00
         0.00000E+00
         0.00000E+00
         0.00000E+00
         0.00000E+00
         0.00000E+00
         0.00000E+00
         0.00000E+00
         0.00000E+00
         0.00000E+00
         0.00000E+00
         0.00000E+00
         0.00000E+00
         0.00000E+00
         0.00000E+00
         0.00000E+00
         0.00000E+00
         0.00000E+00
         0.00000E+00
         0.00000E+00
         0.00000E+00
         0.00000E+00
         0.00000E+00
         0.00000E+00
         0.00000E+00
         0.00000E+00
         0.00000E+00
         0.00000E+00
         0.00000E+00
         0.00000E+00
         0.00000E+00
         0.00000E+00
         0.00000E+00
         0.00000E+00
         0.00000E+00
         0.00000E+00
         0.00000E+00
         0.00000E+00
         0.00000E+00
         0.00000E+00
         0.00000E+00
         0.00000E+00
         0.00000E+00
         0.00000E+00
         0.00000E+00
         0.00000E+00
         0.00000E+00
         0.00000E+00
         0.00000E+00
         0.00000E+00
         0.00000E+00
         0.00000E+00
         0.00000E+00
         0.00000E+00
         0.00000E+00
         0.00000E+00
         0.00000E+00
         0.00000E+00
         0.00000E+00
         0.00000E+00
         0.00000E+00
         0.00000E+00
         0.00000E+00
         0.00000E+00
         0.00000E+00
         0.00000E+00
         0.00000E+00
         0.00000E+00
         0.00000E+00
         0.00000E+00
         0.00000E+00
         0.00000E+00
         0.00000E+00
         0.00000E+00
         0.00000E+00
         0.00000E+00
         0.00000E+00
         0.00000E+00
         0.00000E+00
         0.00000E+00
         0.00000E+00
         0.00000E+00
         0.00000E+00
         0.00000E+00
         0.00000E+00
         0.00000E+00
         0.00000E+00
         0.00000E+00
         0.00000E+00
         0.00000E+00
         0.00000E+00
         0.00000E+00
         0.00000E+00
         0.00000E+00
         0.00000E+00
         0.00000E+00
         0.00000E+00
         0.00000E+00
         0.00000E+00
         0.00000E+00
         0.00000E+00
         0.00000E+00
         0.00000E+00
         0.00000E+00
         0.00000E+00
         0.00000E+00
         0.00000E+00
         0.00000E+00
         0.00000E+00
         0.00000E+00
         0.00000E+00
         0.00000E+00
         0.00000E+00
         0.00000E+00
         0.00000E+00
         0.00000E+00
         0.00000E+00
         0.00000E+00
         0.00000E+00
         0.00000E+00
         0.00000E+00
         0.00000E+00
         0.00000E+00
         0.00000E+00
         0.00000E+00
         0.00000E+00
         0.00000E+00
         0.00000E+00
         0.00000E+00
         0.00000E+00
         0.00000E+00
         0.00000E+00
         0.00000E+00
         0.00000E+00
         0.00000E+00
         0.00000E+00
         0.00000E+00
         0.00000E+00
         0.00000E+00
         0.00000E+00
         0.00000E+00
         0.00000E+00
         0.00000E+00
         0.00000E+00
         0.00000E+00
         0.00000E+00
         0.00000E+00
         0.00000E+00
         0.00000E+00
         0.00000E+00
         0.00000E+00
         0.00000E+00
         0.00000E+00
         0.00000E+00
         0.00000E+00
         0.00000E+00
         0.00000E+00
         0.00000E+00
         0.00000E+00
         0.00000E+00
         0.00000E+00
         0.00000E+00
         0.00000E+00
         0.00000E+00
         0.00000E+00
         0.00000E+00
         0.00000E+00
         0.00000E+00
         0.00000E+00
         0.00000E+00
         0.00000E+00
         0.00000E+00
         0.00000E+00
         0.00000E+00
         0.00000E+00
         0.00000E+00
         0.00000E+00
         0.00000E+00
         0.00000E+00
         0.00000E+00
         0.00000E+00
         0.00000E+00
         0.00000E+00
         0.00000E+00
         0.00000E+00
         0.00000E+00
         0.00000E+00
         0.00000E+00
         0.00000E+00
         0.00000E+00
         0.00000E+00
         0.00000E+00
         0.00000E+00
         0.00000E+00
         0.00000E+00
         0.00000E+00
         0.00000E+00
         0.00000E+00
         0.00000E+00
         0.00000E+00
         0.00000E+00
         0.00000E+00
         0.00000E+00
         0.00000E+00
         0.00000E+00
         0.00000E+00
         0.00000E+00
         0.00000E+00
         0.00000E+00
         0.00000E+00
         0.00000E+00
         0.00000E+00
         0.00000E+00
         0.00000E+00
         0.00000E+00
         0.00000E+00
         0.00000E+00
         0.00000E+00
         0.00000E+00
         0.00000E+00
         0.00000E+00
         0.00000E+00
         0.00000E+00
         0.00000E+00
         0.00000E+00
         0.00000E+00
         0.00000E+00
         0.00000E+00
         0.00000E+00
         0.00000E+00
         0.00000E+00
         0.00000E+00
         0.00000E+00
         0.00000E+00
         0.00000E+00
         0.00000E+00
         0.00000E+00
         0.00000E+00
         0.00000E+00
         0.00000E+00
         0.00000E+00
         0.00000E+00
         0.00000E+00
         0.00000E+00
         0.00000E+00
         0.00000E+00
         0.00000E+00
         0.00000E+00
         0.00000E+00
         0.00000E+00
         0.00000E+00
         0.00000E+00
         0.00000E+00
         0.00000E+00
         0.00000E+00
         0.00000E+00
         0.00000E+00
         0.00000E+00
         0.00000E+00
         0.00000E+00
         0.00000E+00
         0.00000E+00
         0.00000E+00
         0.00000E+00
         0.00000E+00
         0.00000E+00
         0.00000E+00
         0.00000E+00
         0.00000E+00
         0.00000E+00
         0.00000E+00
         0.00000E+00
         0.00000E+00
         0.00000E+00
         0.00000E+00
         0.00000E+00
         0.00000E+00
         0.00000E+00
         0.00000E+00
         0.00000E+00
         0.00000E+00
         0.00000E+00
         0.00000E+00
         0.00000E+00
         0.00000E+00
         0.00000E+00
         0.00000E+00
         0.00000E+00
         0.00000E+00
         0.00000E+00
         0.00000E+00
         0.00000E+00
         0.00000E+00
         0.00000E+00
         0.00000E+00
         0.00000E+00
         0.00000E+00
         0.00000E+00
         0.00000E+00
         0.00000E+00
         0.00000E+00
         0.00000E+00
         0.00000E+00
         0.00000E+00
         0.00000E+00
         0.00000E+00
         0.00000E+00
         0.00000E+00
         0.00000E+00
         0.00000E+00
         0.00000E+00
         0.00000E+00
         0.00000E+00
         0.00000E+00
         0.00000E+00
         0.00000E+00
         0.00000E+00
         0.00000E+00
         0.00000E+00
         0.00000E+00
         0.00000E+00
         0.00000E+00
         0.00000E+00
         0.00000E+00
         0.00000E+00
         0.00000E+00
         0.00000E+00
         0.00000E+00
         0.00000E+00
         0.00000E+00
         0.00000E+00
         0.00000E+00
         0.00000E+00
         0.00000E+00
         0.00000E+00
         0.00000E+00
         0.00000E+00
         0.00000E+00
         0.00000E+00
         0.00000E+00
         0.00000E+00
         0.00000E+00
         0.00000E+00
         0.00000E+00
         0.00000E+00
         0.00000E+00
         0.00000E+00
         0.00000E+00
         0.00000E+00
         0.00000E+00
         0.00000E+00
         0.00000E+00
         0.00000E+00
         0.00000E+00
         0.00000E+00
         0.00000E+00
         0.00000E+00
         0.00000E+00
         0.00000E+00
         0.00000E+00
         0.00000E+00
         0.00000E+00
         0.00000E+00
         0.00000E+00
         0.00000E+00
         0.00000E+00
         0.00000E+00
         0.00000E+00
         0.00000E+00
         0.00000E+00
         0.00000E+00
         0.00000E+00
         0.00000E+00
         0.00000E+00
         0.00000E+00
         0.00000E+00
         0.00000E+00
         0.00000E+00
         0.00000E+00
         0.00000E+00
         0.00000E+00
         0.00000E+00
         0.00000E+00
         0.00000E+00
         0.00000E+00
         0.00000E+00
         0.00000E+00
         0.00000E+00
         0.00000E+00
         0.00000E+00
         0.00000E+00
         0.00000E+00
         0.00000E+00
         0.00000E+00
         0.00000E+00
         0.00000E+00
         0.00000E+00
         0.00000E+00
         0.00000E+00
         0.00000E+00
         0.00000E+00
         0.00000E+00
         0.00000E+00
         0.00000E+00
         0.00000E+00
         0.00000E+00
         0.00000E+00
         0.00000E+00
         0.00000E+00
         0.00000E+00
         0.00000E+00
         0.00000E+00
         0.00000E+00
         0.00000E+00
         0.00000E+00
         0.00000E+00
         0.00000E+00
         0.00000E+00
         0.00000E+00
         0.00000E+00
         0.00000E+00
         0.00000E+00
         0.00000E+00
         0.00000E+00
         0.00000E+00
         0.00000E+00
         0.00000E+00
         0.00000E+00
         0.00000E+00
         0.00000E+00
         0.00000E+00
         0.00000E+00
         0.00000E+00
         0.00000E+00
         0.00000E+00
         0.00000E+00
         0.00000E+00
         0.00000E+00
         0.00000E+00
         0.00000E+00
         0.00000E+00
         0.00000E+00
         0.00000E+00
         0.00000E+00
         0.00000E+00
         0.00000E+00
         0.00000E+00
         0.00000E+00
         0.00000E+00
         0.00000E+00
         0.00000E+00
         0.00000E+00
         0.00000E+00
         0.00000E+00
         0.00000E+00
         0.00000E+00
         0.00000E+00
         0.00000E+00
         0.00000E+00
         0.00000E+00
         0.00000E+00
         0.00000E+00
         0.00000E+00
         0.00000E+00
         0.00000E+00
         0.00000E+00
         0.00000E+00
         0.00000E+00
         0.00000E+00
         0.00000E+00
         0.00000E+00
         0.00000E+00
         0.00000E+00
         0.00000E+00
         0.00000E+00
         0.00000E+00
         0.00000E+00
         0.00000E+00
         0.00000E+00
         0.00000E+00
         0.00000E+00
         0.00000E+00
         0.00000E+00
         0.00000E+00
         0.00000E+00
         0.00000E+00
         0.00000E+00
         0.00000E+00
         0.00000E+00
         0.00000E+00
         0.00000E+00
         0.00000E+00
         0.00000E+00
         0.00000E+00
         0.00000E+00
         0.00000E+00
         0.00000E+00
         0.00000E+00
         0.00000E+00
         0.00000E+00
         0.00000E+00
         0.00000E+00
         0.00000E+00
         0.00000E+00
         0.00000E+00
         0.00000E+00
         0.00000E+00
         0.00000E+00
         0.00000E+00
         0.00000E+00
         0.00000E+00
         0.00000E+00
         0.00000E+00
         0.00000E+00
         0.00000E+00
         0.00000E+00
         0.00000E+00
         0.00000E+00
         0.00000E+00
         0.00000E+00
         0.00000E+00
         0.00000E+00
         0.00000E+00
         0.00000E+00
         0.00000E+00
         0.00000E+00
         0.00000E+00
         0.00000E+00
         0.00000E+00
         0.00000E+00
         0.00000E+00
         0.00000E+00
         0.00000E+00
         0.00000E+00
         0.00000E+00
         0.00000E+00
         0.00000E+00
         0.00000E+00
         0.00000E+00
         0.00000E+00
         0.00000E+00
         0.00000E+00
         0.00000E+00
         0.00000E+00
         0.00000E+00
         0.00000E+00
         0.00000E+00
         0.00000E+00
         0.00000E+00
         0.00000E+00
         0.00000E+00
         0.00000E+00
         0.00000E+00
         0.00000E+00
         0.00000E+00
         0.00000E+00
         0.00000E+00
         0.00000E+00
         0.00000E+00
         0.00000E+00
         0.00000E+00
         0.00000E+00
         0.00000E+00
         0.00000E+00
         0.00000E+00
         0.00000E+00
         0.00000E+00
         0.00000E+00
         0.00000E+00
         0.00000E+00
         0.00000E+00
         0.00000E+00
         0.00000E+00
         0.00000E+00
         0.00000E+00
         0.00000E+00
         0.00000E+00
         0.00000E+00
         0.00000E+00
         0.00000E+00
         0.00000E+00
         0.00000E+00
         0.00000E+00
         0.00000E+00
         0.00000E+00
         0.00000E+00
         0.00000E+00
         0.00000E+00
         0.00000E+00
         0.00000E+00
         0.00000E+00
         0.00000E+00
         0.00000E+00
         0.00000E+00
         0.00000E+00
         0.00000E+00
         0.00000E+00
         0.00000E+00
         0.00000E+00
         0.00000E+00
         0.00000E+00
         0.00000E+00
         0.00000E+00
         0.00000E+00
         0.00000E+00
         0.00000E+00
         0.00000E+00
         0.00000E+00
         0.00000E+00
         0.00000E+00
         0.00000E+00
         0.00000E+00
         0.00000E+00
         0.00000E+00
         0.00000E+00
         0.00000E+00
         0.00000E+00
         0.00000E+00
         0.00000E+00
         0.00000E+00
         0.00000E+00
         0.00000E+00
         0.00000E+00
         0.00000E+00
         0.00000E+00
         0.00000E+00
         0.00000E+00
         0.00000E+00
         0.00000E+00
         0.00000E+00
         0.00000E+00
         0.00000E+00
         0.00000E+00
         0.00000E+00
         0.00000E+00
         0.00000E+00
         0.00000E+00
         0.00000E+00
         0.00000E+00
         0.00000E+00
         0.00000E+00
         0.00000E+00
         0.00000E+00
         0.00000E+00
         0.00000E+00
         0.00000E+00
         0.00000E+00
         0.00000E+00
         0.00000E+00
         0.00000E+00
         0.00000E+00
         0.00000E+00
         0.00000E+00
         0.00000E+00
         0.00000E+00
         0.00000E+00
         0.00000E+00
         0.00000E+00
         0.00000E+00
         0.00000E+00
         0.00000E+00
         0.00000E+00
         0.00000E+00
         0.00000E+00
         0.00000E+00
         0.00000E+00
         0.00000E+00
         0.00000E+00
         0.00000E+00
         0.00000E+00
         0.00000E+00
         0.00000E+00
         0.00000E+00
         0.00000E+00
         0.00000E+00
         0.00000E+00
         0.00000E+00
         0.00000E+00
         0.00000E+00
         0.00000E+00
         0.00000E+00
         0.00000E+00
         0.00000E+00
         0.00000E+00
         0.00000E+00
         0.00000E+00
         0.00000E+00
         0.00000E+00
         0.00000E+00
         0.00000E+00
         0.00000E+00
         0.00000E+00
         0.00000E+00
         0.00000E+00
         0.00000E+00
         0.00000E+00
         0.00000E+00
         0.00000E+00
         0.00000E+00
         0.00000E+00
         0.00000E+00
         0.00000E+00
         0.00000E+00
         0.00000E+00
         0.00000E+00
         0.00000E+00
         0.00000E+00
         0.00000E+00
         0.00000E+00
         0.00000E+00
         0.00000E+00
         0.00000E+00
         0.00000E+00
         0.00000E+00
         0.00000E+00
         0.00000E+00
         0.00000E+00
         0.00000E+00
         0.00000E+00
         0.00000E+00
         0.00000E+00
         0.00000E+00
         0.00000E+00
         0.00000E+00
         0.00000E+00
         0.00000E+00
         0.00000E+00
         0.00000E+00
         0.00000E+00
         0.00000E+00
         0.00000E+00
         0.00000E+00
         0.00000E+00
         0.00000E+00
         0.00000E+00
         0.00000E+00
         0.00000E+00
         0.00000E+00
         0.00000E+00
         0.00000E+00
         0.00000E+00
         0.00000E+00
         0.00000E+00
         0.00000E+00
         0.00000E+00
         0.00000E+00
         0.00000E+00
         0.00000E+00
         0.00000E+00
         0.00000E+00
         0.00000E+00
         0.00000E+00
         0.00000E+00
         0.00000E+00
         0.00000E+00
         0.00000E+00
         0.00000E+00
         0.00000E+00
         0.00000E+00
         0.00000E+00
         0.00000E+00
         0.00000E+00
         0.00000E+00
         0.00000E+00
         0.00000E+00
         0.00000E+00
         0.00000E+00
         0.00000E+00
         0.00000E+00
         0.00000E+00
         0.00000E+00
         0.00000E+00
         0.00000E+00
         0.00000E+00
         0.00000E+00
         0.00000E+00
         0.00000E+00
         0.00000E+00
         0.00000E+00
         0.00000E+00
         0.00000E+00
         0.00000E+00
         0.00000E+00
         0.00000E+00
         0.00000E+00
         0.00000E+00
         0.00000E+00
         0.00000E+00
         0.00000E+00
         0.00000E+00
         0.00000E+00
         0.00000E+00
         0.00000E+00
         0.00000E+00
         0.00000E+00
         0.00000E+00
         0.00000E+00
         0.00000E+00
         0.00000E+00
         0.00000E+00
         0.00000E+00
         0.00000E+00
         0.00000E+00
         0.00000E+00
         0.00000E+00
         0.00000E+00
         0.00000E+00
         0.00000E+00
         0.00000E+00
         0.00000E+00
         0.00000E+00
         0.00000E+00
         0.00000E+00
         0.00000E+00
         0.00000E+00
         0.00000E+00
         0.00000E+00
         0.00000E+00
         0.00000E+00
         0.00000E+00
         0.00000E+00
         0.00000E+00
         0.00000E+00
         0.00000E+00
         0.00000E+00
         0.00000E+00
         0.00000E+00
         0.00000E+00
         0.00000E+00
         0.00000E+00
         0.00000E+00
         0.00000E+00
         0.00000E+00
         0.00000E+00
         0.00000E+00
         0.00000E+00
         0.00000E+00
         0.00000E+00
         0.00000E+00
         0.00000E+00
         0.00000E+00
         0.00000E+00
         0.00000E+00
         0.00000E+00
         0.00000E+00
         0.00000E+00
         0.00000E+00
         0.00000E+00
         0.00000E+00
         0.00000E+00
         0.00000E+00
         0.00000E+00
         0.00000E+00
         0.00000E+00
         0.00000E+00
         0.00000E+00
         0.00000E+00
         0.00000E+00
         0.00000E+00
         0.00000E+00
         0.00000E+00
         0.00000E+00
         0.00000E+00
         0.00000E+00
         0.00000E+00
         0.00000E+00
         0.00000E+00
         0.00000E+00
         0.00000E+00
         0.00000E+00
         0.00000E+00
         0.00000E+00
         0.00000E+00
         0.00000E+00
         0.00000E+00
         0.00000E+00
         0.00000E+00
         0.00000E+00
         0.00000E+00
         0.00000E+00
         0.00000E+00
         0.00000E+00
         0.00000E+00
         0.00000E+00
         0.00000E+00
         0.00000E+00
         0.00000E+00
         0.00000E+00
         0.00000E+00
         0.00000E+00
         0.00000E+00
         0.00000E+00
         0.00000E+00
         0.00000E+00
         0.00000E+00
         0.00000E+00
         0.00000E+00
         0.00000E+00
         0.00000E+00
         0.00000E+00
         0.00000E+00
         0.00000E+00
         0.00000E+00
         0.00000E+00
         0.00000E+00
         0.00000E+00
         0.00000E+00
         0.00000E+00
         0.00000E+00
         0.00000E+00
         0.00000E+00
         0.00000E+00
         0.00000E+00
         0.00000E+00
         0.00000E+00
         0.00000E+00
         0.00000E+00
         0.00000E+00
         0.00000E+00
         0.00000E+00
         0.00000E+00
         0.00000E+00
         0.00000E+00
         0.00000E+00
         0.00000E+00
         0.00000E+00
         0.00000E+00
         0.00000E+00
         0.00000E+00
         0.00000E+00
         0.00000E+00
         0.00000E+00
         0.00000E+00
         0.00000E+00
         0.00000E+00
         0.00000E+00
         0.00000E+00
         0.00000E+00
         0.00000E+00
         0.00000E+00
         0.00000E+00
         0.00000E+00
         0.00000E+00
         0.00000E+00
         0.00000E+00
         0.00000E+00
         0.00000E+00
         0.00000E+00
         0.00000E+00
         0.00000E+00
         0.00000E+00
         0.00000E+00
         0.00000E+00
         0.00000E+00
         0.00000E+00
         0.00000E+00
         0.00000E+00
         0.00000E+00
         0.00000E+00
         0.00000E+00
         0.00000E+00
         0.00000E+00
         0.00000E+00
         0.00000E+00
         0.00000E+00
         0.00000E+00
         0.00000E+00
         0.00000E+00
         0.00000E+00
         0.00000E+00
         0.00000E+00
         0.00000E+00
         0.00000E+00
         0.00000E+00
         0.00000E+00
         0.00000E+00
         0.00000E+00
         0.00000E+00
         0.00000E+00
         0.00000E+00
         0.00000E+00
         0.00000E+00
         0.00000E+00
         0.00000E+00
         0.00000E+00
         0.00000E+00
         0.00000E+00
         0.00000E+00
         0.00000E+00
         0.00000E+00
         0.00000E+00
         0.00000E+00
         0.00000E+00
         0.00000E+00
         0.00000E+00
         0.00000E+00
         0.00000E+00
         0.00000E+00
         0.00000E+00
         0.00000E+00
         0.00000E+00
         0.00000E+00
         0.00000E+00
         0.00000E+00
         0.00000E+00
         0.00000E+00
         0.00000E+00
         0.00000E+00
         0.00000E+00
         0.00000E+00
         0.00000E+00
         0.00000E+00
         0.00000E+00
         0.00000E+00
         0.00000E+00
         0.00000E+00
         0.00000E+00
         0.00000E+00
         0.00000E+00
         0.00000E+00
         0.00000E+00
         0.00000E+00
         0.00000E+00
         0.00000E+00
         0.00000E+00
         0.00000E+00
         0.00000E+00
         0.00000E+00
         0.00000E+00
         0.00000E+00
         0.00000E+00
         0.00000E+00
         0.00000E+00
         0.00000E+00
         0.00000E+00
         0.00000E+00
         0.00000E+00
         0.00000E+00
         0.00000E+00
         0.00000E+00
         0.00000E+00
         0.00000E+00
         0.00000E+00
         0.00000E+00
         0.00000E+00
         0.00000E+00
         0.00000E+00
         0.00000E+00
         0.00000E+00
         0.00000E+00
         0.00000E+00
         0.00000E+00
         0.00000E+00
         0.00000E+00
         0.00000E+00
         0.00000E+00
         0.00000E+00
         0.00000E+00
         0.00000E+00
         0.00000E+00
         0.00000E+00
         0.00000E+00
         0.00000E+00
         0.00000E+00
         0.00000E+00
         0.00000E+00
         0.00000E+00
         0.00000E+00
         0.00000E+00
         0.00000E+00
         0.00000E+00
         0.00000E+00
         0.00000E+00
         0.00000E+00
         0.00000E+00
         0.00000E+00
         0.00000E+00
         0.00000E+00
         0.00000E+00
         0.00000E+00
         0.00000E+00
         0.00000E+00
         0.00000E+00
         0.00000E+00
         0.00000E+00
         0.00000E+00
         0.00000E+00
         0.00000E+00
         0.00000E+00
         0.00000E+00
         0.00000E+00
         0.00000E+00
         0.00000E+00
         0.00000E+00
         0.00000E+00
         0.00000E+00
         0.00000E+00
         0.00000E+00
         0.00000E+00
         0.00000E+00
         0.00000E+00
         0.00000E+00
         0.00000E+00
         0.00000E+00
         0.00000E+00
         0.00000E+00
         0.00000E+00
         0.00000E+00
         0.00000E+00
         0.00000E+00
         0.00000E+00
         0.00000E+00
         0.00000E+00
         0.00000E+00
         0.00000E+00
         0.00000E+00
         0.00000E+00
         0.00000E+00
         0.00000E+00
         0.00000E+00
         0.00000E+00
         0.00000E+00
         0.00000E+00
         0.00000E+00
         0.00000E+00
         0.00000E+00
         0.00000E+00
         0.00000E+00
         0.00000E+00
         0.00000E+00
         0.00000E+00
         0.00000E+00
         0.00000E+00
         0.00000E+00
         0.00000E+00
         0.00000E+00
         0.00000E+00
         0.00000E+00
         0.00000E+00
         0.00000E+00
         0.00000E+00
         0.00000E+00
         0.00000E+00
         0.00000E+00
         0.00000E+00
         0.00000E+00
         0.00000E+00
         0.00000E+00
         0.00000E+00
         0.00000E+00
         0.00000E+00
         0.00000E+00
         0.00000E+00
         0.00000E+00
         0.00000E+00
         0.00000E+00
         0.00000E+00
         0.00000E+00
         0.00000E+00
         0.00000E+00
         0.00000E+00
         0.00000E+00
         0.00000E+00
         0.00000E+00
         0.00000E+00
         0.00000E+00
         0.00000E+00
         0.00000E+00
         0.00000E+00
         0.00000E+00
         0.00000E+00
         0.00000E+00
         0.00000E+00
         0.00000E+00
         0.00000E+00
         0.00000E+00
         0.00000E+00
         0.00000E+00
         0.00000E+00
         0.00000E+00
         0.00000E+00
         0.00000E+00
         0.00000E+00
         0.00000E+00
         0.00000E+00
         0.00000E+00
         0.00000E+00
         0.00000E+00
         0.00000E+00
         0.00000E+00
         0.00000E+00
         0.00000E+00
         0.00000E+00
         0.00000E+00
         0.00000E+00
         0.00000E+00
         0.00000E+00
         0.00000E+00
         0.00000E+00
         0.00000E+00
         0.00000E+00
         0.00000E+00
         0.00000E+00
         0.00000E+00
         0.00000E+00
         0.00000E+00
         0.00000E+00
         0.00000E+00
         0.00000E+00
         0.00000E+00
         0.00000E+00
         0.00000E+00
         0.00000E+00
         0.00000E+00
         0.00000E+00
         0.00000E+00
         0.00000E+00
         0.00000E+00
         0.00000E+00
         0.00000E+00
         0.00000E+00
         0.00000E+00
         0.00000E+00
         0.00000E+00
         0.00000E+00
         0.00000E+00
         0.00000E+00
         0.00000E+00
         0.00000E+00
         0.00000E+00
         0.00000E+00
         0.00000E+00
         0.00000E+00
         0.00000E+00
         0.00000E+00
         0.00000E+00
         0.00000E+00
         0.00000E+00
         0.00000E+00
         0.00000E+00
         0.00000E+00
         0.00000E+00
         0.00000E+00
         0.00000E+00
         0.00000E+00
         0.00000E+00
         0.00000E+00
         0.00000E+00
         0.00000E+00
         0.00000E+00
         0.00000E+00
         0.00000E+00
         0.00000E+00
         0.00000E+00
         0.00000E+00
         0.00000E+00
         0.00000E+00
         0.00000E+00
         0.00000E+00
         0.00000E+00
         0.00000E+00
         0.00000E+00
         0.00000E+00
         0.00000E+00
         0.00000E+00
         0.00000E+00
         0.00000E+00
         0.00000E+00
         0.00000E+00
         0.00000E+00
         0.00000E+00
         0.00000E+00
         0.00000E+00
         0.00000E+00
         0.00000E+00
         0.00000E+00
         0.00000E+00
         0.00000E+00
         0.00000E+00
         0.00000E+00
         0.00000E+00
         0.00000E+00
         0.00000E+00
         0.00000E+00
         0.00000E+00
         0.00000E+00
         0.00000E+00
         0.00000E+00
         0.00000E+00
         0.00000E+00
         0.00000E+00
         0.00000E+00
         0.00000E+00
         0.00000E+00
         0.00000E+00
         0.00000E+00
         0.00000E+00
         0.00000E+00
         0.00000E+00
         0.00000E+00
         0.00000E+00
         0.00000E+00
         0.00000E+00
         0.00000E+00
         0.00000E+00
         0.00000E+00
         0.00000E+00
         0.00000E+00
         0.00000E+00
         0.00000E+00
         0.00000E+00
         0.00000E+00
         0.00000E+00
         0.00000E+00
         0.00000E+00
         0.00000E+00
         0.00000E+00
         0.00000E+00
         0.00000E+00
         0.00000E+00
         0.00000E+00
         0.00000E+00
         0.00000E+00
         0.00000E+00
         0.00000E+00
         0.00000E+00
         0.00000E+00
         0.00000E+00
         0.00000E+00
         0.00000E+00
         0.00000E+00
         0.00000E+00
         0.00000E+00
         0.00000E+00
         0.00000E+00
         0.00000E+00
         0.00000E+00
         0.00000E+00
         0.00000E+00
         0.00000E+00
         0.00000E+00
         0.00000E+00
         0.00000E+00
         0.00000E+00
         0.00000E+00
         0.00000E+00
         0.00000E+00
         0.00000E+00
         0.00000E+00
         0.00000E+00
         0.00000E+00
         0.00000E+00
         0.00000E+00
         0.00000E+00
         0.00000E+00
         0.00000E+00
         0.00000E+00
         0.00000E+00
         0.00000E+00
         0.00000E+00
         0.00000E+00
         0.00000E+00
         0.00000E+00
         0.00000E+00
         0.00000E+00
         0.00000E+00
         0.00000E+00
         0.00000E+00
         0.00000E+00
         0.00000E+00
         0.00000E+00
         0.00000E+00
         0.00000E+00
         0.00000E+00
         0.00000E+00
         0.00000E+00
         0.00000E+00
         0.00000E+00
         0.00000E+00
         0.00000E+00
         0.00000E+00
         0.00000E+00
         0.00000E+00
         0.00000E+00
         0.00000E+00
         0.00000E+00
         0.00000E+00
         0.00000E+00
         0.00000E+00
         0.00000E+00
         0.00000E+00
         0.00000E+00
         0.00000E+00
         0.00000E+00
         0.00000E+00
         0.00000E+00
         0.00000E+00
         0.00000E+00
         0.00000E+00
         0.00000E+00
         0.00000E+00
         0.00000E+00
         0.00000E+00
         0.00000E+00
         0.00000E+00
         0.00000E+00
         0.00000E+00
         0.00000E+00
         0.00000E+00
         0.00000E+00
         0.00000E+00
         0.00000E+00
         0.00000E+00
         0.00000E+00
         0.00000E+00
         0.00000E+00
         0.00000E+00
         0.00000E+00
         0.00000E+00
         0.00000E+00
         0.00000E+00
         0.00000E+00
         0.00000E+00
         0.00000E+00
         0.00000E+00
         0.00000E+00
         0.00000E+00
         0.00000E+00
         0.00000E+00
         0.00000E+00
         0.00000E+00
         0.00000E+00
         0.00000E+00
         0.00000E+00
         0.00000E+00
         0.00000E+00
         0.00000E+00
         0.00000E+00
         0.00000E+00
         0.00000E+00
         0.00000E+00
         0.00000E+00
         0.00000E+00
         0.00000E+00
         0.00000E+00
         0.00000E+00
         0.00000E+00
         0.00000E+00
         0.00000E+00
         0.00000E+00
         0.00000E+00
         0.00000E+00
         0.00000E+00
         0.00000E+00
         0.00000E+00
         0.00000E+00
         0.00000E+00
         0.00000E+00
         0.00000E+00
         0.00000E+00
         0.00000E+00
         0.00000E+00
         0.00000E+00
         0.00000E+00
         0.00000E+00
         0.00000E+00
         0.00000E+00
         0.00000E+00
         0.00000E+00
         0.00000E+00
         0.00000E+00
         0.00000E+00
         0.00000E+00
         0.00000E+00
         0.00000E+00
         0.00000E+00
         0.00000E+00
         0.00000E+00
         0.00000E+00
         0.00000E+00
         0.00000E+00
         0.00000E+00
         0.00000E+00
         0.00000E+00
         0.00000E+00
         0.00000E+00
         0.00000E+00
         0.00000E+00
         0.00000E+00
         0.00000E+00
         0.00000E+00
         0.00000E+00
         0.00000E+00
         0.00000E+00
         0.00000E+00
         0.00000E+00
         0.00000E+00
         0.00000E+00
         0.00000E+00
         0.00000E+00
         0.00000E+00
         0.00000E+00
         0.00000E+00
         0.00000E+00
         0.00000E+00
         0.00000E+00
         0.00000E+00
         0.00000E+00
         0.00000E+00
         0.00000E+00
         0.00000E+00
         0.00000E+00
         0.00000E+00
         0.00000E+00
         0.00000E+00
         0.00000E+00
         0.00000E+00
         0.00000E+00
         0.00000E+00
         0.00000E+00
         0.00000E+00
         0.00000E+00
         0.00000E+00
         0.00000E+00
         0.00000E+00
         0.00000E+00
         0.00000E+00
         0.00000E+00
         0.00000E+00
         0.00000E+00
         0.00000E+00
         0.00000E+00
         0.00000E+00
         0.00000E+00
         0.00000E+00
         0.00000E+00
         0.00000E+00
         0.00000E+00
         0.00000E+00
         0.00000E+00
         0.00000E+00
         0.00000E+00
         0.00000E+00
         0.00000E+00
         0.00000E+00
         0.00000E+00
         0.00000E+00
         0.00000E+00
         0.00000E+00
         0.00000E+00
         0.00000E+00
         0.00000E+00
         0.00000E+00
         0.00000E+00
         0.00000E+00
         0.00000E+00
         0.00000E+00
         0.00000E+00
         0.00000E+00
         0.00000E+00
         0.00000E+00
         0.00000E+00
         0.00000E+00
         0.00000E+00
         0.00000E+00
         0.00000E+00
         0.00000E+00
         0.00000E+00
         0.00000E+00
         0.00000E+00
         0.00000E+00
         0.00000E+00
         0.00000E+00
         0.00000E+00
         0.00000E+00
         0.00000E+00
         0.00000E+00
         0.00000E+00
         0.00000E+00
         0.00000E+00
         0.00000E+00
         0.00000E+00
         0.00000E+00
         0.00000E+00
         0.00000E+00
         0.00000E+00
         0.00000E+00
         0.00000E+00
         0.00000E+00
         0.00000E+00
         0.00000E+00
         0.00000E+00
         0.00000E+00
         0.00000E+00
         0.00000E+00
         0.00000E+00
         0.00000E+00
         0.00000E+00
         0.00000E+00
         0.00000E+00
         0.00000E+00
         0.00000E+00
         0.00000E+00
         0.00000E+00
         0.00000E+00
         0.00000E+00
         0.00000E+00
         0.00000E+00
         0.00000E+00
         0.00000E+00
         0.00000E+00
         0.00000E+00
         0.00000E+00
         0.00000E+00
         0.00000E+00
         0.00000E+00
         0.00000E+00
         0.00000E+00
         0.00000E+00
         0.00000E+00
         0.00000E+00
         0.00000E+00
         0.00000E+00
         0.00000E+00
         0.00000E+00
         0.00000E+00
         0.00000E+00
         0.00000E+00
         0.00000E+00
         0.00000E+00
         0.00000E+00
         0.00000E+00
         0.00000E+00
         0.00000E+00
         0.00000E+00
         0.00000E+00
         0.00000E+00
         0.00000E+00
         0.00000E+00
         0.00000E+00
         0.00000E+00
         0.00000E+00
         0.00000E+00
         0.00000E+00
         0.00000E+00
         0.00000E+00
         0.00000E+00
         0.00000E+00
         0.00000E+00
         0.00000E+00
         0.00000E+00
         0.00000E+00
         0.00000E+00
         0.00000E+00
         0.00000E+00
         0.00000E+00
         0.00000E+00
         0.00000E+00
         0.00000E+00
         0.00000E+00
         0.00000E+00
         0.00000E+00
         0.00000E+00
         0.00000E+00
         0.00000E+00
         0.00000E+00
         0.00000E+00
         0.00000E+00
         0.00000E+00
         0.00000E+00
         0.00000E+00
         0.00000E+00
         0.00000E+00
         0.00000E+00
         0.00000E+00
         0.00000E+00
         0.00000E+00
         0.00000E+00
         0.00000E+00
         0.00000E+00
         0.00000E+00
         0.00000E+00
         0.00000E+00
         0.00000E+00
         0.00000E+00
         0.00000E+00
         0.00000E+00
         0.00000E+00
         0.00000E+00
         0.00000E+00
         0.00000E+00
         0.00000E+00
         0.00000E+00
         0.00000E+00
         0.00000E+00
         0.00000E+00
         0.00000E+00
         0.00000E+00
         0.00000E+00
         0.00000E+00
         0.00000E+00
         0.00000E+00
         0.00000E+00
         0.00000E+00
         0.00000E+00
         0.00000E+00
         0.00000E+00
         0.00000E+00
         0.00000E+00
         0.00000E+00
         0.00000E+00
         0.00000E+00
         0.00000E+00
         0.00000E+00
         0.00000E+00
         0.00000E+00
         0.00000E+00
  
SCALARS                     velocity_y  double 1
LOOKUP_TABLE default
         0.00000E+00
         0.00000E+00
         0.00000E+00
         0.00000E+00
         0.00000E+00
         0.00000E+00
         0.00000E+00
         0.00000E+00
         0.00000E+00
         0.00000E+00
         0.00000E+00
         0.00000E+00
         0.00000E+00
         0.00000E+00
         0.00000E+00
         0.00000E+00
         0.00000E+00
         0.00000E+00
         0.00000E+00
         0.00000E+00
         0.00000E+00
         0.00000E+00
         0.00000E+00
         0.00000E+00
         0.00000E+00
         0.00000E+00
         0.00000E+00
         0.00000E+00
         0.00000E+00
         0.00000E+00
         0.00000E+00
         0.00000E+00
         0.00000E+00
         0.00000E+00
         0.00000E+00
         0.00000E+00
         0.00000E+00
         0.00000E+00
         0.00000E+00
         0.00000E+00
         0.00000E+00
         0.00000E+00
         0.00000E+00
         0.00000E+00
         0.00000E+00
         0.00000E+00
         0.00000E+00
         0.00000E+00
         0.00000E+00
         0.00000E+00
         0.00000E+00
         0.00000E+00
         0.00000E+00
         0.00000E+00
         0.00000E+00
         0.00000E+00
         0.00000E+00
         0.00000E+00
         0.00000E+00
         0.00000E+00
         0.00000E+00
         0.00000E+00
         0.00000E+00
         0.00000E+00
         0.00000E+00
         0.00000E+00
         0.00000E+00
         0.00000E+00
         0.00000E+00
         0.00000E+00
         0.00000E+00
         0.00000E+00
         0.00000E+00
         0.00000E+00
         0.00000E+00
         0.00000E+00
         0.00000E+00
         0.00000E+00
         0.00000E+00
         0.00000E+00
         0.00000E+00
         0.00000E+00
         0.00000E+00
         0.00000E+00
         0.00000E+00
         0.00000E+00
         0.00000E+00
         0.00000E+00
         0.00000E+00
         0.00000E+00
         0.00000E+00
         0.00000E+00
         0.00000E+00
         0.00000E+00
         0.00000E+00
         0.00000E+00
         0.00000E+00
         0.00000E+00
         0.00000E+00
         0.00000E+00
         0.00000E+00
         0.00000E+00
         0.00000E+00
         0.00000E+00
         0.00000E+00
         0.00000E+00
         0.00000E+00
         0.00000E+00
         0.00000E+00
         0.00000E+00
         0.00000E+00
         0.00000E+00
         0.00000E+00
         0.00000E+00
         0.00000E+00
         0.00000E+00
         0.00000E+00
         0.00000E+00
         0.00000E+00
         0.00000E+00
         0.00000E+00
         0.00000E+00
         0.00000E+00
         0.00000E+00
         0.00000E+00
         0.00000E+00
         0.00000E+00
         0.00000E+00
         0.00000E+00
         0.00000E+00
         0.00000E+00
         0.00000E+00
         0.00000E+00
         0.00000E+00
         0.00000E+00
         0.00000E+00
         0.00000E+00
         0.00000E+00
         0.00000E+00
         0.00000E+00
         0.00000E+00
         0.00000E+00
         0.00000E+00
         0.00000E+00
         0.00000E+00
         0.00000E+00
         0.00000E+00
         0.00000E+00
         0.00000E+00
         0.00000E+00
         0.00000E+00
         0.00000E+00
         0.00000E+00
         0.00000E+00
         0.00000E+00
         0.00000E+00
         0.00000E+00
         0.00000E+00
         0.00000E+00
         0.00000E+00
         0.00000E+00
         0.00000E+00
         0.00000E+00
         0.00000E+00
         0.00000E+00
         0.00000E+00
         0.00000E+00
         0.00000E+00
         0.00000E+00
         0.00000E+00
         0.00000E+00
         0.00000E+00
         0.00000E+00
         0.00000E+00
         0.00000E+00
         0.00000E+00
         0.00000E+00
         0.00000E+00
         0.00000E+00
         0.00000E+00
         0.00000E+00
         0.00000E+00
         0.00000E+00
         0.00000E+00
         0.00000E+00
         0.00000E+00
         0.00000E+00
         0.00000E+00
         0.00000E+00
         0.00000E+00
         0.00000E+00
         0.00000E+00
         0.00000E+00
         0.00000E+00
         0.00000E+00
         0.00000E+00
         0.00000E+00
         0.00000E+00
         0.00000E+00
         0.00000E+00
         0.00000E+00
         0.00000E+00
         0.00000E+00
         0.00000E+00
         0.00000E+00
         0.00000E+00
         0.00000E+00
         0.00000E+00
         0.00000E+00
         0.00000E+00
         0.00000E+00
         0.00000E+00
         0.00000E+00
         0.00000E+00
         0.00000E+00
         0.00000E+00
         0.00000E+00
         0.00000E+00
         0.00000E+00
         0.00000E+00
         0.00000E+00
         0.00000E+00
         0.00000E+00
         0.00000E+00
         0.00000E+00
         0.00000E+00
         0.00000E+00
         0.00000E+00
         0.00000E+00
         0.00000E+00
         0.00000E+00
         0.00000E+00
         0.00000E+00
         0.00000E+00
         0.00000E+00
         0.00000E+00
         0.00000E+00
         0.00000E+00
         0.00000E+00
         0.00000E+00
         0.00000E+00
         0.00000E+00
         0.00000E+00
         0.00000E+00
         0.00000E+00
         0.00000E+00
         0.00000E+00
         0.00000E+00
         0.00000E+00
         0.00000E+00
         0.00000E+00
         0.00000E+00
         0.00000E+00
         0.00000E+00
         0.00000E+00
         0.00000E+00
         0.00000E+00
         0.00000E+00
         0.00000E+00
         0.00000E+00
         0.00000E+00
         0.00000E+00
         0.00000E+00
         0.00000E+00
         0.00000E+00
         0.00000E+00
         0.00000E+00
         0.00000E+00
         0.00000E+00
         0.00000E+00
         0.00000E+00
         0.00000E+00
         0.00000E+00
         0.00000E+00
         0.00000E+00
         0.00000E+00
         0.00000E+00
         0.00000E+00
         0.00000E+00
         0.00000E+00
         0.00000E+00
         0.00000E+00
         0.00000E+00
         0.00000E+00
         0.00000E+00
         0.00000E+00
         0.00000E+00
         0.00000E+00
         0.00000E+00
         0.00000E+00
         0.00000E+00
         0.00000E+00
         0.00000E+00
         0.00000E+00
         0.00000E+00
         0.00000E+00
         0.00000E+00
         0.00000E+00
         0.00000E+00
         0.00000E+00
         0.00000E+00
         0.00000E+00
         0.00000E+00
         0.00000E+00
         0.00000E+00
         0.00000E+00
         0.00000E+00
         0.00000E+00
         0.00000E+00
         0.00000E+00
         0.00000E+00
         0.00000E+00
         0.00000E+00
         0.00000E+00
         0.00000E+00
         0.00000E+00
         0.00000E+00
         0.00000E+00
         0.00000E+00
         0.00000E+00
         0.00000E+00
         0.00000E+00
         0.00000E+00
         0.00000E+00
         0.00000E+00
         0.00000E+00
         0.00000E+00
         0.00000E+00
         0.00000E+00
         0.00000E+00
         0.00000E+00
         0.00000E+00
         0.00000E+00
         0.00000E+00
         0.00000E+00
         0.00000E+00
         0.00000E+00
         0.00000E+00
         0.00000E+00
         0.00000E+00
         0.00000E+00
         0.00000E+00
         0.00000E+00
         0.00000E+00
         0.00000E+00
         0.00000E+00
         0.00000E+00
         0.00000E+00
         0.00000E+00
         0.00000E+00
         0.00000E+00
         0.00000E+00
         0.00000E+00
         0.00000E+00
         0.00000E+00
         0.00000E+00
         0.00000E+00
         0.00000E+00
         0.00000E+00
         0.00000E+00
         0.00000E+00
         0.00000E+00
         0.00000E+00
         0.00000E+00
         0.00000E+00
         0.00000E+00
         0.00000E+00
         0.00000E+00
         0.00000E+00
         0.00000E+00
         0.00000E+00
         0.00000E+00
         0.00000E+00
         0.00000E+00
         0.00000E+00
         0.00000E+00
         0.00000E+00
         0.00000E+00
         0.00000E+00
         0.00000E+00
         0.00000E+00
         0.00000E+00
         0.00000E+00
         0.00000E+00
         0.00000E+00
         0.00000E+00
         0.00000E+00
         0.00000E+00
         0.00000E+00
         0.00000E+00
         0.00000E+00
         0.00000E+00
         0.00000E+00
         0.00000E+00
         0.00000E+00
         0.00000E+00
         0.00000E+00
         0.00000E+00
         0.00000E+00
         0.00000E+00
         0.00000E+00
         0.00000E+00
         0.00000E+00
         0.00000E+00
         0.00000E+00
         0.00000E+00
         0.00000E+00
         0.00000E+00
         0.00000E+00
         0.00000E+00
         0.00000E+00
         0.00000E+00
         0.00000E+00
         0.00000E+00
         0.00000E+00
         0.00000E+00
         0.00000E+00
         0.00000E+00
         0.00000E+00
         0.00000E+00
         0.00000E+00
         0.00000E+00
         0.00000E+00
         0.00000E+00
         0.00000E+00
         0.00000E+00
         0.00000E+00
         0.00000E+00
         0.00000E+00
         0.00000E+00
         0.00000E+00
         0.00000E+00
         0.00000E+00
         0.00000E+00
         0.00000E+00
         0.00000E+00
         0.00000E+00
         0.00000E+00
         0.00000E+00
         0.00000E+00
         0.00000E+00
         0.00000E+00
         0.00000E+00
         0.00000E+00
         0.00000E+00
         0.00000E+00
         0.00000E+00
         0.00000E+00
         0.00000E+00
         0.00000E+00
         0.00000E+00
         0.00000E+00
         0.00000E+00
         0.00000E+00
         0.00000E+00
         0.00000E+00
         0.00000E+00
         0.00000E+00
         0.00000E+00
         0.00000E+00
         0.00000E+00
         0.00000E+00
         0.00000E+00
         0.00000E+00
         0.00000E+00
         0.00000E+00
         0.00000E+00
         0.00000E+00
         0.00000E+00
         0.00000E+00
         0.00000E+00
         0.00000E+00
         0.00000E+00
         0.00000E+00
         0.00000E+00
         0.00000E+00
         0.00000E+00
         0.00000E+00
         0.00000E+00
         0.00000E+00
         0.00000E+00
         0.00000E+00
         0.00000E+00
         0.00000E+00
         0.00000E+00
         0.00000E+00
         0.00000E+00
         0.00000E+00
         0.00000E+00
         0.00000E+00
         0.00000E+00
         0.00000E+00
         0.00000E+00
         0.00000E+00
         0.00000E+00
         0.00000E+00
         0.00000E+00
         0.00000E+00
         0.00000E+00
         0.00000E+00
         0.00000E+00
         0.00000E+00
         0.00000E+00
         0.00000E+00
         0.00000E+00
         0.00000E+00
         0.00000E+00
         0.00000E+00
         0.00000E+00
         0.00000E+00
         0.00000E+00
         0.00000E+00
         0.00000E+00
         0.00000E+00
         0.00000E+00
         0.00000E+00
         0.00000E+00
         0.00000E+00
         0.00000E+00
         0.00000E+00
         0.00000E+00
         0.00000E+00
         0.00000E+00
         0.00000E+00
         0.00000E+00
         0.00000E+00
         0.00000E+00
         0.00000E+00
         0.00000E+00
         0.00000E+00
         0.00000E+00
         0.00000E+00
         0.00000E+00
         0.00000E+00
         0.00000E+00
         0.00000E+00
         0.00000E+00
         0.00000E+00
         0.00000E+00
         0.00000E+00
         0.00000E+00
         0.00000E+00
         0.00000E+00
         0.00000E+00
         0.00000E+00
         0.00000E+00
         0.00000E+00
         0.00000E+00
         0.00000E+00
         0.00000E+00
         0.00000E+00
         0.00000E+00
         0.00000E+00
         0.00000E+00
         0.00000E+00
         0.00000E+00
         0.00000E+00
         0.00000E+00
         0.00000E+00
         0.00000E+00
         0.00000E+00
         0.00000E+00
         0.00000E+00
         0.00000E+00
         0.00000E+00
         0.00000E+00
         0.00000E+00
         0.00000E+00
         0.00000E+00
         0.00000E+00
         0.00000E+00
         0.00000E+00
         0.00000E+00
         0.00000E+00
         0.00000E+00
         0.00000E+00
         0.00000E+00
         0.00000E+00
         0.00000E+00
         0.00000E+00
         0.00000E+00
         0.00000E+00
         0.00000E+00
         0.00000E+00
         0.00000E+00
         0.00000E+00
         0.00000E+00
         0.00000E+00
         0.00000E+00
         0.00000E+00
         0.00000E+00
         0.00000E+00
         0.00000E+00
         0.00000E+00
         0.00000E+00
         0.00000E+00
         0.00000E+00
         0.00000E+00
         0.00000E+00
         0.00000E+00
         0.00000E+00
         0.00000E+00
         0.00000E+00
         0.00000E+00
         0.00000E+00
         0.00000E+00
         0.00000E+00
         0.00000E+00
         0.00000E+00
         0.00000E+00
         0.00000E+00
         0.00000E+00
         0.00000E+00
         0.00000E+00
         0.00000E+00
         0.00000E+00
         0.00000E+00
         0.00000E+00
         0.00000E+00
         0.00000E+00
         0.00000E+00
         0.00000E+00
         0.00000E+00
         0.00000E+00
         0.00000E+00
         0.00000E+00
         0.00000E+00
         0.00000E+00
         0.00000E+00
         0.00000E+00
         0.00000E+00
         0.00000E+00
         0.00000E+00
         0.00000E+00
         0.00000E+00
         0.00000E+00
         0.00000E+00
         0.00000E+00
         0.00000E+00
         0.00000E+00
         0.00000E+00
         0.00000E+00
         0.00000E+00
         0.00000E+00
         0.00000E+00
         0.00000E+00
         0.00000E+00
         0.00000E+00
         0.00000E+00
         0.00000E+00
         0.00000E+00
         0.00000E+00
         0.00000E+00
         0.00000E+00
         0.00000E+00
         0.00000E+00
         0.00000E+00
         0.00000E+00
         0.00000E+00
         0.00000E+00
         0.00000E+00
         0.00000E+00
         0.00000E+00
         0.00000E+00
         0.00000E+00
         0.00000E+00
         0.00000E+00
         0.00000E+00
         0.00000E+00
         0.00000E+00
         0.00000E+00
         0.00000E+00
         0.00000E+00
         0.00000E+00
         0.00000E+00
         0.00000E+00
         0.00000E+00
         0.00000E+00
         0.00000E+00
         0.00000E+00
         0.00000E+00
         0.00000E+00
         0.00000E+00
         0.00000E+00
         0.00000E+00
         0.00000E+00
         0.00000E+00
         0.00000E+00
         0.00000E+00
         0.00000E+00
         0.00000E+00
         0.00000E+00
         0.00000E+00
         0.00000E+00
         0.00000E+00
         0.00000E+00
         0.00000E+00
         0.00000E+00
         0.00000E+00
         0.00000E+00
         0.00000E+00
         0.00000E+00
         0.00000E+00
         0.00000E+00
         0.00000E+00
         0.00000E+00
         0.00000E+00
         0.00000E+00
         0.00000E+00
         0.00000E+00
         0.00000E+00
         0.00000E+00
         0.00000E+00
         0.00000E+00
         0.00000E+00
         0.00000E+00
         0.00000E+00
         0.00000E+00
         0.00000E+00
         0.00000E+00
         0.00000E+00
         0.00000E+00
         0.00000E+00
         0.00000E+00
         0.00000E+00
         0.00000E+00
         0.00000E+00
         0.00000E+00
         0.00000E+00
         0.00000E+00
         0.00000E+00
         0.00000E+00
         0.00000E+00
         0.00000E+00
         0.00000E+00
         0.00000E+00
         0.00000E+00
         0.00000E+00
         0.00000E+00
         0.00000E+00
         0.00000E+00
         0.00000E+00
         0.00000E+00
         0.00000E+00
         0.00000E+00
         0.00000E+00
         0.00000E+00
         0.00000E+00
         0.00000E+00
         0.00000E+00
         0.00000E+00
         0.00000E+00
         0.00000E+00
         0.00000E+00
         0.00000E+00
         0.00000E+00
         0.00000E+00
         0.00000E+00
         0.00000E+00
         0.00000E+00
         0.00000E+00
         0.00000E+00
         0.00000E+00
         0.00000E+00
         0.00000E+00
         0.00000E+00
         0.00000E+00
         0.00000E+00
         0.00000E+00
         0.00000E+00
         0.00000E+00
         0.00000E+00
         0.00000E+00
         0.00000E+00
         0.00000E+00
         0.00000E+00
         0.00000E+00
         0.00000E+00
         0.00000E+00
         0.00000E+00
         0.00000E+00
         0.00000E+00
         0.00000E+00
         0.00000E+00
         0.00000E+00
         0.00000E+00
         0.00000E+00
         0.00000E+00
         0.00000E+00
         0.00000E+00
         0.00000E+00
         0.00000E+00
         0.00000E+00
         0.00000E+00
         0.00000E+00
         0.00000E+00
         0.00000E+00
         0.00000E+00
         0.00000E+00
         0.00000E+00
         0.00000E+00
         0.00000E+00
         0.00000E+00
         0.00000E+00
         0.00000E+00
         0.00000E+00
         0.00000E+00
         0.00000E+00
         0.00000E+00
         0.00000E+00
         0.00000E+00
         0.00000E+00
         0.00000E+00
         0.00000E+00
         0.00000E+00
         0.00000E+00
         0.00000E+00
         0.00000E+00
         0.00000E+00
         0.00000E+00
         0.00000E+00
         0.00000E+00
         0.00000E+00
         0.00000E+00
         0.00000E+00
         0.00000E+00
         0.00000E+00
         0.00000E+00
         0.00000E+00
         0.00000E+00
         0.00000E+00
         0.00000E+00
         0.00000E+00
         0.00000E+00
         0.00000E+00
         0.00000E+00
         0.00000E+00
         0.00000E+00
         0.00000E+00
         0.00000E+00
         0.00000E+00
         0.00000E+00
         0.00000E+00
         0.00000E+00
         0.00000E+00
         0.00000E+00
         0.00000E+00
         0.00000E+00
         0.00000E+00
         0.00000E+00
         0.00000E+00
         0.00000E+00
         0.00000E+00
         0.00000E+00
         0.00000E+00
         0.00000E+00
         0.00000E+00
         0.00000E+00
         0.00000E+00
         0.00000E+00
         0.00000E+00
         0.00000E+00
         0.00000E+00
         0.00000E+00
         0.00000E+00
         0.00000E+00
         0.00000E+00
         0.00000E+00
         0.00000E+00
         0.00000E+00
         0.00000E+00
         0.00000E+00
         0.00000E+00
         0.00000E+00
         0.00000E+00
         0.00000E+00
         0.00000E+00
         0.00000E+00
         0.00000E+00
         0.00000E+00
         0.00000E+00
         0.00000E+00
         0.00000E+00
         0.00000E+00
         0.00000E+00
         0.00000E+00
         0.00000E+00
         0.00000E+00
         0.00000E+00
         0.00000E+00
         0.00000E+00
         0.00000E+00
         0.00000E+00
         0.00000E+00
         0.00000E+00
         0.00000E+00
         0.00000E+00
         0.00000E+00
         0.00000E+00
         0.00000E+00
         0.00000E+00
         0.00000E+00
         0.00000E+00
         0.00000E+00
         0.00000E+00
         0.00000E+00
         0.00000E+00
         0.00000E+00
         0.00000E+00
         0.00000E+00
         0.00000E+00
         0.00000E+00
         0.00000E+00
         0.00000E+00
         0.00000E+00
         0.00000E+00
         0.00000E+00
         0.00000E+00
         0.00000E+00
         0.00000E+00
         0.00000E+00
         0.00000E+00
         0.00000E+00
         0.00000E+00
         0.00000E+00
         0.00000E+00
         0.00000E+00
         0.00000E+00
         0.00000E+00
         0.00000E+00
         0.00000E+00
         0.00000E+00
         0.00000E+00
         0.00000E+00
         0.00000E+00
         0.00000E+00
         0.00000E+00
         0.00000E+00
         0.00000E+00
         0.00000E+00
         0.00000E+00
         0.00000E+00
         0.00000E+00
         0.00000E+00
         0.00000E+00
         0.00000E+00
         0.00000E+00
         0.00000E+00
         0.00000E+00
         0.00000E+00
         0.00000E+00
         0.00000E+00
         0.00000E+00
         0.00000E+00
         0.00000E+00
         0.00000E+00
         0.00000E+00
         0.00000E+00
         0.00000E+00
         0.00000E+00
         0.00000E+00
         0.00000E+00
         0.00000E+00
         0.00000E+00
         0.00000E+00
         0.00000E+00
         0.00000E+00
         0.00000E+00
         0.00000E+00
         0.00000E+00
         0.00000E+00
         0.00000E+00
         0.00000E+00
         0.00000E+00
         0.00000E+00
         0.00000E+00
         0.00000E+00
         0.00000E+00
         0.00000E+00
         0.00000E+00
         0.00000E+00
         0.00000E+00
         0.00000E+00
         0.00000E+00
         0.00000E+00
         0.00000E+00
         0.00000E+00
         0.00000E+00
         0.00000E+00
         0.00000E+00
         0.00000E+00
         0.00000E+00
         0.00000E+00
         0.00000E+00
         0.00000E+00
         0.00000E+00
         0.00000E+00
         0.00000E+00
         0.00000E+00
         0.00000E+00
         0.00000E+00
         0.00000E+00
         0.00000E+00
         0.00000E+00
         0.00000E+00
         0.00000E+00
         0.00000E+00
         0.00000E+00
         0.00000E+00
         0.00000E+00
         0.00000E+00
         0.00000E+00
         0.00000E+00
         0.00000E+00
         0.00000E+00
         0.00000E+00
         0.00000E+00
         0.00000E+00
         0.00000E+00
         0.00000E+00
         0.00000E+00
         0.00000E+00
         0.00000E+00
         0.00000E+00
         0.00000E+00
         0.00000E+00
         0.00000E+00
         0.00000E+00
         0.00000E+00
         0.00000E+00
         0.00000E+00
         0.00000E+00
         0.00000E+00
         0.00000E+00
         0.00000E+00
         0.00000E+00
         0.00000E+00
         0.00000E+00
         0.00000E+00
         0.00000E+00
         0.00000E+00
         0.00000E+00
         0.00000E+00
         0.00000E+00
         0.00000E+00
         0.00000E+00
         0.00000E+00
         0.00000E+00
         0.00000E+00
         0.00000E+00
         0.00000E+00
         0.00000E+00
         0.00000E+00
         0.00000E+00
         0.00000E+00
         0.00000E+00
         0.00000E+00
         0.00000E+00
         0.00000E+00
         0.00000E+00
         0.00000E+00
         0.00000E+00
         0.00000E+00
         0.00000E+00
         0.00000E+00
         0.00000E+00
         0.00000E+00
         0.00000E+00
         0.00000E+00
         0.00000E+00
         0.00000E+00
         0.00000E+00
         0.00000E+00
         0.00000E+00
         0.00000E+00
         0.00000E+00
         0.00000E+00
         0.00000E+00
         0.00000E+00
         0.00000E+00
         0.00000E+00
         0.00000E+00
         0.00000E+00
         0.00000E+00
         0.00000E+00
         0.00000E+00
         0.00000E+00
         0.00000E+00
         0.00000E+00
         0.00000E+00
         0.00000E+00
         0.00000E+00
         0.00000E+00
         0.00000E+00
         0.00000E+00
         0.00000E+00
         0.00000E+00
         0.00000E+00
         0.00000E+00
         0.00000E+00
         0.00000E+00
         0.00000E+00
         0.00000E+00
         0.00000E+00
         0.00000E+00
         0.00000E+00
         0.00000E+00
         0.00000E+00
         0.00000E+00
         0.00000E+00
         0.00000E+00
         0.00000E+00
         0.00000E+00
         0.00000E+00
         0.00000E+00
         0.00000E+00
         0.00000E+00
         0.00000E+00
         0.00000E+00
         0.00000E+00
         0.00000E+00
         0.00000E+00
         0.00000E+00
         0.00000E+00
         0.00000E+00
         0.00000E+00
         0.00000E+00
         0.00000E+00
         0.00000E+00
         0.00000E+00
         0.00000E+00
         0.00000E+00
         0.00000E+00
         0.00000E+00
         0.00000E+00
         0.00000E+00
         0.00000E+00
         0.00000E+00
         0.00000E+00
         0.00000E+00
         0.00000E+00
         0.00000E+00
         0.00000E+00
         0.00000E+00
         0.00000E+00
         0.00000E+00
         0.00000E+00
         0.00000E+00
         0.00000E+00
         0.00000E+00
         0.00000E+00
         0.00000E+00
         0.00000E+00
         0.00000E+00
         0.00000E+00
         0.00000E+00
         0.00000E+00
         0.00000E+00
         0.00000E+00
         0.00000E+00
         0.00000E+00
         0.00000E+00
         0.00000E+00
         0.00000E+00
         0.00000E+00
         0.00000E+00
         0.00000E+00
         0.00000E+00
         0.00000E+00
         0.00000E+00
         0.00000E+00
         0.00000E+00
         0.00000E+00
         0.00000E+00
         0.00000E+00
         0.00000E+00
         0.00000E+00
         0.00000E+00
         0.00000E+00
         0.00000E+00
         0.00000E+00
         0.00000E+00
         0.00000E+00
         0.00000E+00
         0.00000E+00
         0.00000E+00
         0.00000E+00
         0.00000E+00
         0.00000E+00
         0.00000E+00
         0.00000E+00
         0.00000E+00
         0.00000E+00
         0.00000E+00
         0.00000E+00
         0.00000E+00
         0.00000E+00
         0.00000E+00
         0.00000E+00
         0.00000E+00
         0.00000E+00
         0.00000E+00
         0.00000E+00
         0.00000E+00
         0.00000E+00
         0.00000E+00
         0.00000E+00
         0.00000E+00
         0.00000E+00
         0.00000E+00
         0.00000E+00
         0.00000E+00
         0.00000E+00
         0.00000E+00
         0.00000E+00
         0.00000E+00
         0.00000E+00
         0.00000E+00
         0.00000E+00
         0.00000E+00
         0.00000E+00
         0.00000E+00
         0.00000E+00
         0.00000E+00
         0.00000E+00
         0.00000E+00
         0.00000E+00
         0.00000E+00
         0.00000E+00
         0.00000E+00
         0.00000E+00
         0.00000E+00
         0.00000E+00
         0.00000E+00
         0.00000E+00
         0.00000E+00
         0.00000E+00
         0.00000E+00
         0.00000E+00
         0.00000E+00
         0.00000E+00
         0.00000E+00
         0.00000E+00
         0.00000E+00
         0.00000E+00
         0.00000E+00
         0.00000E+00
         0.00000E+00
         0.00000E+00
         0.00000E+00
         0.00000E+00
         0.00000E+00
         0.00000E+00
         0.00000E+00
         0.00000E+00
         0.00000E+00
         0.00000E+00
         0.00000E+00
         0.00000E+00
         0.00000E+00
         0.00000E+00
         0.00000E+00
         0.00000E+00
         0.00000E+00
         0.00000E+00
         0.00000E+00
         0.00000E+00
         0.00000E+00
         0.00000E+00
         0.00000E+00
         0.00000E+00
         0.00000E+00
         0.00000E+00
         0.00000E+00
         0.00000E+00
         0.00000E+00
         0.00000E+00
         0.00000E+00
         0.00000E+00
         0.00000E+00
         0.00000E+00
         0.00000E+00
         0.00000E+00
         0.00000E+00
         0.00000E+00
         0.00000E+00
         0.00000E+00
         0.00000E+00
         0.00000E+00
         0.00000E+00
         0.00000E+00
         0.00000E+00
         0.00000E+00
         0.00000E+00
         0.00000E+00
         0.00000E+00
         0.00000E+00
         0.00000E+00
         0.00000E+00
         0.00000E+00
         0.00000E+00
         0.00000E+00
         0.00000E+00
         0.00000E+00
         0.00000E+00
         0.00000E+00
         0.00000E+00
         0.00000E+00
         0.00000E+00
         0.00000E+00
         0.00000E+00
         0.00000E+00
         0.00000E+00
         0.00000E+00
         0.00000E+00
         0.00000E+00
         0.00000E+00
         0.00000E+00
         0.00000E+00
         0.00000E+00
         0.00000E+00
         0.00000E+00
         0.00000E+00
         0.00000E+00
         0.00000E+00
         0.00000E+00
         0.00000E+00
         0.00000E+00
         0.00000E+00
         0.00000E+00
         0.00000E+00
         0.00000E+00
         0.00000E+00
         0.00000E+00
         0.00000E+00
         0.00000E+00
         0.00000E+00
         0.00000E+00
         0.00000E+00
         0.00000E+00
         0.00000E+00
         0.00000E+00
         0.00000E+00
         0.00000E+00
         0.00000E+00
         0.00000E+00
         0.00000E+00
         0.00000E+00
         0.00000E+00
         0.00000E+00
         0.00000E+00
         0.00000E+00
         0.00000E+00
         0.00000E+00
         0.00000E+00
         0.00000E+00
         0.00000E+00
         0.00000E+00
         0.00000E+00
         0.00000E+00
         0.00000E+00
         0.00000E+00
         0.00000E+00
         0.00000E+00
         0.00000E+00
         0.00000E+00
         0.00000E+00
         0.00000E+00
         0.00000E+00
         0.00000E+00
         0.00000E+00
         0.00000E+00
         0.00000E+00
         0.00000E+00
         0.00000E+00
         0.00000E+00
         0.00000E+00
         0.00000E+00
         0.00000E+00
         0.00000E+00
         0.00000E+00
         0.00000E+00
         0.00000E+00
         0.00000E+00
         0.00000E+00
         0.00000E+00
         0.00000E+00
         0.00000E+00
         0.00000E+00
         0.00000E+00
         0.00000E+00
         0.00000E+00
         0.00000E+00
         0.00000E+00
         0.00000E+00
         0.00000E+00
         0.00000E+00
         0.00000E+00
         0.00000E+00
         0.00000E+00
         0.00000E+00
         0.00000E+00
         0.00000E+00
         0.00000E+00
         0.00000E+00
         0.00000E+00
         0.00000E+00
         0.00000E+00
         0.00000E+00
         0.00000E+00
         0.00000E+00
         0.00000E+00
         0.00000E+00
         0.00000E+00
         0.00000E+00
         0.00000E+00
         0.00000E+00
         0.00000E+00
         0.00000E+00
         0.00000E+00
         0.00000E+00
         0.00000E+00
         0.00000E+00
         0.00000E+00
         0.00000E+00
         0.00000E+00
         0.00000E+00
         0.00000E+00
         0.00000E+00
         0.00000E+00
         0.00000E+00
         0.00000E+00
         0.00000E+00
         0.00000E+00
         0.00000E+00
         0.00000E+00
         0.00000E+00
         0.00000E+00
         0.00000E+00
         0.00000E+00
         0.00000E+00
         0.00000E+00
         0.00000E+00
         0.00000E+00
         0.00000E+00
         0.00000E+00
         0.00000E+00
         0.00000E+00
         0.00000E+00
         0.00000E+00
         0.00000E+00
         0.00000E+00
         0.00000E+00
         0.00000E+00
         0.00000E+00
         0.00000E+00
         0.00000E+00
         0.00000E+00
         0.00000E+00
         0.00000E+00
         0.00000E+00
         0.00000E+00
         0.00000E+00
         0.00000E+00
         0.00000E+00
         0.00000E+00
         0.00000E+00
         0.00000E+00
         0.00000E+00
         0.00000E+00
         0.00000E+00
         0.00000E+00
         0.00000E+00
         0.00000E+00
         0.00000E+00
         0.00000E+00
         0.00000E+00
         0.00000E+00
         0.00000E+00
         0.00000E+00
         0.00000E+00
         0.00000E+00
         0.00000E+00
         0.00000E+00
         0.00000E+00
         0.00000E+00
         0.00000E+00
         0.00000E+00
         0.00000E+00
         0.00000E+00
         0.00000E+00
         0.00000E+00
         0.00000E+00
         0.00000E+00
         0.00000E+00
         0.00000E+00
         0.00000E+00
         0.00000E+00
         0.00000E+00
         0.00000E+00
         0.00000E+00
         0.00000E+00
         0.00000E+00
         0.00000E+00
         0.00000E+00
         0.00000E+00
         0.00000E+00
         0.00000E+00
         0.00000E+00
         0.00000E+00
         0.00000E+00
         0.00000E+00
         0.00000E+00
         0.00000E+00
         0.00000E+00
         0.00000E+00
         0.00000E+00
         0.00000E+00
         0.00000E+00
         0.00000E+00
         0.00000E+00
         0.00000E+00
         0.00000E+00
         0.00000E+00
         0.00000E+00
         0.00000E+00
         0.00000E+00
         0.00000E+00
         0.00000E+00
         0.00000E+00
         0.00000E+00
         0.00000E+00
         0.00000E+00
         0.00000E+00
         0.00000E+00
         0.00000E+00
         0.00000E+00
         0.00000E+00
         0.00000E+00
         0.00000E+00
         0.00000E+00
         0.00000E+00
         0.00000E+00
         0.00000E+00
         0.00000E+00
         0.00000E+00
         0.00000E+00
         0.00000E+00
         0.00000E+00
         0.00000E+00
         0.00000E+00
         0.00000E+00
         0.00000E+00
         0.00000E+00
         0.00000E+00
         0.00000E+00
         0.00000E+00
         0.00000E+00
         0.00000E+00
         0.00000E+00
         0.00000E+00
         0.00000E+00
         0.00000E+00
         0.00000E+00
         0.00000E+00
         0.00000E+00
         0.00000E+00
         0.00000E+00
         0.00000E+00
         0.00000E+00
         0.00000E+00
         0.00000E+00
         0.00000E+00
         0.00000E+00
         0.00000E+00
         0.00000E+00
         0.00000E+00
         0.00000E+00
         0.00000E+00
         0.00000E+00
         0.00000E+00
         0.00000E+00
         0.00000E+00
         0.00000E+00
         0.00000E+00
         0.00000E+00
         0.00000E+00
         0.00000E+00
         0.00000E+00
         0.00000E+00
         0.00000E+00
         0.00000E+00
         0.00000E+00
         0.00000E+00
         0.00000E+00
         0.00000E+00
         0.00000E+00
         0.00000E+00
         0.00000E+00
         0.00000E+00
         0.00000E+00
         0.00000E+00
         0.00000E+00
         0.00000E+00
         0.00000E+00
         0.00000E+00
         0.00000E+00
         0.00000E+00
         0.00000E+00
         0.00000E+00
         0.00000E+00
         0.00000E+00
         0.00000E+00
         0.00000E+00
         0.00000E+00
         0.00000E+00
         0.00000E+00
         0.00000E+00
         0.00000E+00
         0.00000E+00
         0.00000E+00
         0.00000E+00
         0.00000E+00
         0.00000E+00
         0.00000E+00
         0.00000E+00
         0.00000E+00
         0.00000E+00
         0.00000E+00
         0.00000E+00
         0.00000E+00
         0.00000E+00
         0.00000E+00
         0.00000E+00
         0.00000E+00
         0.00000E+00
         0.00000E+00
         0.00000E+00
         0.00000E+00
         0.00000E+00
         0.00000E+00
         0.00000E+00
         0.00000E+00
         0.00000E+00
         0.00000E+00
         0.00000E+00
         0.00000E+00
         0.00000E+00
         0.00000E+00
         0.00000E+00
         0.00000E+00
         0.00000E+00
         0.00000E+00
         0.00000E+00
         0.00000E+00
         0.00000E+00
         0.00000E+00
         0.00000E+00
         0.00000E+00
         0.00000E+00
         0.00000E+00
         0.00000E+00
         0.00000E+00
         0.00000E+00
         0.00000E+00
         0.00000E+00
         0.00000E+00
         0.00000E+00
         0.00000E+00
         0.00000E+00
         0.00000E+00
         0.00000E+00
         0.00000E+00
         0.00000E+00
         0.00000E+00
         0.00000E+00
         0.00000E+00
         0.00000E+00
         0.00000E+00
         0.00000E+00
         0.00000E+00
         0.00000E+00
         0.00000E+00
         0.00000E+00
         0.00000E+00
         0.00000E+00
         0.00000E+00
         0.00000E+00
         0.00000E+00
         0.00000E+00
         0.00000E+00
         0.00000E+00
         0.00000E+00
         0.00000E+00
         0.00000E+00
         0.00000E+00
         0.00000E+00
         0.00000E+00
         0.00000E+00
         0.00000E+00
         0.00000E+00
         0.00000E+00
         0.00000E+00
         0.00000E+00
         0.00000E+00
         0.00000E+00
         0.00000E+00
         0.00000E+00
         0.00000E+00
         0.00000E+00
         0.00000E+00
         0.00000E+00
         0.00000E+00
         0.00000E+00
         0.00000E+00
         0.00000E+00
         0.00000E+00
         0.00000E+00
         0.00000E+00
         0.00000E+00
         0.00000E+00
         0.00000E+00
         0.00000E+00
         0.00000E+00
         0.00000E+00
         0.00000E+00
         0.00000E+00
         0.00000E+00
         0.00000E+00
         0.00000E+00
         0.00000E+00
         0.00000E+00
         0.00000E+00
         0.00000E+00
         0.00000E+00
         0.00000E+00
         0.00000E+00
         0.00000E+00
         0.00000E+00
         0.00000E+00
         0.00000E+00
         0.00000E+00
         0.00000E+00
         0.00000E+00
         0.00000E+00
         0.00000E+00
         0.00000E+00
         0.00000E+00
         0.00000E+00
         0.00000E+00
         0.00000E+00
         0.00000E+00
         0.00000E+00
         0.00000E+00
         0.00000E+00
         0.00000E+00
         0.00000E+00
         0.00000E+00
         0.00000E+00
         0.00000E+00
         0.00000E+00
         0.00000E+00
         0.00000E+00
         0.00000E+00
         0.00000E+00
         0.00000E+00
         0.00000E+00
         0.00000E+00
         0.00000E+00
         0.00000E+00
         0.00000E+00
         0.00000E+00
         0.00000E+00
         0.00000E+00
         0.00000E+00
         0.00000E+00
         0.00000E+00
         0.00000E+00
         0.00000E+00
         0.00000E+00
         0.00000E+00
         0.00000E+00
         0.00000E+00
         0.00000E+00
         0.00000E+00
         0.00000E+00
         0.00000E+00
         0.00000E+00
         0.00000E+00
         0.00000E+00
         0.00000E+00
         0.00000E+00
         0.00000E+00
         0.00000E+00
         0.00000E+00
         0.00000E+00
         0.00000E+00
         0.00000E+00
         0.00000E+00
         0.00000E+00
         0.00000E+00
         0.00000E+00
         0.00000E+00
         0.00000E+00
         0.00000E+00
         0.00000E+00
         0.00000E+00
         0.00000E+00
         0.00000E+00
         0.00000E+00
         0.00000E+00
         0.00000E+00
         0.00000E+00
         0.00000E+00
         0.00000E+00
         0.00000E+00
         0.00000E+00
         0.00000E+00
         0.00000E+00
         0.00000E+00
         0.00000E+00
         0.00000E+00
         0.00000E+00
         0.00000E+00
         0.00000E+00
         0.00000E+00
         0.00000E+00
         0.00000E+00
         0.00000E+00
         0.00000E+00
         0.00000E+00
         0.00000E+00
         0.00000E+00
         0.00000E+00
         0.00000E+00
         0.00000E+00
         0.00000E+00
         0.00000E+00
         0.00000E+00
         0.00000E+00
         0.00000E+00
         0.00000E+00
         0.00000E+00
         0.00000E+00
         0.00000E+00
         0.00000E+00
         0.00000E+00
         0.00000E+00
         0.00000E+00
         0.00000E+00
         0.00000E+00
         0.00000E+00
         0.00000E+00
         0.00000E+00
         0.00000E+00
         0.00000E+00
         0.00000E+00
         0.00000E+00
         0.00000E+00
         0.00000E+00
         0.00000E+00
         0.00000E+00
         0.00000E+00
         0.00000E+00
         0.00000E+00
         0.00000E+00
         0.00000E+00
         0.00000E+00
         0.00000E+00
         0.00000E+00
         0.00000E+00
         0.00000E+00
         0.00000E+00
         0.00000E+00
         0.00000E+00
         0.00000E+00
         0.00000E+00
         0.00000E+00
         0.00000E+00
         0.00000E+00
         0.00000E+00
         0.00000E+00
         0.00000E+00
         0.00000E+00
         0.00000E+00
         0.00000E+00
         0.00000E+00
         0.00000E+00
         0.00000E+00
         0.00000E+00
         0.00000E+00
         0.00000E+00
         0.00000E+00
         0.00000E+00
         0.00000E+00
         0.00000E+00
         0.00000E+00
         0.00000E+00
         0.00000E+00
         0.00000E+00
         0.00000E+00
         0.00000E+00
         0.00000E+00
         0.00000E+00
         0.00000E+00
         0.00000E+00
         0.00000E+00
         0.00000E+00
         0.00000E+00
         0.00000E+00
         0.00000E+00
         0.00000E+00
         0.00000E+00
         0.00000E+00
         0.00000E+00
         0.00000E+00
         0.00000E+00
         0.00000E+00
         0.00000E+00
         0.00000E+00
         0.00000E+00
         0.00000E+00
         0.00000E+00
         0.00000E+00
         0.00000E+00
         0.00000E+00
         0.00000E+00
         0.00000E+00
         0.00000E+00
         0.00000E+00
         0.00000E+00
         0.00000E+00
         0.00000E+00
         0.00000E+00
         0.00000E+00
         0.00000E+00
         0.00000E+00
         0.00000E+00
         0.00000E+00
         0.00000E+00
         0.00000E+00
         0.00000E+00
         0.00000E+00
         0.00000E+00
         0.00000E+00
         0.00000E+00
         0.00000E+00
         0.00000E+00
         0.00000E+00
         0.00000E+00
  
SCALARS                     velocity_z  double 1
LOOKUP_TABLE default
        -0.37300E+03
        -0.37300E+03
        -0.37300E+03
        -0.37300E+03
         0.00000E+00
         0.00000E+00
         0.00000E+00
         0.00000E+00
        -0.37300E+03
        -0.37300E+03
         0.00000E+00
         0.00000E+00
        -0.37300E+03
        -0.37300E+03
         0.00000E+00
         0.00000E+00
        -0.37300E+03
        -0.37300E+03
         0.00000E+00
         0.00000E+00
        -0.37300E+03
        -0.37300E+03
        -0.37300E+03
         0.00000E+00
         0.00000E+00
         0.00000E+00
        -0.37300E+03
        -0.37300E+03
         0.00000E+00
         0.00000E+00
        -0.37300E+03
        -0.37300E+03
        -0.37300E+03
         0.00000E+00
         0.00000E+00
         0.00000E+00
        -0.37300E+03
        -0.37300E+03
         0.00000E+00
         0.00000E+00
        -0.37300E+03
        -0.37300E+03
         0.00000E+00
         0.00000E+00
        -0.37300E+03
        -0.37300E+03
         0.00000E+00
         0.00000E+00
        -0.37300E+03
         0.00000E+00
        -0.37300E+03
         0.00000E+00
        -0.37300E+03
         0.00000E+00
        -0.37300E+03
         0.00000E+00
        -0.37300E+03
        -0.37300E+03
         0.00000E+00
         0.00000E+00
        -0.37300E+03
        -0.37300E+03
         0.00000E+00
         0.00000E+00
        -0.37300E+03
         0.00000E+00
        -0.37300E+03
         0.00000E+00
        -0.37300E+03
        -0.37300E+03
         0.00000E+00
         0.00000E+00
        -0.37300E+03
         0.00000E+00
        -0.37300E+03
         0.00000E+00
        -0.37300E+03
         0.00000E+00
        -0.37300E+03
         0.00000E+00
        -0.37300E+03
        -0.37300E+03
         0.00000E+00
         0.00000E+00
        -0.37300E+03
         0.00000E+00
        -0.37300E+03
         0.00000E+00
        -0.37300E+03
         0.00000E+00
        -0.37300E+03
        -0.37300E+03
         0.00000E+00
         0.00000E+00
        -0.37300E+03
         0.00000E+00
        -0.37300E+03
         0.00000E+00
        -0.37300E+03
         0.00000E+00
        -0.37300E+03
        -0.37300E+03
         0.00000E+00
         0.00000E+00
        -0.37300E+03
        -0.37300E+03
         0.00000E+00
         0.00000E+00
        -0.37300E+03
         0.00000E+00
        -0.37300E+03
         0.00000E+00
        -0.37300E+03
         0.00000E+00
        -0.37300E+03
         0.00000E+00
        -0.37300E+03
         0.00000E+00
        -0.37300E+03
         0.00000E+00
        -0.37300E+03
         0.00000E+00
        -0.37300E+03
         0.00000E+00
        -0.37300E+03
         0.00000E+00
        -0.37300E+03
         0.00000E+00
        -0.37300E+03
         0.00000E+00
        -0.37300E+03
         0.00000E+00
        -0.37300E+03
         0.00000E+00
        -0.37300E+03
         0.00000E+00
        -0.37300E+03
         0.00000E+00
        -0.37300E+03
         0.00000E+00
        -0.37300E+03
         0.00000E+00
        -0.37300E+03
         0.00000E+00
        -0.37300E+03
         0.00000E+00
        -0.37300E+03
         0.00000E+00
        -0.37300E+03
         0.00000E+00
        -0.37300E+03
         0.00000E+00
        -0.37300E+03
         0.00000E+00
        -0.37300E+03
         0.00000E+00
        -0.37300E+03
        -0.37300E+03
        -0.37300E+03
        -0.37300E+03
        -0.37300E+03
        -0.37300E+03
        -0.37300E+03
        -0.37300E+03
        -0.37300E+03
        -0.37300E+03
        -0.37300E+03
        -0.37300E+03
        -0.37300E+03
        -0.37300E+03
        -0.37300E+03
        -0.37300E+03
        -0.37300E+03
        -0.37300E+03
        -0.37300E+03
        -0.37300E+03
        -0.37300E+03
        -0.37300E+03
        -0.37300E+03
        -0.37300E+03
        -0.37300E+03
        -0.37300E+03
        -0.37300E+03
        -0.37300E+03
        -0.37300E+03
        -0.37300E+03
        -0.37300E+03
        -0.37300E+03
        -0.37300E+03
        -0.37300E+03
        -0.37300E+03
        -0.37300E+03
        -0.37300E+03
        -0.37300E+03
        -0.37300E+03
        -0.37300E+03
        -0.37300E+03
        -0.37300E+03
        -0.37300E+03
        -0.37300E+03
        -0.37300E+03
        -0.37300E+03
        -0.37300E+03
        -0.37300E+03
        -0.37300E+03
        -0.37300E+03
        -0.37300E+03
        -0.37300E+03
        -0.37300E+03
        -0.37300E+03
        -0.37300E+03
        -0.37300E+03
        -0.37300E+03
        -0.37300E+03
        -0.37300E+03
        -0.37300E+03
        -0.37300E+03
        -0.37300E+03
        -0.37300E+03
        -0.37300E+03
        -0.37300E+03
        -0.37300E+03
        -0.37300E+03
        -0.37300E+03
        -0.37300E+03
        -0.37300E+03
        -0.37300E+03
        -0.37300E+03
        -0.37300E+03
        -0.37300E+03
        -0.37300E+03
        -0.37300E+03
        -0.37300E+03
        -0.37300E+03
        -0.37300E+03
        -0.37300E+03
        -0.37300E+03
        -0.37300E+03
        -0.37300E+03
        -0.37300E+03
        -0.37300E+03
        -0.37300E+03
        -0.37300E+03
        -0.37300E+03
        -0.37300E+03
        -0.37300E+03
        -0.37300E+03
        -0.37300E+03
        -0.37300E+03
        -0.37300E+03
        -0.37300E+03
        -0.37300E+03
        -0.37300E+03
        -0.37300E+03
        -0.37300E+03
        -0.37300E+03
        -0.37300E+03
        -0.37300E+03
        -0.37300E+03
        -0.37300E+03
        -0.37300E+03
        -0.37300E+03
        -0.37300E+03
        -0.37300E+03
        -0.37300E+03
        -0.37300E+03
        -0.37300E+03
        -0.37300E+03
        -0.37300E+03
        -0.37300E+03
        -0.37300E+03
        -0.37300E+03
        -0.37300E+03
        -0.37300E+03
        -0.37300E+03
        -0.37300E+03
        -0.37300E+03
        -0.37300E+03
        -0.37300E+03
        -0.37300E+03
        -0.37300E+03
        -0.37300E+03
        -0.37300E+03
        -0.37300E+03
        -0.37300E+03
        -0.37300E+03
        -0.37300E+03
        -0.37300E+03
        -0.37300E+03
        -0.37300E+03
        -0.37300E+03
        -0.37300E+03
        -0.37300E+03
        -0.37300E+03
        -0.37300E+03
        -0.37300E+03
        -0.37300E+03
        -0.37300E+03
        -0.37300E+03
        -0.37300E+03
        -0.37300E+03
        -0.37300E+03
        -0.37300E+03
        -0.37300E+03
        -0.37300E+03
        -0.37300E+03
        -0.37300E+03
        -0.37300E+03
        -0.37300E+03
        -0.37300E+03
        -0.37300E+03
        -0.37300E+03
        -0.37300E+03
        -0.37300E+03
        -0.37300E+03
        -0.37300E+03
        -0.37300E+03
        -0.37300E+03
        -0.37300E+03
        -0.37300E+03
        -0.37300E+03
        -0.37300E+03
        -0.37300E+03
        -0.37300E+03
        -0.37300E+03
        -0.37300E+03
        -0.37300E+03
        -0.37300E+03
        -0.37300E+03
        -0.37300E+03
        -0.37300E+03
        -0.37300E+03
        -0.37300E+03
        -0.37300E+03
        -0.37300E+03
        -0.37300E+03
        -0.37300E+03
        -0.37300E+03
        -0.37300E+03
        -0.37300E+03
        -0.37300E+03
        -0.37300E+03
        -0.37300E+03
        -0.37300E+03
        -0.37300E+03
        -0.37300E+03
        -0.37300E+03
        -0.37300E+03
        -0.37300E+03
        -0.37300E+03
        -0.37300E+03
        -0.37300E+03
        -0.37300E+03
        -0.37300E+03
        -0.37300E+03
        -0.37300E+03
        -0.37300E+03
        -0.37300E+03
        -0.37300E+03
        -0.37300E+03
        -0.37300E+03
        -0.37300E+03
        -0.37300E+03
        -0.37300E+03
        -0.37300E+03
        -0.37300E+03
        -0.37300E+03
        -0.37300E+03
        -0.37300E+03
        -0.37300E+03
        -0.37300E+03
        -0.37300E+03
        -0.37300E+03
        -0.37300E+03
        -0.37300E+03
        -0.37300E+03
        -0.37300E+03
        -0.37300E+03
        -0.37300E+03
        -0.37300E+03
        -0.37300E+03
        -0.37300E+03
        -0.37300E+03
        -0.37300E+03
        -0.37300E+03
        -0.37300E+03
        -0.37300E+03
        -0.37300E+03
        -0.37300E+03
        -0.37300E+03
        -0.37300E+03
        -0.37300E+03
        -0.37300E+03
        -0.37300E+03
        -0.37300E+03
        -0.37300E+03
        -0.37300E+03
        -0.37300E+03
        -0.37300E+03
        -0.37300E+03
        -0.37300E+03
        -0.37300E+03
        -0.37300E+03
        -0.37300E+03
        -0.37300E+03
        -0.37300E+03
        -0.37300E+03
        -0.37300E+03
        -0.37300E+03
        -0.37300E+03
        -0.37300E+03
        -0.37300E+03
        -0.37300E+03
        -0.37300E+03
        -0.37300E+03
        -0.37300E+03
        -0.37300E+03
        -0.37300E+03
        -0.37300E+03
        -0.37300E+03
        -0.37300E+03
        -0.37300E+03
        -0.37300E+03
        -0.37300E+03
        -0.37300E+03
        -0.37300E+03
        -0.37300E+03
        -0.37300E+03
        -0.37300E+03
        -0.37300E+03
        -0.37300E+03
        -0.37300E+03
        -0.37300E+03
        -0.37300E+03
        -0.37300E+03
        -0.37300E+03
        -0.37300E+03
        -0.37300E+03
        -0.37300E+03
        -0.37300E+03
        -0.37300E+03
        -0.37300E+03
        -0.37300E+03
        -0.37300E+03
        -0.37300E+03
        -0.37300E+03
        -0.37300E+03
        -0.37300E+03
        -0.37300E+03
        -0.37300E+03
        -0.37300E+03
        -0.37300E+03
        -0.37300E+03
        -0.37300E+03
        -0.37300E+03
        -0.37300E+03
        -0.37300E+03
        -0.37300E+03
        -0.37300E+03
        -0.37300E+03
        -0.37300E+03
        -0.37300E+03
        -0.37300E+03
        -0.37300E+03
        -0.37300E+03
        -0.37300E+03
        -0.37300E+03
        -0.37300E+03
        -0.37300E+03
        -0.37300E+03
        -0.37300E+03
        -0.37300E+03
        -0.37300E+03
        -0.37300E+03
        -0.37300E+03
        -0.37300E+03
        -0.37300E+03
        -0.37300E+03
        -0.37300E+03
        -0.37300E+03
        -0.37300E+03
        -0.37300E+03
        -0.37300E+03
        -0.37300E+03
        -0.37300E+03
        -0.37300E+03
        -0.37300E+03
        -0.37300E+03
        -0.37300E+03
        -0.37300E+03
        -0.37300E+03
        -0.37300E+03
        -0.37300E+03
        -0.37300E+03
        -0.37300E+03
        -0.37300E+03
        -0.37300E+03
        -0.37300E+03
        -0.37300E+03
        -0.37300E+03
        -0.37300E+03
        -0.37300E+03
        -0.37300E+03
        -0.37300E+03
        -0.37300E+03
        -0.37300E+03
        -0.37300E+03
        -0.37300E+03
        -0.37300E+03
        -0.37300E+03
        -0.37300E+03
        -0.37300E+03
        -0.37300E+03
        -0.37300E+03
        -0.37300E+03
        -0.37300E+03
        -0.37300E+03
        -0.37300E+03
        -0.37300E+03
        -0.37300E+03
        -0.37300E+03
        -0.37300E+03
        -0.37300E+03
        -0.37300E+03
        -0.37300E+03
        -0.37300E+03
        -0.37300E+03
        -0.37300E+03
        -0.37300E+03
        -0.37300E+03
        -0.37300E+03
        -0.37300E+03
        -0.37300E+03
        -0.37300E+03
        -0.37300E+03
        -0.37300E+03
        -0.37300E+03
        -0.37300E+03
        -0.37300E+03
        -0.37300E+03
        -0.37300E+03
        -0.37300E+03
        -0.37300E+03
        -0.37300E+03
        -0.37300E+03
        -0.37300E+03
        -0.37300E+03
        -0.37300E+03
        -0.37300E+03
        -0.37300E+03
        -0.37300E+03
        -0.37300E+03
        -0.37300E+03
        -0.37300E+03
        -0.37300E+03
        -0.37300E+03
        -0.37300E+03
        -0.37300E+03
        -0.37300E+03
        -0.37300E+03
        -0.37300E+03
        -0.37300E+03
        -0.37300E+03
        -0.37300E+03
        -0.37300E+03
        -0.37300E+03
        -0.37300E+03
        -0.37300E+03
        -0.37300E+03
        -0.37300E+03
        -0.37300E+03
        -0.37300E+03
        -0.37300E+03
        -0.37300E+03
        -0.37300E+03
        -0.37300E+03
        -0.37300E+03
        -0.37300E+03
        -0.37300E+03
        -0.37300E+03
        -0.37300E+03
        -0.37300E+03
        -0.37300E+03
        -0.37300E+03
        -0.37300E+03
        -0.37300E+03
        -0.37300E+03
        -0.37300E+03
        -0.37300E+03
        -0.37300E+03
        -0.37300E+03
        -0.37300E+03
        -0.37300E+03
        -0.37300E+03
        -0.37300E+03
        -0.37300E+03
        -0.37300E+03
        -0.37300E+03
        -0.37300E+03
        -0.37300E+03
        -0.37300E+03
        -0.37300E+03
        -0.37300E+03
        -0.37300E+03
        -0.37300E+03
        -0.37300E+03
        -0.37300E+03
        -0.37300E+03
        -0.37300E+03
        -0.37300E+03
        -0.37300E+03
        -0.37300E+03
        -0.37300E+03
        -0.37300E+03
        -0.37300E+03
        -0.37300E+03
        -0.37300E+03
        -0.37300E+03
        -0.37300E+03
        -0.37300E+03
        -0.37300E+03
        -0.37300E+03
        -0.37300E+03
        -0.37300E+03
        -0.37300E+03
        -0.37300E+03
        -0.37300E+03
        -0.37300E+03
        -0.37300E+03
        -0.37300E+03
        -0.37300E+03
        -0.37300E+03
        -0.37300E+03
        -0.37300E+03
        -0.37300E+03
        -0.37300E+03
        -0.37300E+03
        -0.37300E+03
        -0.37300E+03
        -0.37300E+03
        -0.37300E+03
        -0.37300E+03
        -0.37300E+03
        -0.37300E+03
        -0.37300E+03
        -0.37300E+03
        -0.37300E+03
        -0.37300E+03
        -0.37300E+03
        -0.37300E+03
        -0.37300E+03
        -0.37300E+03
        -0.37300E+03
        -0.37300E+03
        -0.37300E+03
        -0.37300E+03
        -0.37300E+03
        -0.37300E+03
        -0.37300E+03
        -0.37300E+03
        -0.37300E+03
        -0.37300E+03
        -0.37300E+03
        -0.37300E+03
        -0.37300E+03
        -0.37300E+03
        -0.37300E+03
        -0.37300E+03
        -0.37300E+03
        -0.37300E+03
        -0.37300E+03
        -0.37300E+03
        -0.37300E+03
        -0.37300E+03
        -0.37300E+03
        -0.37300E+03
        -0.37300E+03
        -0.37300E+03
        -0.37300E+03
        -0.37300E+03
        -0.37300E+03
        -0.37300E+03
        -0.37300E+03
        -0.37300E+03
        -0.37300E+03
        -0.37300E+03
        -0.37300E+03
        -0.37300E+03
        -0.37300E+03
        -0.37300E+03
        -0.37300E+03
        -0.37300E+03
        -0.37300E+03
        -0.37300E+03
        -0.37300E+03
        -0.37300E+03
        -0.37300E+03
        -0.37300E+03
        -0.37300E+03
        -0.37300E+03
        -0.37300E+03
        -0.37300E+03
        -0.37300E+03
        -0.37300E+03
        -0.37300E+03
        -0.37300E+03
        -0.37300E+03
        -0.37300E+03
        -0.37300E+03
        -0.37300E+03
        -0.37300E+03
        -0.37300E+03
        -0.37300E+03
        -0.37300E+03
        -0.37300E+03
        -0.37300E+03
        -0.37300E+03
        -0.37300E+03
        -0.37300E+03
        -0.37300E+03
        -0.37300E+03
        -0.37300E+03
        -0.37300E+03
        -0.37300E+03
        -0.37300E+03
        -0.37300E+03
        -0.37300E+03
        -0.37300E+03
        -0.37300E+03
        -0.37300E+03
        -0.37300E+03
        -0.37300E+03
        -0.37300E+03
        -0.37300E+03
        -0.37300E+03
        -0.37300E+03
        -0.37300E+03
        -0.37300E+03
        -0.37300E+03
        -0.37300E+03
        -0.37300E+03
        -0.37300E+03
        -0.37300E+03
        -0.37300E+03
        -0.37300E+03
        -0.37300E+03
        -0.37300E+03
        -0.37300E+03
        -0.37300E+03
        -0.37300E+03
        -0.37300E+03
        -0.37300E+03
        -0.37300E+03
        -0.37300E+03
        -0.37300E+03
        -0.37300E+03
        -0.37300E+03
        -0.37300E+03
        -0.37300E+03
        -0.37300E+03
        -0.37300E+03
        -0.37300E+03
        -0.37300E+03
        -0.37300E+03
        -0.37300E+03
        -0.37300E+03
        -0.37300E+03
        -0.37300E+03
        -0.37300E+03
        -0.37300E+03
        -0.37300E+03
        -0.37300E+03
        -0.37300E+03
        -0.37300E+03
        -0.37300E+03
        -0.37300E+03
        -0.37300E+03
        -0.37300E+03
        -0.37300E+03
        -0.37300E+03
        -0.37300E+03
        -0.37300E+03
        -0.37300E+03
        -0.37300E+03
        -0.37300E+03
        -0.37300E+03
        -0.37300E+03
        -0.37300E+03
        -0.37300E+03
        -0.37300E+03
        -0.37300E+03
        -0.37300E+03
        -0.37300E+03
        -0.37300E+03
        -0.37300E+03
        -0.37300E+03
        -0.37300E+03
        -0.37300E+03
        -0.37300E+03
        -0.37300E+03
        -0.37300E+03
        -0.37300E+03
        -0.37300E+03
        -0.37300E+03
        -0.37300E+03
        -0.37300E+03
        -0.37300E+03
        -0.37300E+03
        -0.37300E+03
        -0.37300E+03
        -0.37300E+03
        -0.37300E+03
        -0.37300E+03
        -0.37300E+03
        -0.37300E+03
        -0.37300E+03
        -0.37300E+03
        -0.37300E+03
        -0.37300E+03
        -0.37300E+03
        -0.37300E+03
        -0.37300E+03
        -0.37300E+03
        -0.37300E+03
        -0.37300E+03
        -0.37300E+03
        -0.37300E+03
        -0.37300E+03
        -0.37300E+03
        -0.37300E+03
        -0.37300E+03
        -0.37300E+03
        -0.37300E+03
        -0.37300E+03
        -0.37300E+03
        -0.37300E+03
        -0.37300E+03
        -0.37300E+03
        -0.37300E+03
        -0.37300E+03
        -0.37300E+03
        -0.37300E+03
        -0.37300E+03
        -0.37300E+03
        -0.37300E+03
        -0.37300E+03
        -0.37300E+03
        -0.37300E+03
        -0.37300E+03
        -0.37300E+03
        -0.37300E+03
        -0.37300E+03
        -0.37300E+03
        -0.37300E+03
        -0.37300E+03
        -0.37300E+03
        -0.37300E+03
        -0.37300E+03
        -0.37300E+03
        -0.37300E+03
        -0.37300E+03
        -0.37300E+03
        -0.37300E+03
        -0.37300E+03
        -0.37300E+03
        -0.37300E+03
        -0.37300E+03
        -0.37300E+03
        -0.37300E+03
        -0.37300E+03
        -0.37300E+03
        -0.37300E+03
        -0.37300E+03
        -0.37300E+03
        -0.37300E+03
        -0.37300E+03
        -0.37300E+03
        -0.37300E+03
        -0.37300E+03
        -0.37300E+03
        -0.37300E+03
        -0.37300E+03
        -0.37300E+03
        -0.37300E+03
        -0.37300E+03
        -0.37300E+03
        -0.37300E+03
        -0.37300E+03
        -0.37300E+03
        -0.37300E+03
        -0.37300E+03
        -0.37300E+03
        -0.37300E+03
        -0.37300E+03
        -0.37300E+03
        -0.37300E+03
        -0.37300E+03
        -0.37300E+03
        -0.37300E+03
        -0.37300E+03
        -0.37300E+03
        -0.37300E+03
        -0.37300E+03
        -0.37300E+03
        -0.37300E+03
        -0.37300E+03
        -0.37300E+03
        -0.37300E+03
        -0.37300E+03
        -0.37300E+03
        -0.37300E+03
        -0.37300E+03
        -0.37300E+03
        -0.37300E+03
        -0.37300E+03
        -0.37300E+03
        -0.37300E+03
        -0.37300E+03
        -0.37300E+03
        -0.37300E+03
        -0.37300E+03
        -0.37300E+03
        -0.37300E+03
        -0.37300E+03
        -0.37300E+03
        -0.37300E+03
        -0.37300E+03
        -0.37300E+03
        -0.37300E+03
        -0.37300E+03
        -0.37300E+03
        -0.37300E+03
        -0.37300E+03
        -0.37300E+03
        -0.37300E+03
        -0.37300E+03
        -0.37300E+03
        -0.37300E+03
        -0.37300E+03
        -0.37300E+03
        -0.37300E+03
        -0.37300E+03
        -0.37300E+03
        -0.37300E+03
        -0.37300E+03
        -0.37300E+03
        -0.37300E+03
        -0.37300E+03
        -0.37300E+03
        -0.37300E+03
        -0.37300E+03
        -0.37300E+03
        -0.37300E+03
        -0.37300E+03
        -0.37300E+03
        -0.37300E+03
        -0.37300E+03
        -0.37300E+03
        -0.37300E+03
        -0.37300E+03
        -0.37300E+03
        -0.37300E+03
        -0.37300E+03
        -0.37300E+03
        -0.37300E+03
        -0.37300E+03
        -0.37300E+03
        -0.37300E+03
        -0.37300E+03
        -0.37300E+03
        -0.37300E+03
        -0.37300E+03
        -0.37300E+03
        -0.37300E+03
        -0.37300E+03
        -0.37300E+03
        -0.37300E+03
        -0.37300E+03
        -0.37300E+03
        -0.37300E+03
        -0.37300E+03
        -0.37300E+03
        -0.37300E+03
        -0.37300E+03
        -0.37300E+03
        -0.37300E+03
        -0.37300E+03
        -0.37300E+03
        -0.37300E+03
        -0.37300E+03
        -0.37300E+03
        -0.37300E+03
        -0.37300E+03
        -0.37300E+03
        -0.37300E+03
        -0.37300E+03
        -0.37300E+03
        -0.37300E+03
        -0.37300E+03
        -0.37300E+03
        -0.37300E+03
        -0.37300E+03
        -0.37300E+03
        -0.37300E+03
        -0.37300E+03
        -0.37300E+03
        -0.37300E+03
        -0.37300E+03
        -0.37300E+03
        -0.37300E+03
        -0.37300E+03
        -0.37300E+03
        -0.37300E+03
        -0.37300E+03
        -0.37300E+03
        -0.37300E+03
        -0.37300E+03
        -0.37300E+03
        -0.37300E+03
        -0.37300E+03
        -0.37300E+03
        -0.37300E+03
        -0.37300E+03
        -0.37300E+03
        -0.37300E+03
        -0.37300E+03
        -0.37300E+03
        -0.37300E+03
        -0.37300E+03
        -0.37300E+03
        -0.37300E+03
        -0.37300E+03
        -0.37300E+03
        -0.37300E+03
        -0.37300E+03
        -0.37300E+03
        -0.37300E+03
        -0.37300E+03
        -0.37300E+03
        -0.37300E+03
        -0.37300E+03
        -0.37300E+03
        -0.37300E+03
        -0.37300E+03
        -0.37300E+03
        -0.37300E+03
        -0.37300E+03
        -0.37300E+03
        -0.37300E+03
        -0.37300E+03
        -0.37300E+03
        -0.37300E+03
        -0.37300E+03
        -0.37300E+03
        -0.37300E+03
        -0.37300E+03
        -0.37300E+03
        -0.37300E+03
        -0.37300E+03
        -0.37300E+03
        -0.37300E+03
        -0.37300E+03
        -0.37300E+03
        -0.37300E+03
        -0.37300E+03
        -0.37300E+03
        -0.37300E+03
        -0.37300E+03
        -0.37300E+03
        -0.37300E+03
        -0.37300E+03
        -0.37300E+03
        -0.37300E+03
        -0.37300E+03
        -0.37300E+03
        -0.37300E+03
        -0.37300E+03
        -0.37300E+03
        -0.37300E+03
        -0.37300E+03
        -0.37300E+03
        -0.37300E+03
        -0.37300E+03
        -0.37300E+03
        -0.37300E+03
        -0.37300E+03
        -0.37300E+03
        -0.37300E+03
        -0.37300E+03
        -0.37300E+03
        -0.37300E+03
        -0.37300E+03
        -0.37300E+03
        -0.37300E+03
        -0.37300E+03
        -0.37300E+03
        -0.37300E+03
        -0.37300E+03
        -0.37300E+03
        -0.37300E+03
        -0.37300E+03
        -0.37300E+03
        -0.37300E+03
        -0.37300E+03
        -0.37300E+03
        -0.37300E+03
        -0.37300E+03
        -0.37300E+03
        -0.37300E+03
        -0.37300E+03
        -0.37300E+03
        -0.37300E+03
        -0.37300E+03
        -0.37300E+03
        -0.37300E+03
        -0.37300E+03
        -0.37300E+03
        -0.37300E+03
        -0.37300E+03
        -0.37300E+03
        -0.37300E+03
        -0.37300E+03
        -0.37300E+03
        -0.37300E+03
        -0.37300E+03
        -0.37300E+03
        -0.37300E+03
        -0.37300E+03
        -0.37300E+03
        -0.37300E+03
        -0.37300E+03
        -0.37300E+03
        -0.37300E+03
        -0.37300E+03
        -0.37300E+03
        -0.37300E+03
        -0.37300E+03
        -0.37300E+03
        -0.37300E+03
        -0.37300E+03
        -0.37300E+03
        -0.37300E+03
        -0.37300E+03
        -0.37300E+03
        -0.37300E+03
        -0.37300E+03
        -0.37300E+03
        -0.37300E+03
        -0.37300E+03
        -0.37300E+03
        -0.37300E+03
        -0.37300E+03
        -0.37300E+03
        -0.37300E+03
        -0.37300E+03
        -0.37300E+03
        -0.37300E+03
        -0.37300E+03
        -0.37300E+03
        -0.37300E+03
        -0.37300E+03
        -0.37300E+03
        -0.37300E+03
        -0.37300E+03
        -0.37300E+03
        -0.37300E+03
        -0.37300E+03
        -0.37300E+03
        -0.37300E+03
        -0.37300E+03
        -0.37300E+03
        -0.37300E+03
        -0.37300E+03
        -0.37300E+03
        -0.37300E+03
        -0.37300E+03
        -0.37300E+03
        -0.37300E+03
        -0.37300E+03
        -0.37300E+03
        -0.37300E+03
        -0.37300E+03
        -0.37300E+03
        -0.37300E+03
        -0.37300E+03
        -0.37300E+03
        -0.37300E+03
        -0.37300E+03
        -0.37300E+03
        -0.37300E+03
        -0.37300E+03
        -0.37300E+03
        -0.37300E+03
        -0.37300E+03
        -0.37300E+03
        -0.37300E+03
        -0.37300E+03
        -0.37300E+03
        -0.37300E+03
        -0.37300E+03
        -0.37300E+03
        -0.37300E+03
        -0.37300E+03
        -0.37300E+03
        -0.37300E+03
        -0.37300E+03
        -0.37300E+03
        -0.37300E+03
        -0.37300E+03
        -0.37300E+03
        -0.37300E+03
        -0.37300E+03
        -0.37300E+03
        -0.37300E+03
        -0.37300E+03
        -0.37300E+03
        -0.37300E+03
        -0.37300E+03
        -0.37300E+03
        -0.37300E+03
        -0.37300E+03
        -0.37300E+03
        -0.37300E+03
        -0.37300E+03
        -0.37300E+03
        -0.37300E+03
        -0.37300E+03
        -0.37300E+03
        -0.37300E+03
        -0.37300E+03
        -0.37300E+03
        -0.37300E+03
        -0.37300E+03
        -0.37300E+03
        -0.37300E+03
        -0.37300E+03
        -0.37300E+03
        -0.37300E+03
        -0.37300E+03
        -0.37300E+03
        -0.37300E+03
        -0.37300E+03
        -0.37300E+03
        -0.37300E+03
        -0.37300E+03
        -0.37300E+03
        -0.37300E+03
        -0.37300E+03
        -0.37300E+03
        -0.37300E+03
        -0.37300E+03
        -0.37300E+03
        -0.37300E+03
        -0.37300E+03
        -0.37300E+03
        -0.37300E+03
        -0.37300E+03
        -0.37300E+03
        -0.37300E+03
        -0.37300E+03
        -0.37300E+03
        -0.37300E+03
        -0.37300E+03
        -0.37300E+03
        -0.37300E+03
        -0.37300E+03
        -0.37300E+03
        -0.37300E+03
        -0.37300E+03
        -0.37300E+03
        -0.37300E+03
        -0.37300E+03
        -0.37300E+03
        -0.37300E+03
        -0.37300E+03
        -0.37300E+03
        -0.37300E+03
        -0.37300E+03
        -0.37300E+03
        -0.37300E+03
        -0.37300E+03
        -0.37300E+03
        -0.37300E+03
        -0.37300E+03
        -0.37300E+03
        -0.37300E+03
        -0.37300E+03
        -0.37300E+03
        -0.37300E+03
        -0.37300E+03
        -0.37300E+03
        -0.37300E+03
        -0.37300E+03
        -0.37300E+03
        -0.37300E+03
        -0.37300E+03
        -0.37300E+03
        -0.37300E+03
        -0.37300E+03
        -0.37300E+03
        -0.37300E+03
        -0.37300E+03
        -0.37300E+03
        -0.37300E+03
        -0.37300E+03
        -0.37300E+03
        -0.37300E+03
        -0.37300E+03
        -0.37300E+03
        -0.37300E+03
        -0.37300E+03
        -0.37300E+03
        -0.37300E+03
        -0.37300E+03
        -0.37300E+03
        -0.37300E+03
        -0.37300E+03
        -0.37300E+03
        -0.37300E+03
        -0.37300E+03
        -0.37300E+03
        -0.37300E+03
        -0.37300E+03
        -0.37300E+03
        -0.37300E+03
        -0.37300E+03
        -0.37300E+03
        -0.37300E+03
        -0.37300E+03
        -0.37300E+03
        -0.37300E+03
        -0.37300E+03
        -0.37300E+03
        -0.37300E+03
        -0.37300E+03
        -0.37300E+03
        -0.37300E+03
        -0.37300E+03
        -0.37300E+03
        -0.37300E+03
        -0.37300E+03
        -0.37300E+03
        -0.37300E+03
        -0.37300E+03
        -0.37300E+03
        -0.37300E+03
        -0.37300E+03
        -0.37300E+03
        -0.37300E+03
        -0.37300E+03
        -0.37300E+03
        -0.37300E+03
        -0.37300E+03
        -0.37300E+03
        -0.37300E+03
        -0.37300E+03
        -0.37300E+03
        -0.37300E+03
        -0.37300E+03
        -0.37300E+03
        -0.37300E+03
        -0.37300E+03
        -0.37300E+03
        -0.37300E+03
        -0.37300E+03
        -0.37300E+03
        -0.37300E+03
        -0.37300E+03
        -0.37300E+03
        -0.37300E+03
        -0.37300E+03
        -0.37300E+03
        -0.37300E+03
        -0.37300E+03
        -0.37300E+03
        -0.37300E+03
        -0.37300E+03
        -0.37300E+03
        -0.37300E+03
        -0.37300E+03
        -0.37300E+03
        -0.37300E+03
        -0.37300E+03
        -0.37300E+03
        -0.37300E+03
        -0.37300E+03
        -0.37300E+03
        -0.37300E+03
        -0.37300E+03
        -0.37300E+03
        -0.37300E+03
        -0.37300E+03
        -0.37300E+03
        -0.37300E+03
        -0.37300E+03
        -0.37300E+03
        -0.37300E+03
        -0.37300E+03
        -0.37300E+03
        -0.37300E+03
        -0.37300E+03
        -0.37300E+03
        -0.37300E+03
        -0.37300E+03
        -0.37300E+03
        -0.37300E+03
        -0.37300E+03
        -0.37300E+03
        -0.37300E+03
        -0.37300E+03
        -0.37300E+03
        -0.37300E+03
        -0.37300E+03
        -0.37300E+03
        -0.37300E+03
        -0.37300E+03
        -0.37300E+03
        -0.37300E+03
        -0.37300E+03
        -0.37300E+03
        -0.37300E+03
        -0.37300E+03
        -0.37300E+03
        -0.37300E+03
        -0.37300E+03
        -0.37300E+03
        -0.37300E+03
        -0.37300E+03
        -0.37300E+03
        -0.37300E+03
        -0.37300E+03
        -0.37300E+03
        -0.37300E+03
        -0.37300E+03
        -0.37300E+03
        -0.37300E+03
        -0.37300E+03
        -0.37300E+03
        -0.37300E+03
        -0.37300E+03
        -0.37300E+03
        -0.37300E+03
        -0.37300E+03
        -0.37300E+03
        -0.37300E+03
        -0.37300E+03
        -0.37300E+03
        -0.37300E+03
        -0.37300E+03
        -0.37300E+03
        -0.37300E+03
        -0.37300E+03
        -0.37300E+03
        -0.37300E+03
        -0.37300E+03
        -0.37300E+03
        -0.37300E+03
        -0.37300E+03
        -0.37300E+03
        -0.37300E+03
        -0.37300E+03
        -0.37300E+03
        -0.37300E+03
        -0.37300E+03
        -0.37300E+03
        -0.37300E+03
        -0.37300E+03
        -0.37300E+03
        -0.37300E+03
        -0.37300E+03
        -0.37300E+03
        -0.37300E+03
        -0.37300E+03
        -0.37300E+03
        -0.37300E+03
        -0.37300E+03
        -0.37300E+03
        -0.37300E+03
        -0.37300E+03
        -0.37300E+03
        -0.37300E+03
        -0.37300E+03
        -0.37300E+03
        -0.37300E+03
        -0.37300E+03
        -0.37300E+03
        -0.37300E+03
        -0.37300E+03
        -0.37300E+03
        -0.37300E+03
        -0.37300E+03
        -0.37300E+03
        -0.37300E+03
        -0.37300E+03
        -0.37300E+03
        -0.37300E+03
        -0.37300E+03
        -0.37300E+03
        -0.37300E+03
        -0.37300E+03
        -0.37300E+03
        -0.37300E+03
        -0.37300E+03
        -0.37300E+03
        -0.37300E+03
        -0.37300E+03
        -0.37300E+03
        -0.37300E+03
        -0.37300E+03
        -0.37300E+03
        -0.37300E+03
        -0.37300E+03
        -0.37300E+03
        -0.37300E+03
        -0.37300E+03
        -0.37300E+03
        -0.37300E+03
        -0.37300E+03
        -0.37300E+03
        -0.37300E+03
        -0.37300E+03
        -0.37300E+03
        -0.37300E+03
        -0.37300E+03
        -0.37300E+03
        -0.37300E+03
        -0.37300E+03
        -0.37300E+03
        -0.37300E+03
        -0.37300E+03
        -0.37300E+03
        -0.37300E+03
        -0.37300E+03
        -0.37300E+03
        -0.37300E+03
        -0.37300E+03
        -0.37300E+03
        -0.37300E+03
        -0.37300E+03
        -0.37300E+03
        -0.37300E+03
        -0.37300E+03
        -0.37300E+03
        -0.37300E+03
        -0.37300E+03
        -0.37300E+03
        -0.37300E+03
        -0.37300E+03
        -0.37300E+03
        -0.37300E+03
        -0.37300E+03
        -0.37300E+03
        -0.37300E+03
        -0.37300E+03
        -0.37300E+03
        -0.37300E+03
        -0.37300E+03
        -0.37300E+03
        -0.37300E+03
        -0.37300E+03
        -0.37300E+03
        -0.37300E+03
        -0.37300E+03
        -0.37300E+03
        -0.37300E+03
        -0.37300E+03
        -0.37300E+03
        -0.37300E+03
        -0.37300E+03
        -0.37300E+03
        -0.37300E+03
        -0.37300E+03
        -0.37300E+03
        -0.37300E+03
        -0.37300E+03
        -0.37300E+03
        -0.37300E+03
        -0.37300E+03
        -0.37300E+03
        -0.37300E+03
        -0.37300E+03
        -0.37300E+03
        -0.37300E+03
        -0.37300E+03
        -0.37300E+03
        -0.37300E+03
        -0.37300E+03
        -0.37300E+03
        -0.37300E+03
        -0.37300E+03
        -0.37300E+03
        -0.37300E+03
        -0.37300E+03
        -0.37300E+03
        -0.37300E+03
        -0.37300E+03
        -0.37300E+03
        -0.37300E+03
        -0.37300E+03
        -0.37300E+03
        -0.37300E+03
        -0.37300E+03
        -0.37300E+03
        -0.37300E+03
        -0.37300E+03
        -0.37300E+03
        -0.37300E+03
        -0.37300E+03
        -0.37300E+03
        -0.37300E+03
        -0.37300E+03
        -0.37300E+03
        -0.37300E+03
        -0.37300E+03
        -0.37300E+03
        -0.37300E+03
        -0.37300E+03
        -0.37300E+03
        -0.37300E+03
        -0.37300E+03
        -0.37300E+03
        -0.37300E+03
        -0.37300E+03
        -0.37300E+03
        -0.37300E+03
        -0.37300E+03
        -0.37300E+03
        -0.37300E+03
        -0.37300E+03
        -0.37300E+03
        -0.37300E+03
        -0.37300E+03
        -0.37300E+03
        -0.37300E+03
        -0.37300E+03
        -0.37300E+03
        -0.37300E+03
        -0.37300E+03
        -0.37300E+03
        -0.37300E+03
        -0.37300E+03
        -0.37300E+03
        -0.37300E+03
        -0.37300E+03
        -0.37300E+03
        -0.37300E+03
        -0.37300E+03
        -0.37300E+03
        -0.37300E+03
        -0.37300E+03
        -0.37300E+03
        -0.37300E+03
        -0.37300E+03
        -0.37300E+03
        -0.37300E+03
        -0.37300E+03
        -0.37300E+03
        -0.37300E+03
        -0.37300E+03
        -0.37300E+03
        -0.37300E+03
        -0.37300E+03
        -0.37300E+03
        -0.37300E+03
        -0.37300E+03
        -0.37300E+03
        -0.37300E+03
        -0.37300E+03
        -0.37300E+03
        -0.37300E+03
        -0.37300E+03
        -0.37300E+03
        -0.37300E+03
        -0.37300E+03
        -0.37300E+03
        -0.37300E+03
        -0.37300E+03
        -0.37300E+03
        -0.37300E+03
        -0.37300E+03
        -0.37300E+03
        -0.37300E+03
        -0.37300E+03
        -0.37300E+03
        -0.37300E+03
        -0.37300E+03
        -0.37300E+03
        -0.37300E+03
        -0.37300E+03
        -0.37300E+03
        -0.37300E+03
        -0.37300E+03
        -0.37300E+03
        -0.37300E+03
        -0.37300E+03
        -0.37300E+03
        -0.37300E+03
        -0.37300E+03
        -0.37300E+03
        -0.37300E+03
        -0.37300E+03
        -0.37300E+03
        -0.37300E+03
        -0.37300E+03
        -0.37300E+03
        -0.37300E+03
        -0.37300E+03
        -0.37300E+03
        -0.37300E+03
        -0.37300E+03
        -0.37300E+03
        -0.37300E+03
        -0.37300E+03
        -0.37300E+03
        -0.37300E+03
        -0.37300E+03
        -0.37300E+03
        -0.37300E+03
        -0.37300E+03
        -0.37300E+03
        -0.37300E+03
        -0.37300E+03
        -0.37300E+03
        -0.37300E+03
        -0.37300E+03
        -0.37300E+03
        -0.37300E+03
        -0.37300E+03
        -0.37300E+03
        -0.37300E+03
        -0.37300E+03
        -0.37300E+03
        -0.37300E+03
        -0.37300E+03
        -0.37300E+03
        -0.37300E+03
        -0.37300E+03
        -0.37300E+03
        -0.37300E+03
        -0.37300E+03
        -0.37300E+03
        -0.37300E+03
        -0.37300E+03
        -0.37300E+03
        -0.37300E+03
        -0.37300E+03
        -0.37300E+03
        -0.37300E+03
        -0.37300E+03
        -0.37300E+03
        -0.37300E+03
        -0.37300E+03
        -0.37300E+03
        -0.37300E+03
        -0.37300E+03
        -0.37300E+03
        -0.37300E+03
        -0.37300E+03
        -0.37300E+03
        -0.37300E+03
        -0.37300E+03
        -0.37300E+03
        -0.37300E+03
        -0.37300E+03
        -0.37300E+03
        -0.37300E+03
        -0.37300E+03
        -0.37300E+03
        -0.37300E+03
        -0.37300E+03
        -0.37300E+03
        -0.37300E+03
        -0.37300E+03
        -0.37300E+03
        -0.37300E+03
        -0.37300E+03
        -0.37300E+03
        -0.37300E+03
        -0.37300E+03
        -0.37300E+03
        -0.37300E+03
        -0.37300E+03
        -0.37300E+03
        -0.37300E+03
        -0.37300E+03
        -0.37300E+03
        -0.37300E+03
        -0.37300E+03
        -0.37300E+03
        -0.37300E+03
        -0.37300E+03
        -0.37300E+03
        -0.37300E+03
        -0.37300E+03
        -0.37300E+03
        -0.37300E+03
        -0.37300E+03
        -0.37300E+03
        -0.37300E+03
        -0.37300E+03
        -0.37300E+03
        -0.37300E+03
        -0.37300E+03
        -0.37300E+03
        -0.37300E+03
        -0.37300E+03
        -0.37300E+03
        -0.37300E+03
        -0.37300E+03
        -0.37300E+03
        -0.37300E+03
        -0.37300E+03
        -0.37300E+03
        -0.37300E+03
        -0.37300E+03
        -0.37300E+03
        -0.37300E+03
        -0.37300E+03
        -0.37300E+03
        -0.37300E+03
        -0.37300E+03
        -0.37300E+03
        -0.37300E+03
        -0.37300E+03
        -0.37300E+03
        -0.37300E+03
        -0.37300E+03
        -0.37300E+03
        -0.37300E+03
        -0.37300E+03
        -0.37300E+03
        -0.37300E+03
        -0.37300E+03
        -0.37300E+03
        -0.37300E+03
        -0.37300E+03
        -0.37300E+03
        -0.37300E+03
        -0.37300E+03
        -0.37300E+03
        -0.37300E+03
        -0.37300E+03
        -0.37300E+03
        -0.37300E+03
        -0.37300E+03
        -0.37300E+03
        -0.37300E+03
        -0.37300E+03
        -0.37300E+03
        -0.37300E+03
        -0.37300E+03
        -0.37300E+03
        -0.37300E+03
        -0.37300E+03
        -0.37300E+03
        -0.37300E+03
        -0.37300E+03
        -0.37300E+03
        -0.37300E+03
        -0.37300E+03
        -0.37300E+03
        -0.37300E+03
        -0.37300E+03
        -0.37300E+03
        -0.37300E+03
        -0.37300E+03
        -0.37300E+03
        -0.37300E+03
        -0.37300E+03
        -0.37300E+03
        -0.37300E+03
        -0.37300E+03
        -0.37300E+03
        -0.37300E+03
        -0.37300E+03
        -0.37300E+03
        -0.37300E+03
        -0.37300E+03
        -0.37300E+03
        -0.37300E+03
        -0.37300E+03
        -0.37300E+03
        -0.37300E+03
        -0.37300E+03
        -0.37300E+03
        -0.37300E+03
        -0.37300E+03
        -0.37300E+03
        -0.37300E+03
        -0.37300E+03
        -0.37300E+03
        -0.37300E+03
        -0.37300E+03
        -0.37300E+03
        -0.37300E+03
        -0.37300E+03
        -0.37300E+03
        -0.37300E+03
        -0.37300E+03
        -0.37300E+03
        -0.37300E+03
        -0.37300E+03
        -0.37300E+03
        -0.37300E+03
        -0.37300E+03
        -0.37300E+03
        -0.37300E+03
        -0.37300E+03
        -0.37300E+03
        -0.37300E+03
        -0.37300E+03
        -0.37300E+03
        -0.37300E+03
        -0.37300E+03
        -0.37300E+03
        -0.37300E+03
        -0.37300E+03
        -0.37300E+03
        -0.37300E+03
        -0.37300E+03
        -0.37300E+03
        -0.37300E+03
        -0.37300E+03
        -0.37300E+03
        -0.37300E+03
        -0.37300E+03
        -0.37300E+03
        -0.37300E+03
        -0.37300E+03
        -0.37300E+03
        -0.37300E+03
        -0.37300E+03
        -0.37300E+03
        -0.37300E+03
        -0.37300E+03
        -0.37300E+03
        -0.37300E+03
        -0.37300E+03
        -0.37300E+03
        -0.37300E+03
        -0.37300E+03
        -0.37300E+03
        -0.37300E+03
        -0.37300E+03
        -0.37300E+03
        -0.37300E+03
        -0.37300E+03
        -0.37300E+03
        -0.37300E+03
        -0.37300E+03
  
SCALARS                 acceleration_x  double 1
LOOKUP_TABLE default
         0.00000E+00
         0.00000E+00
         0.00000E+00
         0.00000E+00
         0.00000E+00
         0.00000E+00
         0.00000E+00
         0.00000E+00
         0.00000E+00
         0.00000E+00
         0.00000E+00
         0.00000E+00
         0.00000E+00
         0.00000E+00
         0.00000E+00
         0.00000E+00
         0.00000E+00
         0.00000E+00
         0.00000E+00
         0.00000E+00
         0.00000E+00
         0.00000E+00
         0.00000E+00
         0.00000E+00
         0.00000E+00
         0.00000E+00
         0.00000E+00
         0.00000E+00
         0.00000E+00
         0.00000E+00
         0.00000E+00
         0.00000E+00
         0.00000E+00
         0.00000E+00
         0.00000E+00
         0.00000E+00
         0.00000E+00
         0.00000E+00
         0.00000E+00
         0.00000E+00
         0.00000E+00
         0.00000E+00
         0.00000E+00
         0.00000E+00
         0.00000E+00
         0.00000E+00
         0.00000E+00
         0.00000E+00
         0.00000E+00
         0.00000E+00
         0.00000E+00
         0.00000E+00
         0.00000E+00
         0.00000E+00
         0.00000E+00
         0.00000E+00
         0.00000E+00
         0.00000E+00
         0.00000E+00
         0.00000E+00
         0.00000E+00
         0.00000E+00
         0.00000E+00
         0.00000E+00
         0.00000E+00
         0.00000E+00
         0.00000E+00
         0.00000E+00
         0.00000E+00
         0.00000E+00
         0.00000E+00
         0.00000E+00
         0.00000E+00
         0.00000E+00
         0.00000E+00
         0.00000E+00
         0.00000E+00
         0.00000E+00
         0.00000E+00
         0.00000E+00
         0.00000E+00
         0.00000E+00
         0.00000E+00
         0.00000E+00
         0.00000E+00
         0.00000E+00
         0.00000E+00
         0.00000E+00
         0.00000E+00
         0.00000E+00
         0.00000E+00
         0.00000E+00
         0.00000E+00
         0.00000E+00
         0.00000E+00
         0.00000E+00
         0.00000E+00
         0.00000E+00
         0.00000E+00
         0.00000E+00
         0.00000E+00
         0.00000E+00
         0.00000E+00
         0.00000E+00
         0.00000E+00
         0.00000E+00
         0.00000E+00
         0.00000E+00
         0.00000E+00
         0.00000E+00
         0.00000E+00
         0.00000E+00
         0.00000E+00
         0.00000E+00
         0.00000E+00
         0.00000E+00
         0.00000E+00
         0.00000E+00
         0.00000E+00
         0.00000E+00
         0.00000E+00
         0.00000E+00
         0.00000E+00
         0.00000E+00
         0.00000E+00
         0.00000E+00
         0.00000E+00
         0.00000E+00
         0.00000E+00
         0.00000E+00
         0.00000E+00
         0.00000E+00
         0.00000E+00
         0.00000E+00
         0.00000E+00
         0.00000E+00
         0.00000E+00
         0.00000E+00
         0.00000E+00
         0.00000E+00
         0.00000E+00
         0.00000E+00
         0.00000E+00
         0.00000E+00
         0.00000E+00
         0.00000E+00
         0.00000E+00
         0.00000E+00
         0.00000E+00
         0.00000E+00
         0.00000E+00
         0.00000E+00
         0.00000E+00
         0.00000E+00
         0.00000E+00
         0.00000E+00
         0.00000E+00
         0.00000E+00
         0.00000E+00
         0.00000E+00
         0.00000E+00
         0.00000E+00
         0.00000E+00
         0.00000E+00
         0.00000E+00
         0.00000E+00
         0.00000E+00
         0.00000E+00
         0.00000E+00
         0.00000E+00
         0.00000E+00
         0.00000E+00
         0.00000E+00
         0.00000E+00
         0.00000E+00
         0.00000E+00
         0.00000E+00
         0.00000E+00
         0.00000E+00
         0.00000E+00
         0.00000E+00
         0.00000E+00
         0.00000E+00
         0.00000E+00
         0.00000E+00
         0.00000E+00
         0.00000E+00
         0.00000E+00
         0.00000E+00
         0.00000E+00
         0.00000E+00
         0.00000E+00
         0.00000E+00
         0.00000E+00
         0.00000E+00
         0.00000E+00
         0.00000E+00
         0.00000E+00
         0.00000E+00
         0.00000E+00
         0.00000E+00
         0.00000E+00
         0.00000E+00
         0.00000E+00
         0.00000E+00
         0.00000E+00
         0.00000E+00
         0.00000E+00
         0.00000E+00
         0.00000E+00
         0.00000E+00
         0.00000E+00
         0.00000E+00
         0.00000E+00
         0.00000E+00
         0.00000E+00
         0.00000E+00
         0.00000E+00
         0.00000E+00
         0.00000E+00
         0.00000E+00
         0.00000E+00
         0.00000E+00
         0.00000E+00
         0.00000E+00
         0.00000E+00
         0.00000E+00
         0.00000E+00
         0.00000E+00
         0.00000E+00
         0.00000E+00
         0.00000E+00
         0.00000E+00
         0.00000E+00
         0.00000E+00
         0.00000E+00
         0.00000E+00
         0.00000E+00
         0.00000E+00
         0.00000E+00
         0.00000E+00
         0.00000E+00
         0.00000E+00
         0.00000E+00
         0.00000E+00
         0.00000E+00
         0.00000E+00
         0.00000E+00
         0.00000E+00
         0.00000E+00
         0.00000E+00
         0.00000E+00
         0.00000E+00
         0.00000E+00
         0.00000E+00
         0.00000E+00
         0.00000E+00
         0.00000E+00
         0.00000E+00
         0.00000E+00
         0.00000E+00
         0.00000E+00
         0.00000E+00
         0.00000E+00
         0.00000E+00
         0.00000E+00
         0.00000E+00
         0.00000E+00
         0.00000E+00
         0.00000E+00
         0.00000E+00
         0.00000E+00
         0.00000E+00
         0.00000E+00
         0.00000E+00
         0.00000E+00
         0.00000E+00
         0.00000E+00
         0.00000E+00
         0.00000E+00
         0.00000E+00
         0.00000E+00
         0.00000E+00
         0.00000E+00
         0.00000E+00
         0.00000E+00
         0.00000E+00
         0.00000E+00
         0.00000E+00
         0.00000E+00
         0.00000E+00
         0.00000E+00
         0.00000E+00
         0.00000E+00
         0.00000E+00
         0.00000E+00
         0.00000E+00
         0.00000E+00
         0.00000E+00
         0.00000E+00
         0.00000E+00
         0.00000E+00
         0.00000E+00
         0.00000E+00
         0.00000E+00
         0.00000E+00
         0.00000E+00
         0.00000E+00
         0.00000E+00
         0.00000E+00
         0.00000E+00
         0.00000E+00
         0.00000E+00
         0.00000E+00
         0.00000E+00
         0.00000E+00
         0.00000E+00
         0.00000E+00
         0.00000E+00
         0.00000E+00
         0.00000E+00
         0.00000E+00
         0.00000E+00
         0.00000E+00
         0.00000E+00
         0.00000E+00
         0.00000E+00
         0.00000E+00
         0.00000E+00
         0.00000E+00
         0.00000E+00
         0.00000E+00
         0.00000E+00
         0.00000E+00
         0.00000E+00
         0.00000E+00
         0.00000E+00
         0.00000E+00
         0.00000E+00
         0.00000E+00
         0.00000E+00
         0.00000E+00
         0.00000E+00
         0.00000E+00
         0.00000E+00
         0.00000E+00
         0.00000E+00
         0.00000E+00
         0.00000E+00
         0.00000E+00
         0.00000E+00
         0.00000E+00
         0.00000E+00
         0.00000E+00
         0.00000E+00
         0.00000E+00
         0.00000E+00
         0.00000E+00
         0.00000E+00
         0.00000E+00
         0.00000E+00
         0.00000E+00
         0.00000E+00
         0.00000E+00
         0.00000E+00
         0.00000E+00
         0.00000E+00
         0.00000E+00
         0.00000E+00
         0.00000E+00
         0.00000E+00
         0.00000E+00
         0.00000E+00
         0.00000E+00
         0.00000E+00
         0.00000E+00
         0.00000E+00
         0.00000E+00
         0.00000E+00
         0.00000E+00
         0.00000E+00
         0.00000E+00
         0.00000E+00
         0.00000E+00
         0.00000E+00
         0.00000E+00
         0.00000E+00
         0.00000E+00
         0.00000E+00
         0.00000E+00
         0.00000E+00
         0.00000E+00
         0.00000E+00
         0.00000E+00
         0.00000E+00
         0.00000E+00
         0.00000E+00
         0.00000E+00
         0.00000E+00
         0.00000E+00
         0.00000E+00
         0.00000E+00
         0.00000E+00
         0.00000E+00
         0.00000E+00
         0.00000E+00
         0.00000E+00
         0.00000E+00
         0.00000E+00
         0.00000E+00
         0.00000E+00
         0.00000E+00
         0.00000E+00
         0.00000E+00
         0.00000E+00
         0.00000E+00
         0.00000E+00
         0.00000E+00
         0.00000E+00
         0.00000E+00
         0.00000E+00
         0.00000E+00
         0.00000E+00
         0.00000E+00
         0.00000E+00
         0.00000E+00
         0.00000E+00
         0.00000E+00
         0.00000E+00
         0.00000E+00
         0.00000E+00
         0.00000E+00
         0.00000E+00
         0.00000E+00
         0.00000E+00
         0.00000E+00
         0.00000E+00
         0.00000E+00
         0.00000E+00
         0.00000E+00
         0.00000E+00
         0.00000E+00
         0.00000E+00
         0.00000E+00
         0.00000E+00
         0.00000E+00
         0.00000E+00
         0.00000E+00
         0.00000E+00
         0.00000E+00
         0.00000E+00
         0.00000E+00
         0.00000E+00
         0.00000E+00
         0.00000E+00
         0.00000E+00
         0.00000E+00
         0.00000E+00
         0.00000E+00
         0.00000E+00
         0.00000E+00
         0.00000E+00
         0.00000E+00
         0.00000E+00
         0.00000E+00
         0.00000E+00
         0.00000E+00
         0.00000E+00
         0.00000E+00
         0.00000E+00
         0.00000E+00
         0.00000E+00
         0.00000E+00
         0.00000E+00
         0.00000E+00
         0.00000E+00
         0.00000E+00
         0.00000E+00
         0.00000E+00
         0.00000E+00
         0.00000E+00
         0.00000E+00
         0.00000E+00
         0.00000E+00
         0.00000E+00
         0.00000E+00
         0.00000E+00
         0.00000E+00
         0.00000E+00
         0.00000E+00
         0.00000E+00
         0.00000E+00
         0.00000E+00
         0.00000E+00
         0.00000E+00
         0.00000E+00
         0.00000E+00
         0.00000E+00
         0.00000E+00
         0.00000E+00
         0.00000E+00
         0.00000E+00
         0.00000E+00
         0.00000E+00
         0.00000E+00
         0.00000E+00
         0.00000E+00
         0.00000E+00
         0.00000E+00
         0.00000E+00
         0.00000E+00
         0.00000E+00
         0.00000E+00
         0.00000E+00
         0.00000E+00
         0.00000E+00
         0.00000E+00
         0.00000E+00
         0.00000E+00
         0.00000E+00
         0.00000E+00
         0.00000E+00
         0.00000E+00
         0.00000E+00
         0.00000E+00
         0.00000E+00
         0.00000E+00
         0.00000E+00
         0.00000E+00
         0.00000E+00
         0.00000E+00
         0.00000E+00
         0.00000E+00
         0.00000E+00
         0.00000E+00
         0.00000E+00
         0.00000E+00
         0.00000E+00
         0.00000E+00
         0.00000E+00
         0.00000E+00
         0.00000E+00
         0.00000E+00
         0.00000E+00
         0.00000E+00
         0.00000E+00
         0.00000E+00
         0.00000E+00
         0.00000E+00
         0.00000E+00
         0.00000E+00
         0.00000E+00
         0.00000E+00
         0.00000E+00
         0.00000E+00
         0.00000E+00
         0.00000E+00
         0.00000E+00
         0.00000E+00
         0.00000E+00
         0.00000E+00
         0.00000E+00
         0.00000E+00
         0.00000E+00
         0.00000E+00
         0.00000E+00
         0.00000E+00
         0.00000E+00
         0.00000E+00
         0.00000E+00
         0.00000E+00
         0.00000E+00
         0.00000E+00
         0.00000E+00
         0.00000E+00
         0.00000E+00
         0.00000E+00
         0.00000E+00
         0.00000E+00
         0.00000E+00
         0.00000E+00
         0.00000E+00
         0.00000E+00
         0.00000E+00
         0.00000E+00
         0.00000E+00
         0.00000E+00
         0.00000E+00
         0.00000E+00
         0.00000E+00
         0.00000E+00
         0.00000E+00
         0.00000E+00
         0.00000E+00
         0.00000E+00
         0.00000E+00
         0.00000E+00
         0.00000E+00
         0.00000E+00
         0.00000E+00
         0.00000E+00
         0.00000E+00
         0.00000E+00
         0.00000E+00
         0.00000E+00
         0.00000E+00
         0.00000E+00
         0.00000E+00
         0.00000E+00
         0.00000E+00
         0.00000E+00
         0.00000E+00
         0.00000E+00
         0.00000E+00
         0.00000E+00
         0.00000E+00
         0.00000E+00
         0.00000E+00
         0.00000E+00
         0.00000E+00
         0.00000E+00
         0.00000E+00
         0.00000E+00
         0.00000E+00
         0.00000E+00
         0.00000E+00
         0.00000E+00
         0.00000E+00
         0.00000E+00
         0.00000E+00
         0.00000E+00
         0.00000E+00
         0.00000E+00
         0.00000E+00
         0.00000E+00
         0.00000E+00
         0.00000E+00
         0.00000E+00
         0.00000E+00
         0.00000E+00
         0.00000E+00
         0.00000E+00
         0.00000E+00
         0.00000E+00
         0.00000E+00
         0.00000E+00
         0.00000E+00
         0.00000E+00
         0.00000E+00
         0.00000E+00
         0.00000E+00
         0.00000E+00
         0.00000E+00
         0.00000E+00
         0.00000E+00
         0.00000E+00
         0.00000E+00
         0.00000E+00
         0.00000E+00
         0.00000E+00
         0.00000E+00
         0.00000E+00
         0.00000E+00
         0.00000E+00
         0.00000E+00
         0.00000E+00
         0.00000E+00
         0.00000E+00
         0.00000E+00
         0.00000E+00
         0.00000E+00
         0.00000E+00
         0.00000E+00
         0.00000E+00
         0.00000E+00
         0.00000E+00
         0.00000E+00
         0.00000E+00
         0.00000E+00
         0.00000E+00
         0.00000E+00
         0.00000E+00
         0.00000E+00
         0.00000E+00
         0.00000E+00
         0.00000E+00
         0.00000E+00
         0.00000E+00
         0.00000E+00
         0.00000E+00
         0.00000E+00
         0.00000E+00
         0.00000E+00
         0.00000E+00
         0.00000E+00
         0.00000E+00
         0.00000E+00
         0.00000E+00
         0.00000E+00
         0.00000E+00
         0.00000E+00
         0.00000E+00
         0.00000E+00
         0.00000E+00
         0.00000E+00
         0.00000E+00
         0.00000E+00
         0.00000E+00
         0.00000E+00
         0.00000E+00
         0.00000E+00
         0.00000E+00
         0.00000E+00
         0.00000E+00
         0.00000E+00
         0.00000E+00
         0.00000E+00
         0.00000E+00
         0.00000E+00
         0.00000E+00
         0.00000E+00
         0.00000E+00
         0.00000E+00
         0.00000E+00
         0.00000E+00
         0.00000E+00
         0.00000E+00
         0.00000E+00
         0.00000E+00
         0.00000E+00
         0.00000E+00
         0.00000E+00
         0.00000E+00
         0.00000E+00
         0.00000E+00
         0.00000E+00
         0.00000E+00
         0.00000E+00
         0.00000E+00
         0.00000E+00
         0.00000E+00
         0.00000E+00
         0.00000E+00
         0.00000E+00
         0.00000E+00
         0.00000E+00
         0.00000E+00
         0.00000E+00
         0.00000E+00
         0.00000E+00
         0.00000E+00
         0.00000E+00
         0.00000E+00
         0.00000E+00
         0.00000E+00
         0.00000E+00
         0.00000E+00
         0.00000E+00
         0.00000E+00
         0.00000E+00
         0.00000E+00
         0.00000E+00
         0.00000E+00
         0.00000E+00
         0.00000E+00
         0.00000E+00
         0.00000E+00
         0.00000E+00
         0.00000E+00
         0.00000E+00
         0.00000E+00
         0.00000E+00
         0.00000E+00
         0.00000E+00
         0.00000E+00
         0.00000E+00
         0.00000E+00
         0.00000E+00
         0.00000E+00
         0.00000E+00
         0.00000E+00
         0.00000E+00
         0.00000E+00
         0.00000E+00
         0.00000E+00
         0.00000E+00
         0.00000E+00
         0.00000E+00
         0.00000E+00
         0.00000E+00
         0.00000E+00
         0.00000E+00
         0.00000E+00
         0.00000E+00
         0.00000E+00
         0.00000E+00
         0.00000E+00
         0.00000E+00
         0.00000E+00
         0.00000E+00
         0.00000E+00
         0.00000E+00
         0.00000E+00
         0.00000E+00
         0.00000E+00
         0.00000E+00
         0.00000E+00
         0.00000E+00
         0.00000E+00
         0.00000E+00
         0.00000E+00
         0.00000E+00
         0.00000E+00
         0.00000E+00
         0.00000E+00
         0.00000E+00
         0.00000E+00
         0.00000E+00
         0.00000E+00
         0.00000E+00
         0.00000E+00
         0.00000E+00
         0.00000E+00
         0.00000E+00
         0.00000E+00
         0.00000E+00
         0.00000E+00
         0.00000E+00
         0.00000E+00
         0.00000E+00
         0.00000E+00
         0.00000E+00
         0.00000E+00
         0.00000E+00
         0.00000E+00
         0.00000E+00
         0.00000E+00
         0.00000E+00
         0.00000E+00
         0.00000E+00
         0.00000E+00
         0.00000E+00
         0.00000E+00
         0.00000E+00
         0.00000E+00
         0.00000E+00
         0.00000E+00
         0.00000E+00
         0.00000E+00
         0.00000E+00
         0.00000E+00
         0.00000E+00
         0.00000E+00
         0.00000E+00
         0.00000E+00
         0.00000E+00
         0.00000E+00
         0.00000E+00
         0.00000E+00
         0.00000E+00
         0.00000E+00
         0.00000E+00
         0.00000E+00
         0.00000E+00
         0.00000E+00
         0.00000E+00
         0.00000E+00
         0.00000E+00
         0.00000E+00
         0.00000E+00
         0.00000E+00
         0.00000E+00
         0.00000E+00
         0.00000E+00
         0.00000E+00
         0.00000E+00
         0.00000E+00
         0.00000E+00
         0.00000E+00
         0.00000E+00
         0.00000E+00
         0.00000E+00
         0.00000E+00
         0.00000E+00
         0.00000E+00
         0.00000E+00
         0.00000E+00
         0.00000E+00
         0.00000E+00
         0.00000E+00
         0.00000E+00
         0.00000E+00
         0.00000E+00
         0.00000E+00
         0.00000E+00
         0.00000E+00
         0.00000E+00
         0.00000E+00
         0.00000E+00
         0.00000E+00
         0.00000E+00
         0.00000E+00
         0.00000E+00
         0.00000E+00
         0.00000E+00
         0.00000E+00
         0.00000E+00
         0.00000E+00
         0.00000E+00
         0.00000E+00
         0.00000E+00
         0.00000E+00
         0.00000E+00
         0.00000E+00
         0.00000E+00
         0.00000E+00
         0.00000E+00
         0.00000E+00
         0.00000E+00
         0.00000E+00
         0.00000E+00
         0.00000E+00
         0.00000E+00
         0.00000E+00
         0.00000E+00
         0.00000E+00
         0.00000E+00
         0.00000E+00
         0.00000E+00
         0.00000E+00
         0.00000E+00
         0.00000E+00
         0.00000E+00
         0.00000E+00
         0.00000E+00
         0.00000E+00
         0.00000E+00
         0.00000E+00
         0.00000E+00
         0.00000E+00
         0.00000E+00
         0.00000E+00
         0.00000E+00
         0.00000E+00
         0.00000E+00
         0.00000E+00
         0.00000E+00
         0.00000E+00
         0.00000E+00
         0.00000E+00
         0.00000E+00
         0.00000E+00
         0.00000E+00
         0.00000E+00
         0.00000E+00
         0.00000E+00
         0.00000E+00
         0.00000E+00
         0.00000E+00
         0.00000E+00
         0.00000E+00
         0.00000E+00
         0.00000E+00
         0.00000E+00
         0.00000E+00
         0.00000E+00
         0.00000E+00
         0.00000E+00
         0.00000E+00
         0.00000E+00
         0.00000E+00
         0.00000E+00
         0.00000E+00
         0.00000E+00
         0.00000E+00
         0.00000E+00
         0.00000E+00
         0.00000E+00
         0.00000E+00
         0.00000E+00
         0.00000E+00
         0.00000E+00
         0.00000E+00
         0.00000E+00
         0.00000E+00
         0.00000E+00
         0.00000E+00
         0.00000E+00
         0.00000E+00
         0.00000E+00
         0.00000E+00
         0.00000E+00
         0.00000E+00
         0.00000E+00
         0.00000E+00
         0.00000E+00
         0.00000E+00
         0.00000E+00
         0.00000E+00
         0.00000E+00
         0.00000E+00
         0.00000E+00
         0.00000E+00
         0.00000E+00
         0.00000E+00
         0.00000E+00
         0.00000E+00
         0.00000E+00
         0.00000E+00
         0.00000E+00
         0.00000E+00
         0.00000E+00
         0.00000E+00
         0.00000E+00
         0.00000E+00
         0.00000E+00
         0.00000E+00
         0.00000E+00
         0.00000E+00
         0.00000E+00
         0.00000E+00
         0.00000E+00
         0.00000E+00
         0.00000E+00
         0.00000E+00
         0.00000E+00
         0.00000E+00
         0.00000E+00
         0.00000E+00
         0.00000E+00
         0.00000E+00
         0.00000E+00
         0.00000E+00
         0.00000E+00
         0.00000E+00
         0.00000E+00
         0.00000E+00
         0.00000E+00
         0.00000E+00
         0.00000E+00
         0.00000E+00
         0.00000E+00
         0.00000E+00
         0.00000E+00
         0.00000E+00
         0.00000E+00
         0.00000E+00
         0.00000E+00
         0.00000E+00
         0.00000E+00
         0.00000E+00
         0.00000E+00
         0.00000E+00
         0.00000E+00
         0.00000E+00
         0.00000E+00
         0.00000E+00
         0.00000E+00
         0.00000E+00
         0.00000E+00
         0.00000E+00
         0.00000E+00
         0.00000E+00
         0.00000E+00
         0.00000E+00
         0.00000E+00
         0.00000E+00
         0.00000E+00
         0.00000E+00
         0.00000E+00
         0.00000E+00
         0.00000E+00
         0.00000E+00
         0.00000E+00
         0.00000E+00
         0.00000E+00
         0.00000E+00
         0.00000E+00
         0.00000E+00
         0.00000E+00
         0.00000E+00
         0.00000E+00
         0.00000E+00
         0.00000E+00
         0.00000E+00
         0.00000E+00
         0.00000E+00
         0.00000E+00
         0.00000E+00
         0.00000E+00
         0.00000E+00
         0.00000E+00
         0.00000E+00
         0.00000E+00
         0.00000E+00
         0.00000E+00
         0.00000E+00
         0.00000E+00
         0.00000E+00
         0.00000E+00
         0.00000E+00
         0.00000E+00
         0.00000E+00
         0.00000E+00
         0.00000E+00
         0.00000E+00
         0.00000E+00
         0.00000E+00
         0.00000E+00
         0.00000E+00
         0.00000E+00
         0.00000E+00
         0.00000E+00
         0.00000E+00
         0.00000E+00
         0.00000E+00
         0.00000E+00
         0.00000E+00
         0.00000E+00
         0.00000E+00
         0.00000E+00
         0.00000E+00
         0.00000E+00
         0.00000E+00
         0.00000E+00
         0.00000E+00
         0.00000E+00
         0.00000E+00
         0.00000E+00
         0.00000E+00
         0.00000E+00
         0.00000E+00
         0.00000E+00
         0.00000E+00
         0.00000E+00
         0.00000E+00
         0.00000E+00
         0.00000E+00
         0.00000E+00
         0.00000E+00
         0.00000E+00
         0.00000E+00
         0.00000E+00
         0.00000E+00
         0.00000E+00
         0.00000E+00
         0.00000E+00
         0.00000E+00
         0.00000E+00
         0.00000E+00
         0.00000E+00
         0.00000E+00
         0.00000E+00
         0.00000E+00
         0.00000E+00
         0.00000E+00
         0.00000E+00
         0.00000E+00
         0.00000E+00
         0.00000E+00
         0.00000E+00
         0.00000E+00
         0.00000E+00
         0.00000E+00
         0.00000E+00
         0.00000E+00
         0.00000E+00
         0.00000E+00
         0.00000E+00
         0.00000E+00
         0.00000E+00
         0.00000E+00
         0.00000E+00
         0.00000E+00
         0.00000E+00
         0.00000E+00
         0.00000E+00
         0.00000E+00
         0.00000E+00
         0.00000E+00
         0.00000E+00
         0.00000E+00
         0.00000E+00
         0.00000E+00
         0.00000E+00
         0.00000E+00
         0.00000E+00
         0.00000E+00
         0.00000E+00
         0.00000E+00
         0.00000E+00
         0.00000E+00
         0.00000E+00
         0.00000E+00
         0.00000E+00
         0.00000E+00
         0.00000E+00
         0.00000E+00
         0.00000E+00
         0.00000E+00
         0.00000E+00
         0.00000E+00
         0.00000E+00
         0.00000E+00
         0.00000E+00
         0.00000E+00
         0.00000E+00
         0.00000E+00
         0.00000E+00
         0.00000E+00
         0.00000E+00
         0.00000E+00
         0.00000E+00
         0.00000E+00
         0.00000E+00
         0.00000E+00
         0.00000E+00
         0.00000E+00
         0.00000E+00
         0.00000E+00
         0.00000E+00
         0.00000E+00
         0.00000E+00
         0.00000E+00
         0.00000E+00
         0.00000E+00
         0.00000E+00
         0.00000E+00
         0.00000E+00
         0.00000E+00
         0.00000E+00
         0.00000E+00
         0.00000E+00
         0.00000E+00
         0.00000E+00
         0.00000E+00
         0.00000E+00
         0.00000E+00
         0.00000E+00
         0.00000E+00
         0.00000E+00
         0.00000E+00
         0.00000E+00
         0.00000E+00
         0.00000E+00
         0.00000E+00
         0.00000E+00
         0.00000E+00
         0.00000E+00
         0.00000E+00
         0.00000E+00
         0.00000E+00
         0.00000E+00
         0.00000E+00
         0.00000E+00
         0.00000E+00
         0.00000E+00
         0.00000E+00
         0.00000E+00
         0.00000E+00
         0.00000E+00
         0.00000E+00
         0.00000E+00
         0.00000E+00
         0.00000E+00
         0.00000E+00
         0.00000E+00
         0.00000E+00
         0.00000E+00
         0.00000E+00
         0.00000E+00
         0.00000E+00
         0.00000E+00
         0.00000E+00
         0.00000E+00
         0.00000E+00
         0.00000E+00
         0.00000E+00
         0.00000E+00
         0.00000E+00
         0.00000E+00
         0.00000E+00
         0.00000E+00
         0.00000E+00
         0.00000E+00
         0.00000E+00
         0.00000E+00
         0.00000E+00
         0.00000E+00
         0.00000E+00
         0.00000E+00
         0.00000E+00
         0.00000E+00
         0.00000E+00
         0.00000E+00
         0.00000E+00
         0.00000E+00
         0.00000E+00
         0.00000E+00
         0.00000E+00
         0.00000E+00
         0.00000E+00
         0.00000E+00
         0.00000E+00
         0.00000E+00
         0.00000E+00
         0.00000E+00
         0.00000E+00
         0.00000E+00
         0.00000E+00
         0.00000E+00
         0.00000E+00
         0.00000E+00
         0.00000E+00
         0.00000E+00
         0.00000E+00
         0.00000E+00
         0.00000E+00
         0.00000E+00
         0.00000E+00
         0.00000E+00
         0.00000E+00
         0.00000E+00
         0.00000E+00
         0.00000E+00
         0.00000E+00
         0.00000E+00
         0.00000E+00
         0.00000E+00
         0.00000E+00
         0.00000E+00
         0.00000E+00
         0.00000E+00
         0.00000E+00
         0.00000E+00
         0.00000E+00
         0.00000E+00
         0.00000E+00
         0.00000E+00
         0.00000E+00
         0.00000E+00
         0.00000E+00
         0.00000E+00
         0.00000E+00
         0.00000E+00
         0.00000E+00
         0.00000E+00
         0.00000E+00
         0.00000E+00
         0.00000E+00
         0.00000E+00
         0.00000E+00
         0.00000E+00
         0.00000E+00
         0.00000E+00
         0.00000E+00
         0.00000E+00
         0.00000E+00
         0.00000E+00
         0.00000E+00
         0.00000E+00
         0.00000E+00
         0.00000E+00
         0.00000E+00
         0.00000E+00
         0.00000E+00
         0.00000E+00
         0.00000E+00
         0.00000E+00
         0.00000E+00
         0.00000E+00
         0.00000E+00
         0.00000E+00
         0.00000E+00
         0.00000E+00
         0.00000E+00
         0.00000E+00
         0.00000E+00
         0.00000E+00
         0.00000E+00
         0.00000E+00
         0.00000E+00
         0.00000E+00
         0.00000E+00
         0.00000E+00
         0.00000E+00
         0.00000E+00
         0.00000E+00
         0.00000E+00
         0.00000E+00
         0.00000E+00
         0.00000E+00
         0.00000E+00
         0.00000E+00
         0.00000E+00
         0.00000E+00
         0.00000E+00
         0.00000E+00
         0.00000E+00
         0.00000E+00
         0.00000E+00
         0.00000E+00
         0.00000E+00
         0.00000E+00
         0.00000E+00
         0.00000E+00
         0.00000E+00
         0.00000E+00
         0.00000E+00
         0.00000E+00
         0.00000E+00
         0.00000E+00
         0.00000E+00
         0.00000E+00
         0.00000E+00
         0.00000E+00
         0.00000E+00
         0.00000E+00
         0.00000E+00
         0.00000E+00
         0.00000E+00
         0.00000E+00
         0.00000E+00
         0.00000E+00
         0.00000E+00
         0.00000E+00
         0.00000E+00
         0.00000E+00
         0.00000E+00
         0.00000E+00
         0.00000E+00
         0.00000E+00
         0.00000E+00
         0.00000E+00
         0.00000E+00
         0.00000E+00
         0.00000E+00
         0.00000E+00
         0.00000E+00
         0.00000E+00
         0.00000E+00
         0.00000E+00
         0.00000E+00
         0.00000E+00
         0.00000E+00
         0.00000E+00
         0.00000E+00
         0.00000E+00
         0.00000E+00
         0.00000E+00
         0.00000E+00
         0.00000E+00
         0.00000E+00
         0.00000E+00
         0.00000E+00
         0.00000E+00
         0.00000E+00
         0.00000E+00
         0.00000E+00
         0.00000E+00
         0.00000E+00
         0.00000E+00
         0.00000E+00
         0.00000E+00
         0.00000E+00
         0.00000E+00
         0.00000E+00
         0.00000E+00
         0.00000E+00
         0.00000E+00
         0.00000E+00
         0.00000E+00
         0.00000E+00
         0.00000E+00
         0.00000E+00
         0.00000E+00
         0.00000E+00
         0.00000E+00
         0.00000E+00
         0.00000E+00
         0.00000E+00
         0.00000E+00
         0.00000E+00
         0.00000E+00
         0.00000E+00
         0.00000E+00
         0.00000E+00
         0.00000E+00
         0.00000E+00
         0.00000E+00
         0.00000E+00
         0.00000E+00
         0.00000E+00
         0.00000E+00
         0.00000E+00
         0.00000E+00
         0.00000E+00
         0.00000E+00
         0.00000E+00
         0.00000E+00
         0.00000E+00
         0.00000E+00
         0.00000E+00
         0.00000E+00
         0.00000E+00
         0.00000E+00
         0.00000E+00
         0.00000E+00
         0.00000E+00
         0.00000E+00
         0.00000E+00
         0.00000E+00
         0.00000E+00
         0.00000E+00
         0.00000E+00
         0.00000E+00
         0.00000E+00
         0.00000E+00
         0.00000E+00
         0.00000E+00
         0.00000E+00
         0.00000E+00
         0.00000E+00
         0.00000E+00
         0.00000E+00
         0.00000E+00
         0.00000E+00
         0.00000E+00
         0.00000E+00
         0.00000E+00
         0.00000E+00
         0.00000E+00
         0.00000E+00
         0.00000E+00
         0.00000E+00
         0.00000E+00
         0.00000E+00
         0.00000E+00
         0.00000E+00
         0.00000E+00
         0.00000E+00
         0.00000E+00
         0.00000E+00
         0.00000E+00
         0.00000E+00
         0.00000E+00
         0.00000E+00
         0.00000E+00
         0.00000E+00
         0.00000E+00
         0.00000E+00
         0.00000E+00
         0.00000E+00
         0.00000E+00
         0.00000E+00
         0.00000E+00
         0.00000E+00
         0.00000E+00
         0.00000E+00
         0.00000E+00
         0.00000E+00
         0.00000E+00
         0.00000E+00
         0.00000E+00
         0.00000E+00
         0.00000E+00
         0.00000E+00
         0.00000E+00
         0.00000E+00
         0.00000E+00
         0.00000E+00
         0.00000E+00
         0.00000E+00
         0.00000E+00
         0.00000E+00
         0.00000E+00
         0.00000E+00
         0.00000E+00
         0.00000E+00
         0.00000E+00
         0.00000E+00
         0.00000E+00
         0.00000E+00
         0.00000E+00
         0.00000E+00
         0.00000E+00
         0.00000E+00
         0.00000E+00
         0.00000E+00
         0.00000E+00
         0.00000E+00
         0.00000E+00
         0.00000E+00
         0.00000E+00
         0.00000E+00
         0.00000E+00
         0.00000E+00
         0.00000E+00
         0.00000E+00
         0.00000E+00
         0.00000E+00
         0.00000E+00
         0.00000E+00
         0.00000E+00
         0.00000E+00
         0.00000E+00
         0.00000E+00
         0.00000E+00
         0.00000E+00
         0.00000E+00
         0.00000E+00
         0.00000E+00
         0.00000E+00
         0.00000E+00
         0.00000E+00
         0.00000E+00
         0.00000E+00
         0.00000E+00
         0.00000E+00
         0.00000E+00
         0.00000E+00
         0.00000E+00
         0.00000E+00
         0.00000E+00
         0.00000E+00
         0.00000E+00
         0.00000E+00
         0.00000E+00
         0.00000E+00
         0.00000E+00
         0.00000E+00
         0.00000E+00
         0.00000E+00
         0.00000E+00
         0.00000E+00
         0.00000E+00
         0.00000E+00
         0.00000E+00
         0.00000E+00
         0.00000E+00
         0.00000E+00
         0.00000E+00
         0.00000E+00
         0.00000E+00
         0.00000E+00
         0.00000E+00
         0.00000E+00
         0.00000E+00
         0.00000E+00
         0.00000E+00
         0.00000E+00
         0.00000E+00
         0.00000E+00
         0.00000E+00
         0.00000E+00
         0.00000E+00
         0.00000E+00
         0.00000E+00
         0.00000E+00
         0.00000E+00
         0.00000E+00
         0.00000E+00
         0.00000E+00
         0.00000E+00
         0.00000E+00
         0.00000E+00
         0.00000E+00
         0.00000E+00
         0.00000E+00
         0.00000E+00
         0.00000E+00
         0.00000E+00
         0.00000E+00
         0.00000E+00
         0.00000E+00
         0.00000E+00
         0.00000E+00
         0.00000E+00
         0.00000E+00
         0.00000E+00
         0.00000E+00
         0.00000E+00
         0.00000E+00
         0.00000E+00
         0.00000E+00
         0.00000E+00
         0.00000E+00
         0.00000E+00
         0.00000E+00
         0.00000E+00
         0.00000E+00
         0.00000E+00
         0.00000E+00
         0.00000E+00
         0.00000E+00
         0.00000E+00
         0.00000E+00
         0.00000E+00
         0.00000E+00
         0.00000E+00
         0.00000E+00
         0.00000E+00
         0.00000E+00
         0.00000E+00
         0.00000E+00
         0.00000E+00
         0.00000E+00
         0.00000E+00
         0.00000E+00
         0.00000E+00
         0.00000E+00
         0.00000E+00
         0.00000E+00
         0.00000E+00
         0.00000E+00
         0.00000E+00
         0.00000E+00
         0.00000E+00
         0.00000E+00
         0.00000E+00
         0.00000E+00
         0.00000E+00
         0.00000E+00
         0.00000E+00
         0.00000E+00
         0.00000E+00
         0.00000E+00
         0.00000E+00
         0.00000E+00
         0.00000E+00
         0.00000E+00
         0.00000E+00
         0.00000E+00
         0.00000E+00
         0.00000E+00
         0.00000E+00
         0.00000E+00
         0.00000E+00
         0.00000E+00
         0.00000E+00
         0.00000E+00
         0.00000E+00
         0.00000E+00
         0.00000E+00
         0.00000E+00
         0.00000E+00
         0.00000E+00
         0.00000E+00
         0.00000E+00
         0.00000E+00
         0.00000E+00
         0.00000E+00
         0.00000E+00
         0.00000E+00
         0.00000E+00
         0.00000E+00
         0.00000E+00
         0.00000E+00
         0.00000E+00
         0.00000E+00
         0.00000E+00
         0.00000E+00
         0.00000E+00
         0.00000E+00
         0.00000E+00
         0.00000E+00
         0.00000E+00
         0.00000E+00
         0.00000E+00
         0.00000E+00
         0.00000E+00
         0.00000E+00
         0.00000E+00
         0.00000E+00
         0.00000E+00
         0.00000E+00
         0.00000E+00
         0.00000E+00
         0.00000E+00
         0.00000E+00
         0.00000E+00
         0.00000E+00
         0.00000E+00
         0.00000E+00
         0.00000E+00
         0.00000E+00
         0.00000E+00
         0.00000E+00
         0.00000E+00
         0.00000E+00
         0.00000E+00
         0.00000E+00
         0.00000E+00
         0.00000E+00
         0.00000E+00
         0.00000E+00
         0.00000E+00
         0.00000E+00
         0.00000E+00
         0.00000E+00
         0.00000E+00
         0.00000E+00
         0.00000E+00
         0.00000E+00
         0.00000E+00
         0.00000E+00
         0.00000E+00
         0.00000E+00
         0.00000E+00
         0.00000E+00
         0.00000E+00
         0.00000E+00
         0.00000E+00
         0.00000E+00
         0.00000E+00
         0.00000E+00
         0.00000E+00
         0.00000E+00
         0.00000E+00
         0.00000E+00
         0.00000E+00
         0.00000E+00
         0.00000E+00
         0.00000E+00
         0.00000E+00
         0.00000E+00
         0.00000E+00
         0.00000E+00
         0.00000E+00
         0.00000E+00
         0.00000E+00
         0.00000E+00
         0.00000E+00
         0.00000E+00
         0.00000E+00
         0.00000E+00
         0.00000E+00
         0.00000E+00
         0.00000E+00
         0.00000E+00
         0.00000E+00
         0.00000E+00
         0.00000E+00
         0.00000E+00
         0.00000E+00
         0.00000E+00
         0.00000E+00
         0.00000E+00
         0.00000E+00
         0.00000E+00
         0.00000E+00
         0.00000E+00
         0.00000E+00
         0.00000E+00
         0.00000E+00
         0.00000E+00
         0.00000E+00
         0.00000E+00
         0.00000E+00
         0.00000E+00
         0.00000E+00
         0.00000E+00
         0.00000E+00
         0.00000E+00
         0.00000E+00
         0.00000E+00
         0.00000E+00
         0.00000E+00
         0.00000E+00
         0.00000E+00
         0.00000E+00
         0.00000E+00
         0.00000E+00
         0.00000E+00
         0.00000E+00
         0.00000E+00
         0.00000E+00
         0.00000E+00
         0.00000E+00
         0.00000E+00
         0.00000E+00
         0.00000E+00
         0.00000E+00
         0.00000E+00
         0.00000E+00
         0.00000E+00
         0.00000E+00
         0.00000E+00
         0.00000E+00
         0.00000E+00
         0.00000E+00
         0.00000E+00
         0.00000E+00
         0.00000E+00
         0.00000E+00
         0.00000E+00
         0.00000E+00
         0.00000E+00
         0.00000E+00
         0.00000E+00
         0.00000E+00
         0.00000E+00
         0.00000E+00
         0.00000E+00
         0.00000E+00
         0.00000E+00
         0.00000E+00
         0.00000E+00
         0.00000E+00
         0.00000E+00
         0.00000E+00
         0.00000E+00
         0.00000E+00
         0.00000E+00
         0.00000E+00
         0.00000E+00
         0.00000E+00
         0.00000E+00
         0.00000E+00
         0.00000E+00
         0.00000E+00
         0.00000E+00
         0.00000E+00
         0.00000E+00
         0.00000E+00
         0.00000E+00
         0.00000E+00
         0.00000E+00
         0.00000E+00
         0.00000E+00
         0.00000E+00
         0.00000E+00
         0.00000E+00
         0.00000E+00
         0.00000E+00
         0.00000E+00
         0.00000E+00
         0.00000E+00
         0.00000E+00
         0.00000E+00
         0.00000E+00
         0.00000E+00
         0.00000E+00
         0.00000E+00
         0.00000E+00
         0.00000E+00
         0.00000E+00
         0.00000E+00
         0.00000E+00
         0.00000E+00
  
SCALARS                 acceleration_y  double 1
LOOKUP_TABLE default
         0.00000E+00
         0.00000E+00
         0.00000E+00
         0.00000E+00
         0.00000E+00
         0.00000E+00
         0.00000E+00
         0.00000E+00
         0.00000E+00
         0.00000E+00
         0.00000E+00
         0.00000E+00
         0.00000E+00
         0.00000E+00
         0.00000E+00
         0.00000E+00
         0.00000E+00
         0.00000E+00
         0.00000E+00
         0.00000E+00
         0.00000E+00
         0.00000E+00
         0.00000E+00
         0.00000E+00
         0.00000E+00
         0.00000E+00
         0.00000E+00
         0.00000E+00
         0.00000E+00
         0.00000E+00
         0.00000E+00
         0.00000E+00
         0.00000E+00
         0.00000E+00
         0.00000E+00
         0.00000E+00
         0.00000E+00
         0.00000E+00
         0.00000E+00
         0.00000E+00
         0.00000E+00
         0.00000E+00
         0.00000E+00
         0.00000E+00
         0.00000E+00
         0.00000E+00
         0.00000E+00
         0.00000E+00
         0.00000E+00
         0.00000E+00
         0.00000E+00
         0.00000E+00
         0.00000E+00
         0.00000E+00
         0.00000E+00
         0.00000E+00
         0.00000E+00
         0.00000E+00
         0.00000E+00
         0.00000E+00
         0.00000E+00
         0.00000E+00
         0.00000E+00
         0.00000E+00
         0.00000E+00
         0.00000E+00
         0.00000E+00
         0.00000E+00
         0.00000E+00
         0.00000E+00
         0.00000E+00
         0.00000E+00
         0.00000E+00
         0.00000E+00
         0.00000E+00
         0.00000E+00
         0.00000E+00
         0.00000E+00
         0.00000E+00
         0.00000E+00
         0.00000E+00
         0.00000E+00
         0.00000E+00
         0.00000E+00
         0.00000E+00
         0.00000E+00
         0.00000E+00
         0.00000E+00
         0.00000E+00
         0.00000E+00
         0.00000E+00
         0.00000E+00
         0.00000E+00
         0.00000E+00
         0.00000E+00
         0.00000E+00
         0.00000E+00
         0.00000E+00
         0.00000E+00
         0.00000E+00
         0.00000E+00
         0.00000E+00
         0.00000E+00
         0.00000E+00
         0.00000E+00
         0.00000E+00
         0.00000E+00
         0.00000E+00
         0.00000E+00
         0.00000E+00
         0.00000E+00
         0.00000E+00
         0.00000E+00
         0.00000E+00
         0.00000E+00
         0.00000E+00
         0.00000E+00
         0.00000E+00
         0.00000E+00
         0.00000E+00
         0.00000E+00
         0.00000E+00
         0.00000E+00
         0.00000E+00
         0.00000E+00
         0.00000E+00
         0.00000E+00
         0.00000E+00
         0.00000E+00
         0.00000E+00
         0.00000E+00
         0.00000E+00
         0.00000E+00
         0.00000E+00
         0.00000E+00
         0.00000E+00
         0.00000E+00
         0.00000E+00
         0.00000E+00
         0.00000E+00
         0.00000E+00
         0.00000E+00
         0.00000E+00
         0.00000E+00
         0.00000E+00
         0.00000E+00
         0.00000E+00
         0.00000E+00
         0.00000E+00
         0.00000E+00
         0.00000E+00
         0.00000E+00
         0.00000E+00
         0.00000E+00
         0.00000E+00
         0.00000E+00
         0.00000E+00
         0.00000E+00
         0.00000E+00
         0.00000E+00
         0.00000E+00
         0.00000E+00
         0.00000E+00
         0.00000E+00
         0.00000E+00
         0.00000E+00
         0.00000E+00
         0.00000E+00
         0.00000E+00
         0.00000E+00
         0.00000E+00
         0.00000E+00
         0.00000E+00
         0.00000E+00
         0.00000E+00
         0.00000E+00
         0.00000E+00
         0.00000E+00
         0.00000E+00
         0.00000E+00
         0.00000E+00
         0.00000E+00
         0.00000E+00
         0.00000E+00
         0.00000E+00
         0.00000E+00
         0.00000E+00
         0.00000E+00
         0.00000E+00
         0.00000E+00
         0.00000E+00
         0.00000E+00
         0.00000E+00
         0.00000E+00
         0.00000E+00
         0.00000E+00
         0.00000E+00
         0.00000E+00
         0.00000E+00
         0.00000E+00
         0.00000E+00
         0.00000E+00
         0.00000E+00
         0.00000E+00
         0.00000E+00
         0.00000E+00
         0.00000E+00
         0.00000E+00
         0.00000E+00
         0.00000E+00
         0.00000E+00
         0.00000E+00
         0.00000E+00
         0.00000E+00
         0.00000E+00
         0.00000E+00
         0.00000E+00
         0.00000E+00
         0.00000E+00
         0.00000E+00
         0.00000E+00
         0.00000E+00
         0.00000E+00
         0.00000E+00
         0.00000E+00
         0.00000E+00
         0.00000E+00
         0.00000E+00
         0.00000E+00
         0.00000E+00
         0.00000E+00
         0.00000E+00
         0.00000E+00
         0.00000E+00
         0.00000E+00
         0.00000E+00
         0.00000E+00
         0.00000E+00
         0.00000E+00
         0.00000E+00
         0.00000E+00
         0.00000E+00
         0.00000E+00
         0.00000E+00
         0.00000E+00
         0.00000E+00
         0.00000E+00
         0.00000E+00
         0.00000E+00
         0.00000E+00
         0.00000E+00
         0.00000E+00
         0.00000E+00
         0.00000E+00
         0.00000E+00
         0.00000E+00
         0.00000E+00
         0.00000E+00
         0.00000E+00
         0.00000E+00
         0.00000E+00
         0.00000E+00
         0.00000E+00
         0.00000E+00
         0.00000E+00
         0.00000E+00
         0.00000E+00
         0.00000E+00
         0.00000E+00
         0.00000E+00
         0.00000E+00
         0.00000E+00
         0.00000E+00
         0.00000E+00
         0.00000E+00
         0.00000E+00
         0.00000E+00
         0.00000E+00
         0.00000E+00
         0.00000E+00
         0.00000E+00
         0.00000E+00
         0.00000E+00
         0.00000E+00
         0.00000E+00
         0.00000E+00
         0.00000E+00
         0.00000E+00
         0.00000E+00
         0.00000E+00
         0.00000E+00
         0.00000E+00
         0.00000E+00
         0.00000E+00
         0.00000E+00
         0.00000E+00
         0.00000E+00
         0.00000E+00
         0.00000E+00
         0.00000E+00
         0.00000E+00
         0.00000E+00
         0.00000E+00
         0.00000E+00
         0.00000E+00
         0.00000E+00
         0.00000E+00
         0.00000E+00
         0.00000E+00
         0.00000E+00
         0.00000E+00
         0.00000E+00
         0.00000E+00
         0.00000E+00
         0.00000E+00
         0.00000E+00
         0.00000E+00
         0.00000E+00
         0.00000E+00
         0.00000E+00
         0.00000E+00
         0.00000E+00
         0.00000E+00
         0.00000E+00
         0.00000E+00
         0.00000E+00
         0.00000E+00
         0.00000E+00
         0.00000E+00
         0.00000E+00
         0.00000E+00
         0.00000E+00
         0.00000E+00
         0.00000E+00
         0.00000E+00
         0.00000E+00
         0.00000E+00
         0.00000E+00
         0.00000E+00
         0.00000E+00
         0.00000E+00
         0.00000E+00
         0.00000E+00
         0.00000E+00
         0.00000E+00
         0.00000E+00
         0.00000E+00
         0.00000E+00
         0.00000E+00
         0.00000E+00
         0.00000E+00
         0.00000E+00
         0.00000E+00
         0.00000E+00
         0.00000E+00
         0.00000E+00
         0.00000E+00
         0.00000E+00
         0.00000E+00
         0.00000E+00
         0.00000E+00
         0.00000E+00
         0.00000E+00
         0.00000E+00
         0.00000E+00
         0.00000E+00
         0.00000E+00
         0.00000E+00
         0.00000E+00
         0.00000E+00
         0.00000E+00
         0.00000E+00
         0.00000E+00
         0.00000E+00
         0.00000E+00
         0.00000E+00
         0.00000E+00
         0.00000E+00
         0.00000E+00
         0.00000E+00
         0.00000E+00
         0.00000E+00
         0.00000E+00
         0.00000E+00
         0.00000E+00
         0.00000E+00
         0.00000E+00
         0.00000E+00
         0.00000E+00
         0.00000E+00
         0.00000E+00
         0.00000E+00
         0.00000E+00
         0.00000E+00
         0.00000E+00
         0.00000E+00
         0.00000E+00
         0.00000E+00
         0.00000E+00
         0.00000E+00
         0.00000E+00
         0.00000E+00
         0.00000E+00
         0.00000E+00
         0.00000E+00
         0.00000E+00
         0.00000E+00
         0.00000E+00
         0.00000E+00
         0.00000E+00
         0.00000E+00
         0.00000E+00
         0.00000E+00
         0.00000E+00
         0.00000E+00
         0.00000E+00
         0.00000E+00
         0.00000E+00
         0.00000E+00
         0.00000E+00
         0.00000E+00
         0.00000E+00
         0.00000E+00
         0.00000E+00
         0.00000E+00
         0.00000E+00
         0.00000E+00
         0.00000E+00
         0.00000E+00
         0.00000E+00
         0.00000E+00
         0.00000E+00
         0.00000E+00
         0.00000E+00
         0.00000E+00
         0.00000E+00
         0.00000E+00
         0.00000E+00
         0.00000E+00
         0.00000E+00
         0.00000E+00
         0.00000E+00
         0.00000E+00
         0.00000E+00
         0.00000E+00
         0.00000E+00
         0.00000E+00
         0.00000E+00
         0.00000E+00
         0.00000E+00
         0.00000E+00
         0.00000E+00
         0.00000E+00
         0.00000E+00
         0.00000E+00
         0.00000E+00
         0.00000E+00
         0.00000E+00
         0.00000E+00
         0.00000E+00
         0.00000E+00
         0.00000E+00
         0.00000E+00
         0.00000E+00
         0.00000E+00
         0.00000E+00
         0.00000E+00
         0.00000E+00
         0.00000E+00
         0.00000E+00
         0.00000E+00
         0.00000E+00
         0.00000E+00
         0.00000E+00
         0.00000E+00
         0.00000E+00
         0.00000E+00
         0.00000E+00
         0.00000E+00
         0.00000E+00
         0.00000E+00
         0.00000E+00
         0.00000E+00
         0.00000E+00
         0.00000E+00
         0.00000E+00
         0.00000E+00
         0.00000E+00
         0.00000E+00
         0.00000E+00
         0.00000E+00
         0.00000E+00
         0.00000E+00
         0.00000E+00
         0.00000E+00
         0.00000E+00
         0.00000E+00
         0.00000E+00
         0.00000E+00
         0.00000E+00
         0.00000E+00
         0.00000E+00
         0.00000E+00
         0.00000E+00
         0.00000E+00
         0.00000E+00
         0.00000E+00
         0.00000E+00
         0.00000E+00
         0.00000E+00
         0.00000E+00
         0.00000E+00
         0.00000E+00
         0.00000E+00
         0.00000E+00
         0.00000E+00
         0.00000E+00
         0.00000E+00
         0.00000E+00
         0.00000E+00
         0.00000E+00
         0.00000E+00
         0.00000E+00
         0.00000E+00
         0.00000E+00
         0.00000E+00
         0.00000E+00
         0.00000E+00
         0.00000E+00
         0.00000E+00
         0.00000E+00
         0.00000E+00
         0.00000E+00
         0.00000E+00
         0.00000E+00
         0.00000E+00
         0.00000E+00
         0.00000E+00
         0.00000E+00
         0.00000E+00
         0.00000E+00
         0.00000E+00
         0.00000E+00
         0.00000E+00
         0.00000E+00
         0.00000E+00
         0.00000E+00
         0.00000E+00
         0.00000E+00
         0.00000E+00
         0.00000E+00
         0.00000E+00
         0.00000E+00
         0.00000E+00
         0.00000E+00
         0.00000E+00
         0.00000E+00
         0.00000E+00
         0.00000E+00
         0.00000E+00
         0.00000E+00
         0.00000E+00
         0.00000E+00
         0.00000E+00
         0.00000E+00
         0.00000E+00
         0.00000E+00
         0.00000E+00
         0.00000E+00
         0.00000E+00
         0.00000E+00
         0.00000E+00
         0.00000E+00
         0.00000E+00
         0.00000E+00
         0.00000E+00
         0.00000E+00
         0.00000E+00
         0.00000E+00
         0.00000E+00
         0.00000E+00
         0.00000E+00
         0.00000E+00
         0.00000E+00
         0.00000E+00
         0.00000E+00
         0.00000E+00
         0.00000E+00
         0.00000E+00
         0.00000E+00
         0.00000E+00
         0.00000E+00
         0.00000E+00
         0.00000E+00
         0.00000E+00
         0.00000E+00
         0.00000E+00
         0.00000E+00
         0.00000E+00
         0.00000E+00
         0.00000E+00
         0.00000E+00
         0.00000E+00
         0.00000E+00
         0.00000E+00
         0.00000E+00
         0.00000E+00
         0.00000E+00
         0.00000E+00
         0.00000E+00
         0.00000E+00
         0.00000E+00
         0.00000E+00
         0.00000E+00
         0.00000E+00
         0.00000E+00
         0.00000E+00
         0.00000E+00
         0.00000E+00
         0.00000E+00
         0.00000E+00
         0.00000E+00
         0.00000E+00
         0.00000E+00
         0.00000E+00
         0.00000E+00
         0.00000E+00
         0.00000E+00
         0.00000E+00
         0.00000E+00
         0.00000E+00
         0.00000E+00
         0.00000E+00
         0.00000E+00
         0.00000E+00
         0.00000E+00
         0.00000E+00
         0.00000E+00
         0.00000E+00
         0.00000E+00
         0.00000E+00
         0.00000E+00
         0.00000E+00
         0.00000E+00
         0.00000E+00
         0.00000E+00
         0.00000E+00
         0.00000E+00
         0.00000E+00
         0.00000E+00
         0.00000E+00
         0.00000E+00
         0.00000E+00
         0.00000E+00
         0.00000E+00
         0.00000E+00
         0.00000E+00
         0.00000E+00
         0.00000E+00
         0.00000E+00
         0.00000E+00
         0.00000E+00
         0.00000E+00
         0.00000E+00
         0.00000E+00
         0.00000E+00
         0.00000E+00
         0.00000E+00
         0.00000E+00
         0.00000E+00
         0.00000E+00
         0.00000E+00
         0.00000E+00
         0.00000E+00
         0.00000E+00
         0.00000E+00
         0.00000E+00
         0.00000E+00
         0.00000E+00
         0.00000E+00
         0.00000E+00
         0.00000E+00
         0.00000E+00
         0.00000E+00
         0.00000E+00
         0.00000E+00
         0.00000E+00
         0.00000E+00
         0.00000E+00
         0.00000E+00
         0.00000E+00
         0.00000E+00
         0.00000E+00
         0.00000E+00
         0.00000E+00
         0.00000E+00
         0.00000E+00
         0.00000E+00
         0.00000E+00
         0.00000E+00
         0.00000E+00
         0.00000E+00
         0.00000E+00
         0.00000E+00
         0.00000E+00
         0.00000E+00
         0.00000E+00
         0.00000E+00
         0.00000E+00
         0.00000E+00
         0.00000E+00
         0.00000E+00
         0.00000E+00
         0.00000E+00
         0.00000E+00
         0.00000E+00
         0.00000E+00
         0.00000E+00
         0.00000E+00
         0.00000E+00
         0.00000E+00
         0.00000E+00
         0.00000E+00
         0.00000E+00
         0.00000E+00
         0.00000E+00
         0.00000E+00
         0.00000E+00
         0.00000E+00
         0.00000E+00
         0.00000E+00
         0.00000E+00
         0.00000E+00
         0.00000E+00
         0.00000E+00
         0.00000E+00
         0.00000E+00
         0.00000E+00
         0.00000E+00
         0.00000E+00
         0.00000E+00
         0.00000E+00
         0.00000E+00
         0.00000E+00
         0.00000E+00
         0.00000E+00
         0.00000E+00
         0.00000E+00
         0.00000E+00
         0.00000E+00
         0.00000E+00
         0.00000E+00
         0.00000E+00
         0.00000E+00
         0.00000E+00
         0.00000E+00
         0.00000E+00
         0.00000E+00
         0.00000E+00
         0.00000E+00
         0.00000E+00
         0.00000E+00
         0.00000E+00
         0.00000E+00
         0.00000E+00
         0.00000E+00
         0.00000E+00
         0.00000E+00
         0.00000E+00
         0.00000E+00
         0.00000E+00
         0.00000E+00
         0.00000E+00
         0.00000E+00
         0.00000E+00
         0.00000E+00
         0.00000E+00
         0.00000E+00
         0.00000E+00
         0.00000E+00
         0.00000E+00
         0.00000E+00
         0.00000E+00
         0.00000E+00
         0.00000E+00
         0.00000E+00
         0.00000E+00
         0.00000E+00
         0.00000E+00
         0.00000E+00
         0.00000E+00
         0.00000E+00
         0.00000E+00
         0.00000E+00
         0.00000E+00
         0.00000E+00
         0.00000E+00
         0.00000E+00
         0.00000E+00
         0.00000E+00
         0.00000E+00
         0.00000E+00
         0.00000E+00
         0.00000E+00
         0.00000E+00
         0.00000E+00
         0.00000E+00
         0.00000E+00
         0.00000E+00
         0.00000E+00
         0.00000E+00
         0.00000E+00
         0.00000E+00
         0.00000E+00
         0.00000E+00
         0.00000E+00
         0.00000E+00
         0.00000E+00
         0.00000E+00
         0.00000E+00
         0.00000E+00
         0.00000E+00
         0.00000E+00
         0.00000E+00
         0.00000E+00
         0.00000E+00
         0.00000E+00
         0.00000E+00
         0.00000E+00
         0.00000E+00
         0.00000E+00
         0.00000E+00
         0.00000E+00
         0.00000E+00
         0.00000E+00
         0.00000E+00
         0.00000E+00
         0.00000E+00
         0.00000E+00
         0.00000E+00
         0.00000E+00
         0.00000E+00
         0.00000E+00
         0.00000E+00
         0.00000E+00
         0.00000E+00
         0.00000E+00
         0.00000E+00
         0.00000E+00
         0.00000E+00
         0.00000E+00
         0.00000E+00
         0.00000E+00
         0.00000E+00
         0.00000E+00
         0.00000E+00
         0.00000E+00
         0.00000E+00
         0.00000E+00
         0.00000E+00
         0.00000E+00
         0.00000E+00
         0.00000E+00
         0.00000E+00
         0.00000E+00
         0.00000E+00
         0.00000E+00
         0.00000E+00
         0.00000E+00
         0.00000E+00
         0.00000E+00
         0.00000E+00
         0.00000E+00
         0.00000E+00
         0.00000E+00
         0.00000E+00
         0.00000E+00
         0.00000E+00
         0.00000E+00
         0.00000E+00
         0.00000E+00
         0.00000E+00
         0.00000E+00
         0.00000E+00
         0.00000E+00
         0.00000E+00
         0.00000E+00
         0.00000E+00
         0.00000E+00
         0.00000E+00
         0.00000E+00
         0.00000E+00
         0.00000E+00
         0.00000E+00
         0.00000E+00
         0.00000E+00
         0.00000E+00
         0.00000E+00
         0.00000E+00
         0.00000E+00
         0.00000E+00
         0.00000E+00
         0.00000E+00
         0.00000E+00
         0.00000E+00
         0.00000E+00
         0.00000E+00
         0.00000E+00
         0.00000E+00
         0.00000E+00
         0.00000E+00
         0.00000E+00
         0.00000E+00
         0.00000E+00
         0.00000E+00
         0.00000E+00
         0.00000E+00
         0.00000E+00
         0.00000E+00
         0.00000E+00
         0.00000E+00
         0.00000E+00
         0.00000E+00
         0.00000E+00
         0.00000E+00
         0.00000E+00
         0.00000E+00
         0.00000E+00
         0.00000E+00
         0.00000E+00
         0.00000E+00
         0.00000E+00
         0.00000E+00
         0.00000E+00
         0.00000E+00
         0.00000E+00
         0.00000E+00
         0.00000E+00
         0.00000E+00
         0.00000E+00
         0.00000E+00
         0.00000E+00
         0.00000E+00
         0.00000E+00
         0.00000E+00
         0.00000E+00
         0.00000E+00
         0.00000E+00
         0.00000E+00
         0.00000E+00
         0.00000E+00
         0.00000E+00
         0.00000E+00
         0.00000E+00
         0.00000E+00
         0.00000E+00
         0.00000E+00
         0.00000E+00
         0.00000E+00
         0.00000E+00
         0.00000E+00
         0.00000E+00
         0.00000E+00
         0.00000E+00
         0.00000E+00
         0.00000E+00
         0.00000E+00
         0.00000E+00
         0.00000E+00
         0.00000E+00
         0.00000E+00
         0.00000E+00
         0.00000E+00
         0.00000E+00
         0.00000E+00
         0.00000E+00
         0.00000E+00
         0.00000E+00
         0.00000E+00
         0.00000E+00
         0.00000E+00
         0.00000E+00
         0.00000E+00
         0.00000E+00
         0.00000E+00
         0.00000E+00
         0.00000E+00
         0.00000E+00
         0.00000E+00
         0.00000E+00
         0.00000E+00
         0.00000E+00
         0.00000E+00
         0.00000E+00
         0.00000E+00
         0.00000E+00
         0.00000E+00
         0.00000E+00
         0.00000E+00
         0.00000E+00
         0.00000E+00
         0.00000E+00
         0.00000E+00
         0.00000E+00
         0.00000E+00
         0.00000E+00
         0.00000E+00
         0.00000E+00
         0.00000E+00
         0.00000E+00
         0.00000E+00
         0.00000E+00
         0.00000E+00
         0.00000E+00
         0.00000E+00
         0.00000E+00
         0.00000E+00
         0.00000E+00
         0.00000E+00
         0.00000E+00
         0.00000E+00
         0.00000E+00
         0.00000E+00
         0.00000E+00
         0.00000E+00
         0.00000E+00
         0.00000E+00
         0.00000E+00
         0.00000E+00
         0.00000E+00
         0.00000E+00
         0.00000E+00
         0.00000E+00
         0.00000E+00
         0.00000E+00
         0.00000E+00
         0.00000E+00
         0.00000E+00
         0.00000E+00
         0.00000E+00
         0.00000E+00
         0.00000E+00
         0.00000E+00
         0.00000E+00
         0.00000E+00
         0.00000E+00
         0.00000E+00
         0.00000E+00
         0.00000E+00
         0.00000E+00
         0.00000E+00
         0.00000E+00
         0.00000E+00
         0.00000E+00
         0.00000E+00
         0.00000E+00
         0.00000E+00
         0.00000E+00
         0.00000E+00
         0.00000E+00
         0.00000E+00
         0.00000E+00
         0.00000E+00
         0.00000E+00
         0.00000E+00
         0.00000E+00
         0.00000E+00
         0.00000E+00
         0.00000E+00
         0.00000E+00
         0.00000E+00
         0.00000E+00
         0.00000E+00
         0.00000E+00
         0.00000E+00
         0.00000E+00
         0.00000E+00
         0.00000E+00
         0.00000E+00
         0.00000E+00
         0.00000E+00
         0.00000E+00
         0.00000E+00
         0.00000E+00
         0.00000E+00
         0.00000E+00
         0.00000E+00
         0.00000E+00
         0.00000E+00
         0.00000E+00
         0.00000E+00
         0.00000E+00
         0.00000E+00
         0.00000E+00
         0.00000E+00
         0.00000E+00
         0.00000E+00
         0.00000E+00
         0.00000E+00
         0.00000E+00
         0.00000E+00
         0.00000E+00
         0.00000E+00
         0.00000E+00
         0.00000E+00
         0.00000E+00
         0.00000E+00
         0.00000E+00
         0.00000E+00
         0.00000E+00
         0.00000E+00
         0.00000E+00
         0.00000E+00
         0.00000E+00
         0.00000E+00
         0.00000E+00
         0.00000E+00
         0.00000E+00
         0.00000E+00
         0.00000E+00
         0.00000E+00
         0.00000E+00
         0.00000E+00
         0.00000E+00
         0.00000E+00
         0.00000E+00
         0.00000E+00
         0.00000E+00
         0.00000E+00
         0.00000E+00
         0.00000E+00
         0.00000E+00
         0.00000E+00
         0.00000E+00
         0.00000E+00
         0.00000E+00
         0.00000E+00
         0.00000E+00
         0.00000E+00
         0.00000E+00
         0.00000E+00
         0.00000E+00
         0.00000E+00
         0.00000E+00
         0.00000E+00
         0.00000E+00
         0.00000E+00
         0.00000E+00
         0.00000E+00
         0.00000E+00
         0.00000E+00
         0.00000E+00
         0.00000E+00
         0.00000E+00
         0.00000E+00
         0.00000E+00
         0.00000E+00
         0.00000E+00
         0.00000E+00
         0.00000E+00
         0.00000E+00
         0.00000E+00
         0.00000E+00
         0.00000E+00
         0.00000E+00
         0.00000E+00
         0.00000E+00
         0.00000E+00
         0.00000E+00
         0.00000E+00
         0.00000E+00
         0.00000E+00
         0.00000E+00
         0.00000E+00
         0.00000E+00
         0.00000E+00
         0.00000E+00
         0.00000E+00
         0.00000E+00
         0.00000E+00
         0.00000E+00
         0.00000E+00
         0.00000E+00
         0.00000E+00
         0.00000E+00
         0.00000E+00
         0.00000E+00
         0.00000E+00
         0.00000E+00
         0.00000E+00
         0.00000E+00
         0.00000E+00
         0.00000E+00
         0.00000E+00
         0.00000E+00
         0.00000E+00
         0.00000E+00
         0.00000E+00
         0.00000E+00
         0.00000E+00
         0.00000E+00
         0.00000E+00
         0.00000E+00
         0.00000E+00
         0.00000E+00
         0.00000E+00
         0.00000E+00
         0.00000E+00
         0.00000E+00
         0.00000E+00
         0.00000E+00
         0.00000E+00
         0.00000E+00
         0.00000E+00
         0.00000E+00
         0.00000E+00
         0.00000E+00
         0.00000E+00
         0.00000E+00
         0.00000E+00
         0.00000E+00
         0.00000E+00
         0.00000E+00
         0.00000E+00
         0.00000E+00
         0.00000E+00
         0.00000E+00
         0.00000E+00
         0.00000E+00
         0.00000E+00
         0.00000E+00
         0.00000E+00
         0.00000E+00
         0.00000E+00
         0.00000E+00
         0.00000E+00
         0.00000E+00
         0.00000E+00
         0.00000E+00
         0.00000E+00
         0.00000E+00
         0.00000E+00
         0.00000E+00
         0.00000E+00
         0.00000E+00
         0.00000E+00
         0.00000E+00
         0.00000E+00
         0.00000E+00
         0.00000E+00
         0.00000E+00
         0.00000E+00
         0.00000E+00
         0.00000E+00
         0.00000E+00
         0.00000E+00
         0.00000E+00
         0.00000E+00
         0.00000E+00
         0.00000E+00
         0.00000E+00
         0.00000E+00
         0.00000E+00
         0.00000E+00
         0.00000E+00
         0.00000E+00
         0.00000E+00
         0.00000E+00
         0.00000E+00
         0.00000E+00
         0.00000E+00
         0.00000E+00
         0.00000E+00
         0.00000E+00
         0.00000E+00
         0.00000E+00
         0.00000E+00
         0.00000E+00
         0.00000E+00
         0.00000E+00
         0.00000E+00
         0.00000E+00
         0.00000E+00
         0.00000E+00
         0.00000E+00
         0.00000E+00
         0.00000E+00
         0.00000E+00
         0.00000E+00
         0.00000E+00
         0.00000E+00
         0.00000E+00
         0.00000E+00
         0.00000E+00
         0.00000E+00
         0.00000E+00
         0.00000E+00
         0.00000E+00
         0.00000E+00
         0.00000E+00
         0.00000E+00
         0.00000E+00
         0.00000E+00
         0.00000E+00
         0.00000E+00
         0.00000E+00
         0.00000E+00
         0.00000E+00
         0.00000E+00
         0.00000E+00
         0.00000E+00
         0.00000E+00
         0.00000E+00
         0.00000E+00
         0.00000E+00
         0.00000E+00
         0.00000E+00
         0.00000E+00
         0.00000E+00
         0.00000E+00
         0.00000E+00
         0.00000E+00
         0.00000E+00
         0.00000E+00
         0.00000E+00
         0.00000E+00
         0.00000E+00
         0.00000E+00
         0.00000E+00
         0.00000E+00
         0.00000E+00
         0.00000E+00
         0.00000E+00
         0.00000E+00
         0.00000E+00
         0.00000E+00
         0.00000E+00
         0.00000E+00
         0.00000E+00
         0.00000E+00
         0.00000E+00
         0.00000E+00
         0.00000E+00
         0.00000E+00
         0.00000E+00
         0.00000E+00
         0.00000E+00
         0.00000E+00
         0.00000E+00
         0.00000E+00
         0.00000E+00
         0.00000E+00
         0.00000E+00
         0.00000E+00
         0.00000E+00
         0.00000E+00
         0.00000E+00
         0.00000E+00
         0.00000E+00
         0.00000E+00
         0.00000E+00
         0.00000E+00
         0.00000E+00
         0.00000E+00
         0.00000E+00
         0.00000E+00
         0.00000E+00
         0.00000E+00
         0.00000E+00
         0.00000E+00
         0.00000E+00
         0.00000E+00
         0.00000E+00
         0.00000E+00
         0.00000E+00
         0.00000E+00
         0.00000E+00
         0.00000E+00
         0.00000E+00
         0.00000E+00
         0.00000E+00
         0.00000E+00
         0.00000E+00
         0.00000E+00
         0.00000E+00
         0.00000E+00
         0.00000E+00
         0.00000E+00
         0.00000E+00
         0.00000E+00
         0.00000E+00
         0.00000E+00
         0.00000E+00
         0.00000E+00
         0.00000E+00
         0.00000E+00
         0.00000E+00
         0.00000E+00
         0.00000E+00
         0.00000E+00
         0.00000E+00
         0.00000E+00
         0.00000E+00
         0.00000E+00
         0.00000E+00
         0.00000E+00
         0.00000E+00
         0.00000E+00
         0.00000E+00
         0.00000E+00
         0.00000E+00
         0.00000E+00
         0.00000E+00
         0.00000E+00
         0.00000E+00
         0.00000E+00
         0.00000E+00
         0.00000E+00
         0.00000E+00
         0.00000E+00
         0.00000E+00
         0.00000E+00
         0.00000E+00
         0.00000E+00
         0.00000E+00
         0.00000E+00
         0.00000E+00
         0.00000E+00
         0.00000E+00
         0.00000E+00
         0.00000E+00
         0.00000E+00
         0.00000E+00
         0.00000E+00
         0.00000E+00
         0.00000E+00
         0.00000E+00
         0.00000E+00
         0.00000E+00
         0.00000E+00
         0.00000E+00
         0.00000E+00
         0.00000E+00
         0.00000E+00
         0.00000E+00
         0.00000E+00
         0.00000E+00
         0.00000E+00
         0.00000E+00
         0.00000E+00
         0.00000E+00
         0.00000E+00
         0.00000E+00
         0.00000E+00
         0.00000E+00
         0.00000E+00
         0.00000E+00
         0.00000E+00
         0.00000E+00
         0.00000E+00
         0.00000E+00
         0.00000E+00
         0.00000E+00
         0.00000E+00
         0.00000E+00
         0.00000E+00
         0.00000E+00
         0.00000E+00
         0.00000E+00
         0.00000E+00
         0.00000E+00
         0.00000E+00
         0.00000E+00
         0.00000E+00
         0.00000E+00
         0.00000E+00
         0.00000E+00
         0.00000E+00
         0.00000E+00
         0.00000E+00
         0.00000E+00
         0.00000E+00
         0.00000E+00
         0.00000E+00
         0.00000E+00
         0.00000E+00
         0.00000E+00
         0.00000E+00
         0.00000E+00
         0.00000E+00
         0.00000E+00
         0.00000E+00
         0.00000E+00
         0.00000E+00
         0.00000E+00
         0.00000E+00
         0.00000E+00
         0.00000E+00
         0.00000E+00
         0.00000E+00
         0.00000E+00
         0.00000E+00
         0.00000E+00
         0.00000E+00
         0.00000E+00
         0.00000E+00
         0.00000E+00
         0.00000E+00
         0.00000E+00
         0.00000E+00
         0.00000E+00
         0.00000E+00
         0.00000E+00
         0.00000E+00
         0.00000E+00
         0.00000E+00
         0.00000E+00
         0.00000E+00
         0.00000E+00
         0.00000E+00
         0.00000E+00
         0.00000E+00
         0.00000E+00
         0.00000E+00
         0.00000E+00
         0.00000E+00
         0.00000E+00
         0.00000E+00
         0.00000E+00
         0.00000E+00
         0.00000E+00
         0.00000E+00
         0.00000E+00
         0.00000E+00
         0.00000E+00
         0.00000E+00
         0.00000E+00
         0.00000E+00
         0.00000E+00
         0.00000E+00
         0.00000E+00
         0.00000E+00
         0.00000E+00
         0.00000E+00
         0.00000E+00
         0.00000E+00
         0.00000E+00
         0.00000E+00
         0.00000E+00
         0.00000E+00
         0.00000E+00
         0.00000E+00
         0.00000E+00
         0.00000E+00
         0.00000E+00
         0.00000E+00
         0.00000E+00
         0.00000E+00
         0.00000E+00
         0.00000E+00
         0.00000E+00
         0.00000E+00
         0.00000E+00
         0.00000E+00
         0.00000E+00
         0.00000E+00
         0.00000E+00
         0.00000E+00
         0.00000E+00
         0.00000E+00
         0.00000E+00
         0.00000E+00
         0.00000E+00
         0.00000E+00
         0.00000E+00
         0.00000E+00
         0.00000E+00
         0.00000E+00
         0.00000E+00
         0.00000E+00
         0.00000E+00
         0.00000E+00
         0.00000E+00
         0.00000E+00
         0.00000E+00
         0.00000E+00
         0.00000E+00
         0.00000E+00
         0.00000E+00
         0.00000E+00
         0.00000E+00
         0.00000E+00
         0.00000E+00
         0.00000E+00
         0.00000E+00
         0.00000E+00
         0.00000E+00
         0.00000E+00
         0.00000E+00
         0.00000E+00
         0.00000E+00
         0.00000E+00
         0.00000E+00
         0.00000E+00
         0.00000E+00
         0.00000E+00
         0.00000E+00
         0.00000E+00
         0.00000E+00
         0.00000E+00
         0.00000E+00
         0.00000E+00
         0.00000E+00
         0.00000E+00
         0.00000E+00
         0.00000E+00
         0.00000E+00
         0.00000E+00
         0.00000E+00
         0.00000E+00
         0.00000E+00
         0.00000E+00
         0.00000E+00
         0.00000E+00
         0.00000E+00
         0.00000E+00
         0.00000E+00
         0.00000E+00
         0.00000E+00
         0.00000E+00
         0.00000E+00
         0.00000E+00
         0.00000E+00
         0.00000E+00
         0.00000E+00
         0.00000E+00
         0.00000E+00
         0.00000E+00
         0.00000E+00
         0.00000E+00
         0.00000E+00
         0.00000E+00
         0.00000E+00
         0.00000E+00
         0.00000E+00
         0.00000E+00
         0.00000E+00
         0.00000E+00
         0.00000E+00
         0.00000E+00
         0.00000E+00
         0.00000E+00
         0.00000E+00
         0.00000E+00
         0.00000E+00
         0.00000E+00
         0.00000E+00
         0.00000E+00
         0.00000E+00
         0.00000E+00
         0.00000E+00
         0.00000E+00
         0.00000E+00
         0.00000E+00
         0.00000E+00
         0.00000E+00
         0.00000E+00
         0.00000E+00
         0.00000E+00
         0.00000E+00
         0.00000E+00
         0.00000E+00
         0.00000E+00
         0.00000E+00
         0.00000E+00
         0.00000E+00
         0.00000E+00
         0.00000E+00
         0.00000E+00
         0.00000E+00
         0.00000E+00
         0.00000E+00
         0.00000E+00
         0.00000E+00
         0.00000E+00
         0.00000E+00
         0.00000E+00
         0.00000E+00
         0.00000E+00
         0.00000E+00
         0.00000E+00
         0.00000E+00
         0.00000E+00
         0.00000E+00
         0.00000E+00
         0.00000E+00
         0.00000E+00
         0.00000E+00
         0.00000E+00
         0.00000E+00
         0.00000E+00
         0.00000E+00
         0.00000E+00
         0.00000E+00
         0.00000E+00
         0.00000E+00
         0.00000E+00
         0.00000E+00
         0.00000E+00
         0.00000E+00
         0.00000E+00
         0.00000E+00
         0.00000E+00
         0.00000E+00
         0.00000E+00
         0.00000E+00
         0.00000E+00
         0.00000E+00
         0.00000E+00
         0.00000E+00
         0.00000E+00
         0.00000E+00
         0.00000E+00
         0.00000E+00
         0.00000E+00
         0.00000E+00
         0.00000E+00
         0.00000E+00
         0.00000E+00
         0.00000E+00
         0.00000E+00
         0.00000E+00
         0.00000E+00
         0.00000E+00
         0.00000E+00
         0.00000E+00
         0.00000E+00
         0.00000E+00
         0.00000E+00
         0.00000E+00
         0.00000E+00
         0.00000E+00
         0.00000E+00
         0.00000E+00
         0.00000E+00
         0.00000E+00
         0.00000E+00
         0.00000E+00
         0.00000E+00
         0.00000E+00
         0.00000E+00
         0.00000E+00
         0.00000E+00
         0.00000E+00
         0.00000E+00
         0.00000E+00
         0.00000E+00
         0.00000E+00
         0.00000E+00
         0.00000E+00
         0.00000E+00
         0.00000E+00
         0.00000E+00
         0.00000E+00
         0.00000E+00
         0.00000E+00
         0.00000E+00
         0.00000E+00
         0.00000E+00
         0.00000E+00
         0.00000E+00
         0.00000E+00
         0.00000E+00
         0.00000E+00
         0.00000E+00
         0.00000E+00
         0.00000E+00
         0.00000E+00
         0.00000E+00
         0.00000E+00
         0.00000E+00
         0.00000E+00
         0.00000E+00
         0.00000E+00
         0.00000E+00
         0.00000E+00
         0.00000E+00
         0.00000E+00
         0.00000E+00
         0.00000E+00
         0.00000E+00
         0.00000E+00
         0.00000E+00
         0.00000E+00
         0.00000E+00
         0.00000E+00
         0.00000E+00
         0.00000E+00
         0.00000E+00
         0.00000E+00
         0.00000E+00
         0.00000E+00
         0.00000E+00
         0.00000E+00
         0.00000E+00
         0.00000E+00
         0.00000E+00
         0.00000E+00
         0.00000E+00
         0.00000E+00
         0.00000E+00
         0.00000E+00
         0.00000E+00
         0.00000E+00
         0.00000E+00
         0.00000E+00
         0.00000E+00
         0.00000E+00
         0.00000E+00
         0.00000E+00
         0.00000E+00
         0.00000E+00
         0.00000E+00
         0.00000E+00
         0.00000E+00
         0.00000E+00
         0.00000E+00
         0.00000E+00
         0.00000E+00
         0.00000E+00
         0.00000E+00
         0.00000E+00
         0.00000E+00
         0.00000E+00
         0.00000E+00
         0.00000E+00
         0.00000E+00
         0.00000E+00
         0.00000E+00
         0.00000E+00
         0.00000E+00
         0.00000E+00
         0.00000E+00
         0.00000E+00
         0.00000E+00
         0.00000E+00
         0.00000E+00
         0.00000E+00
         0.00000E+00
         0.00000E+00
         0.00000E+00
         0.00000E+00
         0.00000E+00
         0.00000E+00
         0.00000E+00
         0.00000E+00
         0.00000E+00
         0.00000E+00
         0.00000E+00
         0.00000E+00
         0.00000E+00
         0.00000E+00
         0.00000E+00
         0.00000E+00
         0.00000E+00
         0.00000E+00
         0.00000E+00
         0.00000E+00
         0.00000E+00
         0.00000E+00
         0.00000E+00
         0.00000E+00
         0.00000E+00
         0.00000E+00
         0.00000E+00
         0.00000E+00
         0.00000E+00
         0.00000E+00
         0.00000E+00
         0.00000E+00
         0.00000E+00
         0.00000E+00
         0.00000E+00
         0.00000E+00
         0.00000E+00
         0.00000E+00
         0.00000E+00
         0.00000E+00
         0.00000E+00
         0.00000E+00
         0.00000E+00
         0.00000E+00
         0.00000E+00
         0.00000E+00
         0.00000E+00
         0.00000E+00
         0.00000E+00
         0.00000E+00
         0.00000E+00
         0.00000E+00
         0.00000E+00
         0.00000E+00
         0.00000E+00
         0.00000E+00
         0.00000E+00
         0.00000E+00
         0.00000E+00
         0.00000E+00
         0.00000E+00
         0.00000E+00
         0.00000E+00
         0.00000E+00
         0.00000E+00
         0.00000E+00
         0.00000E+00
         0.00000E+00
         0.00000E+00
         0.00000E+00
         0.00000E+00
         0.00000E+00
         0.00000E+00
         0.00000E+00
         0.00000E+00
         0.00000E+00
         0.00000E+00
         0.00000E+00
         0.00000E+00
         0.00000E+00
         0.00000E+00
         0.00000E+00
         0.00000E+00
         0.00000E+00
         0.00000E+00
         0.00000E+00
         0.00000E+00
         0.00000E+00
         0.00000E+00
         0.00000E+00
         0.00000E+00
         0.00000E+00
         0.00000E+00
         0.00000E+00
         0.00000E+00
         0.00000E+00
         0.00000E+00
         0.00000E+00
         0.00000E+00
         0.00000E+00
         0.00000E+00
         0.00000E+00
  
SCALARS                 acceleration_z  double 1
LOOKUP_TABLE default
         0.00000E+00
         0.00000E+00
         0.00000E+00
         0.00000E+00
         0.00000E+00
         0.00000E+00
         0.00000E+00
         0.00000E+00
         0.00000E+00
         0.00000E+00
         0.00000E+00
         0.00000E+00
         0.00000E+00
         0.00000E+00
         0.00000E+00
         0.00000E+00
         0.00000E+00
         0.00000E+00
         0.00000E+00
         0.00000E+00
         0.00000E+00
         0.00000E+00
         0.00000E+00
         0.00000E+00
         0.00000E+00
         0.00000E+00
         0.00000E+00
         0.00000E+00
         0.00000E+00
         0.00000E+00
         0.00000E+00
         0.00000E+00
         0.00000E+00
         0.00000E+00
         0.00000E+00
         0.00000E+00
         0.00000E+00
         0.00000E+00
         0.00000E+00
         0.00000E+00
         0.00000E+00
         0.00000E+00
         0.00000E+00
         0.00000E+00
         0.00000E+00
         0.00000E+00
         0.00000E+00
         0.00000E+00
         0.00000E+00
         0.00000E+00
         0.00000E+00
         0.00000E+00
         0.00000E+00
         0.00000E+00
         0.00000E+00
         0.00000E+00
         0.00000E+00
         0.00000E+00
         0.00000E+00
         0.00000E+00
         0.00000E+00
         0.00000E+00
         0.00000E+00
         0.00000E+00
         0.00000E+00
         0.00000E+00
         0.00000E+00
         0.00000E+00
         0.00000E+00
         0.00000E+00
         0.00000E+00
         0.00000E+00
         0.00000E+00
         0.00000E+00
         0.00000E+00
         0.00000E+00
         0.00000E+00
         0.00000E+00
         0.00000E+00
         0.00000E+00
         0.00000E+00
         0.00000E+00
         0.00000E+00
         0.00000E+00
         0.00000E+00
         0.00000E+00
         0.00000E+00
         0.00000E+00
         0.00000E+00
         0.00000E+00
         0.00000E+00
         0.00000E+00
         0.00000E+00
         0.00000E+00
         0.00000E+00
         0.00000E+00
         0.00000E+00
         0.00000E+00
         0.00000E+00
         0.00000E+00
         0.00000E+00
         0.00000E+00
         0.00000E+00
         0.00000E+00
         0.00000E+00
         0.00000E+00
         0.00000E+00
         0.00000E+00
         0.00000E+00
         0.00000E+00
         0.00000E+00
         0.00000E+00
         0.00000E+00
         0.00000E+00
         0.00000E+00
         0.00000E+00
         0.00000E+00
         0.00000E+00
         0.00000E+00
         0.00000E+00
         0.00000E+00
         0.00000E+00
         0.00000E+00
         0.00000E+00
         0.00000E+00
         0.00000E+00
         0.00000E+00
         0.00000E+00
         0.00000E+00
         0.00000E+00
         0.00000E+00
         0.00000E+00
         0.00000E+00
         0.00000E+00
         0.00000E+00
         0.00000E+00
         0.00000E+00
         0.00000E+00
         0.00000E+00
         0.00000E+00
         0.00000E+00
         0.00000E+00
         0.00000E+00
         0.00000E+00
         0.00000E+00
         0.00000E+00
         0.00000E+00
         0.00000E+00
         0.00000E+00
         0.00000E+00
         0.00000E+00
         0.00000E+00
         0.00000E+00
         0.00000E+00
         0.00000E+00
         0.00000E+00
         0.00000E+00
         0.00000E+00
         0.00000E+00
         0.00000E+00
         0.00000E+00
         0.00000E+00
         0.00000E+00
         0.00000E+00
         0.00000E+00
         0.00000E+00
         0.00000E+00
         0.00000E+00
         0.00000E+00
         0.00000E+00
         0.00000E+00
         0.00000E+00
         0.00000E+00
         0.00000E+00
         0.00000E+00
         0.00000E+00
         0.00000E+00
         0.00000E+00
         0.00000E+00
         0.00000E+00
         0.00000E+00
         0.00000E+00
         0.00000E+00
         0.00000E+00
         0.00000E+00
         0.00000E+00
         0.00000E+00
         0.00000E+00
         0.00000E+00
         0.00000E+00
         0.00000E+00
         0.00000E+00
         0.00000E+00
         0.00000E+00
         0.00000E+00
         0.00000E+00
         0.00000E+00
         0.00000E+00
         0.00000E+00
         0.00000E+00
         0.00000E+00
         0.00000E+00
         0.00000E+00
         0.00000E+00
         0.00000E+00
         0.00000E+00
         0.00000E+00
         0.00000E+00
         0.00000E+00
         0.00000E+00
         0.00000E+00
         0.00000E+00
         0.00000E+00
         0.00000E+00
         0.00000E+00
         0.00000E+00
         0.00000E+00
         0.00000E+00
         0.00000E+00
         0.00000E+00
         0.00000E+00
         0.00000E+00
         0.00000E+00
         0.00000E+00
         0.00000E+00
         0.00000E+00
         0.00000E+00
         0.00000E+00
         0.00000E+00
         0.00000E+00
         0.00000E+00
         0.00000E+00
         0.00000E+00
         0.00000E+00
         0.00000E+00
         0.00000E+00
         0.00000E+00
         0.00000E+00
         0.00000E+00
         0.00000E+00
         0.00000E+00
         0.00000E+00
         0.00000E+00
         0.00000E+00
         0.00000E+00
         0.00000E+00
         0.00000E+00
         0.00000E+00
         0.00000E+00
         0.00000E+00
         0.00000E+00
         0.00000E+00
         0.00000E+00
         0.00000E+00
         0.00000E+00
         0.00000E+00
         0.00000E+00
         0.00000E+00
         0.00000E+00
         0.00000E+00
         0.00000E+00
         0.00000E+00
         0.00000E+00
         0.00000E+00
         0.00000E+00
         0.00000E+00
         0.00000E+00
         0.00000E+00
         0.00000E+00
         0.00000E+00
         0.00000E+00
         0.00000E+00
         0.00000E+00
         0.00000E+00
         0.00000E+00
         0.00000E+00
         0.00000E+00
         0.00000E+00
         0.00000E+00
         0.00000E+00
         0.00000E+00
         0.00000E+00
         0.00000E+00
         0.00000E+00
         0.00000E+00
         0.00000E+00
         0.00000E+00
         0.00000E+00
         0.00000E+00
         0.00000E+00
         0.00000E+00
         0.00000E+00
         0.00000E+00
         0.00000E+00
         0.00000E+00
         0.00000E+00
         0.00000E+00
         0.00000E+00
         0.00000E+00
         0.00000E+00
         0.00000E+00
         0.00000E+00
         0.00000E+00
         0.00000E+00
         0.00000E+00
         0.00000E+00
         0.00000E+00
         0.00000E+00
         0.00000E+00
         0.00000E+00
         0.00000E+00
         0.00000E+00
         0.00000E+00
         0.00000E+00
         0.00000E+00
         0.00000E+00
         0.00000E+00
         0.00000E+00
         0.00000E+00
         0.00000E+00
         0.00000E+00
         0.00000E+00
         0.00000E+00
         0.00000E+00
         0.00000E+00
         0.00000E+00
         0.00000E+00
         0.00000E+00
         0.00000E+00
         0.00000E+00
         0.00000E+00
         0.00000E+00
         0.00000E+00
         0.00000E+00
         0.00000E+00
         0.00000E+00
         0.00000E+00
         0.00000E+00
         0.00000E+00
         0.00000E+00
         0.00000E+00
         0.00000E+00
         0.00000E+00
         0.00000E+00
         0.00000E+00
         0.00000E+00
         0.00000E+00
         0.00000E+00
         0.00000E+00
         0.00000E+00
         0.00000E+00
         0.00000E+00
         0.00000E+00
         0.00000E+00
         0.00000E+00
         0.00000E+00
         0.00000E+00
         0.00000E+00
         0.00000E+00
         0.00000E+00
         0.00000E+00
         0.00000E+00
         0.00000E+00
         0.00000E+00
         0.00000E+00
         0.00000E+00
         0.00000E+00
         0.00000E+00
         0.00000E+00
         0.00000E+00
         0.00000E+00
         0.00000E+00
         0.00000E+00
         0.00000E+00
         0.00000E+00
         0.00000E+00
         0.00000E+00
         0.00000E+00
         0.00000E+00
         0.00000E+00
         0.00000E+00
         0.00000E+00
         0.00000E+00
         0.00000E+00
         0.00000E+00
         0.00000E+00
         0.00000E+00
         0.00000E+00
         0.00000E+00
         0.00000E+00
         0.00000E+00
         0.00000E+00
         0.00000E+00
         0.00000E+00
         0.00000E+00
         0.00000E+00
         0.00000E+00
         0.00000E+00
         0.00000E+00
         0.00000E+00
         0.00000E+00
         0.00000E+00
         0.00000E+00
         0.00000E+00
         0.00000E+00
         0.00000E+00
         0.00000E+00
         0.00000E+00
         0.00000E+00
         0.00000E+00
         0.00000E+00
         0.00000E+00
         0.00000E+00
         0.00000E+00
         0.00000E+00
         0.00000E+00
         0.00000E+00
         0.00000E+00
         0.00000E+00
         0.00000E+00
         0.00000E+00
         0.00000E+00
         0.00000E+00
         0.00000E+00
         0.00000E+00
         0.00000E+00
         0.00000E+00
         0.00000E+00
         0.00000E+00
         0.00000E+00
         0.00000E+00
         0.00000E+00
         0.00000E+00
         0.00000E+00
         0.00000E+00
         0.00000E+00
         0.00000E+00
         0.00000E+00
         0.00000E+00
         0.00000E+00
         0.00000E+00
         0.00000E+00
         0.00000E+00
         0.00000E+00
         0.00000E+00
         0.00000E+00
         0.00000E+00
         0.00000E+00
         0.00000E+00
         0.00000E+00
         0.00000E+00
         0.00000E+00
         0.00000E+00
         0.00000E+00
         0.00000E+00
         0.00000E+00
         0.00000E+00
         0.00000E+00
         0.00000E+00
         0.00000E+00
         0.00000E+00
         0.00000E+00
         0.00000E+00
         0.00000E+00
         0.00000E+00
         0.00000E+00
         0.00000E+00
         0.00000E+00
         0.00000E+00
         0.00000E+00
         0.00000E+00
         0.00000E+00
         0.00000E+00
         0.00000E+00
         0.00000E+00
         0.00000E+00
         0.00000E+00
         0.00000E+00
         0.00000E+00
         0.00000E+00
         0.00000E+00
         0.00000E+00
         0.00000E+00
         0.00000E+00
         0.00000E+00
         0.00000E+00
         0.00000E+00
         0.00000E+00
         0.00000E+00
         0.00000E+00
         0.00000E+00
         0.00000E+00
         0.00000E+00
         0.00000E+00
         0.00000E+00
         0.00000E+00
         0.00000E+00
         0.00000E+00
         0.00000E+00
         0.00000E+00
         0.00000E+00
         0.00000E+00
         0.00000E+00
         0.00000E+00
         0.00000E+00
         0.00000E+00
         0.00000E+00
         0.00000E+00
         0.00000E+00
         0.00000E+00
         0.00000E+00
         0.00000E+00
         0.00000E+00
         0.00000E+00
         0.00000E+00
         0.00000E+00
         0.00000E+00
         0.00000E+00
         0.00000E+00
         0.00000E+00
         0.00000E+00
         0.00000E+00
         0.00000E+00
         0.00000E+00
         0.00000E+00
         0.00000E+00
         0.00000E+00
         0.00000E+00
         0.00000E+00
         0.00000E+00
         0.00000E+00
         0.00000E+00
         0.00000E+00
         0.00000E+00
         0.00000E+00
         0.00000E+00
         0.00000E+00
         0.00000E+00
         0.00000E+00
         0.00000E+00
         0.00000E+00
         0.00000E+00
         0.00000E+00
         0.00000E+00
         0.00000E+00
         0.00000E+00
         0.00000E+00
         0.00000E+00
         0.00000E+00
         0.00000E+00
         0.00000E+00
         0.00000E+00
         0.00000E+00
         0.00000E+00
         0.00000E+00
         0.00000E+00
         0.00000E+00
         0.00000E+00
         0.00000E+00
         0.00000E+00
         0.00000E+00
         0.00000E+00
         0.00000E+00
         0.00000E+00
         0.00000E+00
         0.00000E+00
         0.00000E+00
         0.00000E+00
         0.00000E+00
         0.00000E+00
         0.00000E+00
         0.00000E+00
         0.00000E+00
         0.00000E+00
         0.00000E+00
         0.00000E+00
         0.00000E+00
         0.00000E+00
         0.00000E+00
         0.00000E+00
         0.00000E+00
         0.00000E+00
         0.00000E+00
         0.00000E+00
         0.00000E+00
         0.00000E+00
         0.00000E+00
         0.00000E+00
         0.00000E+00
         0.00000E+00
         0.00000E+00
         0.00000E+00
         0.00000E+00
         0.00000E+00
         0.00000E+00
         0.00000E+00
         0.00000E+00
         0.00000E+00
         0.00000E+00
         0.00000E+00
         0.00000E+00
         0.00000E+00
         0.00000E+00
         0.00000E+00
         0.00000E+00
         0.00000E+00
         0.00000E+00
         0.00000E+00
         0.00000E+00
         0.00000E+00
         0.00000E+00
         0.00000E+00
         0.00000E+00
         0.00000E+00
         0.00000E+00
         0.00000E+00
         0.00000E+00
         0.00000E+00
         0.00000E+00
         0.00000E+00
         0.00000E+00
         0.00000E+00
         0.00000E+00
         0.00000E+00
         0.00000E+00
         0.00000E+00
         0.00000E+00
         0.00000E+00
         0.00000E+00
         0.00000E+00
         0.00000E+00
         0.00000E+00
         0.00000E+00
         0.00000E+00
         0.00000E+00
         0.00000E+00
         0.00000E+00
         0.00000E+00
         0.00000E+00
         0.00000E+00
         0.00000E+00
         0.00000E+00
         0.00000E+00
         0.00000E+00
         0.00000E+00
         0.00000E+00
         0.00000E+00
         0.00000E+00
         0.00000E+00
         0.00000E+00
         0.00000E+00
         0.00000E+00
         0.00000E+00
         0.00000E+00
         0.00000E+00
         0.00000E+00
         0.00000E+00
         0.00000E+00
         0.00000E+00
         0.00000E+00
         0.00000E+00
         0.00000E+00
         0.00000E+00
         0.00000E+00
         0.00000E+00
         0.00000E+00
         0.00000E+00
         0.00000E+00
         0.00000E+00
         0.00000E+00
         0.00000E+00
         0.00000E+00
         0.00000E+00
         0.00000E+00
         0.00000E+00
         0.00000E+00
         0.00000E+00
         0.00000E+00
         0.00000E+00
         0.00000E+00
         0.00000E+00
         0.00000E+00
         0.00000E+00
         0.00000E+00
         0.00000E+00
         0.00000E+00
         0.00000E+00
         0.00000E+00
         0.00000E+00
         0.00000E+00
         0.00000E+00
         0.00000E+00
         0.00000E+00
         0.00000E+00
         0.00000E+00
         0.00000E+00
         0.00000E+00
         0.00000E+00
         0.00000E+00
         0.00000E+00
         0.00000E+00
         0.00000E+00
         0.00000E+00
         0.00000E+00
         0.00000E+00
         0.00000E+00
         0.00000E+00
         0.00000E+00
         0.00000E+00
         0.00000E+00
         0.00000E+00
         0.00000E+00
         0.00000E+00
         0.00000E+00
         0.00000E+00
         0.00000E+00
         0.00000E+00
         0.00000E+00
         0.00000E+00
         0.00000E+00
         0.00000E+00
         0.00000E+00
         0.00000E+00
         0.00000E+00
         0.00000E+00
         0.00000E+00
         0.00000E+00
         0.00000E+00
         0.00000E+00
         0.00000E+00
         0.00000E+00
         0.00000E+00
         0.00000E+00
         0.00000E+00
         0.00000E+00
         0.00000E+00
         0.00000E+00
         0.00000E+00
         0.00000E+00
         0.00000E+00
         0.00000E+00
         0.00000E+00
         0.00000E+00
         0.00000E+00
         0.00000E+00
         0.00000E+00
         0.00000E+00
         0.00000E+00
         0.00000E+00
         0.00000E+00
         0.00000E+00
         0.00000E+00
         0.00000E+00
         0.00000E+00
         0.00000E+00
         0.00000E+00
         0.00000E+00
         0.00000E+00
         0.00000E+00
         0.00000E+00
         0.00000E+00
         0.00000E+00
         0.00000E+00
         0.00000E+00
         0.00000E+00
         0.00000E+00
         0.00000E+00
         0.00000E+00
         0.00000E+00
         0.00000E+00
         0.00000E+00
         0.00000E+00
         0.00000E+00
         0.00000E+00
         0.00000E+00
         0.00000E+00
         0.00000E+00
         0.00000E+00
         0.00000E+00
         0.00000E+00
         0.00000E+00
         0.00000E+00
         0.00000E+00
         0.00000E+00
         0.00000E+00
         0.00000E+00
         0.00000E+00
         0.00000E+00
         0.00000E+00
         0.00000E+00
         0.00000E+00
         0.00000E+00
         0.00000E+00
         0.00000E+00
         0.00000E+00
         0.00000E+00
         0.00000E+00
         0.00000E+00
         0.00000E+00
         0.00000E+00
         0.00000E+00
         0.00000E+00
         0.00000E+00
         0.00000E+00
         0.00000E+00
         0.00000E+00
         0.00000E+00
         0.00000E+00
         0.00000E+00
         0.00000E+00
         0.00000E+00
         0.00000E+00
         0.00000E+00
         0.00000E+00
         0.00000E+00
         0.00000E+00
         0.00000E+00
         0.00000E+00
         0.00000E+00
         0.00000E+00
         0.00000E+00
         0.00000E+00
         0.00000E+00
         0.00000E+00
         0.00000E+00
         0.00000E+00
         0.00000E+00
         0.00000E+00
         0.00000E+00
         0.00000E+00
         0.00000E+00
         0.00000E+00
         0.00000E+00
         0.00000E+00
         0.00000E+00
         0.00000E+00
         0.00000E+00
         0.00000E+00
         0.00000E+00
         0.00000E+00
         0.00000E+00
         0.00000E+00
         0.00000E+00
         0.00000E+00
         0.00000E+00
         0.00000E+00
         0.00000E+00
         0.00000E+00
         0.00000E+00
         0.00000E+00
         0.00000E+00
         0.00000E+00
         0.00000E+00
         0.00000E+00
         0.00000E+00
         0.00000E+00
         0.00000E+00
         0.00000E+00
         0.00000E+00
         0.00000E+00
         0.00000E+00
         0.00000E+00
         0.00000E+00
         0.00000E+00
         0.00000E+00
         0.00000E+00
         0.00000E+00
         0.00000E+00
         0.00000E+00
         0.00000E+00
         0.00000E+00
         0.00000E+00
         0.00000E+00
         0.00000E+00
         0.00000E+00
         0.00000E+00
         0.00000E+00
         0.00000E+00
         0.00000E+00
         0.00000E+00
         0.00000E+00
         0.00000E+00
         0.00000E+00
         0.00000E+00
         0.00000E+00
         0.00000E+00
         0.00000E+00
         0.00000E+00
         0.00000E+00
         0.00000E+00
         0.00000E+00
         0.00000E+00
         0.00000E+00
         0.00000E+00
         0.00000E+00
         0.00000E+00
         0.00000E+00
         0.00000E+00
         0.00000E+00
         0.00000E+00
         0.00000E+00
         0.00000E+00
         0.00000E+00
         0.00000E+00
         0.00000E+00
         0.00000E+00
         0.00000E+00
         0.00000E+00
         0.00000E+00
         0.00000E+00
         0.00000E+00
         0.00000E+00
         0.00000E+00
         0.00000E+00
         0.00000E+00
         0.00000E+00
         0.00000E+00
         0.00000E+00
         0.00000E+00
         0.00000E+00
         0.00000E+00
         0.00000E+00
         0.00000E+00
         0.00000E+00
         0.00000E+00
         0.00000E+00
         0.00000E+00
         0.00000E+00
         0.00000E+00
         0.00000E+00
         0.00000E+00
         0.00000E+00
         0.00000E+00
         0.00000E+00
         0.00000E+00
         0.00000E+00
         0.00000E+00
         0.00000E+00
         0.00000E+00
         0.00000E+00
         0.00000E+00
         0.00000E+00
         0.00000E+00
         0.00000E+00
         0.00000E+00
         0.00000E+00
         0.00000E+00
         0.00000E+00
         0.00000E+00
         0.00000E+00
         0.00000E+00
         0.00000E+00
         0.00000E+00
         0.00000E+00
         0.00000E+00
         0.00000E+00
         0.00000E+00
         0.00000E+00
         0.00000E+00
         0.00000E+00
         0.00000E+00
         0.00000E+00
         0.00000E+00
         0.00000E+00
         0.00000E+00
         0.00000E+00
         0.00000E+00
         0.00000E+00
         0.00000E+00
         0.00000E+00
         0.00000E+00
         0.00000E+00
         0.00000E+00
         0.00000E+00
         0.00000E+00
         0.00000E+00
         0.00000E+00
         0.00000E+00
         0.00000E+00
         0.00000E+00
         0.00000E+00
         0.00000E+00
         0.00000E+00
         0.00000E+00
         0.00000E+00
         0.00000E+00
         0.00000E+00
         0.00000E+00
         0.00000E+00
         0.00000E+00
         0.00000E+00
         0.00000E+00
         0.00000E+00
         0.00000E+00
         0.00000E+00
         0.00000E+00
         0.00000E+00
         0.00000E+00
         0.00000E+00
         0.00000E+00
         0.00000E+00
         0.00000E+00
         0.00000E+00
         0.00000E+00
         0.00000E+00
         0.00000E+00
         0.00000E+00
         0.00000E+00
         0.00000E+00
         0.00000E+00
         0.00000E+00
         0.00000E+00
         0.00000E+00
         0.00000E+00
         0.00000E+00
         0.00000E+00
         0.00000E+00
         0.00000E+00
         0.00000E+00
         0.00000E+00
         0.00000E+00
         0.00000E+00
         0.00000E+00
         0.00000E+00
         0.00000E+00
         0.00000E+00
         0.00000E+00
         0.00000E+00
         0.00000E+00
         0.00000E+00
         0.00000E+00
         0.00000E+00
         0.00000E+00
         0.00000E+00
         0.00000E+00
         0.00000E+00
         0.00000E+00
         0.00000E+00
         0.00000E+00
         0.00000E+00
         0.00000E+00
         0.00000E+00
         0.00000E+00
         0.00000E+00
         0.00000E+00
         0.00000E+00
         0.00000E+00
         0.00000E+00
         0.00000E+00
         0.00000E+00
         0.00000E+00
         0.00000E+00
         0.00000E+00
         0.00000E+00
         0.00000E+00
         0.00000E+00
         0.00000E+00
         0.00000E+00
         0.00000E+00
         0.00000E+00
         0.00000E+00
         0.00000E+00
         0.00000E+00
         0.00000E+00
         0.00000E+00
         0.00000E+00
         0.00000E+00
         0.00000E+00
         0.00000E+00
         0.00000E+00
         0.00000E+00
         0.00000E+00
         0.00000E+00
         0.00000E+00
         0.00000E+00
         0.00000E+00
         0.00000E+00
         0.00000E+00
         0.00000E+00
         0.00000E+00
         0.00000E+00
         0.00000E+00
         0.00000E+00
         0.00000E+00
         0.00000E+00
         0.00000E+00
         0.00000E+00
         0.00000E+00
         0.00000E+00
         0.00000E+00
         0.00000E+00
         0.00000E+00
         0.00000E+00
         0.00000E+00
         0.00000E+00
         0.00000E+00
         0.00000E+00
         0.00000E+00
         0.00000E+00
         0.00000E+00
         0.00000E+00
         0.00000E+00
         0.00000E+00
         0.00000E+00
         0.00000E+00
         0.00000E+00
         0.00000E+00
         0.00000E+00
         0.00000E+00
         0.00000E+00
         0.00000E+00
         0.00000E+00
         0.00000E+00
         0.00000E+00
         0.00000E+00
         0.00000E+00
         0.00000E+00
         0.00000E+00
         0.00000E+00
         0.00000E+00
         0.00000E+00
         0.00000E+00
         0.00000E+00
         0.00000E+00
         0.00000E+00
         0.00000E+00
         0.00000E+00
         0.00000E+00
         0.00000E+00
         0.00000E+00
         0.00000E+00
         0.00000E+00
         0.00000E+00
         0.00000E+00
         0.00000E+00
         0.00000E+00
         0.00000E+00
         0.00000E+00
         0.00000E+00
         0.00000E+00
         0.00000E+00
         0.00000E+00
         0.00000E+00
         0.00000E+00
         0.00000E+00
         0.00000E+00
         0.00000E+00
         0.00000E+00
         0.00000E+00
         0.00000E+00
         0.00000E+00
         0.00000E+00
         0.00000E+00
         0.00000E+00
         0.00000E+00
         0.00000E+00
         0.00000E+00
         0.00000E+00
         0.00000E+00
         0.00000E+00
         0.00000E+00
         0.00000E+00
         0.00000E+00
         0.00000E+00
         0.00000E+00
         0.00000E+00
         0.00000E+00
         0.00000E+00
         0.00000E+00
         0.00000E+00
         0.00000E+00
         0.00000E+00
         0.00000E+00
         0.00000E+00
         0.00000E+00
         0.00000E+00
         0.00000E+00
         0.00000E+00
         0.00000E+00
         0.00000E+00
         0.00000E+00
         0.00000E+00
         0.00000E+00
         0.00000E+00
         0.00000E+00
         0.00000E+00
         0.00000E+00
         0.00000E+00
         0.00000E+00
         0.00000E+00
         0.00000E+00
         0.00000E+00
         0.00000E+00
         0.00000E+00
         0.00000E+00
         0.00000E+00
         0.00000E+00
         0.00000E+00
         0.00000E+00
         0.00000E+00
         0.00000E+00
         0.00000E+00
         0.00000E+00
         0.00000E+00
         0.00000E+00
         0.00000E+00
         0.00000E+00
         0.00000E+00
         0.00000E+00
         0.00000E+00
         0.00000E+00
         0.00000E+00
         0.00000E+00
         0.00000E+00
         0.00000E+00
         0.00000E+00
         0.00000E+00
         0.00000E+00
         0.00000E+00
         0.00000E+00
         0.00000E+00
         0.00000E+00
         0.00000E+00
         0.00000E+00
         0.00000E+00
         0.00000E+00
         0.00000E+00
         0.00000E+00
         0.00000E+00
         0.00000E+00
         0.00000E+00
         0.00000E+00
         0.00000E+00
         0.00000E+00
         0.00000E+00
         0.00000E+00
         0.00000E+00
         0.00000E+00
         0.00000E+00
         0.00000E+00
         0.00000E+00
         0.00000E+00
         0.00000E+00
         0.00000E+00
         0.00000E+00
         0.00000E+00
         0.00000E+00
         0.00000E+00
         0.00000E+00
         0.00000E+00
         0.00000E+00
         0.00000E+00
         0.00000E+00
         0.00000E+00
         0.00000E+00
         0.00000E+00
         0.00000E+00
         0.00000E+00
         0.00000E+00
         0.00000E+00
         0.00000E+00
         0.00000E+00
         0.00000E+00
         0.00000E+00
         0.00000E+00
         0.00000E+00
         0.00000E+00
         0.00000E+00
         0.00000E+00
         0.00000E+00
         0.00000E+00
         0.00000E+00
         0.00000E+00
         0.00000E+00
         0.00000E+00
         0.00000E+00
         0.00000E+00
         0.00000E+00
         0.00000E+00
         0.00000E+00
         0.00000E+00
         0.00000E+00
         0.00000E+00
         0.00000E+00
         0.00000E+00
         0.00000E+00
         0.00000E+00
         0.00000E+00
         0.00000E+00
         0.00000E+00
         0.00000E+00
         0.00000E+00
         0.00000E+00
         0.00000E+00
         0.00000E+00
         0.00000E+00
         0.00000E+00
         0.00000E+00
         0.00000E+00
         0.00000E+00
         0.00000E+00
         0.00000E+00
         0.00000E+00
         0.00000E+00
         0.00000E+00
         0.00000E+00
         0.00000E+00
         0.00000E+00
         0.00000E+00
         0.00000E+00
         0.00000E+00
         0.00000E+00
         0.00000E+00
         0.00000E+00
         0.00000E+00
         0.00000E+00
         0.00000E+00
         0.00000E+00
         0.00000E+00
         0.00000E+00
         0.00000E+00
         0.00000E+00
         0.00000E+00
         0.00000E+00
         0.00000E+00
         0.00000E+00
         0.00000E+00
         0.00000E+00
         0.00000E+00
         0.00000E+00
         0.00000E+00
         0.00000E+00
         0.00000E+00
         0.00000E+00
         0.00000E+00
         0.00000E+00
         0.00000E+00
         0.00000E+00
         0.00000E+00
         0.00000E+00
         0.00000E+00
         0.00000E+00
         0.00000E+00
         0.00000E+00
         0.00000E+00
         0.00000E+00
         0.00000E+00
         0.00000E+00
         0.00000E+00
         0.00000E+00
         0.00000E+00
         0.00000E+00
         0.00000E+00
         0.00000E+00
         0.00000E+00
         0.00000E+00
         0.00000E+00
         0.00000E+00
         0.00000E+00
         0.00000E+00
         0.00000E+00
         0.00000E+00
         0.00000E+00
         0.00000E+00
         0.00000E+00
         0.00000E+00
         0.00000E+00
         0.00000E+00
         0.00000E+00
         0.00000E+00
         0.00000E+00
         0.00000E+00
         0.00000E+00
         0.00000E+00
         0.00000E+00
         0.00000E+00
         0.00000E+00
         0.00000E+00
         0.00000E+00
         0.00000E+00
         0.00000E+00
         0.00000E+00
         0.00000E+00
         0.00000E+00
         0.00000E+00
         0.00000E+00
         0.00000E+00
         0.00000E+00
         0.00000E+00
         0.00000E+00
         0.00000E+00
         0.00000E+00
         0.00000E+00
         0.00000E+00
         0.00000E+00
         0.00000E+00
         0.00000E+00
         0.00000E+00
         0.00000E+00
         0.00000E+00
         0.00000E+00
         0.00000E+00
         0.00000E+00
         0.00000E+00
         0.00000E+00
         0.00000E+00
         0.00000E+00
         0.00000E+00
         0.00000E+00
         0.00000E+00
         0.00000E+00
         0.00000E+00
         0.00000E+00
         0.00000E+00
         0.00000E+00
         0.00000E+00
         0.00000E+00
         0.00000E+00
         0.00000E+00
         0.00000E+00
         0.00000E+00
         0.00000E+00
         0.00000E+00
         0.00000E+00
         0.00000E+00
         0.00000E+00
         0.00000E+00
         0.00000E+00
         0.00000E+00
         0.00000E+00
         0.00000E+00
         0.00000E+00
         0.00000E+00
         0.00000E+00
         0.00000E+00
         0.00000E+00
         0.00000E+00
         0.00000E+00
         0.00000E+00
         0.00000E+00
         0.00000E+00
         0.00000E+00
         0.00000E+00
         0.00000E+00
         0.00000E+00
         0.00000E+00
         0.00000E+00
         0.00000E+00
         0.00000E+00
         0.00000E+00
         0.00000E+00
         0.00000E+00
         0.00000E+00
         0.00000E+00
         0.00000E+00
         0.00000E+00
         0.00000E+00
         0.00000E+00
         0.00000E+00
         0.00000E+00
         0.00000E+00
         0.00000E+00
         0.00000E+00
         0.00000E+00
         0.00000E+00
         0.00000E+00
         0.00000E+00
         0.00000E+00
         0.00000E+00
         0.00000E+00
         0.00000E+00
         0.00000E+00
         0.00000E+00
         0.00000E+00
         0.00000E+00
         0.00000E+00
         0.00000E+00
         0.00000E+00
         0.00000E+00
         0.00000E+00
         0.00000E+00
         0.00000E+00
         0.00000E+00
         0.00000E+00
         0.00000E+00
         0.00000E+00
         0.00000E+00
         0.00000E+00
         0.00000E+00
         0.00000E+00
         0.00000E+00
         0.00000E+00
         0.00000E+00
         0.00000E+00
         0.00000E+00
         0.00000E+00
         0.00000E+00
         0.00000E+00
         0.00000E+00
         0.00000E+00
         0.00000E+00
         0.00000E+00
         0.00000E+00
         0.00000E+00
         0.00000E+00
         0.00000E+00
         0.00000E+00
         0.00000E+00
         0.00000E+00
         0.00000E+00
         0.00000E+00
         0.00000E+00
         0.00000E+00
         0.00000E+00
         0.00000E+00
         0.00000E+00
         0.00000E+00
         0.00000E+00
         0.00000E+00
         0.00000E+00
         0.00000E+00
         0.00000E+00
         0.00000E+00
         0.00000E+00
         0.00000E+00
         0.00000E+00
         0.00000E+00
         0.00000E+00
         0.00000E+00
         0.00000E+00
         0.00000E+00
         0.00000E+00
         0.00000E+00
         0.00000E+00
         0.00000E+00
         0.00000E+00
         0.00000E+00
         0.00000E+00
         0.00000E+00
         0.00000E+00
         0.00000E+00
         0.00000E+00
         0.00000E+00
         0.00000E+00
         0.00000E+00
         0.00000E+00
         0.00000E+00
         0.00000E+00
         0.00000E+00
         0.00000E+00
         0.00000E+00
         0.00000E+00
         0.00000E+00
         0.00000E+00
         0.00000E+00
         0.00000E+00
         0.00000E+00
         0.00000E+00
         0.00000E+00
         0.00000E+00
         0.00000E+00
         0.00000E+00
         0.00000E+00
         0.00000E+00
         0.00000E+00
         0.00000E+00
         0.00000E+00
         0.00000E+00
         0.00000E+00
         0.00000E+00
         0.00000E+00
         0.00000E+00
         0.00000E+00
         0.00000E+00
         0.00000E+00
         0.00000E+00
         0.00000E+00
         0.00000E+00
         0.00000E+00
         0.00000E+00
         0.00000E+00
         0.00000E+00
         0.00000E+00
         0.00000E+00
         0.00000E+00
         0.00000E+00
         0.00000E+00
         0.00000E+00
         0.00000E+00
         0.00000E+00
         0.00000E+00
         0.00000E+00
         0.00000E+00
         0.00000E+00
         0.00000E+00
         0.00000E+00
         0.00000E+00
         0.00000E+00
         0.00000E+00
         0.00000E+00
         0.00000E+00
         0.00000E+00
         0.00000E+00
         0.00000E+00
         0.00000E+00
         0.00000E+00
         0.00000E+00
         0.00000E+00
         0.00000E+00
         0.00000E+00
         0.00000E+00
         0.00000E+00
         0.00000E+00
         0.00000E+00
         0.00000E+00
         0.00000E+00
         0.00000E+00
         0.00000E+00
         0.00000E+00
         0.00000E+00
         0.00000E+00
         0.00000E+00
         0.00000E+00
         0.00000E+00
         0.00000E+00
         0.00000E+00
         0.00000E+00
         0.00000E+00
         0.00000E+00
         0.00000E+00
         0.00000E+00
         0.00000E+00
         0.00000E+00
         0.00000E+00
         0.00000E+00
         0.00000E+00
         0.00000E+00
         0.00000E+00
         0.00000E+00
         0.00000E+00
         0.00000E+00
         0.00000E+00
         0.00000E+00
         0.00000E+00
         0.00000E+00
         0.00000E+00
         0.00000E+00
         0.00000E+00
         0.00000E+00
         0.00000E+00
         0.00000E+00
         0.00000E+00
         0.00000E+00
         0.00000E+00
         0.00000E+00
         0.00000E+00
         0.00000E+00
         0.00000E+00
         0.00000E+00
         0.00000E+00
         0.00000E+00
         0.00000E+00
         0.00000E+00
         0.00000E+00
         0.00000E+00
         0.00000E+00
         0.00000E+00
         0.00000E+00
         0.00000E+00
         0.00000E+00
         0.00000E+00
         0.00000E+00
         0.00000E+00
         0.00000E+00
         0.00000E+00
         0.00000E+00
         0.00000E+00
         0.00000E+00
         0.00000E+00
         0.00000E+00
         0.00000E+00
         0.00000E+00
         0.00000E+00
         0.00000E+00
         0.00000E+00
         0.00000E+00
         0.00000E+00
         0.00000E+00
         0.00000E+00
         0.00000E+00
         0.00000E+00
         0.00000E+00
         0.00000E+00
         0.00000E+00
         0.00000E+00
         0.00000E+00
         0.00000E+00
         0.00000E+00
         0.00000E+00
         0.00000E+00
         0.00000E+00
         0.00000E+00
         0.00000E+00
         0.00000E+00
         0.00000E+00
         0.00000E+00
         0.00000E+00
         0.00000E+00
         0.00000E+00
         0.00000E+00
         0.00000E+00
         0.00000E+00
         0.00000E+00
         0.00000E+00
         0.00000E+00
         0.00000E+00
         0.00000E+00
         0.00000E+00
         0.00000E+00
         0.00000E+00
         0.00000E+00
         0.00000E+00
         0.00000E+00
         0.00000E+00
         0.00000E+00
         0.00000E+00
         0.00000E+00
         0.00000E+00
         0.00000E+00
         0.00000E+00
         0.00000E+00
         0.00000E+00
         0.00000E+00
         0.00000E+00
         0.00000E+00
         0.00000E+00
         0.00000E+00
         0.00000E+00
         0.00000E+00
         0.00000E+00
         0.00000E+00
         0.00000E+00
         0.00000E+00
         0.00000E+00
         0.00000E+00
         0.00000E+00
         0.00000E+00
         0.00000E+00
         0.00000E+00
         0.00000E+00
         0.00000E+00
         0.00000E+00
         0.00000E+00
         0.00000E+00
         0.00000E+00
         0.00000E+00
         0.00000E+00
         0.00000E+00
         0.00000E+00
         0.00000E+00
         0.00000E+00
         0.00000E+00
         0.00000E+00
         0.00000E+00
         0.00000E+00
         0.00000E+00
         0.00000E+00
         0.00000E+00
         0.00000E+00
         0.00000E+00
         0.00000E+00
         0.00000E+00
         0.00000E+00
         0.00000E+00
         0.00000E+00
         0.00000E+00
         0.00000E+00
         0.00000E+00
         0.00000E+00
         0.00000E+00
         0.00000E+00
         0.00000E+00
         0.00000E+00
         0.00000E+00
         0.00000E+00
         0.00000E+00
         0.00000E+00
         0.00000E+00
         0.00000E+00
         0.00000E+00
         0.00000E+00
         0.00000E+00
         0.00000E+00
         0.00000E+00
         0.00000E+00
         0.00000E+00
         0.00000E+00
         0.00000E+00
         0.00000E+00
         0.00000E+00
         0.00000E+00
         0.00000E+00
         0.00000E+00
         0.00000E+00
         0.00000E+00
         0.00000E+00
         0.00000E+00
         0.00000E+00
         0.00000E+00
         0.00000E+00
         0.00000E+00
         0.00000E+00
         0.00000E+00
         0.00000E+00
         0.00000E+00
         0.00000E+00
         0.00000E+00
         0.00000E+00
         0.00000E+00
         0.00000E+00
         0.00000E+00
         0.00000E+00
         0.00000E+00
         0.00000E+00
         0.00000E+00
         0.00000E+00
         0.00000E+00
         0.00000E+00
         0.00000E+00
         0.00000E+00
         0.00000E+00
         0.00000E+00
         0.00000E+00
         0.00000E+00
         0.00000E+00
         0.00000E+00
         0.00000E+00
         0.00000E+00
         0.00000E+00
         0.00000E+00
         0.00000E+00
         0.00000E+00
         0.00000E+00
         0.00000E+00
         0.00000E+00
         0.00000E+00
         0.00000E+00
         0.00000E+00
         0.00000E+00
         0.00000E+00
         0.00000E+00
         0.00000E+00
         0.00000E+00
         0.00000E+00
         0.00000E+00
         0.00000E+00
         0.00000E+00
         0.00000E+00
         0.00000E+00
         0.00000E+00
         0.00000E+00
         0.00000E+00
         0.00000E+00
         0.00000E+00
         0.00000E+00
         0.00000E+00
         0.00000E+00
         0.00000E+00
         0.00000E+00
         0.00000E+00
         0.00000E+00
         0.00000E+00
         0.00000E+00
         0.00000E+00
         0.00000E+00
         0.00000E+00
         0.00000E+00
         0.00000E+00
         0.00000E+00
         0.00000E+00
         0.00000E+00
         0.00000E+00
         0.00000E+00
         0.00000E+00
         0.00000E+00
         0.00000E+00
         0.00000E+00
         0.00000E+00
         0.00000E+00
         0.00000E+00
         0.00000E+00
         0.00000E+00
         0.00000E+00
         0.00000E+00
         0.00000E+00
         0.00000E+00
         0.00000E+00
         0.00000E+00
         0.00000E+00
         0.00000E+00
         0.00000E+00
         0.00000E+00
         0.00000E+00
         0.00000E+00
         0.00000E+00
         0.00000E+00
         0.00000E+00
         0.00000E+00
         0.00000E+00
         0.00000E+00
         0.00000E+00
         0.00000E+00
         0.00000E+00
         0.00000E+00
         0.00000E+00
         0.00000E+00
         0.00000E+00
         0.00000E+00
         0.00000E+00
         0.00000E+00
         0.00000E+00
         0.00000E+00
         0.00000E+00
         0.00000E+00
         0.00000E+00
         0.00000E+00
         0.00000E+00
         0.00000E+00
         0.00000E+00
         0.00000E+00
         0.00000E+00
         0.00000E+00
         0.00000E+00
         0.00000E+00
         0.00000E+00
         0.00000E+00
         0.00000E+00
         0.00000E+00
         0.00000E+00
         0.00000E+00
         0.00000E+00
         0.00000E+00
         0.00000E+00
         0.00000E+00
         0.00000E+00
         0.00000E+00
         0.00000E+00
         0.00000E+00
         0.00000E+00
         0.00000E+00
  
SCALARS                         fint_x  double 1
LOOKUP_TABLE default
         0.00000E+00
         0.00000E+00
         0.00000E+00
         0.00000E+00
         0.00000E+00
         0.00000E+00
         0.00000E+00
         0.00000E+00
         0.00000E+00
         0.00000E+00
         0.00000E+00
         0.00000E+00
         0.00000E+00
         0.00000E+00
         0.00000E+00
         0.00000E+00
         0.00000E+00
         0.00000E+00
         0.00000E+00
         0.00000E+00
         0.00000E+00
         0.00000E+00
         0.00000E+00
         0.00000E+00
         0.00000E+00
         0.00000E+00
         0.00000E+00
         0.00000E+00
         0.00000E+00
         0.00000E+00
         0.00000E+00
         0.00000E+00
         0.00000E+00
         0.00000E+00
         0.00000E+00
         0.00000E+00
         0.00000E+00
         0.00000E+00
         0.00000E+00
         0.00000E+00
         0.00000E+00
         0.00000E+00
         0.00000E+00
         0.00000E+00
         0.00000E+00
         0.00000E+00
         0.00000E+00
         0.00000E+00
         0.00000E+00
         0.00000E+00
         0.00000E+00
         0.00000E+00
         0.00000E+00
         0.00000E+00
         0.00000E+00
         0.00000E+00
         0.00000E+00
         0.00000E+00
         0.00000E+00
         0.00000E+00
         0.00000E+00
         0.00000E+00
         0.00000E+00
         0.00000E+00
         0.00000E+00
         0.00000E+00
         0.00000E+00
         0.00000E+00
         0.00000E+00
         0.00000E+00
         0.00000E+00
         0.00000E+00
         0.00000E+00
         0.00000E+00
         0.00000E+00
         0.00000E+00
         0.00000E+00
         0.00000E+00
         0.00000E+00
         0.00000E+00
         0.00000E+00
         0.00000E+00
         0.00000E+00
         0.00000E+00
         0.00000E+00
         0.00000E+00
         0.00000E+00
         0.00000E+00
         0.00000E+00
         0.00000E+00
         0.00000E+00
         0.00000E+00
         0.00000E+00
         0.00000E+00
         0.00000E+00
         0.00000E+00
         0.00000E+00
         0.00000E+00
         0.00000E+00
         0.00000E+00
         0.00000E+00
         0.00000E+00
         0.00000E+00
         0.00000E+00
         0.00000E+00
         0.00000E+00
         0.00000E+00
         0.00000E+00
         0.00000E+00
         0.00000E+00
         0.00000E+00
         0.00000E+00
         0.00000E+00
         0.00000E+00
         0.00000E+00
         0.00000E+00
         0.00000E+00
         0.00000E+00
         0.00000E+00
         0.00000E+00
         0.00000E+00
         0.00000E+00
         0.00000E+00
         0.00000E+00
         0.00000E+00
         0.00000E+00
         0.00000E+00
         0.00000E+00
         0.00000E+00
         0.00000E+00
         0.00000E+00
         0.00000E+00
         0.00000E+00
         0.00000E+00
         0.00000E+00
         0.00000E+00
         0.00000E+00
         0.00000E+00
         0.00000E+00
         0.00000E+00
         0.00000E+00
         0.00000E+00
         0.00000E+00
         0.00000E+00
         0.00000E+00
         0.00000E+00
         0.00000E+00
         0.00000E+00
         0.00000E+00
         0.00000E+00
         0.00000E+00
         0.00000E+00
         0.00000E+00
         0.00000E+00
         0.00000E+00
         0.00000E+00
         0.00000E+00
         0.00000E+00
         0.00000E+00
         0.00000E+00
         0.00000E+00
         0.00000E+00
         0.00000E+00
         0.00000E+00
         0.00000E+00
         0.00000E+00
         0.00000E+00
         0.00000E+00
         0.00000E+00
         0.00000E+00
         0.00000E+00
         0.00000E+00
         0.00000E+00
         0.00000E+00
         0.00000E+00
         0.00000E+00
         0.00000E+00
         0.00000E+00
         0.00000E+00
         0.00000E+00
         0.00000E+00
         0.00000E+00
         0.00000E+00
         0.00000E+00
         0.00000E+00
         0.00000E+00
         0.00000E+00
         0.00000E+00
         0.00000E+00
         0.00000E+00
         0.00000E+00
         0.00000E+00
         0.00000E+00
         0.00000E+00
         0.00000E+00
         0.00000E+00
         0.00000E+00
         0.00000E+00
         0.00000E+00
         0.00000E+00
         0.00000E+00
         0.00000E+00
         0.00000E+00
         0.00000E+00
         0.00000E+00
         0.00000E+00
         0.00000E+00
         0.00000E+00
         0.00000E+00
         0.00000E+00
         0.00000E+00
         0.00000E+00
         0.00000E+00
         0.00000E+00
         0.00000E+00
         0.00000E+00
         0.00000E+00
         0.00000E+00
         0.00000E+00
         0.00000E+00
         0.00000E+00
         0.00000E+00
         0.00000E+00
         0.00000E+00
         0.00000E+00
         0.00000E+00
         0.00000E+00
         0.00000E+00
         0.00000E+00
         0.00000E+00
         0.00000E+00
         0.00000E+00
         0.00000E+00
         0.00000E+00
         0.00000E+00
         0.00000E+00
         0.00000E+00
         0.00000E+00
         0.00000E+00
         0.00000E+00
         0.00000E+00
         0.00000E+00
         0.00000E+00
         0.00000E+00
         0.00000E+00
         0.00000E+00
         0.00000E+00
         0.00000E+00
         0.00000E+00
         0.00000E+00
         0.00000E+00
         0.00000E+00
         0.00000E+00
         0.00000E+00
         0.00000E+00
         0.00000E+00
         0.00000E+00
         0.00000E+00
         0.00000E+00
         0.00000E+00
         0.00000E+00
         0.00000E+00
         0.00000E+00
         0.00000E+00
         0.00000E+00
         0.00000E+00
         0.00000E+00
         0.00000E+00
         0.00000E+00
         0.00000E+00
         0.00000E+00
         0.00000E+00
         0.00000E+00
         0.00000E+00
         0.00000E+00
         0.00000E+00
         0.00000E+00
         0.00000E+00
         0.00000E+00
         0.00000E+00
         0.00000E+00
         0.00000E+00
         0.00000E+00
         0.00000E+00
         0.00000E+00
         0.00000E+00
         0.00000E+00
         0.00000E+00
         0.00000E+00
         0.00000E+00
         0.00000E+00
         0.00000E+00
         0.00000E+00
         0.00000E+00
         0.00000E+00
         0.00000E+00
         0.00000E+00
         0.00000E+00
         0.00000E+00
         0.00000E+00
         0.00000E+00
         0.00000E+00
         0.00000E+00
         0.00000E+00
         0.00000E+00
         0.00000E+00
         0.00000E+00
         0.00000E+00
         0.00000E+00
         0.00000E+00
         0.00000E+00
         0.00000E+00
         0.00000E+00
         0.00000E+00
         0.00000E+00
         0.00000E+00
         0.00000E+00
         0.00000E+00
         0.00000E+00
         0.00000E+00
         0.00000E+00
         0.00000E+00
         0.00000E+00
         0.00000E+00
         0.00000E+00
         0.00000E+00
         0.00000E+00
         0.00000E+00
         0.00000E+00
         0.00000E+00
         0.00000E+00
         0.00000E+00
         0.00000E+00
         0.00000E+00
         0.00000E+00
         0.00000E+00
         0.00000E+00
         0.00000E+00
         0.00000E+00
         0.00000E+00
         0.00000E+00
         0.00000E+00
         0.00000E+00
         0.00000E+00
         0.00000E+00
         0.00000E+00
         0.00000E+00
         0.00000E+00
         0.00000E+00
         0.00000E+00
         0.00000E+00
         0.00000E+00
         0.00000E+00
         0.00000E+00
         0.00000E+00
         0.00000E+00
         0.00000E+00
         0.00000E+00
         0.00000E+00
         0.00000E+00
         0.00000E+00
         0.00000E+00
         0.00000E+00
         0.00000E+00
         0.00000E+00
         0.00000E+00
         0.00000E+00
         0.00000E+00
         0.00000E+00
         0.00000E+00
         0.00000E+00
         0.00000E+00
         0.00000E+00
         0.00000E+00
         0.00000E+00
         0.00000E+00
         0.00000E+00
         0.00000E+00
         0.00000E+00
         0.00000E+00
         0.00000E+00
         0.00000E+00
         0.00000E+00
         0.00000E+00
         0.00000E+00
         0.00000E+00
         0.00000E+00
         0.00000E+00
         0.00000E+00
         0.00000E+00
         0.00000E+00
         0.00000E+00
         0.00000E+00
         0.00000E+00
         0.00000E+00
         0.00000E+00
         0.00000E+00
         0.00000E+00
         0.00000E+00
         0.00000E+00
         0.00000E+00
         0.00000E+00
         0.00000E+00
         0.00000E+00
         0.00000E+00
         0.00000E+00
         0.00000E+00
         0.00000E+00
         0.00000E+00
         0.00000E+00
         0.00000E+00
         0.00000E+00
         0.00000E+00
         0.00000E+00
         0.00000E+00
         0.00000E+00
         0.00000E+00
         0.00000E+00
         0.00000E+00
         0.00000E+00
         0.00000E+00
         0.00000E+00
         0.00000E+00
         0.00000E+00
         0.00000E+00
         0.00000E+00
         0.00000E+00
         0.00000E+00
         0.00000E+00
         0.00000E+00
         0.00000E+00
         0.00000E+00
         0.00000E+00
         0.00000E+00
         0.00000E+00
         0.00000E+00
         0.00000E+00
         0.00000E+00
         0.00000E+00
         0.00000E+00
         0.00000E+00
         0.00000E+00
         0.00000E+00
         0.00000E+00
         0.00000E+00
         0.00000E+00
         0.00000E+00
         0.00000E+00
         0.00000E+00
         0.00000E+00
         0.00000E+00
         0.00000E+00
         0.00000E+00
         0.00000E+00
         0.00000E+00
         0.00000E+00
         0.00000E+00
         0.00000E+00
         0.00000E+00
         0.00000E+00
         0.00000E+00
         0.00000E+00
         0.00000E+00
         0.00000E+00
         0.00000E+00
         0.00000E+00
         0.00000E+00
         0.00000E+00
         0.00000E+00
         0.00000E+00
         0.00000E+00
         0.00000E+00
         0.00000E+00
         0.00000E+00
         0.00000E+00
         0.00000E+00
         0.00000E+00
         0.00000E+00
         0.00000E+00
         0.00000E+00
         0.00000E+00
         0.00000E+00
         0.00000E+00
         0.00000E+00
         0.00000E+00
         0.00000E+00
         0.00000E+00
         0.00000E+00
         0.00000E+00
         0.00000E+00
         0.00000E+00
         0.00000E+00
         0.00000E+00
         0.00000E+00
         0.00000E+00
         0.00000E+00
         0.00000E+00
         0.00000E+00
         0.00000E+00
         0.00000E+00
         0.00000E+00
         0.00000E+00
         0.00000E+00
         0.00000E+00
         0.00000E+00
         0.00000E+00
         0.00000E+00
         0.00000E+00
         0.00000E+00
         0.00000E+00
         0.00000E+00
         0.00000E+00
         0.00000E+00
         0.00000E+00
         0.00000E+00
         0.00000E+00
         0.00000E+00
         0.00000E+00
         0.00000E+00
         0.00000E+00
         0.00000E+00
         0.00000E+00
         0.00000E+00
         0.00000E+00
         0.00000E+00
         0.00000E+00
         0.00000E+00
         0.00000E+00
         0.00000E+00
         0.00000E+00
         0.00000E+00
         0.00000E+00
         0.00000E+00
         0.00000E+00
         0.00000E+00
         0.00000E+00
         0.00000E+00
         0.00000E+00
         0.00000E+00
         0.00000E+00
         0.00000E+00
         0.00000E+00
         0.00000E+00
         0.00000E+00
         0.00000E+00
         0.00000E+00
         0.00000E+00
         0.00000E+00
         0.00000E+00
         0.00000E+00
         0.00000E+00
         0.00000E+00
         0.00000E+00
         0.00000E+00
         0.00000E+00
         0.00000E+00
         0.00000E+00
         0.00000E+00
         0.00000E+00
         0.00000E+00
         0.00000E+00
         0.00000E+00
         0.00000E+00
         0.00000E+00
         0.00000E+00
         0.00000E+00
         0.00000E+00
         0.00000E+00
         0.00000E+00
         0.00000E+00
         0.00000E+00
         0.00000E+00
         0.00000E+00
         0.00000E+00
         0.00000E+00
         0.00000E+00
         0.00000E+00
         0.00000E+00
         0.00000E+00
         0.00000E+00
         0.00000E+00
         0.00000E+00
         0.00000E+00
         0.00000E+00
         0.00000E+00
         0.00000E+00
         0.00000E+00
         0.00000E+00
         0.00000E+00
         0.00000E+00
         0.00000E+00
         0.00000E+00
         0.00000E+00
         0.00000E+00
         0.00000E+00
         0.00000E+00
         0.00000E+00
         0.00000E+00
         0.00000E+00
         0.00000E+00
         0.00000E+00
         0.00000E+00
         0.00000E+00
         0.00000E+00
         0.00000E+00
         0.00000E+00
         0.00000E+00
         0.00000E+00
         0.00000E+00
         0.00000E+00
         0.00000E+00
         0.00000E+00
         0.00000E+00
         0.00000E+00
         0.00000E+00
         0.00000E+00
         0.00000E+00
         0.00000E+00
         0.00000E+00
         0.00000E+00
         0.00000E+00
         0.00000E+00
         0.00000E+00
         0.00000E+00
         0.00000E+00
         0.00000E+00
         0.00000E+00
         0.00000E+00
         0.00000E+00
         0.00000E+00
         0.00000E+00
         0.00000E+00
         0.00000E+00
         0.00000E+00
         0.00000E+00
         0.00000E+00
         0.00000E+00
         0.00000E+00
         0.00000E+00
         0.00000E+00
         0.00000E+00
         0.00000E+00
         0.00000E+00
         0.00000E+00
         0.00000E+00
         0.00000E+00
         0.00000E+00
         0.00000E+00
         0.00000E+00
         0.00000E+00
         0.00000E+00
         0.00000E+00
         0.00000E+00
         0.00000E+00
         0.00000E+00
         0.00000E+00
         0.00000E+00
         0.00000E+00
         0.00000E+00
         0.00000E+00
         0.00000E+00
         0.00000E+00
         0.00000E+00
         0.00000E+00
         0.00000E+00
         0.00000E+00
         0.00000E+00
         0.00000E+00
         0.00000E+00
         0.00000E+00
         0.00000E+00
         0.00000E+00
         0.00000E+00
         0.00000E+00
         0.00000E+00
         0.00000E+00
         0.00000E+00
         0.00000E+00
         0.00000E+00
         0.00000E+00
         0.00000E+00
         0.00000E+00
         0.00000E+00
         0.00000E+00
         0.00000E+00
         0.00000E+00
         0.00000E+00
         0.00000E+00
         0.00000E+00
         0.00000E+00
         0.00000E+00
         0.00000E+00
         0.00000E+00
         0.00000E+00
         0.00000E+00
         0.00000E+00
         0.00000E+00
         0.00000E+00
         0.00000E+00
         0.00000E+00
         0.00000E+00
         0.00000E+00
         0.00000E+00
         0.00000E+00
         0.00000E+00
         0.00000E+00
         0.00000E+00
         0.00000E+00
         0.00000E+00
         0.00000E+00
         0.00000E+00
         0.00000E+00
         0.00000E+00
         0.00000E+00
         0.00000E+00
         0.00000E+00
         0.00000E+00
         0.00000E+00
         0.00000E+00
         0.00000E+00
         0.00000E+00
         0.00000E+00
         0.00000E+00
         0.00000E+00
         0.00000E+00
         0.00000E+00
         0.00000E+00
         0.00000E+00
         0.00000E+00
         0.00000E+00
         0.00000E+00
         0.00000E+00
         0.00000E+00
         0.00000E+00
         0.00000E+00
         0.00000E+00
         0.00000E+00
         0.00000E+00
         0.00000E+00
         0.00000E+00
         0.00000E+00
         0.00000E+00
         0.00000E+00
         0.00000E+00
         0.00000E+00
         0.00000E+00
         0.00000E+00
         0.00000E+00
         0.00000E+00
         0.00000E+00
         0.00000E+00
         0.00000E+00
         0.00000E+00
         0.00000E+00
         0.00000E+00
         0.00000E+00
         0.00000E+00
         0.00000E+00
         0.00000E+00
         0.00000E+00
         0.00000E+00
         0.00000E+00
         0.00000E+00
         0.00000E+00
         0.00000E+00
         0.00000E+00
         0.00000E+00
         0.00000E+00
         0.00000E+00
         0.00000E+00
         0.00000E+00
         0.00000E+00
         0.00000E+00
         0.00000E+00
         0.00000E+00
         0.00000E+00
         0.00000E+00
         0.00000E+00
         0.00000E+00
         0.00000E+00
         0.00000E+00
         0.00000E+00
         0.00000E+00
         0.00000E+00
         0.00000E+00
         0.00000E+00
         0.00000E+00
         0.00000E+00
         0.00000E+00
         0.00000E+00
         0.00000E+00
         0.00000E+00
         0.00000E+00
         0.00000E+00
         0.00000E+00
         0.00000E+00
         0.00000E+00
         0.00000E+00
         0.00000E+00
         0.00000E+00
         0.00000E+00
         0.00000E+00
         0.00000E+00
         0.00000E+00
         0.00000E+00
         0.00000E+00
         0.00000E+00
         0.00000E+00
         0.00000E+00
         0.00000E+00
         0.00000E+00
         0.00000E+00
         0.00000E+00
         0.00000E+00
         0.00000E+00
         0.00000E+00
         0.00000E+00
         0.00000E+00
         0.00000E+00
         0.00000E+00
         0.00000E+00
         0.00000E+00
         0.00000E+00
         0.00000E+00
         0.00000E+00
         0.00000E+00
         0.00000E+00
         0.00000E+00
         0.00000E+00
         0.00000E+00
         0.00000E+00
         0.00000E+00
         0.00000E+00
         0.00000E+00
         0.00000E+00
         0.00000E+00
         0.00000E+00
         0.00000E+00
         0.00000E+00
         0.00000E+00
         0.00000E+00
         0.00000E+00
         0.00000E+00
         0.00000E+00
         0.00000E+00
         0.00000E+00
         0.00000E+00
         0.00000E+00
         0.00000E+00
         0.00000E+00
         0.00000E+00
         0.00000E+00
         0.00000E+00
         0.00000E+00
         0.00000E+00
         0.00000E+00
         0.00000E+00
         0.00000E+00
         0.00000E+00
         0.00000E+00
         0.00000E+00
         0.00000E+00
         0.00000E+00
         0.00000E+00
         0.00000E+00
         0.00000E+00
         0.00000E+00
         0.00000E+00
         0.00000E+00
         0.00000E+00
         0.00000E+00
         0.00000E+00
         0.00000E+00
         0.00000E+00
         0.00000E+00
         0.00000E+00
         0.00000E+00
         0.00000E+00
         0.00000E+00
         0.00000E+00
         0.00000E+00
         0.00000E+00
         0.00000E+00
         0.00000E+00
         0.00000E+00
         0.00000E+00
         0.00000E+00
         0.00000E+00
         0.00000E+00
         0.00000E+00
         0.00000E+00
         0.00000E+00
         0.00000E+00
         0.00000E+00
         0.00000E+00
         0.00000E+00
         0.00000E+00
         0.00000E+00
         0.00000E+00
         0.00000E+00
         0.00000E+00
         0.00000E+00
         0.00000E+00
         0.00000E+00
         0.00000E+00
         0.00000E+00
         0.00000E+00
         0.00000E+00
         0.00000E+00
         0.00000E+00
         0.00000E+00
         0.00000E+00
         0.00000E+00
         0.00000E+00
         0.00000E+00
         0.00000E+00
         0.00000E+00
         0.00000E+00
         0.00000E+00
         0.00000E+00
         0.00000E+00
         0.00000E+00
         0.00000E+00
         0.00000E+00
         0.00000E+00
         0.00000E+00
         0.00000E+00
         0.00000E+00
         0.00000E+00
         0.00000E+00
         0.00000E+00
         0.00000E+00
         0.00000E+00
         0.00000E+00
         0.00000E+00
         0.00000E+00
         0.00000E+00
         0.00000E+00
         0.00000E+00
         0.00000E+00
         0.00000E+00
         0.00000E+00
         0.00000E+00
         0.00000E+00
         0.00000E+00
         0.00000E+00
         0.00000E+00
         0.00000E+00
         0.00000E+00
         0.00000E+00
         0.00000E+00
         0.00000E+00
         0.00000E+00
         0.00000E+00
         0.00000E+00
         0.00000E+00
         0.00000E+00
         0.00000E+00
         0.00000E+00
         0.00000E+00
         0.00000E+00
         0.00000E+00
         0.00000E+00
         0.00000E+00
         0.00000E+00
         0.00000E+00
         0.00000E+00
         0.00000E+00
         0.00000E+00
         0.00000E+00
         0.00000E+00
         0.00000E+00
         0.00000E+00
         0.00000E+00
         0.00000E+00
         0.00000E+00
         0.00000E+00
         0.00000E+00
         0.00000E+00
         0.00000E+00
         0.00000E+00
         0.00000E+00
         0.00000E+00
         0.00000E+00
         0.00000E+00
         0.00000E+00
         0.00000E+00
         0.00000E+00
         0.00000E+00
         0.00000E+00
         0.00000E+00
         0.00000E+00
         0.00000E+00
         0.00000E+00
         0.00000E+00
         0.00000E+00
         0.00000E+00
         0.00000E+00
         0.00000E+00
         0.00000E+00
         0.00000E+00
         0.00000E+00
         0.00000E+00
         0.00000E+00
         0.00000E+00
         0.00000E+00
         0.00000E+00
         0.00000E+00
         0.00000E+00
         0.00000E+00
         0.00000E+00
         0.00000E+00
         0.00000E+00
         0.00000E+00
         0.00000E+00
         0.00000E+00
         0.00000E+00
         0.00000E+00
         0.00000E+00
         0.00000E+00
         0.00000E+00
         0.00000E+00
         0.00000E+00
         0.00000E+00
         0.00000E+00
         0.00000E+00
         0.00000E+00
         0.00000E+00
         0.00000E+00
         0.00000E+00
         0.00000E+00
         0.00000E+00
         0.00000E+00
         0.00000E+00
         0.00000E+00
         0.00000E+00
         0.00000E+00
         0.00000E+00
         0.00000E+00
         0.00000E+00
         0.00000E+00
         0.00000E+00
         0.00000E+00
         0.00000E+00
         0.00000E+00
         0.00000E+00
         0.00000E+00
         0.00000E+00
         0.00000E+00
         0.00000E+00
         0.00000E+00
         0.00000E+00
         0.00000E+00
         0.00000E+00
         0.00000E+00
         0.00000E+00
         0.00000E+00
         0.00000E+00
         0.00000E+00
         0.00000E+00
         0.00000E+00
         0.00000E+00
         0.00000E+00
         0.00000E+00
         0.00000E+00
         0.00000E+00
         0.00000E+00
         0.00000E+00
         0.00000E+00
         0.00000E+00
         0.00000E+00
         0.00000E+00
         0.00000E+00
         0.00000E+00
         0.00000E+00
         0.00000E+00
         0.00000E+00
         0.00000E+00
         0.00000E+00
         0.00000E+00
         0.00000E+00
         0.00000E+00
         0.00000E+00
         0.00000E+00
         0.00000E+00
         0.00000E+00
         0.00000E+00
         0.00000E+00
         0.00000E+00
         0.00000E+00
         0.00000E+00
         0.00000E+00
         0.00000E+00
         0.00000E+00
         0.00000E+00
         0.00000E+00
         0.00000E+00
         0.00000E+00
         0.00000E+00
         0.00000E+00
         0.00000E+00
         0.00000E+00
         0.00000E+00
         0.00000E+00
         0.00000E+00
         0.00000E+00
         0.00000E+00
         0.00000E+00
         0.00000E+00
         0.00000E+00
         0.00000E+00
         0.00000E+00
         0.00000E+00
         0.00000E+00
         0.00000E+00
         0.00000E+00
         0.00000E+00
         0.00000E+00
         0.00000E+00
         0.00000E+00
         0.00000E+00
         0.00000E+00
         0.00000E+00
         0.00000E+00
         0.00000E+00
         0.00000E+00
         0.00000E+00
         0.00000E+00
         0.00000E+00
         0.00000E+00
         0.00000E+00
         0.00000E+00
         0.00000E+00
         0.00000E+00
         0.00000E+00
         0.00000E+00
         0.00000E+00
         0.00000E+00
         0.00000E+00
         0.00000E+00
         0.00000E+00
         0.00000E+00
         0.00000E+00
         0.00000E+00
         0.00000E+00
         0.00000E+00
         0.00000E+00
         0.00000E+00
         0.00000E+00
         0.00000E+00
         0.00000E+00
         0.00000E+00
         0.00000E+00
         0.00000E+00
         0.00000E+00
         0.00000E+00
         0.00000E+00
         0.00000E+00
         0.00000E+00
         0.00000E+00
         0.00000E+00
         0.00000E+00
         0.00000E+00
         0.00000E+00
         0.00000E+00
         0.00000E+00
         0.00000E+00
         0.00000E+00
         0.00000E+00
         0.00000E+00
         0.00000E+00
         0.00000E+00
         0.00000E+00
         0.00000E+00
         0.00000E+00
         0.00000E+00
         0.00000E+00
         0.00000E+00
         0.00000E+00
         0.00000E+00
         0.00000E+00
         0.00000E+00
         0.00000E+00
         0.00000E+00
         0.00000E+00
         0.00000E+00
         0.00000E+00
         0.00000E+00
         0.00000E+00
         0.00000E+00
         0.00000E+00
         0.00000E+00
         0.00000E+00
         0.00000E+00
         0.00000E+00
         0.00000E+00
         0.00000E+00
         0.00000E+00
         0.00000E+00
         0.00000E+00
         0.00000E+00
         0.00000E+00
         0.00000E+00
         0.00000E+00
         0.00000E+00
         0.00000E+00
         0.00000E+00
         0.00000E+00
         0.00000E+00
         0.00000E+00
         0.00000E+00
         0.00000E+00
         0.00000E+00
         0.00000E+00
         0.00000E+00
         0.00000E+00
         0.00000E+00
         0.00000E+00
         0.00000E+00
         0.00000E+00
         0.00000E+00
         0.00000E+00
         0.00000E+00
         0.00000E+00
         0.00000E+00
         0.00000E+00
         0.00000E+00
         0.00000E+00
         0.00000E+00
         0.00000E+00
         0.00000E+00
         0.00000E+00
         0.00000E+00
         0.00000E+00
         0.00000E+00
         0.00000E+00
         0.00000E+00
         0.00000E+00
         0.00000E+00
         0.00000E+00
         0.00000E+00
         0.00000E+00
         0.00000E+00
         0.00000E+00
         0.00000E+00
         0.00000E+00
         0.00000E+00
         0.00000E+00
         0.00000E+00
         0.00000E+00
         0.00000E+00
         0.00000E+00
         0.00000E+00
         0.00000E+00
         0.00000E+00
         0.00000E+00
         0.00000E+00
         0.00000E+00
         0.00000E+00
         0.00000E+00
         0.00000E+00
         0.00000E+00
         0.00000E+00
         0.00000E+00
         0.00000E+00
         0.00000E+00
         0.00000E+00
         0.00000E+00
         0.00000E+00
         0.00000E+00
         0.00000E+00
         0.00000E+00
         0.00000E+00
         0.00000E+00
         0.00000E+00
         0.00000E+00
         0.00000E+00
         0.00000E+00
         0.00000E+00
         0.00000E+00
         0.00000E+00
         0.00000E+00
         0.00000E+00
         0.00000E+00
         0.00000E+00
         0.00000E+00
         0.00000E+00
         0.00000E+00
         0.00000E+00
         0.00000E+00
         0.00000E+00
         0.00000E+00
         0.00000E+00
         0.00000E+00
         0.00000E+00
         0.00000E+00
         0.00000E+00
         0.00000E+00
         0.00000E+00
         0.00000E+00
         0.00000E+00
         0.00000E+00
         0.00000E+00
         0.00000E+00
         0.00000E+00
         0.00000E+00
         0.00000E+00
         0.00000E+00
         0.00000E+00
         0.00000E+00
         0.00000E+00
         0.00000E+00
         0.00000E+00
         0.00000E+00
         0.00000E+00
         0.00000E+00
         0.00000E+00
         0.00000E+00
         0.00000E+00
         0.00000E+00
         0.00000E+00
         0.00000E+00
         0.00000E+00
         0.00000E+00
         0.00000E+00
         0.00000E+00
         0.00000E+00
         0.00000E+00
         0.00000E+00
         0.00000E+00
         0.00000E+00
         0.00000E+00
         0.00000E+00
         0.00000E+00
         0.00000E+00
         0.00000E+00
         0.00000E+00
         0.00000E+00
         0.00000E+00
         0.00000E+00
         0.00000E+00
         0.00000E+00
         0.00000E+00
         0.00000E+00
         0.00000E+00
         0.00000E+00
         0.00000E+00
         0.00000E+00
         0.00000E+00
         0.00000E+00
         0.00000E+00
         0.00000E+00
         0.00000E+00
         0.00000E+00
         0.00000E+00
         0.00000E+00
         0.00000E+00
         0.00000E+00
         0.00000E+00
         0.00000E+00
         0.00000E+00
         0.00000E+00
         0.00000E+00
         0.00000E+00
         0.00000E+00
         0.00000E+00
         0.00000E+00
         0.00000E+00
         0.00000E+00
         0.00000E+00
         0.00000E+00
         0.00000E+00
         0.00000E+00
         0.00000E+00
         0.00000E+00
         0.00000E+00
         0.00000E+00
         0.00000E+00
         0.00000E+00
         0.00000E+00
         0.00000E+00
         0.00000E+00
         0.00000E+00
         0.00000E+00
         0.00000E+00
         0.00000E+00
         0.00000E+00
         0.00000E+00
         0.00000E+00
         0.00000E+00
         0.00000E+00
         0.00000E+00
         0.00000E+00
         0.00000E+00
         0.00000E+00
         0.00000E+00
         0.00000E+00
         0.00000E+00
         0.00000E+00
         0.00000E+00
         0.00000E+00
         0.00000E+00
         0.00000E+00
         0.00000E+00
         0.00000E+00
         0.00000E+00
         0.00000E+00
         0.00000E+00
         0.00000E+00
         0.00000E+00
         0.00000E+00
         0.00000E+00
         0.00000E+00
         0.00000E+00
         0.00000E+00
         0.00000E+00
         0.00000E+00
         0.00000E+00
         0.00000E+00
         0.00000E+00
         0.00000E+00
         0.00000E+00
         0.00000E+00
         0.00000E+00
         0.00000E+00
         0.00000E+00
         0.00000E+00
         0.00000E+00
         0.00000E+00
         0.00000E+00
         0.00000E+00
         0.00000E+00
         0.00000E+00
         0.00000E+00
         0.00000E+00
         0.00000E+00
         0.00000E+00
         0.00000E+00
         0.00000E+00
         0.00000E+00
         0.00000E+00
         0.00000E+00
         0.00000E+00
         0.00000E+00
         0.00000E+00
         0.00000E+00
         0.00000E+00
         0.00000E+00
         0.00000E+00
         0.00000E+00
         0.00000E+00
         0.00000E+00
         0.00000E+00
         0.00000E+00
         0.00000E+00
         0.00000E+00
         0.00000E+00
         0.00000E+00
         0.00000E+00
         0.00000E+00
         0.00000E+00
         0.00000E+00
         0.00000E+00
         0.00000E+00
         0.00000E+00
         0.00000E+00
         0.00000E+00
         0.00000E+00
         0.00000E+00
         0.00000E+00
         0.00000E+00
         0.00000E+00
         0.00000E+00
         0.00000E+00
         0.00000E+00
         0.00000E+00
         0.00000E+00
         0.00000E+00
         0.00000E+00
         0.00000E+00
         0.00000E+00
         0.00000E+00
         0.00000E+00
         0.00000E+00
         0.00000E+00
         0.00000E+00
         0.00000E+00
         0.00000E+00
         0.00000E+00
         0.00000E+00
         0.00000E+00
         0.00000E+00
         0.00000E+00
         0.00000E+00
         0.00000E+00
         0.00000E+00
         0.00000E+00
         0.00000E+00
         0.00000E+00
         0.00000E+00
         0.00000E+00
         0.00000E+00
         0.00000E+00
         0.00000E+00
         0.00000E+00
         0.00000E+00
         0.00000E+00
         0.00000E+00
         0.00000E+00
         0.00000E+00
         0.00000E+00
         0.00000E+00
         0.00000E+00
         0.00000E+00
         0.00000E+00
         0.00000E+00
         0.00000E+00
         0.00000E+00
         0.00000E+00
         0.00000E+00
         0.00000E+00
         0.00000E+00
         0.00000E+00
         0.00000E+00
         0.00000E+00
         0.00000E+00
         0.00000E+00
         0.00000E+00
         0.00000E+00
         0.00000E+00
         0.00000E+00
         0.00000E+00
         0.00000E+00
         0.00000E+00
         0.00000E+00
         0.00000E+00
         0.00000E+00
         0.00000E+00
         0.00000E+00
         0.00000E+00
         0.00000E+00
         0.00000E+00
         0.00000E+00
         0.00000E+00
         0.00000E+00
         0.00000E+00
         0.00000E+00
         0.00000E+00
         0.00000E+00
         0.00000E+00
         0.00000E+00
         0.00000E+00
         0.00000E+00
         0.00000E+00
         0.00000E+00
         0.00000E+00
         0.00000E+00
         0.00000E+00
         0.00000E+00
         0.00000E+00
         0.00000E+00
         0.00000E+00
         0.00000E+00
         0.00000E+00
         0.00000E+00
         0.00000E+00
         0.00000E+00
         0.00000E+00
         0.00000E+00
         0.00000E+00
         0.00000E+00
         0.00000E+00
         0.00000E+00
         0.00000E+00
         0.00000E+00
         0.00000E+00
         0.00000E+00
         0.00000E+00
         0.00000E+00
         0.00000E+00
         0.00000E+00
         0.00000E+00
         0.00000E+00
         0.00000E+00
         0.00000E+00
         0.00000E+00
         0.00000E+00
         0.00000E+00
         0.00000E+00
         0.00000E+00
         0.00000E+00
         0.00000E+00
         0.00000E+00
         0.00000E+00
         0.00000E+00
         0.00000E+00
         0.00000E+00
         0.00000E+00
         0.00000E+00
         0.00000E+00
         0.00000E+00
         0.00000E+00
         0.00000E+00
         0.00000E+00
         0.00000E+00
         0.00000E+00
         0.00000E+00
         0.00000E+00
         0.00000E+00
         0.00000E+00
         0.00000E+00
         0.00000E+00
         0.00000E+00
         0.00000E+00
         0.00000E+00
         0.00000E+00
         0.00000E+00
         0.00000E+00
         0.00000E+00
         0.00000E+00
         0.00000E+00
         0.00000E+00
         0.00000E+00
         0.00000E+00
         0.00000E+00
         0.00000E+00
         0.00000E+00
         0.00000E+00
         0.00000E+00
         0.00000E+00
         0.00000E+00
         0.00000E+00
         0.00000E+00
         0.00000E+00
         0.00000E+00
         0.00000E+00
         0.00000E+00
         0.00000E+00
         0.00000E+00
         0.00000E+00
         0.00000E+00
         0.00000E+00
         0.00000E+00
         0.00000E+00
         0.00000E+00
         0.00000E+00
         0.00000E+00
         0.00000E+00
         0.00000E+00
         0.00000E+00
         0.00000E+00
         0.00000E+00
         0.00000E+00
         0.00000E+00
         0.00000E+00
         0.00000E+00
         0.00000E+00
         0.00000E+00
         0.00000E+00
         0.00000E+00
         0.00000E+00
         0.00000E+00
         0.00000E+00
         0.00000E+00
         0.00000E+00
         0.00000E+00
         0.00000E+00
         0.00000E+00
         0.00000E+00
         0.00000E+00
         0.00000E+00
         0.00000E+00
         0.00000E+00
         0.00000E+00
         0.00000E+00
         0.00000E+00
         0.00000E+00
         0.00000E+00
         0.00000E+00
         0.00000E+00
         0.00000E+00
         0.00000E+00
         0.00000E+00
         0.00000E+00
         0.00000E+00
         0.00000E+00
         0.00000E+00
         0.00000E+00
         0.00000E+00
         0.00000E+00
         0.00000E+00
         0.00000E+00
         0.00000E+00
         0.00000E+00
         0.00000E+00
         0.00000E+00
         0.00000E+00
         0.00000E+00
         0.00000E+00
         0.00000E+00
         0.00000E+00
         0.00000E+00
         0.00000E+00
         0.00000E+00
         0.00000E+00
         0.00000E+00
         0.00000E+00
         0.00000E+00
         0.00000E+00
         0.00000E+00
         0.00000E+00
         0.00000E+00
         0.00000E+00
         0.00000E+00
         0.00000E+00
         0.00000E+00
         0.00000E+00
         0.00000E+00
         0.00000E+00
         0.00000E+00
         0.00000E+00
         0.00000E+00
         0.00000E+00
         0.00000E+00
         0.00000E+00
         0.00000E+00
         0.00000E+00
         0.00000E+00
         0.00000E+00
         0.00000E+00
         0.00000E+00
         0.00000E+00
         0.00000E+00
         0.00000E+00
         0.00000E+00
         0.00000E+00
         0.00000E+00
         0.00000E+00
         0.00000E+00
         0.00000E+00
         0.00000E+00
         0.00000E+00
         0.00000E+00
         0.00000E+00
         0.00000E+00
         0.00000E+00
         0.00000E+00
         0.00000E+00
         0.00000E+00
         0.00000E+00
         0.00000E+00
         0.00000E+00
         0.00000E+00
         0.00000E+00
         0.00000E+00
         0.00000E+00
         0.00000E+00
         0.00000E+00
         0.00000E+00
         0.00000E+00
         0.00000E+00
         0.00000E+00
         0.00000E+00
         0.00000E+00
         0.00000E+00
         0.00000E+00
         0.00000E+00
         0.00000E+00
         0.00000E+00
         0.00000E+00
         0.00000E+00
         0.00000E+00
         0.00000E+00
         0.00000E+00
         0.00000E+00
         0.00000E+00
         0.00000E+00
         0.00000E+00
         0.00000E+00
         0.00000E+00
         0.00000E+00
         0.00000E+00
         0.00000E+00
         0.00000E+00
         0.00000E+00
         0.00000E+00
         0.00000E+00
         0.00000E+00
         0.00000E+00
         0.00000E+00
         0.00000E+00
         0.00000E+00
         0.00000E+00
         0.00000E+00
         0.00000E+00
         0.00000E+00
         0.00000E+00
         0.00000E+00
         0.00000E+00
         0.00000E+00
         0.00000E+00
         0.00000E+00
         0.00000E+00
         0.00000E+00
         0.00000E+00
         0.00000E+00
         0.00000E+00
         0.00000E+00
         0.00000E+00
         0.00000E+00
         0.00000E+00
         0.00000E+00
         0.00000E+00
         0.00000E+00
         0.00000E+00
         0.00000E+00
         0.00000E+00
         0.00000E+00
         0.00000E+00
         0.00000E+00
         0.00000E+00
         0.00000E+00
         0.00000E+00
         0.00000E+00
         0.00000E+00
         0.00000E+00
         0.00000E+00
         0.00000E+00
         0.00000E+00
         0.00000E+00
         0.00000E+00
         0.00000E+00
         0.00000E+00
         0.00000E+00
         0.00000E+00
         0.00000E+00
         0.00000E+00
         0.00000E+00
         0.00000E+00
         0.00000E+00
         0.00000E+00
         0.00000E+00
         0.00000E+00
         0.00000E+00
         0.00000E+00
         0.00000E+00
         0.00000E+00
         0.00000E+00
         0.00000E+00
         0.00000E+00
         0.00000E+00
         0.00000E+00
         0.00000E+00
         0.00000E+00
         0.00000E+00
         0.00000E+00
         0.00000E+00
         0.00000E+00
         0.00000E+00
         0.00000E+00
         0.00000E+00
         0.00000E+00
         0.00000E+00
         0.00000E+00
         0.00000E+00
         0.00000E+00
         0.00000E+00
         0.00000E+00
         0.00000E+00
         0.00000E+00
         0.00000E+00
         0.00000E+00
         0.00000E+00
         0.00000E+00
         0.00000E+00
         0.00000E+00
         0.00000E+00
         0.00000E+00
         0.00000E+00
         0.00000E+00
         0.00000E+00
         0.00000E+00
         0.00000E+00
         0.00000E+00
         0.00000E+00
         0.00000E+00
         0.00000E+00
         0.00000E+00
         0.00000E+00
         0.00000E+00
         0.00000E+00
         0.00000E+00
         0.00000E+00
         0.00000E+00
         0.00000E+00
         0.00000E+00
         0.00000E+00
         0.00000E+00
         0.00000E+00
         0.00000E+00
         0.00000E+00
         0.00000E+00
         0.00000E+00
         0.00000E+00
         0.00000E+00
         0.00000E+00
         0.00000E+00
         0.00000E+00
         0.00000E+00
         0.00000E+00
         0.00000E+00
         0.00000E+00
         0.00000E+00
         0.00000E+00
         0.00000E+00
         0.00000E+00
         0.00000E+00
         0.00000E+00
         0.00000E+00
         0.00000E+00
         0.00000E+00
         0.00000E+00
         0.00000E+00
         0.00000E+00
         0.00000E+00
         0.00000E+00
         0.00000E+00
         0.00000E+00
         0.00000E+00
         0.00000E+00
         0.00000E+00
         0.00000E+00
         0.00000E+00
         0.00000E+00
         0.00000E+00
         0.00000E+00
         0.00000E+00
         0.00000E+00
         0.00000E+00
         0.00000E+00
         0.00000E+00
         0.00000E+00
         0.00000E+00
         0.00000E+00
         0.00000E+00
         0.00000E+00
         0.00000E+00
         0.00000E+00
         0.00000E+00
         0.00000E+00
  
SCALARS                         fint_y  double 1
LOOKUP_TABLE default
         0.00000E+00
         0.00000E+00
         0.00000E+00
         0.00000E+00
         0.00000E+00
         0.00000E+00
         0.00000E+00
         0.00000E+00
         0.00000E+00
         0.00000E+00
         0.00000E+00
         0.00000E+00
         0.00000E+00
         0.00000E+00
         0.00000E+00
         0.00000E+00
         0.00000E+00
         0.00000E+00
         0.00000E+00
         0.00000E+00
         0.00000E+00
         0.00000E+00
         0.00000E+00
         0.00000E+00
         0.00000E+00
         0.00000E+00
         0.00000E+00
         0.00000E+00
         0.00000E+00
         0.00000E+00
         0.00000E+00
         0.00000E+00
         0.00000E+00
         0.00000E+00
         0.00000E+00
         0.00000E+00
         0.00000E+00
         0.00000E+00
         0.00000E+00
         0.00000E+00
         0.00000E+00
         0.00000E+00
         0.00000E+00
         0.00000E+00
         0.00000E+00
         0.00000E+00
         0.00000E+00
         0.00000E+00
         0.00000E+00
         0.00000E+00
         0.00000E+00
         0.00000E+00
         0.00000E+00
         0.00000E+00
         0.00000E+00
         0.00000E+00
         0.00000E+00
         0.00000E+00
         0.00000E+00
         0.00000E+00
         0.00000E+00
         0.00000E+00
         0.00000E+00
         0.00000E+00
         0.00000E+00
         0.00000E+00
         0.00000E+00
         0.00000E+00
         0.00000E+00
         0.00000E+00
         0.00000E+00
         0.00000E+00
         0.00000E+00
         0.00000E+00
         0.00000E+00
         0.00000E+00
         0.00000E+00
         0.00000E+00
         0.00000E+00
         0.00000E+00
         0.00000E+00
         0.00000E+00
         0.00000E+00
         0.00000E+00
         0.00000E+00
         0.00000E+00
         0.00000E+00
         0.00000E+00
         0.00000E+00
         0.00000E+00
         0.00000E+00
         0.00000E+00
         0.00000E+00
         0.00000E+00
         0.00000E+00
         0.00000E+00
         0.00000E+00
         0.00000E+00
         0.00000E+00
         0.00000E+00
         0.00000E+00
         0.00000E+00
         0.00000E+00
         0.00000E+00
         0.00000E+00
         0.00000E+00
         0.00000E+00
         0.00000E+00
         0.00000E+00
         0.00000E+00
         0.00000E+00
         0.00000E+00
         0.00000E+00
         0.00000E+00
         0.00000E+00
         0.00000E+00
         0.00000E+00
         0.00000E+00
         0.00000E+00
         0.00000E+00
         0.00000E+00
         0.00000E+00
         0.00000E+00
         0.00000E+00
         0.00000E+00
         0.00000E+00
         0.00000E+00
         0.00000E+00
         0.00000E+00
         0.00000E+00
         0.00000E+00
         0.00000E+00
         0.00000E+00
         0.00000E+00
         0.00000E+00
         0.00000E+00
         0.00000E+00
         0.00000E+00
         0.00000E+00
         0.00000E+00
         0.00000E+00
         0.00000E+00
         0.00000E+00
         0.00000E+00
         0.00000E+00
         0.00000E+00
         0.00000E+00
         0.00000E+00
         0.00000E+00
         0.00000E+00
         0.00000E+00
         0.00000E+00
         0.00000E+00
         0.00000E+00
         0.00000E+00
         0.00000E+00
         0.00000E+00
         0.00000E+00
         0.00000E+00
         0.00000E+00
         0.00000E+00
         0.00000E+00
         0.00000E+00
         0.00000E+00
         0.00000E+00
         0.00000E+00
         0.00000E+00
         0.00000E+00
         0.00000E+00
         0.00000E+00
         0.00000E+00
         0.00000E+00
         0.00000E+00
         0.00000E+00
         0.00000E+00
         0.00000E+00
         0.00000E+00
         0.00000E+00
         0.00000E+00
         0.00000E+00
         0.00000E+00
         0.00000E+00
         0.00000E+00
         0.00000E+00
         0.00000E+00
         0.00000E+00
         0.00000E+00
         0.00000E+00
         0.00000E+00
         0.00000E+00
         0.00000E+00
         0.00000E+00
         0.00000E+00
         0.00000E+00
         0.00000E+00
         0.00000E+00
         0.00000E+00
         0.00000E+00
         0.00000E+00
         0.00000E+00
         0.00000E+00
         0.00000E+00
         0.00000E+00
         0.00000E+00
         0.00000E+00
         0.00000E+00
         0.00000E+00
         0.00000E+00
         0.00000E+00
         0.00000E+00
         0.00000E+00
         0.00000E+00
         0.00000E+00
         0.00000E+00
         0.00000E+00
         0.00000E+00
         0.00000E+00
         0.00000E+00
         0.00000E+00
         0.00000E+00
         0.00000E+00
         0.00000E+00
         0.00000E+00
         0.00000E+00
         0.00000E+00
         0.00000E+00
         0.00000E+00
         0.00000E+00
         0.00000E+00
         0.00000E+00
         0.00000E+00
         0.00000E+00
         0.00000E+00
         0.00000E+00
         0.00000E+00
         0.00000E+00
         0.00000E+00
         0.00000E+00
         0.00000E+00
         0.00000E+00
         0.00000E+00
         0.00000E+00
         0.00000E+00
         0.00000E+00
         0.00000E+00
         0.00000E+00
         0.00000E+00
         0.00000E+00
         0.00000E+00
         0.00000E+00
         0.00000E+00
         0.00000E+00
         0.00000E+00
         0.00000E+00
         0.00000E+00
         0.00000E+00
         0.00000E+00
         0.00000E+00
         0.00000E+00
         0.00000E+00
         0.00000E+00
         0.00000E+00
         0.00000E+00
         0.00000E+00
         0.00000E+00
         0.00000E+00
         0.00000E+00
         0.00000E+00
         0.00000E+00
         0.00000E+00
         0.00000E+00
         0.00000E+00
         0.00000E+00
         0.00000E+00
         0.00000E+00
         0.00000E+00
         0.00000E+00
         0.00000E+00
         0.00000E+00
         0.00000E+00
         0.00000E+00
         0.00000E+00
         0.00000E+00
         0.00000E+00
         0.00000E+00
         0.00000E+00
         0.00000E+00
         0.00000E+00
         0.00000E+00
         0.00000E+00
         0.00000E+00
         0.00000E+00
         0.00000E+00
         0.00000E+00
         0.00000E+00
         0.00000E+00
         0.00000E+00
         0.00000E+00
         0.00000E+00
         0.00000E+00
         0.00000E+00
         0.00000E+00
         0.00000E+00
         0.00000E+00
         0.00000E+00
         0.00000E+00
         0.00000E+00
         0.00000E+00
         0.00000E+00
         0.00000E+00
         0.00000E+00
         0.00000E+00
         0.00000E+00
         0.00000E+00
         0.00000E+00
         0.00000E+00
         0.00000E+00
         0.00000E+00
         0.00000E+00
         0.00000E+00
         0.00000E+00
         0.00000E+00
         0.00000E+00
         0.00000E+00
         0.00000E+00
         0.00000E+00
         0.00000E+00
         0.00000E+00
         0.00000E+00
         0.00000E+00
         0.00000E+00
         0.00000E+00
         0.00000E+00
         0.00000E+00
         0.00000E+00
         0.00000E+00
         0.00000E+00
         0.00000E+00
         0.00000E+00
         0.00000E+00
         0.00000E+00
         0.00000E+00
         0.00000E+00
         0.00000E+00
         0.00000E+00
         0.00000E+00
         0.00000E+00
         0.00000E+00
         0.00000E+00
         0.00000E+00
         0.00000E+00
         0.00000E+00
         0.00000E+00
         0.00000E+00
         0.00000E+00
         0.00000E+00
         0.00000E+00
         0.00000E+00
         0.00000E+00
         0.00000E+00
         0.00000E+00
         0.00000E+00
         0.00000E+00
         0.00000E+00
         0.00000E+00
         0.00000E+00
         0.00000E+00
         0.00000E+00
         0.00000E+00
         0.00000E+00
         0.00000E+00
         0.00000E+00
         0.00000E+00
         0.00000E+00
         0.00000E+00
         0.00000E+00
         0.00000E+00
         0.00000E+00
         0.00000E+00
         0.00000E+00
         0.00000E+00
         0.00000E+00
         0.00000E+00
         0.00000E+00
         0.00000E+00
         0.00000E+00
         0.00000E+00
         0.00000E+00
         0.00000E+00
         0.00000E+00
         0.00000E+00
         0.00000E+00
         0.00000E+00
         0.00000E+00
         0.00000E+00
         0.00000E+00
         0.00000E+00
         0.00000E+00
         0.00000E+00
         0.00000E+00
         0.00000E+00
         0.00000E+00
         0.00000E+00
         0.00000E+00
         0.00000E+00
         0.00000E+00
         0.00000E+00
         0.00000E+00
         0.00000E+00
         0.00000E+00
         0.00000E+00
         0.00000E+00
         0.00000E+00
         0.00000E+00
         0.00000E+00
         0.00000E+00
         0.00000E+00
         0.00000E+00
         0.00000E+00
         0.00000E+00
         0.00000E+00
         0.00000E+00
         0.00000E+00
         0.00000E+00
         0.00000E+00
         0.00000E+00
         0.00000E+00
         0.00000E+00
         0.00000E+00
         0.00000E+00
         0.00000E+00
         0.00000E+00
         0.00000E+00
         0.00000E+00
         0.00000E+00
         0.00000E+00
         0.00000E+00
         0.00000E+00
         0.00000E+00
         0.00000E+00
         0.00000E+00
         0.00000E+00
         0.00000E+00
         0.00000E+00
         0.00000E+00
         0.00000E+00
         0.00000E+00
         0.00000E+00
         0.00000E+00
         0.00000E+00
         0.00000E+00
         0.00000E+00
         0.00000E+00
         0.00000E+00
         0.00000E+00
         0.00000E+00
         0.00000E+00
         0.00000E+00
         0.00000E+00
         0.00000E+00
         0.00000E+00
         0.00000E+00
         0.00000E+00
         0.00000E+00
         0.00000E+00
         0.00000E+00
         0.00000E+00
         0.00000E+00
         0.00000E+00
         0.00000E+00
         0.00000E+00
         0.00000E+00
         0.00000E+00
         0.00000E+00
         0.00000E+00
         0.00000E+00
         0.00000E+00
         0.00000E+00
         0.00000E+00
         0.00000E+00
         0.00000E+00
         0.00000E+00
         0.00000E+00
         0.00000E+00
         0.00000E+00
         0.00000E+00
         0.00000E+00
         0.00000E+00
         0.00000E+00
         0.00000E+00
         0.00000E+00
         0.00000E+00
         0.00000E+00
         0.00000E+00
         0.00000E+00
         0.00000E+00
         0.00000E+00
         0.00000E+00
         0.00000E+00
         0.00000E+00
         0.00000E+00
         0.00000E+00
         0.00000E+00
         0.00000E+00
         0.00000E+00
         0.00000E+00
         0.00000E+00
         0.00000E+00
         0.00000E+00
         0.00000E+00
         0.00000E+00
         0.00000E+00
         0.00000E+00
         0.00000E+00
         0.00000E+00
         0.00000E+00
         0.00000E+00
         0.00000E+00
         0.00000E+00
         0.00000E+00
         0.00000E+00
         0.00000E+00
         0.00000E+00
         0.00000E+00
         0.00000E+00
         0.00000E+00
         0.00000E+00
         0.00000E+00
         0.00000E+00
         0.00000E+00
         0.00000E+00
         0.00000E+00
         0.00000E+00
         0.00000E+00
         0.00000E+00
         0.00000E+00
         0.00000E+00
         0.00000E+00
         0.00000E+00
         0.00000E+00
         0.00000E+00
         0.00000E+00
         0.00000E+00
         0.00000E+00
         0.00000E+00
         0.00000E+00
         0.00000E+00
         0.00000E+00
         0.00000E+00
         0.00000E+00
         0.00000E+00
         0.00000E+00
         0.00000E+00
         0.00000E+00
         0.00000E+00
         0.00000E+00
         0.00000E+00
         0.00000E+00
         0.00000E+00
         0.00000E+00
         0.00000E+00
         0.00000E+00
         0.00000E+00
         0.00000E+00
         0.00000E+00
         0.00000E+00
         0.00000E+00
         0.00000E+00
         0.00000E+00
         0.00000E+00
         0.00000E+00
         0.00000E+00
         0.00000E+00
         0.00000E+00
         0.00000E+00
         0.00000E+00
         0.00000E+00
         0.00000E+00
         0.00000E+00
         0.00000E+00
         0.00000E+00
         0.00000E+00
         0.00000E+00
         0.00000E+00
         0.00000E+00
         0.00000E+00
         0.00000E+00
         0.00000E+00
         0.00000E+00
         0.00000E+00
         0.00000E+00
         0.00000E+00
         0.00000E+00
         0.00000E+00
         0.00000E+00
         0.00000E+00
         0.00000E+00
         0.00000E+00
         0.00000E+00
         0.00000E+00
         0.00000E+00
         0.00000E+00
         0.00000E+00
         0.00000E+00
         0.00000E+00
         0.00000E+00
         0.00000E+00
         0.00000E+00
         0.00000E+00
         0.00000E+00
         0.00000E+00
         0.00000E+00
         0.00000E+00
         0.00000E+00
         0.00000E+00
         0.00000E+00
         0.00000E+00
         0.00000E+00
         0.00000E+00
         0.00000E+00
         0.00000E+00
         0.00000E+00
         0.00000E+00
         0.00000E+00
         0.00000E+00
         0.00000E+00
         0.00000E+00
         0.00000E+00
         0.00000E+00
         0.00000E+00
         0.00000E+00
         0.00000E+00
         0.00000E+00
         0.00000E+00
         0.00000E+00
         0.00000E+00
         0.00000E+00
         0.00000E+00
         0.00000E+00
         0.00000E+00
         0.00000E+00
         0.00000E+00
         0.00000E+00
         0.00000E+00
         0.00000E+00
         0.00000E+00
         0.00000E+00
         0.00000E+00
         0.00000E+00
         0.00000E+00
         0.00000E+00
         0.00000E+00
         0.00000E+00
         0.00000E+00
         0.00000E+00
         0.00000E+00
         0.00000E+00
         0.00000E+00
         0.00000E+00
         0.00000E+00
         0.00000E+00
         0.00000E+00
         0.00000E+00
         0.00000E+00
         0.00000E+00
         0.00000E+00
         0.00000E+00
         0.00000E+00
         0.00000E+00
         0.00000E+00
         0.00000E+00
         0.00000E+00
         0.00000E+00
         0.00000E+00
         0.00000E+00
         0.00000E+00
         0.00000E+00
         0.00000E+00
         0.00000E+00
         0.00000E+00
         0.00000E+00
         0.00000E+00
         0.00000E+00
         0.00000E+00
         0.00000E+00
         0.00000E+00
         0.00000E+00
         0.00000E+00
         0.00000E+00
         0.00000E+00
         0.00000E+00
         0.00000E+00
         0.00000E+00
         0.00000E+00
         0.00000E+00
         0.00000E+00
         0.00000E+00
         0.00000E+00
         0.00000E+00
         0.00000E+00
         0.00000E+00
         0.00000E+00
         0.00000E+00
         0.00000E+00
         0.00000E+00
         0.00000E+00
         0.00000E+00
         0.00000E+00
         0.00000E+00
         0.00000E+00
         0.00000E+00
         0.00000E+00
         0.00000E+00
         0.00000E+00
         0.00000E+00
         0.00000E+00
         0.00000E+00
         0.00000E+00
         0.00000E+00
         0.00000E+00
         0.00000E+00
         0.00000E+00
         0.00000E+00
         0.00000E+00
         0.00000E+00
         0.00000E+00
         0.00000E+00
         0.00000E+00
         0.00000E+00
         0.00000E+00
         0.00000E+00
         0.00000E+00
         0.00000E+00
         0.00000E+00
         0.00000E+00
         0.00000E+00
         0.00000E+00
         0.00000E+00
         0.00000E+00
         0.00000E+00
         0.00000E+00
         0.00000E+00
         0.00000E+00
         0.00000E+00
         0.00000E+00
         0.00000E+00
         0.00000E+00
         0.00000E+00
         0.00000E+00
         0.00000E+00
         0.00000E+00
         0.00000E+00
         0.00000E+00
         0.00000E+00
         0.00000E+00
         0.00000E+00
         0.00000E+00
         0.00000E+00
         0.00000E+00
         0.00000E+00
         0.00000E+00
         0.00000E+00
         0.00000E+00
         0.00000E+00
         0.00000E+00
         0.00000E+00
         0.00000E+00
         0.00000E+00
         0.00000E+00
         0.00000E+00
         0.00000E+00
         0.00000E+00
         0.00000E+00
         0.00000E+00
         0.00000E+00
         0.00000E+00
         0.00000E+00
         0.00000E+00
         0.00000E+00
         0.00000E+00
         0.00000E+00
         0.00000E+00
         0.00000E+00
         0.00000E+00
         0.00000E+00
         0.00000E+00
         0.00000E+00
         0.00000E+00
         0.00000E+00
         0.00000E+00
         0.00000E+00
         0.00000E+00
         0.00000E+00
         0.00000E+00
         0.00000E+00
         0.00000E+00
         0.00000E+00
         0.00000E+00
         0.00000E+00
         0.00000E+00
         0.00000E+00
         0.00000E+00
         0.00000E+00
         0.00000E+00
         0.00000E+00
         0.00000E+00
         0.00000E+00
         0.00000E+00
         0.00000E+00
         0.00000E+00
         0.00000E+00
         0.00000E+00
         0.00000E+00
         0.00000E+00
         0.00000E+00
         0.00000E+00
         0.00000E+00
         0.00000E+00
         0.00000E+00
         0.00000E+00
         0.00000E+00
         0.00000E+00
         0.00000E+00
         0.00000E+00
         0.00000E+00
         0.00000E+00
         0.00000E+00
         0.00000E+00
         0.00000E+00
         0.00000E+00
         0.00000E+00
         0.00000E+00
         0.00000E+00
         0.00000E+00
         0.00000E+00
         0.00000E+00
         0.00000E+00
         0.00000E+00
         0.00000E+00
         0.00000E+00
         0.00000E+00
         0.00000E+00
         0.00000E+00
         0.00000E+00
         0.00000E+00
         0.00000E+00
         0.00000E+00
         0.00000E+00
         0.00000E+00
         0.00000E+00
         0.00000E+00
         0.00000E+00
         0.00000E+00
         0.00000E+00
         0.00000E+00
         0.00000E+00
         0.00000E+00
         0.00000E+00
         0.00000E+00
         0.00000E+00
         0.00000E+00
         0.00000E+00
         0.00000E+00
         0.00000E+00
         0.00000E+00
         0.00000E+00
         0.00000E+00
         0.00000E+00
         0.00000E+00
         0.00000E+00
         0.00000E+00
         0.00000E+00
         0.00000E+00
         0.00000E+00
         0.00000E+00
         0.00000E+00
         0.00000E+00
         0.00000E+00
         0.00000E+00
         0.00000E+00
         0.00000E+00
         0.00000E+00
         0.00000E+00
         0.00000E+00
         0.00000E+00
         0.00000E+00
         0.00000E+00
         0.00000E+00
         0.00000E+00
         0.00000E+00
         0.00000E+00
         0.00000E+00
         0.00000E+00
         0.00000E+00
         0.00000E+00
         0.00000E+00
         0.00000E+00
         0.00000E+00
         0.00000E+00
         0.00000E+00
         0.00000E+00
         0.00000E+00
         0.00000E+00
         0.00000E+00
         0.00000E+00
         0.00000E+00
         0.00000E+00
         0.00000E+00
         0.00000E+00
         0.00000E+00
         0.00000E+00
         0.00000E+00
         0.00000E+00
         0.00000E+00
         0.00000E+00
         0.00000E+00
         0.00000E+00
         0.00000E+00
         0.00000E+00
         0.00000E+00
         0.00000E+00
         0.00000E+00
         0.00000E+00
         0.00000E+00
         0.00000E+00
         0.00000E+00
         0.00000E+00
         0.00000E+00
         0.00000E+00
         0.00000E+00
         0.00000E+00
         0.00000E+00
         0.00000E+00
         0.00000E+00
         0.00000E+00
         0.00000E+00
         0.00000E+00
         0.00000E+00
         0.00000E+00
         0.00000E+00
         0.00000E+00
         0.00000E+00
         0.00000E+00
         0.00000E+00
         0.00000E+00
         0.00000E+00
         0.00000E+00
         0.00000E+00
         0.00000E+00
         0.00000E+00
         0.00000E+00
         0.00000E+00
         0.00000E+00
         0.00000E+00
         0.00000E+00
         0.00000E+00
         0.00000E+00
         0.00000E+00
         0.00000E+00
         0.00000E+00
         0.00000E+00
         0.00000E+00
         0.00000E+00
         0.00000E+00
         0.00000E+00
         0.00000E+00
         0.00000E+00
         0.00000E+00
         0.00000E+00
         0.00000E+00
         0.00000E+00
         0.00000E+00
         0.00000E+00
         0.00000E+00
         0.00000E+00
         0.00000E+00
         0.00000E+00
         0.00000E+00
         0.00000E+00
         0.00000E+00
         0.00000E+00
         0.00000E+00
         0.00000E+00
         0.00000E+00
         0.00000E+00
         0.00000E+00
         0.00000E+00
         0.00000E+00
         0.00000E+00
         0.00000E+00
         0.00000E+00
         0.00000E+00
         0.00000E+00
         0.00000E+00
         0.00000E+00
         0.00000E+00
         0.00000E+00
         0.00000E+00
         0.00000E+00
         0.00000E+00
         0.00000E+00
         0.00000E+00
         0.00000E+00
         0.00000E+00
         0.00000E+00
         0.00000E+00
         0.00000E+00
         0.00000E+00
         0.00000E+00
         0.00000E+00
         0.00000E+00
         0.00000E+00
         0.00000E+00
         0.00000E+00
         0.00000E+00
         0.00000E+00
         0.00000E+00
         0.00000E+00
         0.00000E+00
         0.00000E+00
         0.00000E+00
         0.00000E+00
         0.00000E+00
         0.00000E+00
         0.00000E+00
         0.00000E+00
         0.00000E+00
         0.00000E+00
         0.00000E+00
         0.00000E+00
         0.00000E+00
         0.00000E+00
         0.00000E+00
         0.00000E+00
         0.00000E+00
         0.00000E+00
         0.00000E+00
         0.00000E+00
         0.00000E+00
         0.00000E+00
         0.00000E+00
         0.00000E+00
         0.00000E+00
         0.00000E+00
         0.00000E+00
         0.00000E+00
         0.00000E+00
         0.00000E+00
         0.00000E+00
         0.00000E+00
         0.00000E+00
         0.00000E+00
         0.00000E+00
         0.00000E+00
         0.00000E+00
         0.00000E+00
         0.00000E+00
         0.00000E+00
         0.00000E+00
         0.00000E+00
         0.00000E+00
         0.00000E+00
         0.00000E+00
         0.00000E+00
         0.00000E+00
         0.00000E+00
         0.00000E+00
         0.00000E+00
         0.00000E+00
         0.00000E+00
         0.00000E+00
         0.00000E+00
         0.00000E+00
         0.00000E+00
         0.00000E+00
         0.00000E+00
         0.00000E+00
         0.00000E+00
         0.00000E+00
         0.00000E+00
         0.00000E+00
         0.00000E+00
         0.00000E+00
         0.00000E+00
         0.00000E+00
         0.00000E+00
         0.00000E+00
         0.00000E+00
         0.00000E+00
         0.00000E+00
         0.00000E+00
         0.00000E+00
         0.00000E+00
         0.00000E+00
         0.00000E+00
         0.00000E+00
         0.00000E+00
         0.00000E+00
         0.00000E+00
         0.00000E+00
         0.00000E+00
         0.00000E+00
         0.00000E+00
         0.00000E+00
         0.00000E+00
         0.00000E+00
         0.00000E+00
         0.00000E+00
         0.00000E+00
         0.00000E+00
         0.00000E+00
         0.00000E+00
         0.00000E+00
         0.00000E+00
         0.00000E+00
         0.00000E+00
         0.00000E+00
         0.00000E+00
         0.00000E+00
         0.00000E+00
         0.00000E+00
         0.00000E+00
         0.00000E+00
         0.00000E+00
         0.00000E+00
         0.00000E+00
         0.00000E+00
         0.00000E+00
         0.00000E+00
         0.00000E+00
         0.00000E+00
         0.00000E+00
         0.00000E+00
         0.00000E+00
         0.00000E+00
         0.00000E+00
         0.00000E+00
         0.00000E+00
         0.00000E+00
         0.00000E+00
         0.00000E+00
         0.00000E+00
         0.00000E+00
         0.00000E+00
         0.00000E+00
         0.00000E+00
         0.00000E+00
         0.00000E+00
         0.00000E+00
         0.00000E+00
         0.00000E+00
         0.00000E+00
         0.00000E+00
         0.00000E+00
         0.00000E+00
         0.00000E+00
         0.00000E+00
         0.00000E+00
         0.00000E+00
         0.00000E+00
         0.00000E+00
         0.00000E+00
         0.00000E+00
         0.00000E+00
         0.00000E+00
         0.00000E+00
         0.00000E+00
         0.00000E+00
         0.00000E+00
         0.00000E+00
         0.00000E+00
         0.00000E+00
         0.00000E+00
         0.00000E+00
         0.00000E+00
         0.00000E+00
         0.00000E+00
         0.00000E+00
         0.00000E+00
         0.00000E+00
         0.00000E+00
         0.00000E+00
         0.00000E+00
         0.00000E+00
         0.00000E+00
         0.00000E+00
         0.00000E+00
         0.00000E+00
         0.00000E+00
         0.00000E+00
         0.00000E+00
         0.00000E+00
         0.00000E+00
         0.00000E+00
         0.00000E+00
         0.00000E+00
         0.00000E+00
         0.00000E+00
         0.00000E+00
         0.00000E+00
         0.00000E+00
         0.00000E+00
         0.00000E+00
         0.00000E+00
         0.00000E+00
         0.00000E+00
         0.00000E+00
         0.00000E+00
         0.00000E+00
         0.00000E+00
         0.00000E+00
         0.00000E+00
         0.00000E+00
         0.00000E+00
         0.00000E+00
         0.00000E+00
         0.00000E+00
         0.00000E+00
         0.00000E+00
         0.00000E+00
         0.00000E+00
         0.00000E+00
         0.00000E+00
         0.00000E+00
         0.00000E+00
         0.00000E+00
         0.00000E+00
         0.00000E+00
         0.00000E+00
         0.00000E+00
         0.00000E+00
         0.00000E+00
         0.00000E+00
         0.00000E+00
         0.00000E+00
         0.00000E+00
         0.00000E+00
         0.00000E+00
         0.00000E+00
         0.00000E+00
         0.00000E+00
         0.00000E+00
         0.00000E+00
         0.00000E+00
         0.00000E+00
         0.00000E+00
         0.00000E+00
         0.00000E+00
         0.00000E+00
         0.00000E+00
         0.00000E+00
         0.00000E+00
         0.00000E+00
         0.00000E+00
         0.00000E+00
         0.00000E+00
         0.00000E+00
         0.00000E+00
         0.00000E+00
         0.00000E+00
         0.00000E+00
         0.00000E+00
         0.00000E+00
         0.00000E+00
         0.00000E+00
         0.00000E+00
         0.00000E+00
         0.00000E+00
         0.00000E+00
         0.00000E+00
         0.00000E+00
         0.00000E+00
         0.00000E+00
         0.00000E+00
         0.00000E+00
         0.00000E+00
         0.00000E+00
         0.00000E+00
         0.00000E+00
         0.00000E+00
         0.00000E+00
         0.00000E+00
         0.00000E+00
         0.00000E+00
         0.00000E+00
         0.00000E+00
         0.00000E+00
         0.00000E+00
         0.00000E+00
         0.00000E+00
         0.00000E+00
         0.00000E+00
         0.00000E+00
         0.00000E+00
         0.00000E+00
         0.00000E+00
         0.00000E+00
         0.00000E+00
         0.00000E+00
         0.00000E+00
         0.00000E+00
         0.00000E+00
         0.00000E+00
         0.00000E+00
         0.00000E+00
         0.00000E+00
         0.00000E+00
         0.00000E+00
         0.00000E+00
         0.00000E+00
         0.00000E+00
         0.00000E+00
         0.00000E+00
         0.00000E+00
         0.00000E+00
         0.00000E+00
         0.00000E+00
         0.00000E+00
         0.00000E+00
         0.00000E+00
         0.00000E+00
         0.00000E+00
         0.00000E+00
         0.00000E+00
         0.00000E+00
         0.00000E+00
         0.00000E+00
         0.00000E+00
         0.00000E+00
         0.00000E+00
         0.00000E+00
         0.00000E+00
         0.00000E+00
         0.00000E+00
         0.00000E+00
         0.00000E+00
         0.00000E+00
         0.00000E+00
         0.00000E+00
         0.00000E+00
         0.00000E+00
         0.00000E+00
         0.00000E+00
         0.00000E+00
         0.00000E+00
         0.00000E+00
         0.00000E+00
         0.00000E+00
         0.00000E+00
         0.00000E+00
         0.00000E+00
         0.00000E+00
         0.00000E+00
         0.00000E+00
         0.00000E+00
         0.00000E+00
         0.00000E+00
         0.00000E+00
         0.00000E+00
         0.00000E+00
         0.00000E+00
         0.00000E+00
         0.00000E+00
         0.00000E+00
         0.00000E+00
         0.00000E+00
         0.00000E+00
         0.00000E+00
         0.00000E+00
         0.00000E+00
         0.00000E+00
         0.00000E+00
         0.00000E+00
         0.00000E+00
         0.00000E+00
         0.00000E+00
         0.00000E+00
         0.00000E+00
         0.00000E+00
         0.00000E+00
         0.00000E+00
         0.00000E+00
         0.00000E+00
         0.00000E+00
         0.00000E+00
         0.00000E+00
         0.00000E+00
         0.00000E+00
         0.00000E+00
         0.00000E+00
         0.00000E+00
         0.00000E+00
         0.00000E+00
         0.00000E+00
         0.00000E+00
         0.00000E+00
         0.00000E+00
         0.00000E+00
         0.00000E+00
         0.00000E+00
         0.00000E+00
         0.00000E+00
         0.00000E+00
         0.00000E+00
         0.00000E+00
         0.00000E+00
         0.00000E+00
         0.00000E+00
         0.00000E+00
         0.00000E+00
         0.00000E+00
         0.00000E+00
         0.00000E+00
         0.00000E+00
         0.00000E+00
         0.00000E+00
         0.00000E+00
         0.00000E+00
         0.00000E+00
         0.00000E+00
         0.00000E+00
         0.00000E+00
         0.00000E+00
         0.00000E+00
         0.00000E+00
         0.00000E+00
         0.00000E+00
         0.00000E+00
         0.00000E+00
         0.00000E+00
         0.00000E+00
         0.00000E+00
         0.00000E+00
         0.00000E+00
         0.00000E+00
         0.00000E+00
         0.00000E+00
         0.00000E+00
         0.00000E+00
         0.00000E+00
         0.00000E+00
         0.00000E+00
         0.00000E+00
         0.00000E+00
         0.00000E+00
         0.00000E+00
         0.00000E+00
         0.00000E+00
         0.00000E+00
         0.00000E+00
         0.00000E+00
         0.00000E+00
         0.00000E+00
         0.00000E+00
         0.00000E+00
         0.00000E+00
         0.00000E+00
         0.00000E+00
         0.00000E+00
         0.00000E+00
         0.00000E+00
         0.00000E+00
         0.00000E+00
         0.00000E+00
         0.00000E+00
         0.00000E+00
         0.00000E+00
         0.00000E+00
         0.00000E+00
         0.00000E+00
         0.00000E+00
         0.00000E+00
         0.00000E+00
         0.00000E+00
         0.00000E+00
         0.00000E+00
         0.00000E+00
         0.00000E+00
         0.00000E+00
         0.00000E+00
         0.00000E+00
         0.00000E+00
         0.00000E+00
         0.00000E+00
         0.00000E+00
         0.00000E+00
         0.00000E+00
         0.00000E+00
         0.00000E+00
         0.00000E+00
         0.00000E+00
         0.00000E+00
         0.00000E+00
         0.00000E+00
         0.00000E+00
         0.00000E+00
         0.00000E+00
         0.00000E+00
         0.00000E+00
         0.00000E+00
         0.00000E+00
         0.00000E+00
         0.00000E+00
         0.00000E+00
         0.00000E+00
         0.00000E+00
         0.00000E+00
         0.00000E+00
         0.00000E+00
         0.00000E+00
         0.00000E+00
         0.00000E+00
         0.00000E+00
         0.00000E+00
         0.00000E+00
         0.00000E+00
         0.00000E+00
         0.00000E+00
         0.00000E+00
         0.00000E+00
         0.00000E+00
         0.00000E+00
         0.00000E+00
         0.00000E+00
         0.00000E+00
         0.00000E+00
         0.00000E+00
         0.00000E+00
         0.00000E+00
         0.00000E+00
         0.00000E+00
         0.00000E+00
         0.00000E+00
         0.00000E+00
         0.00000E+00
         0.00000E+00
         0.00000E+00
         0.00000E+00
         0.00000E+00
         0.00000E+00
         0.00000E+00
         0.00000E+00
         0.00000E+00
         0.00000E+00
         0.00000E+00
         0.00000E+00
         0.00000E+00
         0.00000E+00
         0.00000E+00
         0.00000E+00
         0.00000E+00
         0.00000E+00
         0.00000E+00
         0.00000E+00
         0.00000E+00
         0.00000E+00
         0.00000E+00
         0.00000E+00
         0.00000E+00
         0.00000E+00
         0.00000E+00
         0.00000E+00
         0.00000E+00
         0.00000E+00
         0.00000E+00
         0.00000E+00
         0.00000E+00
         0.00000E+00
         0.00000E+00
         0.00000E+00
         0.00000E+00
         0.00000E+00
         0.00000E+00
         0.00000E+00
         0.00000E+00
         0.00000E+00
         0.00000E+00
         0.00000E+00
         0.00000E+00
         0.00000E+00
         0.00000E+00
         0.00000E+00
         0.00000E+00
         0.00000E+00
         0.00000E+00
         0.00000E+00
         0.00000E+00
         0.00000E+00
         0.00000E+00
         0.00000E+00
         0.00000E+00
         0.00000E+00
         0.00000E+00
         0.00000E+00
         0.00000E+00
         0.00000E+00
         0.00000E+00
         0.00000E+00
         0.00000E+00
         0.00000E+00
         0.00000E+00
         0.00000E+00
         0.00000E+00
         0.00000E+00
         0.00000E+00
         0.00000E+00
         0.00000E+00
         0.00000E+00
         0.00000E+00
         0.00000E+00
         0.00000E+00
         0.00000E+00
         0.00000E+00
         0.00000E+00
         0.00000E+00
         0.00000E+00
         0.00000E+00
         0.00000E+00
         0.00000E+00
         0.00000E+00
         0.00000E+00
         0.00000E+00
         0.00000E+00
         0.00000E+00
         0.00000E+00
         0.00000E+00
         0.00000E+00
         0.00000E+00
         0.00000E+00
         0.00000E+00
         0.00000E+00
         0.00000E+00
         0.00000E+00
         0.00000E+00
         0.00000E+00
         0.00000E+00
         0.00000E+00
         0.00000E+00
         0.00000E+00
         0.00000E+00
         0.00000E+00
         0.00000E+00
         0.00000E+00
         0.00000E+00
         0.00000E+00
         0.00000E+00
         0.00000E+00
         0.00000E+00
         0.00000E+00
         0.00000E+00
         0.00000E+00
         0.00000E+00
         0.00000E+00
         0.00000E+00
         0.00000E+00
         0.00000E+00
         0.00000E+00
         0.00000E+00
         0.00000E+00
         0.00000E+00
         0.00000E+00
         0.00000E+00
         0.00000E+00
         0.00000E+00
         0.00000E+00
         0.00000E+00
         0.00000E+00
         0.00000E+00
         0.00000E+00
         0.00000E+00
         0.00000E+00
         0.00000E+00
         0.00000E+00
         0.00000E+00
         0.00000E+00
         0.00000E+00
         0.00000E+00
         0.00000E+00
         0.00000E+00
         0.00000E+00
         0.00000E+00
         0.00000E+00
         0.00000E+00
         0.00000E+00
         0.00000E+00
         0.00000E+00
         0.00000E+00
         0.00000E+00
         0.00000E+00
         0.00000E+00
         0.00000E+00
         0.00000E+00
         0.00000E+00
         0.00000E+00
         0.00000E+00
         0.00000E+00
         0.00000E+00
         0.00000E+00
         0.00000E+00
         0.00000E+00
         0.00000E+00
         0.00000E+00
         0.00000E+00
         0.00000E+00
         0.00000E+00
         0.00000E+00
         0.00000E+00
         0.00000E+00
         0.00000E+00
         0.00000E+00
         0.00000E+00
         0.00000E+00
         0.00000E+00
         0.00000E+00
         0.00000E+00
         0.00000E+00
         0.00000E+00
         0.00000E+00
         0.00000E+00
         0.00000E+00
         0.00000E+00
         0.00000E+00
         0.00000E+00
         0.00000E+00
         0.00000E+00
         0.00000E+00
         0.00000E+00
         0.00000E+00
         0.00000E+00
         0.00000E+00
         0.00000E+00
         0.00000E+00
         0.00000E+00
         0.00000E+00
         0.00000E+00
         0.00000E+00
         0.00000E+00
         0.00000E+00
         0.00000E+00
         0.00000E+00
         0.00000E+00
         0.00000E+00
         0.00000E+00
         0.00000E+00
         0.00000E+00
         0.00000E+00
         0.00000E+00
         0.00000E+00
         0.00000E+00
         0.00000E+00
         0.00000E+00
         0.00000E+00
         0.00000E+00
         0.00000E+00
         0.00000E+00
         0.00000E+00
         0.00000E+00
         0.00000E+00
         0.00000E+00
         0.00000E+00
         0.00000E+00
         0.00000E+00
         0.00000E+00
         0.00000E+00
         0.00000E+00
         0.00000E+00
         0.00000E+00
         0.00000E+00
         0.00000E+00
         0.00000E+00
         0.00000E+00
         0.00000E+00
         0.00000E+00
         0.00000E+00
         0.00000E+00
         0.00000E+00
         0.00000E+00
         0.00000E+00
         0.00000E+00
         0.00000E+00
         0.00000E+00
         0.00000E+00
         0.00000E+00
         0.00000E+00
         0.00000E+00
         0.00000E+00
         0.00000E+00
         0.00000E+00
         0.00000E+00
         0.00000E+00
         0.00000E+00
         0.00000E+00
         0.00000E+00
         0.00000E+00
         0.00000E+00
         0.00000E+00
         0.00000E+00
         0.00000E+00
         0.00000E+00
         0.00000E+00
         0.00000E+00
         0.00000E+00
         0.00000E+00
         0.00000E+00
         0.00000E+00
         0.00000E+00
         0.00000E+00
         0.00000E+00
         0.00000E+00
         0.00000E+00
         0.00000E+00
         0.00000E+00
         0.00000E+00
         0.00000E+00
         0.00000E+00
         0.00000E+00
         0.00000E+00
         0.00000E+00
         0.00000E+00
         0.00000E+00
         0.00000E+00
         0.00000E+00
         0.00000E+00
         0.00000E+00
         0.00000E+00
         0.00000E+00
         0.00000E+00
         0.00000E+00
         0.00000E+00
         0.00000E+00
         0.00000E+00
         0.00000E+00
         0.00000E+00
         0.00000E+00
         0.00000E+00
         0.00000E+00
         0.00000E+00
         0.00000E+00
         0.00000E+00
         0.00000E+00
         0.00000E+00
         0.00000E+00
         0.00000E+00
         0.00000E+00
         0.00000E+00
         0.00000E+00
         0.00000E+00
         0.00000E+00
         0.00000E+00
         0.00000E+00
         0.00000E+00
         0.00000E+00
         0.00000E+00
         0.00000E+00
         0.00000E+00
         0.00000E+00
         0.00000E+00
         0.00000E+00
         0.00000E+00
         0.00000E+00
         0.00000E+00
         0.00000E+00
         0.00000E+00
         0.00000E+00
         0.00000E+00
         0.00000E+00
         0.00000E+00
         0.00000E+00
         0.00000E+00
         0.00000E+00
         0.00000E+00
         0.00000E+00
         0.00000E+00
         0.00000E+00
         0.00000E+00
         0.00000E+00
         0.00000E+00
         0.00000E+00
         0.00000E+00
         0.00000E+00
         0.00000E+00
         0.00000E+00
         0.00000E+00
         0.00000E+00
         0.00000E+00
         0.00000E+00
         0.00000E+00
         0.00000E+00
         0.00000E+00
         0.00000E+00
         0.00000E+00
         0.00000E+00
         0.00000E+00
         0.00000E+00
         0.00000E+00
         0.00000E+00
         0.00000E+00
         0.00000E+00
         0.00000E+00
         0.00000E+00
         0.00000E+00
         0.00000E+00
         0.00000E+00
         0.00000E+00
         0.00000E+00
         0.00000E+00
         0.00000E+00
         0.00000E+00
         0.00000E+00
         0.00000E+00
         0.00000E+00
         0.00000E+00
         0.00000E+00
         0.00000E+00
         0.00000E+00
         0.00000E+00
         0.00000E+00
         0.00000E+00
         0.00000E+00
         0.00000E+00
         0.00000E+00
         0.00000E+00
         0.00000E+00
         0.00000E+00
         0.00000E+00
         0.00000E+00
         0.00000E+00
         0.00000E+00
         0.00000E+00
         0.00000E+00
         0.00000E+00
         0.00000E+00
         0.00000E+00
         0.00000E+00
         0.00000E+00
         0.00000E+00
         0.00000E+00
         0.00000E+00
         0.00000E+00
         0.00000E+00
         0.00000E+00
         0.00000E+00
         0.00000E+00
         0.00000E+00
         0.00000E+00
         0.00000E+00
         0.00000E+00
         0.00000E+00
         0.00000E+00
         0.00000E+00
  
SCALARS                         fint_z  double 1
LOOKUP_TABLE default
         0.00000E+00
         0.00000E+00
         0.00000E+00
         0.00000E+00
         0.00000E+00
         0.00000E+00
         0.00000E+00
         0.00000E+00
         0.00000E+00
         0.00000E+00
         0.00000E+00
         0.00000E+00
         0.00000E+00
         0.00000E+00
         0.00000E+00
         0.00000E+00
         0.00000E+00
         0.00000E+00
         0.00000E+00
         0.00000E+00
         0.00000E+00
         0.00000E+00
         0.00000E+00
         0.00000E+00
         0.00000E+00
         0.00000E+00
         0.00000E+00
         0.00000E+00
         0.00000E+00
         0.00000E+00
         0.00000E+00
         0.00000E+00
         0.00000E+00
         0.00000E+00
         0.00000E+00
         0.00000E+00
         0.00000E+00
         0.00000E+00
         0.00000E+00
         0.00000E+00
         0.00000E+00
         0.00000E+00
         0.00000E+00
         0.00000E+00
         0.00000E+00
         0.00000E+00
         0.00000E+00
         0.00000E+00
         0.00000E+00
         0.00000E+00
         0.00000E+00
         0.00000E+00
         0.00000E+00
         0.00000E+00
         0.00000E+00
         0.00000E+00
         0.00000E+00
         0.00000E+00
         0.00000E+00
         0.00000E+00
         0.00000E+00
         0.00000E+00
         0.00000E+00
         0.00000E+00
         0.00000E+00
         0.00000E+00
         0.00000E+00
         0.00000E+00
         0.00000E+00
         0.00000E+00
         0.00000E+00
         0.00000E+00
         0.00000E+00
         0.00000E+00
         0.00000E+00
         0.00000E+00
         0.00000E+00
         0.00000E+00
         0.00000E+00
         0.00000E+00
         0.00000E+00
         0.00000E+00
         0.00000E+00
         0.00000E+00
         0.00000E+00
         0.00000E+00
         0.00000E+00
         0.00000E+00
         0.00000E+00
         0.00000E+00
         0.00000E+00
         0.00000E+00
         0.00000E+00
         0.00000E+00
         0.00000E+00
         0.00000E+00
         0.00000E+00
         0.00000E+00
         0.00000E+00
         0.00000E+00
         0.00000E+00
         0.00000E+00
         0.00000E+00
         0.00000E+00
         0.00000E+00
         0.00000E+00
         0.00000E+00
         0.00000E+00
         0.00000E+00
         0.00000E+00
         0.00000E+00
         0.00000E+00
         0.00000E+00
         0.00000E+00
         0.00000E+00
         0.00000E+00
         0.00000E+00
         0.00000E+00
         0.00000E+00
         0.00000E+00
         0.00000E+00
         0.00000E+00
         0.00000E+00
         0.00000E+00
         0.00000E+00
         0.00000E+00
         0.00000E+00
         0.00000E+00
         0.00000E+00
         0.00000E+00
         0.00000E+00
         0.00000E+00
         0.00000E+00
         0.00000E+00
         0.00000E+00
         0.00000E+00
         0.00000E+00
         0.00000E+00
         0.00000E+00
         0.00000E+00
         0.00000E+00
         0.00000E+00
         0.00000E+00
         0.00000E+00
         0.00000E+00
         0.00000E+00
         0.00000E+00
         0.00000E+00
         0.00000E+00
         0.00000E+00
         0.00000E+00
         0.00000E+00
         0.00000E+00
         0.00000E+00
         0.00000E+00
         0.00000E+00
         0.00000E+00
         0.00000E+00
         0.00000E+00
         0.00000E+00
         0.00000E+00
         0.00000E+00
         0.00000E+00
         0.00000E+00
         0.00000E+00
         0.00000E+00
         0.00000E+00
         0.00000E+00
         0.00000E+00
         0.00000E+00
         0.00000E+00
         0.00000E+00
         0.00000E+00
         0.00000E+00
         0.00000E+00
         0.00000E+00
         0.00000E+00
         0.00000E+00
         0.00000E+00
         0.00000E+00
         0.00000E+00
         0.00000E+00
         0.00000E+00
         0.00000E+00
         0.00000E+00
         0.00000E+00
         0.00000E+00
         0.00000E+00
         0.00000E+00
         0.00000E+00
         0.00000E+00
         0.00000E+00
         0.00000E+00
         0.00000E+00
         0.00000E+00
         0.00000E+00
         0.00000E+00
         0.00000E+00
         0.00000E+00
         0.00000E+00
         0.00000E+00
         0.00000E+00
         0.00000E+00
         0.00000E+00
         0.00000E+00
         0.00000E+00
         0.00000E+00
         0.00000E+00
         0.00000E+00
         0.00000E+00
         0.00000E+00
         0.00000E+00
         0.00000E+00
         0.00000E+00
         0.00000E+00
         0.00000E+00
         0.00000E+00
         0.00000E+00
         0.00000E+00
         0.00000E+00
         0.00000E+00
         0.00000E+00
         0.00000E+00
         0.00000E+00
         0.00000E+00
         0.00000E+00
         0.00000E+00
         0.00000E+00
         0.00000E+00
         0.00000E+00
         0.00000E+00
         0.00000E+00
         0.00000E+00
         0.00000E+00
         0.00000E+00
         0.00000E+00
         0.00000E+00
         0.00000E+00
         0.00000E+00
         0.00000E+00
         0.00000E+00
         0.00000E+00
         0.00000E+00
         0.00000E+00
         0.00000E+00
         0.00000E+00
         0.00000E+00
         0.00000E+00
         0.00000E+00
         0.00000E+00
         0.00000E+00
         0.00000E+00
         0.00000E+00
         0.00000E+00
         0.00000E+00
         0.00000E+00
         0.00000E+00
         0.00000E+00
         0.00000E+00
         0.00000E+00
         0.00000E+00
         0.00000E+00
         0.00000E+00
         0.00000E+00
         0.00000E+00
         0.00000E+00
         0.00000E+00
         0.00000E+00
         0.00000E+00
         0.00000E+00
         0.00000E+00
         0.00000E+00
         0.00000E+00
         0.00000E+00
         0.00000E+00
         0.00000E+00
         0.00000E+00
         0.00000E+00
         0.00000E+00
         0.00000E+00
         0.00000E+00
         0.00000E+00
         0.00000E+00
         0.00000E+00
         0.00000E+00
         0.00000E+00
         0.00000E+00
         0.00000E+00
         0.00000E+00
         0.00000E+00
         0.00000E+00
         0.00000E+00
         0.00000E+00
         0.00000E+00
         0.00000E+00
         0.00000E+00
         0.00000E+00
         0.00000E+00
         0.00000E+00
         0.00000E+00
         0.00000E+00
         0.00000E+00
         0.00000E+00
         0.00000E+00
         0.00000E+00
         0.00000E+00
         0.00000E+00
         0.00000E+00
         0.00000E+00
         0.00000E+00
         0.00000E+00
         0.00000E+00
         0.00000E+00
         0.00000E+00
         0.00000E+00
         0.00000E+00
         0.00000E+00
         0.00000E+00
         0.00000E+00
         0.00000E+00
         0.00000E+00
         0.00000E+00
         0.00000E+00
         0.00000E+00
         0.00000E+00
         0.00000E+00
         0.00000E+00
         0.00000E+00
         0.00000E+00
         0.00000E+00
         0.00000E+00
         0.00000E+00
         0.00000E+00
         0.00000E+00
         0.00000E+00
         0.00000E+00
         0.00000E+00
         0.00000E+00
         0.00000E+00
         0.00000E+00
         0.00000E+00
         0.00000E+00
         0.00000E+00
         0.00000E+00
         0.00000E+00
         0.00000E+00
         0.00000E+00
         0.00000E+00
         0.00000E+00
         0.00000E+00
         0.00000E+00
         0.00000E+00
         0.00000E+00
         0.00000E+00
         0.00000E+00
         0.00000E+00
         0.00000E+00
         0.00000E+00
         0.00000E+00
         0.00000E+00
         0.00000E+00
         0.00000E+00
         0.00000E+00
         0.00000E+00
         0.00000E+00
         0.00000E+00
         0.00000E+00
         0.00000E+00
         0.00000E+00
         0.00000E+00
         0.00000E+00
         0.00000E+00
         0.00000E+00
         0.00000E+00
         0.00000E+00
         0.00000E+00
         0.00000E+00
         0.00000E+00
         0.00000E+00
         0.00000E+00
         0.00000E+00
         0.00000E+00
         0.00000E+00
         0.00000E+00
         0.00000E+00
         0.00000E+00
         0.00000E+00
         0.00000E+00
         0.00000E+00
         0.00000E+00
         0.00000E+00
         0.00000E+00
         0.00000E+00
         0.00000E+00
         0.00000E+00
         0.00000E+00
         0.00000E+00
         0.00000E+00
         0.00000E+00
         0.00000E+00
         0.00000E+00
         0.00000E+00
         0.00000E+00
         0.00000E+00
         0.00000E+00
         0.00000E+00
         0.00000E+00
         0.00000E+00
         0.00000E+00
         0.00000E+00
         0.00000E+00
         0.00000E+00
         0.00000E+00
         0.00000E+00
         0.00000E+00
         0.00000E+00
         0.00000E+00
         0.00000E+00
         0.00000E+00
         0.00000E+00
         0.00000E+00
         0.00000E+00
         0.00000E+00
         0.00000E+00
         0.00000E+00
         0.00000E+00
         0.00000E+00
         0.00000E+00
         0.00000E+00
         0.00000E+00
         0.00000E+00
         0.00000E+00
         0.00000E+00
         0.00000E+00
         0.00000E+00
         0.00000E+00
         0.00000E+00
         0.00000E+00
         0.00000E+00
         0.00000E+00
         0.00000E+00
         0.00000E+00
         0.00000E+00
         0.00000E+00
         0.00000E+00
         0.00000E+00
         0.00000E+00
         0.00000E+00
         0.00000E+00
         0.00000E+00
         0.00000E+00
         0.00000E+00
         0.00000E+00
         0.00000E+00
         0.00000E+00
         0.00000E+00
         0.00000E+00
         0.00000E+00
         0.00000E+00
         0.00000E+00
         0.00000E+00
         0.00000E+00
         0.00000E+00
         0.00000E+00
         0.00000E+00
         0.00000E+00
         0.00000E+00
         0.00000E+00
         0.00000E+00
         0.00000E+00
         0.00000E+00
         0.00000E+00
         0.00000E+00
         0.00000E+00
         0.00000E+00
         0.00000E+00
         0.00000E+00
         0.00000E+00
         0.00000E+00
         0.00000E+00
         0.00000E+00
         0.00000E+00
         0.00000E+00
         0.00000E+00
         0.00000E+00
         0.00000E+00
         0.00000E+00
         0.00000E+00
         0.00000E+00
         0.00000E+00
         0.00000E+00
         0.00000E+00
         0.00000E+00
         0.00000E+00
         0.00000E+00
         0.00000E+00
         0.00000E+00
         0.00000E+00
         0.00000E+00
         0.00000E+00
         0.00000E+00
         0.00000E+00
         0.00000E+00
         0.00000E+00
         0.00000E+00
         0.00000E+00
         0.00000E+00
         0.00000E+00
         0.00000E+00
         0.00000E+00
         0.00000E+00
         0.00000E+00
         0.00000E+00
         0.00000E+00
         0.00000E+00
         0.00000E+00
         0.00000E+00
         0.00000E+00
         0.00000E+00
         0.00000E+00
         0.00000E+00
         0.00000E+00
         0.00000E+00
         0.00000E+00
         0.00000E+00
         0.00000E+00
         0.00000E+00
         0.00000E+00
         0.00000E+00
         0.00000E+00
         0.00000E+00
         0.00000E+00
         0.00000E+00
         0.00000E+00
         0.00000E+00
         0.00000E+00
         0.00000E+00
         0.00000E+00
         0.00000E+00
         0.00000E+00
         0.00000E+00
         0.00000E+00
         0.00000E+00
         0.00000E+00
         0.00000E+00
         0.00000E+00
         0.00000E+00
         0.00000E+00
         0.00000E+00
         0.00000E+00
         0.00000E+00
         0.00000E+00
         0.00000E+00
         0.00000E+00
         0.00000E+00
         0.00000E+00
         0.00000E+00
         0.00000E+00
         0.00000E+00
         0.00000E+00
         0.00000E+00
         0.00000E+00
         0.00000E+00
         0.00000E+00
         0.00000E+00
         0.00000E+00
         0.00000E+00
         0.00000E+00
         0.00000E+00
         0.00000E+00
         0.00000E+00
         0.00000E+00
         0.00000E+00
         0.00000E+00
         0.00000E+00
         0.00000E+00
         0.00000E+00
         0.00000E+00
         0.00000E+00
         0.00000E+00
         0.00000E+00
         0.00000E+00
         0.00000E+00
         0.00000E+00
         0.00000E+00
         0.00000E+00
         0.00000E+00
         0.00000E+00
         0.00000E+00
         0.00000E+00
         0.00000E+00
         0.00000E+00
         0.00000E+00
         0.00000E+00
         0.00000E+00
         0.00000E+00
         0.00000E+00
         0.00000E+00
         0.00000E+00
         0.00000E+00
         0.00000E+00
         0.00000E+00
         0.00000E+00
         0.00000E+00
         0.00000E+00
         0.00000E+00
         0.00000E+00
         0.00000E+00
         0.00000E+00
         0.00000E+00
         0.00000E+00
         0.00000E+00
         0.00000E+00
         0.00000E+00
         0.00000E+00
         0.00000E+00
         0.00000E+00
         0.00000E+00
         0.00000E+00
         0.00000E+00
         0.00000E+00
         0.00000E+00
         0.00000E+00
         0.00000E+00
         0.00000E+00
         0.00000E+00
         0.00000E+00
         0.00000E+00
         0.00000E+00
         0.00000E+00
         0.00000E+00
         0.00000E+00
         0.00000E+00
         0.00000E+00
         0.00000E+00
         0.00000E+00
         0.00000E+00
         0.00000E+00
         0.00000E+00
         0.00000E+00
         0.00000E+00
         0.00000E+00
         0.00000E+00
         0.00000E+00
         0.00000E+00
         0.00000E+00
         0.00000E+00
         0.00000E+00
         0.00000E+00
         0.00000E+00
         0.00000E+00
         0.00000E+00
         0.00000E+00
         0.00000E+00
         0.00000E+00
         0.00000E+00
         0.00000E+00
         0.00000E+00
         0.00000E+00
         0.00000E+00
         0.00000E+00
         0.00000E+00
         0.00000E+00
         0.00000E+00
         0.00000E+00
         0.00000E+00
         0.00000E+00
         0.00000E+00
         0.00000E+00
         0.00000E+00
         0.00000E+00
         0.00000E+00
         0.00000E+00
         0.00000E+00
         0.00000E+00
         0.00000E+00
         0.00000E+00
         0.00000E+00
         0.00000E+00
         0.00000E+00
         0.00000E+00
         0.00000E+00
         0.00000E+00
         0.00000E+00
         0.00000E+00
         0.00000E+00
         0.00000E+00
         0.00000E+00
         0.00000E+00
         0.00000E+00
         0.00000E+00
         0.00000E+00
         0.00000E+00
         0.00000E+00
         0.00000E+00
         0.00000E+00
         0.00000E+00
         0.00000E+00
         0.00000E+00
         0.00000E+00
         0.00000E+00
         0.00000E+00
         0.00000E+00
         0.00000E+00
         0.00000E+00
         0.00000E+00
         0.00000E+00
         0.00000E+00
         0.00000E+00
         0.00000E+00
         0.00000E+00
         0.00000E+00
         0.00000E+00
         0.00000E+00
         0.00000E+00
         0.00000E+00
         0.00000E+00
         0.00000E+00
         0.00000E+00
         0.00000E+00
         0.00000E+00
         0.00000E+00
         0.00000E+00
         0.00000E+00
         0.00000E+00
         0.00000E+00
         0.00000E+00
         0.00000E+00
         0.00000E+00
         0.00000E+00
         0.00000E+00
         0.00000E+00
         0.00000E+00
         0.00000E+00
         0.00000E+00
         0.00000E+00
         0.00000E+00
         0.00000E+00
         0.00000E+00
         0.00000E+00
         0.00000E+00
         0.00000E+00
         0.00000E+00
         0.00000E+00
         0.00000E+00
         0.00000E+00
         0.00000E+00
         0.00000E+00
         0.00000E+00
         0.00000E+00
         0.00000E+00
         0.00000E+00
         0.00000E+00
         0.00000E+00
         0.00000E+00
         0.00000E+00
         0.00000E+00
         0.00000E+00
         0.00000E+00
         0.00000E+00
         0.00000E+00
         0.00000E+00
         0.00000E+00
         0.00000E+00
         0.00000E+00
         0.00000E+00
         0.00000E+00
         0.00000E+00
         0.00000E+00
         0.00000E+00
         0.00000E+00
         0.00000E+00
         0.00000E+00
         0.00000E+00
         0.00000E+00
         0.00000E+00
         0.00000E+00
         0.00000E+00
         0.00000E+00
         0.00000E+00
         0.00000E+00
         0.00000E+00
         0.00000E+00
         0.00000E+00
         0.00000E+00
         0.00000E+00
         0.00000E+00
         0.00000E+00
         0.00000E+00
         0.00000E+00
         0.00000E+00
         0.00000E+00
         0.00000E+00
         0.00000E+00
         0.00000E+00
         0.00000E+00
         0.00000E+00
         0.00000E+00
         0.00000E+00
         0.00000E+00
         0.00000E+00
         0.00000E+00
         0.00000E+00
         0.00000E+00
         0.00000E+00
         0.00000E+00
         0.00000E+00
         0.00000E+00
         0.00000E+00
         0.00000E+00
         0.00000E+00
         0.00000E+00
         0.00000E+00
         0.00000E+00
         0.00000E+00
         0.00000E+00
         0.00000E+00
         0.00000E+00
         0.00000E+00
         0.00000E+00
         0.00000E+00
         0.00000E+00
         0.00000E+00
         0.00000E+00
         0.00000E+00
         0.00000E+00
         0.00000E+00
         0.00000E+00
         0.00000E+00
         0.00000E+00
         0.00000E+00
         0.00000E+00
         0.00000E+00
         0.00000E+00
         0.00000E+00
         0.00000E+00
         0.00000E+00
         0.00000E+00
         0.00000E+00
         0.00000E+00
         0.00000E+00
         0.00000E+00
         0.00000E+00
         0.00000E+00
         0.00000E+00
         0.00000E+00
         0.00000E+00
         0.00000E+00
         0.00000E+00
         0.00000E+00
         0.00000E+00
         0.00000E+00
         0.00000E+00
         0.00000E+00
         0.00000E+00
         0.00000E+00
         0.00000E+00
         0.00000E+00
         0.00000E+00
         0.00000E+00
         0.00000E+00
         0.00000E+00
         0.00000E+00
         0.00000E+00
         0.00000E+00
         0.00000E+00
         0.00000E+00
         0.00000E+00
         0.00000E+00
         0.00000E+00
         0.00000E+00
         0.00000E+00
         0.00000E+00
         0.00000E+00
         0.00000E+00
         0.00000E+00
         0.00000E+00
         0.00000E+00
         0.00000E+00
         0.00000E+00
         0.00000E+00
         0.00000E+00
         0.00000E+00
         0.00000E+00
         0.00000E+00
         0.00000E+00
         0.00000E+00
         0.00000E+00
         0.00000E+00
         0.00000E+00
         0.00000E+00
         0.00000E+00
         0.00000E+00
         0.00000E+00
         0.00000E+00
         0.00000E+00
         0.00000E+00
         0.00000E+00
         0.00000E+00
         0.00000E+00
         0.00000E+00
         0.00000E+00
         0.00000E+00
         0.00000E+00
         0.00000E+00
         0.00000E+00
         0.00000E+00
         0.00000E+00
         0.00000E+00
         0.00000E+00
         0.00000E+00
         0.00000E+00
         0.00000E+00
         0.00000E+00
         0.00000E+00
         0.00000E+00
         0.00000E+00
         0.00000E+00
         0.00000E+00
         0.00000E+00
         0.00000E+00
         0.00000E+00
         0.00000E+00
         0.00000E+00
         0.00000E+00
         0.00000E+00
         0.00000E+00
         0.00000E+00
         0.00000E+00
         0.00000E+00
         0.00000E+00
         0.00000E+00
         0.00000E+00
         0.00000E+00
         0.00000E+00
         0.00000E+00
         0.00000E+00
         0.00000E+00
         0.00000E+00
         0.00000E+00
         0.00000E+00
         0.00000E+00
         0.00000E+00
         0.00000E+00
         0.00000E+00
         0.00000E+00
         0.00000E+00
         0.00000E+00
         0.00000E+00
         0.00000E+00
         0.00000E+00
         0.00000E+00
         0.00000E+00
         0.00000E+00
         0.00000E+00
         0.00000E+00
         0.00000E+00
         0.00000E+00
         0.00000E+00
         0.00000E+00
         0.00000E+00
         0.00000E+00
         0.00000E+00
         0.00000E+00
         0.00000E+00
         0.00000E+00
         0.00000E+00
         0.00000E+00
         0.00000E+00
         0.00000E+00
         0.00000E+00
         0.00000E+00
         0.00000E+00
         0.00000E+00
         0.00000E+00
         0.00000E+00
         0.00000E+00
         0.00000E+00
         0.00000E+00
         0.00000E+00
         0.00000E+00
         0.00000E+00
         0.00000E+00
         0.00000E+00
         0.00000E+00
         0.00000E+00
         0.00000E+00
         0.00000E+00
         0.00000E+00
         0.00000E+00
         0.00000E+00
         0.00000E+00
         0.00000E+00
         0.00000E+00
         0.00000E+00
         0.00000E+00
         0.00000E+00
         0.00000E+00
         0.00000E+00
         0.00000E+00
         0.00000E+00
         0.00000E+00
         0.00000E+00
         0.00000E+00
         0.00000E+00
         0.00000E+00
         0.00000E+00
         0.00000E+00
         0.00000E+00
         0.00000E+00
         0.00000E+00
         0.00000E+00
         0.00000E+00
         0.00000E+00
         0.00000E+00
         0.00000E+00
         0.00000E+00
         0.00000E+00
         0.00000E+00
         0.00000E+00
         0.00000E+00
         0.00000E+00
         0.00000E+00
         0.00000E+00
         0.00000E+00
         0.00000E+00
         0.00000E+00
         0.00000E+00
         0.00000E+00
         0.00000E+00
         0.00000E+00
         0.00000E+00
         0.00000E+00
         0.00000E+00
         0.00000E+00
         0.00000E+00
         0.00000E+00
         0.00000E+00
         0.00000E+00
         0.00000E+00
         0.00000E+00
         0.00000E+00
         0.00000E+00
         0.00000E+00
         0.00000E+00
         0.00000E+00
         0.00000E+00
         0.00000E+00
         0.00000E+00
         0.00000E+00
         0.00000E+00
         0.00000E+00
         0.00000E+00
         0.00000E+00
         0.00000E+00
         0.00000E+00
         0.00000E+00
         0.00000E+00
         0.00000E+00
         0.00000E+00
         0.00000E+00
         0.00000E+00
         0.00000E+00
         0.00000E+00
         0.00000E+00
         0.00000E+00
         0.00000E+00
         0.00000E+00
         0.00000E+00
         0.00000E+00
         0.00000E+00
         0.00000E+00
         0.00000E+00
         0.00000E+00
         0.00000E+00
         0.00000E+00
         0.00000E+00
         0.00000E+00
         0.00000E+00
         0.00000E+00
         0.00000E+00
         0.00000E+00
         0.00000E+00
         0.00000E+00
         0.00000E+00
         0.00000E+00
         0.00000E+00
         0.00000E+00
         0.00000E+00
         0.00000E+00
         0.00000E+00
         0.00000E+00
         0.00000E+00
         0.00000E+00
         0.00000E+00
         0.00000E+00
         0.00000E+00
         0.00000E+00
         0.00000E+00
         0.00000E+00
         0.00000E+00
         0.00000E+00
         0.00000E+00
         0.00000E+00
         0.00000E+00
         0.00000E+00
         0.00000E+00
         0.00000E+00
         0.00000E+00
         0.00000E+00
         0.00000E+00
         0.00000E+00
         0.00000E+00
         0.00000E+00
         0.00000E+00
         0.00000E+00
         0.00000E+00
         0.00000E+00
         0.00000E+00
         0.00000E+00
         0.00000E+00
         0.00000E+00
         0.00000E+00
         0.00000E+00
         0.00000E+00
         0.00000E+00
         0.00000E+00
         0.00000E+00
         0.00000E+00
         0.00000E+00
         0.00000E+00
         0.00000E+00
         0.00000E+00
         0.00000E+00
         0.00000E+00
         0.00000E+00
         0.00000E+00
         0.00000E+00
         0.00000E+00
         0.00000E+00
         0.00000E+00
         0.00000E+00
         0.00000E+00
         0.00000E+00
         0.00000E+00
         0.00000E+00
         0.00000E+00
         0.00000E+00
         0.00000E+00
         0.00000E+00
         0.00000E+00
         0.00000E+00
         0.00000E+00
         0.00000E+00
         0.00000E+00
         0.00000E+00
         0.00000E+00
         0.00000E+00
         0.00000E+00
         0.00000E+00
         0.00000E+00
         0.00000E+00
         0.00000E+00
         0.00000E+00
         0.00000E+00
         0.00000E+00
         0.00000E+00
         0.00000E+00
         0.00000E+00
         0.00000E+00
         0.00000E+00
         0.00000E+00
         0.00000E+00
         0.00000E+00
         0.00000E+00
         0.00000E+00
         0.00000E+00
         0.00000E+00
         0.00000E+00
         0.00000E+00
         0.00000E+00
         0.00000E+00
         0.00000E+00
         0.00000E+00
         0.00000E+00
         0.00000E+00
         0.00000E+00
         0.00000E+00
         0.00000E+00
         0.00000E+00
         0.00000E+00
         0.00000E+00
         0.00000E+00
         0.00000E+00
         0.00000E+00
         0.00000E+00
         0.00000E+00
         0.00000E+00
         0.00000E+00
         0.00000E+00
         0.00000E+00
         0.00000E+00
         0.00000E+00
         0.00000E+00
         0.00000E+00
         0.00000E+00
         0.00000E+00
         0.00000E+00
         0.00000E+00
         0.00000E+00
         0.00000E+00
         0.00000E+00
         0.00000E+00
         0.00000E+00
         0.00000E+00
         0.00000E+00
         0.00000E+00
         0.00000E+00
         0.00000E+00
         0.00000E+00
         0.00000E+00
         0.00000E+00
         0.00000E+00
         0.00000E+00
         0.00000E+00
         0.00000E+00
         0.00000E+00
         0.00000E+00
         0.00000E+00
         0.00000E+00
         0.00000E+00
         0.00000E+00
         0.00000E+00
         0.00000E+00
         0.00000E+00
         0.00000E+00
         0.00000E+00
         0.00000E+00
         0.00000E+00
         0.00000E+00
         0.00000E+00
         0.00000E+00
         0.00000E+00
         0.00000E+00
         0.00000E+00
         0.00000E+00
         0.00000E+00
         0.00000E+00
         0.00000E+00
         0.00000E+00
         0.00000E+00
         0.00000E+00
         0.00000E+00
         0.00000E+00
         0.00000E+00
         0.00000E+00
         0.00000E+00
         0.00000E+00
         0.00000E+00
         0.00000E+00
         0.00000E+00
         0.00000E+00
         0.00000E+00
         0.00000E+00
         0.00000E+00
         0.00000E+00
         0.00000E+00
         0.00000E+00
         0.00000E+00
         0.00000E+00
         0.00000E+00
         0.00000E+00
         0.00000E+00
         0.00000E+00
         0.00000E+00
         0.00000E+00
         0.00000E+00
         0.00000E+00
         0.00000E+00
         0.00000E+00
         0.00000E+00
         0.00000E+00
         0.00000E+00
         0.00000E+00
         0.00000E+00
         0.00000E+00
         0.00000E+00
         0.00000E+00
         0.00000E+00
         0.00000E+00
         0.00000E+00
         0.00000E+00
         0.00000E+00
         0.00000E+00
         0.00000E+00
         0.00000E+00
         0.00000E+00
         0.00000E+00
         0.00000E+00
         0.00000E+00
         0.00000E+00
         0.00000E+00
         0.00000E+00
         0.00000E+00
         0.00000E+00
         0.00000E+00
         0.00000E+00
         0.00000E+00
         0.00000E+00
         0.00000E+00
         0.00000E+00
         0.00000E+00
         0.00000E+00
         0.00000E+00
         0.00000E+00
         0.00000E+00
         0.00000E+00
         0.00000E+00
         0.00000E+00
         0.00000E+00
         0.00000E+00
         0.00000E+00
         0.00000E+00
         0.00000E+00
         0.00000E+00
         0.00000E+00
         0.00000E+00
         0.00000E+00
         0.00000E+00
         0.00000E+00
         0.00000E+00
         0.00000E+00
         0.00000E+00
         0.00000E+00
         0.00000E+00
         0.00000E+00
         0.00000E+00
         0.00000E+00
         0.00000E+00
         0.00000E+00
         0.00000E+00
         0.00000E+00
         0.00000E+00
         0.00000E+00
         0.00000E+00
         0.00000E+00
         0.00000E+00
         0.00000E+00
         0.00000E+00
         0.00000E+00
         0.00000E+00
         0.00000E+00
         0.00000E+00
         0.00000E+00
         0.00000E+00
         0.00000E+00
         0.00000E+00
         0.00000E+00
         0.00000E+00
         0.00000E+00
         0.00000E+00
         0.00000E+00
         0.00000E+00
         0.00000E+00
         0.00000E+00
         0.00000E+00
         0.00000E+00
         0.00000E+00
         0.00000E+00
         0.00000E+00
         0.00000E+00
         0.00000E+00
         0.00000E+00
         0.00000E+00
         0.00000E+00
         0.00000E+00
         0.00000E+00
         0.00000E+00
         0.00000E+00
         0.00000E+00
         0.00000E+00
         0.00000E+00
         0.00000E+00
         0.00000E+00
         0.00000E+00
         0.00000E+00
         0.00000E+00
         0.00000E+00
         0.00000E+00
         0.00000E+00
         0.00000E+00
         0.00000E+00
         0.00000E+00
         0.00000E+00
         0.00000E+00
         0.00000E+00
         0.00000E+00
         0.00000E+00
         0.00000E+00
         0.00000E+00
         0.00000E+00
         0.00000E+00
         0.00000E+00
         0.00000E+00
         0.00000E+00
         0.00000E+00
         0.00000E+00
         0.00000E+00
         0.00000E+00
         0.00000E+00
         0.00000E+00
         0.00000E+00
         0.00000E+00
         0.00000E+00
         0.00000E+00
         0.00000E+00
         0.00000E+00
         0.00000E+00
         0.00000E+00
         0.00000E+00
         0.00000E+00
         0.00000E+00
         0.00000E+00
         0.00000E+00
         0.00000E+00
         0.00000E+00
         0.00000E+00
         0.00000E+00
         0.00000E+00
         0.00000E+00
         0.00000E+00
         0.00000E+00
         0.00000E+00
         0.00000E+00
         0.00000E+00
         0.00000E+00
         0.00000E+00
         0.00000E+00
         0.00000E+00
         0.00000E+00
         0.00000E+00
         0.00000E+00
         0.00000E+00
         0.00000E+00
         0.00000E+00
         0.00000E+00
         0.00000E+00
         0.00000E+00
         0.00000E+00
         0.00000E+00
         0.00000E+00
         0.00000E+00
         0.00000E+00
         0.00000E+00
         0.00000E+00
         0.00000E+00
         0.00000E+00
         0.00000E+00
         0.00000E+00
         0.00000E+00
         0.00000E+00
         0.00000E+00
         0.00000E+00
         0.00000E+00
         0.00000E+00
         0.00000E+00
         0.00000E+00
         0.00000E+00
         0.00000E+00
         0.00000E+00
         0.00000E+00
         0.00000E+00
         0.00000E+00
         0.00000E+00
         0.00000E+00
         0.00000E+00
         0.00000E+00
         0.00000E+00
         0.00000E+00
         0.00000E+00
         0.00000E+00
         0.00000E+00
         0.00000E+00
         0.00000E+00
         0.00000E+00
         0.00000E+00
         0.00000E+00
         0.00000E+00
         0.00000E+00
         0.00000E+00
         0.00000E+00
         0.00000E+00
         0.00000E+00
         0.00000E+00
         0.00000E+00
         0.00000E+00
         0.00000E+00
         0.00000E+00
         0.00000E+00
         0.00000E+00
         0.00000E+00
         0.00000E+00
         0.00000E+00
         0.00000E+00
         0.00000E+00
         0.00000E+00
         0.00000E+00
         0.00000E+00
         0.00000E+00
         0.00000E+00
         0.00000E+00
         0.00000E+00
         0.00000E+00
         0.00000E+00
         0.00000E+00
         0.00000E+00
         0.00000E+00
         0.00000E+00
         0.00000E+00
         0.00000E+00
         0.00000E+00
         0.00000E+00
         0.00000E+00
         0.00000E+00
         0.00000E+00
         0.00000E+00
         0.00000E+00
         0.00000E+00
         0.00000E+00
         0.00000E+00
         0.00000E+00
         0.00000E+00
         0.00000E+00
         0.00000E+00
         0.00000E+00
         0.00000E+00
         0.00000E+00
         0.00000E+00
         0.00000E+00
         0.00000E+00
         0.00000E+00
         0.00000E+00
         0.00000E+00
         0.00000E+00
         0.00000E+00
         0.00000E+00
         0.00000E+00
         0.00000E+00
         0.00000E+00
         0.00000E+00
         0.00000E+00
         0.00000E+00
         0.00000E+00
         0.00000E+00
         0.00000E+00
         0.00000E+00
         0.00000E+00
         0.00000E+00
         0.00000E+00
         0.00000E+00
         0.00000E+00
         0.00000E+00
         0.00000E+00
         0.00000E+00
         0.00000E+00
         0.00000E+00
         0.00000E+00
         0.00000E+00
         0.00000E+00
         0.00000E+00
         0.00000E+00
         0.00000E+00
         0.00000E+00
         0.00000E+00
         0.00000E+00
         0.00000E+00
         0.00000E+00
         0.00000E+00
         0.00000E+00
         0.00000E+00
         0.00000E+00
         0.00000E+00
         0.00000E+00
         0.00000E+00
         0.00000E+00
         0.00000E+00
         0.00000E+00
         0.00000E+00
         0.00000E+00
         0.00000E+00
         0.00000E+00
         0.00000E+00
         0.00000E+00
         0.00000E+00
         0.00000E+00
         0.00000E+00
         0.00000E+00
         0.00000E+00
         0.00000E+00
         0.00000E+00
         0.00000E+00
         0.00000E+00
         0.00000E+00
         0.00000E+00
         0.00000E+00
         0.00000E+00
         0.00000E+00
         0.00000E+00
         0.00000E+00
         0.00000E+00
         0.00000E+00
         0.00000E+00
         0.00000E+00
         0.00000E+00
         0.00000E+00
         0.00000E+00
         0.00000E+00
         0.00000E+00
         0.00000E+00
         0.00000E+00
         0.00000E+00
         0.00000E+00
         0.00000E+00
         0.00000E+00
         0.00000E+00
         0.00000E+00
         0.00000E+00
         0.00000E+00
         0.00000E+00
         0.00000E+00
         0.00000E+00
         0.00000E+00
         0.00000E+00
         0.00000E+00
         0.00000E+00
         0.00000E+00
         0.00000E+00
         0.00000E+00
         0.00000E+00
         0.00000E+00
         0.00000E+00
         0.00000E+00
         0.00000E+00
         0.00000E+00
         0.00000E+00
         0.00000E+00
         0.00000E+00
         0.00000E+00
         0.00000E+00
         0.00000E+00
         0.00000E+00
         0.00000E+00
         0.00000E+00
         0.00000E+00
         0.00000E+00
         0.00000E+00
         0.00000E+00
         0.00000E+00
         0.00000E+00
         0.00000E+00
         0.00000E+00
         0.00000E+00
         0.00000E+00
         0.00000E+00
         0.00000E+00
         0.00000E+00
         0.00000E+00
         0.00000E+00
         0.00000E+00
         0.00000E+00
         0.00000E+00
         0.00000E+00
         0.00000E+00
         0.00000E+00
         0.00000E+00
         0.00000E+00
         0.00000E+00
         0.00000E+00
         0.00000E+00
         0.00000E+00
         0.00000E+00
         0.00000E+00
         0.00000E+00
         0.00000E+00
         0.00000E+00
         0.00000E+00
         0.00000E+00
         0.00000E+00
         0.00000E+00
         0.00000E+00
         0.00000E+00
         0.00000E+00
         0.00000E+00
         0.00000E+00
         0.00000E+00
         0.00000E+00
         0.00000E+00
         0.00000E+00
         0.00000E+00
         0.00000E+00
         0.00000E+00
         0.00000E+00
         0.00000E+00
         0.00000E+00
         0.00000E+00
         0.00000E+00
         0.00000E+00
         0.00000E+00
         0.00000E+00
         0.00000E+00
         0.00000E+00
         0.00000E+00
         0.00000E+00
         0.00000E+00
         0.00000E+00
         0.00000E+00
         0.00000E+00
         0.00000E+00
         0.00000E+00
         0.00000E+00
         0.00000E+00
         0.00000E+00
         0.00000E+00
         0.00000E+00
         0.00000E+00
         0.00000E+00
         0.00000E+00
         0.00000E+00
         0.00000E+00
         0.00000E+00
         0.00000E+00
         0.00000E+00
         0.00000E+00
         0.00000E+00
         0.00000E+00
         0.00000E+00
         0.00000E+00
         0.00000E+00
         0.00000E+00
         0.00000E+00
         0.00000E+00
         0.00000E+00
         0.00000E+00
         0.00000E+00
         0.00000E+00
         0.00000E+00
         0.00000E+00
         0.00000E+00
         0.00000E+00
         0.00000E+00
         0.00000E+00
         0.00000E+00
         0.00000E+00
         0.00000E+00
         0.00000E+00
         0.00000E+00
         0.00000E+00
         0.00000E+00
         0.00000E+00
         0.00000E+00
         0.00000E+00
         0.00000E+00
         0.00000E+00
         0.00000E+00
         0.00000E+00
         0.00000E+00
         0.00000E+00
         0.00000E+00
         0.00000E+00
         0.00000E+00
         0.00000E+00
         0.00000E+00
         0.00000E+00
         0.00000E+00
         0.00000E+00
         0.00000E+00
         0.00000E+00
         0.00000E+00
         0.00000E+00
         0.00000E+00
         0.00000E+00
         0.00000E+00
         0.00000E+00
         0.00000E+00
         0.00000E+00
         0.00000E+00
         0.00000E+00
         0.00000E+00
         0.00000E+00
         0.00000E+00
         0.00000E+00
         0.00000E+00
         0.00000E+00
         0.00000E+00
         0.00000E+00
         0.00000E+00
         0.00000E+00
         0.00000E+00
         0.00000E+00
         0.00000E+00
         0.00000E+00
         0.00000E+00
         0.00000E+00
         0.00000E+00
         0.00000E+00
         0.00000E+00
         0.00000E+00
         0.00000E+00
         0.00000E+00
         0.00000E+00
         0.00000E+00
         0.00000E+00
         0.00000E+00
         0.00000E+00
         0.00000E+00
         0.00000E+00
         0.00000E+00
         0.00000E+00
         0.00000E+00
         0.00000E+00
         0.00000E+00
         0.00000E+00
         0.00000E+00
         0.00000E+00
         0.00000E+00
         0.00000E+00
         0.00000E+00
         0.00000E+00
         0.00000E+00
         0.00000E+00
         0.00000E+00
         0.00000E+00
         0.00000E+00
         0.00000E+00
         0.00000E+00
         0.00000E+00
         0.00000E+00
         0.00000E+00
         0.00000E+00
         0.00000E+00
         0.00000E+00
         0.00000E+00
         0.00000E+00
         0.00000E+00
         0.00000E+00
         0.00000E+00
         0.00000E+00
         0.00000E+00
         0.00000E+00
         0.00000E+00
         0.00000E+00
         0.00000E+00
         0.00000E+00
         0.00000E+00
         0.00000E+00
         0.00000E+00
         0.00000E+00
         0.00000E+00
         0.00000E+00
         0.00000E+00
         0.00000E+00
         0.00000E+00
         0.00000E+00
         0.00000E+00
         0.00000E+00
         0.00000E+00
         0.00000E+00
         0.00000E+00
         0.00000E+00
         0.00000E+00
         0.00000E+00
         0.00000E+00
         0.00000E+00
         0.00000E+00
         0.00000E+00
         0.00000E+00
         0.00000E+00
         0.00000E+00
         0.00000E+00
         0.00000E+00
         0.00000E+00
         0.00000E+00
         0.00000E+00
         0.00000E+00
         0.00000E+00
         0.00000E+00
         0.00000E+00
         0.00000E+00
         0.00000E+00
         0.00000E+00
         0.00000E+00
         0.00000E+00
         0.00000E+00
         0.00000E+00
         0.00000E+00
         0.00000E+00
         0.00000E+00
         0.00000E+00
         0.00000E+00
         0.00000E+00
         0.00000E+00
         0.00000E+00
         0.00000E+00
         0.00000E+00
         0.00000E+00
         0.00000E+00
         0.00000E+00
         0.00000E+00
         0.00000E+00
         0.00000E+00
         0.00000E+00
         0.00000E+00
         0.00000E+00
         0.00000E+00
         0.00000E+00
         0.00000E+00
         0.00000E+00
         0.00000E+00
         0.00000E+00
         0.00000E+00
         0.00000E+00
         0.00000E+00
         0.00000E+00
         0.00000E+00
         0.00000E+00
         0.00000E+00
         0.00000E+00
         0.00000E+00
         0.00000E+00
         0.00000E+00
         0.00000E+00
         0.00000E+00
         0.00000E+00
         0.00000E+00
         0.00000E+00
         0.00000E+00
         0.00000E+00
         0.00000E+00
         0.00000E+00
         0.00000E+00
         0.00000E+00
         0.00000E+00
         0.00000E+00
         0.00000E+00
         0.00000E+00
         0.00000E+00
         0.00000E+00
         0.00000E+00
         0.00000E+00
         0.00000E+00
  
SCALARS        characteristic_distance  double 1
LOOKUP_TABLE default
         0.00000E+00
         0.00000E+00
         0.00000E+00
         0.00000E+00
         0.00000E+00
         0.00000E+00
         0.00000E+00
         0.00000E+00
         0.00000E+00
         0.00000E+00
         0.00000E+00
         0.00000E+00
         0.00000E+00
         0.00000E+00
         0.00000E+00
         0.00000E+00
         0.00000E+00
         0.00000E+00
         0.00000E+00
         0.00000E+00
         0.00000E+00
         0.00000E+00
         0.00000E+00
         0.00000E+00
         0.00000E+00
         0.00000E+00
         0.00000E+00
         0.00000E+00
         0.00000E+00
         0.00000E+00
         0.00000E+00
         0.00000E+00
         0.00000E+00
         0.00000E+00
         0.00000E+00
         0.00000E+00
         0.00000E+00
         0.00000E+00
         0.00000E+00
         0.00000E+00
         0.00000E+00
         0.00000E+00
         0.00000E+00
         0.00000E+00
         0.00000E+00
         0.00000E+00
         0.00000E+00
         0.00000E+00
         0.00000E+00
         0.00000E+00
         0.00000E+00
         0.00000E+00
         0.00000E+00
         0.00000E+00
         0.00000E+00
         0.00000E+00
         0.00000E+00
         0.00000E+00
         0.00000E+00
         0.00000E+00
         0.00000E+00
         0.00000E+00
         0.00000E+00
         0.00000E+00
         0.00000E+00
         0.00000E+00
         0.00000E+00
         0.00000E+00
         0.00000E+00
         0.00000E+00
         0.00000E+00
         0.00000E+00
         0.00000E+00
         0.00000E+00
         0.00000E+00
         0.00000E+00
         0.00000E+00
         0.00000E+00
         0.00000E+00
         0.00000E+00
         0.00000E+00
         0.00000E+00
         0.00000E+00
         0.00000E+00
         0.00000E+00
         0.00000E+00
         0.00000E+00
         0.00000E+00
         0.00000E+00
         0.00000E+00
         0.00000E+00
         0.00000E+00
         0.00000E+00
         0.00000E+00
         0.00000E+00
         0.00000E+00
         0.00000E+00
         0.00000E+00
         0.00000E+00
         0.00000E+00
         0.00000E+00
         0.00000E+00
         0.00000E+00
         0.00000E+00
         0.00000E+00
         0.00000E+00
         0.00000E+00
         0.00000E+00
         0.00000E+00
         0.00000E+00
         0.00000E+00
         0.00000E+00
         0.00000E+00
         0.00000E+00
         0.00000E+00
         0.00000E+00
         0.00000E+00
         0.00000E+00
         0.00000E+00
         0.00000E+00
         0.00000E+00
         0.00000E+00
         0.00000E+00
         0.00000E+00
         0.00000E+00
         0.00000E+00
         0.00000E+00
         0.00000E+00
         0.00000E+00
         0.00000E+00
         0.00000E+00
         0.00000E+00
         0.00000E+00
         0.00000E+00
         0.00000E+00
         0.00000E+00
         0.00000E+00
         0.00000E+00
         0.00000E+00
         0.00000E+00
         0.00000E+00
         0.00000E+00
         0.00000E+00
         0.00000E+00
         0.00000E+00
         0.00000E+00
         0.00000E+00
         0.00000E+00
         0.00000E+00
         0.00000E+00
         0.00000E+00
         0.00000E+00
         0.00000E+00
         0.00000E+00
         0.00000E+00
         0.00000E+00
         0.00000E+00
         0.00000E+00
         0.00000E+00
         0.00000E+00
         0.00000E+00
         0.00000E+00
         0.00000E+00
         0.00000E+00
         0.00000E+00
         0.00000E+00
         0.00000E+00
         0.00000E+00
         0.00000E+00
         0.00000E+00
         0.00000E+00
         0.00000E+00
         0.00000E+00
         0.00000E+00
         0.00000E+00
         0.00000E+00
         0.00000E+00
         0.00000E+00
         0.00000E+00
         0.00000E+00
         0.00000E+00
         0.00000E+00
         0.00000E+00
         0.00000E+00
         0.00000E+00
         0.00000E+00
         0.00000E+00
         0.00000E+00
         0.00000E+00
         0.00000E+00
         0.00000E+00
         0.00000E+00
         0.00000E+00
         0.00000E+00
         0.00000E+00
         0.00000E+00
         0.00000E+00
         0.00000E+00
         0.00000E+00
         0.00000E+00
         0.00000E+00
         0.00000E+00
         0.00000E+00
         0.00000E+00
         0.00000E+00
         0.00000E+00
         0.00000E+00
         0.00000E+00
         0.00000E+00
         0.00000E+00
         0.00000E+00
         0.00000E+00
         0.00000E+00
         0.00000E+00
         0.00000E+00
         0.00000E+00
         0.00000E+00
         0.00000E+00
         0.00000E+00
         0.00000E+00
         0.00000E+00
         0.00000E+00
         0.00000E+00
         0.00000E+00
         0.00000E+00
         0.00000E+00
         0.00000E+00
         0.00000E+00
         0.00000E+00
         0.00000E+00
         0.00000E+00
         0.00000E+00
         0.00000E+00
         0.00000E+00
         0.00000E+00
         0.00000E+00
         0.00000E+00
         0.00000E+00
         0.00000E+00
         0.00000E+00
         0.00000E+00
         0.00000E+00
         0.00000E+00
         0.00000E+00
         0.00000E+00
         0.00000E+00
         0.00000E+00
         0.00000E+00
         0.00000E+00
         0.00000E+00
         0.00000E+00
         0.00000E+00
         0.00000E+00
         0.00000E+00
         0.00000E+00
         0.00000E+00
         0.00000E+00
         0.00000E+00
         0.00000E+00
         0.00000E+00
         0.00000E+00
         0.00000E+00
         0.00000E+00
         0.00000E+00
         0.00000E+00
         0.00000E+00
         0.00000E+00
         0.00000E+00
         0.00000E+00
         0.00000E+00
         0.00000E+00
         0.00000E+00
         0.00000E+00
         0.00000E+00
         0.00000E+00
         0.00000E+00
         0.00000E+00
         0.00000E+00
         0.00000E+00
         0.00000E+00
         0.00000E+00
         0.00000E+00
         0.00000E+00
         0.00000E+00
         0.00000E+00
         0.00000E+00
         0.00000E+00
         0.00000E+00
         0.00000E+00
         0.00000E+00
         0.00000E+00
         0.00000E+00
         0.00000E+00
         0.00000E+00
         0.00000E+00
         0.00000E+00
         0.00000E+00
         0.00000E+00
         0.00000E+00
         0.00000E+00
         0.00000E+00
         0.00000E+00
         0.00000E+00
         0.00000E+00
         0.00000E+00
         0.00000E+00
         0.00000E+00
         0.00000E+00
         0.00000E+00
         0.00000E+00
         0.00000E+00
         0.00000E+00
         0.00000E+00
         0.00000E+00
         0.00000E+00
         0.00000E+00
         0.00000E+00
         0.00000E+00
         0.00000E+00
         0.00000E+00
         0.00000E+00
         0.00000E+00
         0.00000E+00
         0.00000E+00
         0.00000E+00
         0.00000E+00
         0.00000E+00
         0.00000E+00
         0.00000E+00
         0.00000E+00
         0.00000E+00
         0.00000E+00
         0.00000E+00
         0.00000E+00
         0.00000E+00
         0.00000E+00
         0.00000E+00
         0.00000E+00
         0.00000E+00
         0.00000E+00
         0.00000E+00
         0.00000E+00
         0.00000E+00
         0.00000E+00
         0.00000E+00
         0.00000E+00
         0.00000E+00
         0.00000E+00
         0.00000E+00
         0.00000E+00
         0.00000E+00
         0.00000E+00
         0.00000E+00
         0.00000E+00
         0.00000E+00
         0.00000E+00
         0.00000E+00
         0.00000E+00
         0.00000E+00
         0.00000E+00
         0.00000E+00
         0.00000E+00
         0.00000E+00
         0.00000E+00
         0.00000E+00
         0.00000E+00
         0.00000E+00
         0.00000E+00
         0.00000E+00
         0.00000E+00
         0.00000E+00
         0.00000E+00
         0.00000E+00
         0.00000E+00
         0.00000E+00
         0.00000E+00
         0.00000E+00
         0.00000E+00
         0.00000E+00
         0.00000E+00
         0.00000E+00
         0.00000E+00
         0.00000E+00
         0.00000E+00
         0.00000E+00
         0.00000E+00
         0.00000E+00
         0.00000E+00
         0.00000E+00
         0.00000E+00
         0.00000E+00
         0.00000E+00
         0.00000E+00
         0.00000E+00
         0.00000E+00
         0.00000E+00
         0.00000E+00
         0.00000E+00
         0.00000E+00
         0.00000E+00
         0.00000E+00
         0.00000E+00
         0.00000E+00
         0.00000E+00
         0.00000E+00
         0.00000E+00
         0.00000E+00
         0.00000E+00
         0.00000E+00
         0.00000E+00
         0.00000E+00
         0.00000E+00
         0.00000E+00
         0.00000E+00
         0.00000E+00
         0.00000E+00
         0.00000E+00
         0.00000E+00
         0.00000E+00
         0.00000E+00
         0.00000E+00
         0.00000E+00
         0.00000E+00
         0.00000E+00
         0.00000E+00
         0.00000E+00
         0.00000E+00
         0.00000E+00
         0.00000E+00
         0.00000E+00
         0.00000E+00
         0.00000E+00
         0.00000E+00
         0.00000E+00
         0.00000E+00
         0.00000E+00
         0.00000E+00
         0.00000E+00
         0.00000E+00
         0.00000E+00
         0.00000E+00
         0.00000E+00
         0.00000E+00
         0.00000E+00
         0.00000E+00
         0.00000E+00
         0.00000E+00
         0.00000E+00
         0.00000E+00
         0.00000E+00
         0.00000E+00
         0.00000E+00
         0.00000E+00
         0.00000E+00
         0.00000E+00
         0.00000E+00
         0.00000E+00
         0.00000E+00
         0.00000E+00
         0.00000E+00
         0.00000E+00
         0.00000E+00
         0.00000E+00
         0.00000E+00
         0.00000E+00
         0.00000E+00
         0.00000E+00
         0.00000E+00
         0.00000E+00
         0.00000E+00
         0.00000E+00
         0.00000E+00
         0.00000E+00
         0.00000E+00
         0.00000E+00
         0.00000E+00
         0.00000E+00
         0.00000E+00
         0.00000E+00
         0.00000E+00
         0.00000E+00
         0.00000E+00
         0.00000E+00
         0.00000E+00
         0.00000E+00
         0.00000E+00
         0.00000E+00
         0.00000E+00
         0.00000E+00
         0.00000E+00
         0.00000E+00
         0.00000E+00
         0.00000E+00
         0.00000E+00
         0.00000E+00
         0.00000E+00
         0.00000E+00
         0.00000E+00
         0.00000E+00
         0.00000E+00
         0.00000E+00
         0.00000E+00
         0.00000E+00
         0.00000E+00
         0.00000E+00
         0.00000E+00
         0.00000E+00
         0.00000E+00
         0.00000E+00
         0.00000E+00
         0.00000E+00
         0.00000E+00
         0.00000E+00
         0.00000E+00
         0.00000E+00
         0.00000E+00
         0.00000E+00
         0.00000E+00
         0.00000E+00
         0.00000E+00
         0.00000E+00
         0.00000E+00
         0.00000E+00
         0.00000E+00
         0.00000E+00
         0.00000E+00
         0.00000E+00
         0.00000E+00
         0.00000E+00
         0.00000E+00
         0.00000E+00
         0.00000E+00
         0.00000E+00
         0.00000E+00
         0.00000E+00
         0.00000E+00
         0.00000E+00
         0.00000E+00
         0.00000E+00
         0.00000E+00
         0.00000E+00
         0.00000E+00
         0.00000E+00
         0.00000E+00
         0.00000E+00
         0.00000E+00
         0.00000E+00
         0.00000E+00
         0.00000E+00
         0.00000E+00
         0.00000E+00
         0.00000E+00
         0.00000E+00
         0.00000E+00
         0.00000E+00
         0.00000E+00
         0.00000E+00
         0.00000E+00
         0.00000E+00
         0.00000E+00
         0.00000E+00
         0.00000E+00
         0.00000E+00
         0.00000E+00
         0.00000E+00
         0.00000E+00
         0.00000E+00
         0.00000E+00
         0.00000E+00
         0.00000E+00
         0.00000E+00
         0.00000E+00
         0.00000E+00
         0.00000E+00
         0.00000E+00
         0.00000E+00
         0.00000E+00
         0.00000E+00
         0.00000E+00
         0.00000E+00
         0.00000E+00
         0.00000E+00
         0.00000E+00
         0.00000E+00
         0.00000E+00
         0.00000E+00
         0.00000E+00
         0.00000E+00
         0.00000E+00
         0.00000E+00
         0.00000E+00
         0.00000E+00
         0.00000E+00
         0.00000E+00
         0.00000E+00
         0.00000E+00
         0.00000E+00
         0.00000E+00
         0.00000E+00
         0.00000E+00
         0.00000E+00
         0.00000E+00
         0.00000E+00
         0.00000E+00
         0.00000E+00
         0.00000E+00
         0.00000E+00
         0.00000E+00
         0.00000E+00
         0.00000E+00
         0.00000E+00
         0.00000E+00
         0.00000E+00
         0.00000E+00
         0.00000E+00
         0.00000E+00
         0.00000E+00
         0.00000E+00
         0.00000E+00
         0.00000E+00
         0.00000E+00
         0.00000E+00
         0.00000E+00
         0.00000E+00
         0.00000E+00
         0.00000E+00
         0.00000E+00
         0.00000E+00
         0.00000E+00
         0.00000E+00
         0.00000E+00
         0.00000E+00
         0.00000E+00
         0.00000E+00
         0.00000E+00
         0.00000E+00
         0.00000E+00
         0.00000E+00
         0.00000E+00
         0.00000E+00
         0.00000E+00
         0.00000E+00
         0.00000E+00
         0.00000E+00
         0.00000E+00
         0.00000E+00
         0.00000E+00
         0.00000E+00
         0.00000E+00
         0.00000E+00
         0.00000E+00
         0.00000E+00
         0.00000E+00
         0.00000E+00
         0.00000E+00
         0.00000E+00
         0.00000E+00
         0.00000E+00
         0.00000E+00
         0.00000E+00
         0.00000E+00
         0.00000E+00
         0.00000E+00
         0.00000E+00
         0.00000E+00
         0.00000E+00
         0.00000E+00
         0.00000E+00
         0.00000E+00
         0.00000E+00
         0.00000E+00
         0.00000E+00
         0.00000E+00
         0.00000E+00
         0.00000E+00
         0.00000E+00
         0.00000E+00
         0.00000E+00
         0.00000E+00
         0.00000E+00
         0.00000E+00
         0.00000E+00
         0.00000E+00
         0.00000E+00
         0.00000E+00
         0.00000E+00
         0.00000E+00
         0.00000E+00
         0.00000E+00
         0.00000E+00
         0.00000E+00
         0.00000E+00
         0.00000E+00
         0.00000E+00
         0.00000E+00
         0.00000E+00
         0.00000E+00
         0.00000E+00
         0.00000E+00
         0.00000E+00
         0.00000E+00
         0.00000E+00
         0.00000E+00
         0.00000E+00
         0.00000E+00
         0.00000E+00
         0.00000E+00
         0.00000E+00
         0.00000E+00
         0.00000E+00
         0.00000E+00
         0.00000E+00
         0.00000E+00
         0.00000E+00
         0.00000E+00
         0.00000E+00
         0.00000E+00
         0.00000E+00
         0.00000E+00
         0.00000E+00
         0.00000E+00
         0.00000E+00
         0.00000E+00
         0.00000E+00
         0.00000E+00
         0.00000E+00
         0.00000E+00
         0.00000E+00
         0.00000E+00
         0.00000E+00
         0.00000E+00
         0.00000E+00
         0.00000E+00
         0.00000E+00
         0.00000E+00
         0.00000E+00
         0.00000E+00
         0.00000E+00
         0.00000E+00
         0.00000E+00
         0.00000E+00
         0.00000E+00
         0.00000E+00
         0.00000E+00
         0.00000E+00
         0.00000E+00
         0.00000E+00
         0.00000E+00
         0.00000E+00
         0.00000E+00
         0.00000E+00
         0.00000E+00
         0.00000E+00
         0.00000E+00
         0.00000E+00
         0.00000E+00
         0.00000E+00
         0.00000E+00
         0.00000E+00
         0.00000E+00
         0.00000E+00
         0.00000E+00
         0.00000E+00
         0.00000E+00
         0.00000E+00
         0.00000E+00
         0.00000E+00
         0.00000E+00
         0.00000E+00
         0.00000E+00
         0.00000E+00
         0.00000E+00
         0.00000E+00
         0.00000E+00
         0.00000E+00
         0.00000E+00
         0.00000E+00
         0.00000E+00
         0.00000E+00
         0.00000E+00
         0.00000E+00
         0.00000E+00
         0.00000E+00
         0.00000E+00
         0.00000E+00
         0.00000E+00
         0.00000E+00
         0.00000E+00
         0.00000E+00
         0.00000E+00
         0.00000E+00
         0.00000E+00
         0.00000E+00
         0.00000E+00
         0.00000E+00
         0.00000E+00
         0.00000E+00
         0.00000E+00
         0.00000E+00
         0.00000E+00
         0.00000E+00
         0.00000E+00
         0.00000E+00
         0.00000E+00
         0.00000E+00
         0.00000E+00
         0.00000E+00
         0.00000E+00
         0.00000E+00
         0.00000E+00
         0.00000E+00
         0.00000E+00
         0.00000E+00
         0.00000E+00
         0.00000E+00
         0.00000E+00
         0.00000E+00
         0.00000E+00
         0.00000E+00
         0.00000E+00
         0.00000E+00
         0.00000E+00
         0.00000E+00
         0.00000E+00
         0.00000E+00
         0.00000E+00
         0.00000E+00
         0.00000E+00
         0.00000E+00
         0.00000E+00
         0.00000E+00
         0.00000E+00
         0.00000E+00
         0.00000E+00
         0.00000E+00
         0.00000E+00
         0.00000E+00
         0.00000E+00
         0.00000E+00
         0.00000E+00
         0.00000E+00
         0.00000E+00
         0.00000E+00
         0.00000E+00
         0.00000E+00
         0.00000E+00
         0.00000E+00
         0.00000E+00
         0.00000E+00
         0.00000E+00
         0.00000E+00
         0.00000E+00
         0.00000E+00
         0.00000E+00
         0.00000E+00
         0.00000E+00
         0.00000E+00
         0.00000E+00
         0.00000E+00
         0.00000E+00
         0.00000E+00
         0.00000E+00
         0.00000E+00
         0.00000E+00
         0.00000E+00
         0.00000E+00
         0.00000E+00
         0.00000E+00
         0.00000E+00
         0.00000E+00
         0.00000E+00
         0.00000E+00
         0.00000E+00
         0.00000E+00
         0.00000E+00
         0.00000E+00
         0.00000E+00
         0.00000E+00
         0.00000E+00
         0.00000E+00
         0.00000E+00
         0.00000E+00
         0.00000E+00
         0.00000E+00
         0.00000E+00
         0.00000E+00
         0.00000E+00
         0.00000E+00
         0.00000E+00
         0.00000E+00
         0.00000E+00
         0.00000E+00
         0.00000E+00
         0.00000E+00
         0.00000E+00
         0.00000E+00
         0.00000E+00
         0.00000E+00
         0.00000E+00
         0.00000E+00
         0.00000E+00
         0.00000E+00
         0.00000E+00
         0.00000E+00
         0.00000E+00
         0.00000E+00
         0.00000E+00
         0.00000E+00
         0.00000E+00
         0.00000E+00
         0.00000E+00
         0.00000E+00
         0.00000E+00
         0.00000E+00
         0.00000E+00
         0.00000E+00
         0.00000E+00
         0.00000E+00
         0.00000E+00
         0.00000E+00
         0.00000E+00
         0.00000E+00
         0.00000E+00
         0.00000E+00
         0.00000E+00
         0.00000E+00
         0.00000E+00
         0.00000E+00
         0.00000E+00
         0.00000E+00
         0.00000E+00
         0.00000E+00
         0.00000E+00
         0.00000E+00
         0.00000E+00
         0.00000E+00
         0.00000E+00
         0.00000E+00
         0.00000E+00
         0.00000E+00
         0.00000E+00
         0.00000E+00
         0.00000E+00
         0.00000E+00
         0.00000E+00
         0.00000E+00
         0.00000E+00
         0.00000E+00
         0.00000E+00
         0.00000E+00
         0.00000E+00
         0.00000E+00
         0.00000E+00
         0.00000E+00
         0.00000E+00
         0.00000E+00
         0.00000E+00
         0.00000E+00
         0.00000E+00
         0.00000E+00
         0.00000E+00
         0.00000E+00
         0.00000E+00
         0.00000E+00
         0.00000E+00
         0.00000E+00
         0.00000E+00
         0.00000E+00
         0.00000E+00
         0.00000E+00
         0.00000E+00
         0.00000E+00
         0.00000E+00
         0.00000E+00
         0.00000E+00
         0.00000E+00
         0.00000E+00
         0.00000E+00
         0.00000E+00
         0.00000E+00
         0.00000E+00
         0.00000E+00
         0.00000E+00
         0.00000E+00
         0.00000E+00
         0.00000E+00
         0.00000E+00
         0.00000E+00
         0.00000E+00
         0.00000E+00
         0.00000E+00
         0.00000E+00
         0.00000E+00
         0.00000E+00
         0.00000E+00
         0.00000E+00
         0.00000E+00
         0.00000E+00
         0.00000E+00
         0.00000E+00
         0.00000E+00
         0.00000E+00
         0.00000E+00
         0.00000E+00
         0.00000E+00
         0.00000E+00
         0.00000E+00
         0.00000E+00
         0.00000E+00
         0.00000E+00
         0.00000E+00
         0.00000E+00
         0.00000E+00
         0.00000E+00
         0.00000E+00
         0.00000E+00
         0.00000E+00
         0.00000E+00
         0.00000E+00
         0.00000E+00
         0.00000E+00
         0.00000E+00
         0.00000E+00
         0.00000E+00
         0.00000E+00
         0.00000E+00
         0.00000E+00
         0.00000E+00
         0.00000E+00
         0.00000E+00
         0.00000E+00
         0.00000E+00
         0.00000E+00
         0.00000E+00
         0.00000E+00
         0.00000E+00
         0.00000E+00
         0.00000E+00
         0.00000E+00
         0.00000E+00
         0.00000E+00
         0.00000E+00
         0.00000E+00
         0.00000E+00
         0.00000E+00
         0.00000E+00
         0.00000E+00
         0.00000E+00
         0.00000E+00
         0.00000E+00
         0.00000E+00
         0.00000E+00
         0.00000E+00
         0.00000E+00
         0.00000E+00
         0.00000E+00
         0.00000E+00
         0.00000E+00
         0.00000E+00
         0.00000E+00
         0.00000E+00
         0.00000E+00
         0.00000E+00
         0.00000E+00
         0.00000E+00
         0.00000E+00
         0.00000E+00
         0.00000E+00
         0.00000E+00
         0.00000E+00
         0.00000E+00
         0.00000E+00
         0.00000E+00
         0.00000E+00
         0.00000E+00
         0.00000E+00
         0.00000E+00
         0.00000E+00
         0.00000E+00
         0.00000E+00
         0.00000E+00
         0.00000E+00
         0.00000E+00
         0.00000E+00
         0.00000E+00
         0.00000E+00
         0.00000E+00
         0.00000E+00
         0.00000E+00
         0.00000E+00
         0.00000E+00
         0.00000E+00
         0.00000E+00
         0.00000E+00
         0.00000E+00
         0.00000E+00
         0.00000E+00
         0.00000E+00
         0.00000E+00
         0.00000E+00
         0.00000E+00
         0.00000E+00
         0.00000E+00
         0.00000E+00
         0.00000E+00
         0.00000E+00
         0.00000E+00
         0.00000E+00
         0.00000E+00
         0.00000E+00
         0.00000E+00
         0.00000E+00
         0.00000E+00
         0.00000E+00
         0.00000E+00
         0.00000E+00
         0.00000E+00
         0.00000E+00
         0.00000E+00
         0.00000E+00
         0.00000E+00
         0.00000E+00
         0.00000E+00
         0.00000E+00
         0.00000E+00
         0.00000E+00
         0.00000E+00
         0.00000E+00
         0.00000E+00
         0.00000E+00
         0.00000E+00
         0.00000E+00
         0.00000E+00
         0.00000E+00
         0.00000E+00
         0.00000E+00
         0.00000E+00
         0.00000E+00
         0.00000E+00
         0.00000E+00
         0.00000E+00
         0.00000E+00
         0.00000E+00
         0.00000E+00
         0.00000E+00
         0.00000E+00
         0.00000E+00
         0.00000E+00
         0.00000E+00
         0.00000E+00
         0.00000E+00
         0.00000E+00
         0.00000E+00
         0.00000E+00
         0.00000E+00
         0.00000E+00
         0.00000E+00
         0.00000E+00
         0.00000E+00
         0.00000E+00
         0.00000E+00
         0.00000E+00
         0.00000E+00
         0.00000E+00
         0.00000E+00
         0.00000E+00
         0.00000E+00
         0.00000E+00
         0.00000E+00
         0.00000E+00
         0.00000E+00
         0.00000E+00
         0.00000E+00
         0.00000E+00
         0.00000E+00
         0.00000E+00
         0.00000E+00
         0.00000E+00
         0.00000E+00
         0.00000E+00
         0.00000E+00
         0.00000E+00
         0.00000E+00
         0.00000E+00
         0.00000E+00
         0.00000E+00
         0.00000E+00
         0.00000E+00
         0.00000E+00
         0.00000E+00
         0.00000E+00
         0.00000E+00
         0.00000E+00
         0.00000E+00
         0.00000E+00
         0.00000E+00
         0.00000E+00
         0.00000E+00
         0.00000E+00
         0.00000E+00
         0.00000E+00
         0.00000E+00
         0.00000E+00
         0.00000E+00
         0.00000E+00
         0.00000E+00
         0.00000E+00
         0.00000E+00
         0.00000E+00
         0.00000E+00
         0.00000E+00
         0.00000E+00
         0.00000E+00
         0.00000E+00
         0.00000E+00
         0.00000E+00
         0.00000E+00
         0.00000E+00
         0.00000E+00
         0.00000E+00
         0.00000E+00
         0.00000E+00
         0.00000E+00
         0.00000E+00
         0.00000E+00
         0.00000E+00
         0.00000E+00
         0.00000E+00
         0.00000E+00
         0.00000E+00
         0.00000E+00
         0.00000E+00
         0.00000E+00
         0.00000E+00
         0.00000E+00
         0.00000E+00
         0.00000E+00
         0.00000E+00
         0.00000E+00
         0.00000E+00
         0.00000E+00
         0.00000E+00
         0.00000E+00
         0.00000E+00
         0.00000E+00
         0.00000E+00
         0.00000E+00
         0.00000E+00
         0.00000E+00
         0.00000E+00
         0.00000E+00
         0.00000E+00
         0.00000E+00
         0.00000E+00
         0.00000E+00
         0.00000E+00
         0.00000E+00
         0.00000E+00
         0.00000E+00
         0.00000E+00
         0.00000E+00
         0.00000E+00
         0.00000E+00
         0.00000E+00
         0.00000E+00
         0.00000E+00
         0.00000E+00
         0.00000E+00
         0.00000E+00
         0.00000E+00
         0.00000E+00
         0.00000E+00
         0.00000E+00
         0.00000E+00
         0.00000E+00
         0.00000E+00
         0.00000E+00
         0.00000E+00
         0.00000E+00
         0.00000E+00
         0.00000E+00
         0.00000E+00
         0.00000E+00
         0.00000E+00
         0.00000E+00
         0.00000E+00
         0.00000E+00
         0.00000E+00
         0.00000E+00
         0.00000E+00
         0.00000E+00
         0.00000E+00
         0.00000E+00
         0.00000E+00
         0.00000E+00
         0.00000E+00
         0.00000E+00
         0.00000E+00
         0.00000E+00
         0.00000E+00
         0.00000E+00
         0.00000E+00
         0.00000E+00
         0.00000E+00
         0.00000E+00
         0.00000E+00
         0.00000E+00
         0.00000E+00
         0.00000E+00
         0.00000E+00
         0.00000E+00
         0.00000E+00
         0.00000E+00
         0.00000E+00
         0.00000E+00
         0.00000E+00
         0.00000E+00
         0.00000E+00
         0.00000E+00
         0.00000E+00
         0.00000E+00
         0.00000E+00
         0.00000E+00
         0.00000E+00
         0.00000E+00
         0.00000E+00
         0.00000E+00
         0.00000E+00
         0.00000E+00
         0.00000E+00
         0.00000E+00
         0.00000E+00
         0.00000E+00
         0.00000E+00
         0.00000E+00
         0.00000E+00
         0.00000E+00
         0.00000E+00
         0.00000E+00
         0.00000E+00
         0.00000E+00
         0.00000E+00
         0.00000E+00
         0.00000E+00
         0.00000E+00
         0.00000E+00
         0.00000E+00
         0.00000E+00
         0.00000E+00
         0.00000E+00
         0.00000E+00
         0.00000E+00
         0.00000E+00
         0.00000E+00
         0.00000E+00
         0.00000E+00
         0.00000E+00
         0.00000E+00
         0.00000E+00
         0.00000E+00
         0.00000E+00
         0.00000E+00
         0.00000E+00
         0.00000E+00
         0.00000E+00
         0.00000E+00
         0.00000E+00
         0.00000E+00
         0.00000E+00
         0.00000E+00
         0.00000E+00
         0.00000E+00
         0.00000E+00
         0.00000E+00
         0.00000E+00
         0.00000E+00
         0.00000E+00
         0.00000E+00
         0.00000E+00
         0.00000E+00
         0.00000E+00
         0.00000E+00
         0.00000E+00
         0.00000E+00
         0.00000E+00
         0.00000E+00
         0.00000E+00
         0.00000E+00
         0.00000E+00
         0.00000E+00
         0.00000E+00
         0.00000E+00
         0.00000E+00
         0.00000E+00
         0.00000E+00
         0.00000E+00
         0.00000E+00
         0.00000E+00
         0.00000E+00
         0.00000E+00
         0.00000E+00
         0.00000E+00
         0.00000E+00
         0.00000E+00
         0.00000E+00
         0.00000E+00
         0.00000E+00
         0.00000E+00
         0.00000E+00
         0.00000E+00
         0.00000E+00
         0.00000E+00
         0.00000E+00
         0.00000E+00
         0.00000E+00
         0.00000E+00
         0.00000E+00
         0.00000E+00
         0.00000E+00
         0.00000E+00
         0.00000E+00
         0.00000E+00
         0.00000E+00
         0.00000E+00
         0.00000E+00
         0.00000E+00
         0.00000E+00
         0.00000E+00
         0.00000E+00
         0.00000E+00
         0.00000E+00
         0.00000E+00
         0.00000E+00
         0.00000E+00
         0.00000E+00
         0.00000E+00
         0.00000E+00
         0.00000E+00
         0.00000E+00
         0.00000E+00
         0.00000E+00
         0.00000E+00
         0.00000E+00
         0.00000E+00
         0.00000E+00
         0.00000E+00
         0.00000E+00
         0.00000E+00
         0.00000E+00
         0.00000E+00
         0.00000E+00
         0.00000E+00
         0.00000E+00
         0.00000E+00
         0.00000E+00
         0.00000E+00
         0.00000E+00
         0.00000E+00
         0.00000E+00
         0.00000E+00
         0.00000E+00
         0.00000E+00
         0.00000E+00
         0.00000E+00
         0.00000E+00
         0.00000E+00
         0.00000E+00
         0.00000E+00
         0.00000E+00
         0.00000E+00
         0.00000E+00
         0.00000E+00
         0.00000E+00
         0.00000E+00
         0.00000E+00
         0.00000E+00
         0.00000E+00
         0.00000E+00
         0.00000E+00
         0.00000E+00
         0.00000E+00
         0.00000E+00
         0.00000E+00
         0.00000E+00
         0.00000E+00
         0.00000E+00
         0.00000E+00
         0.00000E+00
         0.00000E+00
         0.00000E+00
         0.00000E+00
         0.00000E+00
         0.00000E+00
         0.00000E+00
         0.00000E+00
         0.00000E+00
         0.00000E+00
         0.00000E+00
         0.00000E+00
         0.00000E+00
         0.00000E+00
         0.00000E+00
         0.00000E+00
         0.00000E+00
         0.00000E+00
         0.00000E+00
         0.00000E+00
         0.00000E+00
         0.00000E+00
         0.00000E+00
         0.00000E+00
         0.00000E+00
         0.00000E+00
         0.00000E+00
         0.00000E+00
         0.00000E+00
         0.00000E+00
         0.00000E+00
         0.00000E+00
         0.00000E+00
         0.00000E+00
         0.00000E+00
         0.00000E+00
         0.00000E+00
         0.00000E+00
         0.00000E+00
         0.00000E+00
         0.00000E+00
         0.00000E+00
         0.00000E+00
         0.00000E+00
         0.00000E+00
         0.00000E+00
         0.00000E+00
         0.00000E+00
         0.00000E+00
         0.00000E+00
         0.00000E+00
         0.00000E+00
         0.00000E+00
         0.00000E+00
         0.00000E+00
         0.00000E+00
         0.00000E+00
         0.00000E+00
         0.00000E+00
         0.00000E+00
         0.00000E+00
         0.00000E+00
         0.00000E+00
         0.00000E+00
         0.00000E+00
         0.00000E+00
         0.00000E+00
         0.00000E+00
         0.00000E+00
         0.00000E+00
         0.00000E+00
         0.00000E+00
         0.00000E+00
         0.00000E+00
         0.00000E+00
         0.00000E+00
         0.00000E+00
         0.00000E+00
         0.00000E+00
         0.00000E+00
         0.00000E+00
         0.00000E+00
         0.00000E+00
         0.00000E+00
         0.00000E+00
         0.00000E+00
         0.00000E+00
         0.00000E+00
         0.00000E+00
         0.00000E+00
         0.00000E+00
         0.00000E+00
         0.00000E+00
         0.00000E+00
         0.00000E+00
         0.00000E+00
         0.00000E+00
         0.00000E+00
         0.00000E+00
         0.00000E+00
         0.00000E+00
         0.00000E+00
         0.00000E+00
         0.00000E+00
         0.00000E+00
         0.00000E+00
         0.00000E+00
         0.00000E+00
         0.00000E+00
         0.00000E+00
         0.00000E+00
         0.00000E+00
         0.00000E+00
         0.00000E+00
         0.00000E+00
         0.00000E+00
         0.00000E+00
         0.00000E+00
         0.00000E+00
         0.00000E+00
         0.00000E+00
         0.00000E+00
         0.00000E+00
         0.00000E+00
         0.00000E+00
         0.00000E+00
         0.00000E+00
         0.00000E+00
         0.00000E+00
         0.00000E+00
         0.00000E+00
         0.00000E+00
         0.00000E+00
         0.00000E+00
         0.00000E+00
         0.00000E+00
         0.00000E+00
         0.00000E+00
         0.00000E+00
         0.00000E+00
         0.00000E+00
         0.00000E+00
         0.00000E+00
         0.00000E+00
         0.00000E+00
         0.00000E+00
         0.00000E+00
         0.00000E+00
         0.00000E+00
         0.00000E+00
         0.00000E+00
         0.00000E+00
         0.00000E+00
         0.00000E+00
         0.00000E+00
         0.00000E+00
         0.00000E+00
         0.00000E+00
         0.00000E+00
         0.00000E+00
         0.00000E+00
         0.00000E+00
         0.00000E+00
         0.00000E+00
         0.00000E+00
         0.00000E+00
         0.00000E+00
         0.00000E+00
         0.00000E+00
         0.00000E+00
         0.00000E+00
         0.00000E+00
         0.00000E+00
         0.00000E+00
         0.00000E+00
         0.00000E+00
         0.00000E+00
         0.00000E+00
         0.00000E+00
         0.00000E+00
         0.00000E+00
         0.00000E+00
         0.00000E+00
         0.00000E+00
         0.00000E+00
         0.00000E+00
         0.00000E+00
         0.00000E+00
         0.00000E+00
         0.00000E+00
         0.00000E+00
         0.00000E+00
         0.00000E+00
         0.00000E+00
         0.00000E+00
         0.00000E+00
         0.00000E+00
         0.00000E+00
         0.00000E+00
         0.00000E+00
         0.00000E+00
         0.00000E+00
         0.00000E+00
         0.00000E+00
         0.00000E+00
         0.00000E+00
         0.00000E+00
         0.00000E+00
         0.00000E+00
         0.00000E+00
         0.00000E+00
         0.00000E+00
         0.00000E+00
         0.00000E+00
         0.00000E+00
         0.00000E+00
         0.00000E+00
         0.00000E+00
         0.00000E+00
         0.00000E+00
         0.00000E+00
         0.00000E+00
         0.00000E+00
         0.00000E+00
         0.00000E+00
         0.00000E+00
         0.00000E+00
         0.00000E+00
         0.00000E+00
         0.00000E+00
         0.00000E+00
         0.00000E+00
         0.00000E+00
         0.00000E+00
         0.00000E+00
         0.00000E+00
         0.00000E+00
         0.00000E+00
         0.00000E+00
         0.00000E+00
         0.00000E+00
         0.00000E+00
         0.00000E+00
         0.00000E+00
         0.00000E+00
         0.00000E+00
         0.00000E+00
         0.00000E+00
         0.00000E+00
         0.00000E+00
         0.00000E+00
         0.00000E+00
         0.00000E+00
         0.00000E+00
         0.00000E+00
         0.00000E+00
         0.00000E+00
         0.00000E+00
         0.00000E+00
         0.00000E+00
         0.00000E+00
         0.00000E+00
         0.00000E+00
         0.00000E+00
         0.00000E+00
         0.00000E+00
         0.00000E+00
         0.00000E+00
         0.00000E+00
         0.00000E+00
         0.00000E+00
         0.00000E+00
         0.00000E+00
         0.00000E+00
         0.00000E+00
         0.00000E+00
         0.00000E+00
         0.00000E+00
         0.00000E+00
         0.00000E+00
         0.00000E+00
         0.00000E+00
         0.00000E+00
         0.00000E+00
         0.00000E+00
         0.00000E+00
         0.00000E+00
         0.00000E+00
         0.00000E+00
         0.00000E+00
         0.00000E+00
         0.00000E+00
         0.00000E+00
         0.00000E+00
         0.00000E+00
         0.00000E+00
         0.00000E+00
         0.00000E+00
         0.00000E+00
         0.00000E+00
         0.00000E+00
         0.00000E+00
         0.00000E+00
         0.00000E+00
         0.00000E+00
         0.00000E+00
         0.00000E+00
         0.00000E+00
         0.00000E+00
         0.00000E+00
         0.00000E+00
         0.00000E+00
         0.00000E+00
         0.00000E+00
         0.00000E+00
         0.00000E+00
         0.00000E+00
         0.00000E+00
         0.00000E+00
         0.00000E+00
         0.00000E+00
         0.00000E+00
         0.00000E+00
         0.00000E+00
         0.00000E+00
         0.00000E+00
         0.00000E+00
         0.00000E+00
         0.00000E+00
         0.00000E+00
         0.00000E+00
         0.00000E+00
         0.00000E+00
         0.00000E+00
         0.00000E+00
         0.00000E+00
         0.00000E+00
         0.00000E+00
         0.00000E+00
         0.00000E+00
         0.00000E+00
         0.00000E+00
         0.00000E+00
         0.00000E+00
         0.00000E+00
         0.00000E+00
         0.00000E+00
         0.00000E+00
         0.00000E+00
         0.00000E+00
         0.00000E+00
         0.00000E+00
         0.00000E+00
         0.00000E+00
         0.00000E+00
         0.00000E+00
         0.00000E+00
         0.00000E+00
         0.00000E+00
         0.00000E+00
         0.00000E+00
         0.00000E+00
         0.00000E+00
         0.00000E+00
         0.00000E+00
         0.00000E+00
         0.00000E+00
         0.00000E+00
         0.00000E+00
         0.00000E+00
         0.00000E+00
         0.00000E+00
         0.00000E+00
         0.00000E+00
         0.00000E+00
         0.00000E+00
         0.00000E+00
         0.00000E+00
         0.00000E+00
         0.00000E+00
         0.00000E+00
         0.00000E+00
         0.00000E+00
         0.00000E+00
         0.00000E+00
         0.00000E+00
         0.00000E+00
         0.00000E+00
         0.00000E+00
         0.00000E+00
         0.00000E+00
         0.00000E+00
         0.00000E+00
         0.00000E+00
         0.00000E+00
         0.00000E+00
         0.00000E+00
         0.00000E+00
         0.00000E+00
         0.00000E+00
         0.00000E+00
         0.00000E+00
         0.00000E+00
         0.00000E+00
         0.00000E+00
         0.00000E+00
         0.00000E+00
         0.00000E+00
         0.00000E+00
         0.00000E+00
         0.00000E+00
         0.00000E+00
         0.00000E+00
         0.00000E+00
         0.00000E+00
         0.00000E+00
         0.00000E+00
         0.00000E+00
         0.00000E+00
         0.00000E+00
         0.00000E+00
         0.00000E+00
         0.00000E+00
         0.00000E+00
         0.00000E+00
         0.00000E+00
         0.00000E+00
         0.00000E+00
         0.00000E+00
         0.00000E+00
         0.00000E+00
         0.00000E+00
         0.00000E+00
         0.00000E+00
         0.00000E+00
         0.00000E+00
         0.00000E+00
         0.00000E+00
         0.00000E+00
         0.00000E+00
         0.00000E+00
         0.00000E+00
         0.00000E+00
         0.00000E+00
         0.00000E+00
         0.00000E+00
         0.00000E+00
         0.00000E+00
         0.00000E+00
         0.00000E+00
         0.00000E+00
         0.00000E+00
         0.00000E+00
         0.00000E+00
         0.00000E+00
         0.00000E+00
         0.00000E+00
         0.00000E+00
         0.00000E+00
         0.00000E+00
         0.00000E+00
         0.00000E+00
         0.00000E+00
  
SCALARS                   max_wave_vel  double 1
LOOKUP_TABLE default
         0.00000E+00
         0.00000E+00
         0.00000E+00
         0.00000E+00
         0.00000E+00
         0.00000E+00
         0.00000E+00
         0.00000E+00
         0.00000E+00
         0.00000E+00
         0.00000E+00
         0.00000E+00
         0.00000E+00
         0.00000E+00
         0.00000E+00
         0.00000E+00
         0.00000E+00
         0.00000E+00
         0.00000E+00
         0.00000E+00
         0.00000E+00
         0.00000E+00
         0.00000E+00
         0.00000E+00
         0.00000E+00
         0.00000E+00
         0.00000E+00
         0.00000E+00
         0.00000E+00
         0.00000E+00
         0.00000E+00
         0.00000E+00
         0.00000E+00
         0.00000E+00
         0.00000E+00
         0.00000E+00
         0.00000E+00
         0.00000E+00
         0.00000E+00
         0.00000E+00
         0.00000E+00
         0.00000E+00
         0.00000E+00
         0.00000E+00
         0.00000E+00
         0.00000E+00
         0.00000E+00
         0.00000E+00
         0.00000E+00
         0.00000E+00
         0.00000E+00
         0.00000E+00
         0.00000E+00
         0.00000E+00
         0.00000E+00
         0.00000E+00
         0.00000E+00
         0.00000E+00
         0.00000E+00
         0.00000E+00
         0.00000E+00
         0.00000E+00
         0.00000E+00
         0.00000E+00
         0.00000E+00
         0.00000E+00
         0.00000E+00
         0.00000E+00
         0.00000E+00
         0.00000E+00
         0.00000E+00
         0.00000E+00
         0.00000E+00
         0.00000E+00
         0.00000E+00
         0.00000E+00
         0.00000E+00
         0.00000E+00
         0.00000E+00
         0.00000E+00
         0.00000E+00
         0.00000E+00
         0.00000E+00
         0.00000E+00
         0.00000E+00
         0.00000E+00
         0.00000E+00
         0.00000E+00
         0.00000E+00
         0.00000E+00
         0.00000E+00
         0.00000E+00
         0.00000E+00
         0.00000E+00
         0.00000E+00
         0.00000E+00
         0.00000E+00
         0.00000E+00
         0.00000E+00
         0.00000E+00
         0.00000E+00
         0.00000E+00
         0.00000E+00
         0.00000E+00
         0.00000E+00
         0.00000E+00
         0.00000E+00
         0.00000E+00
         0.00000E+00
         0.00000E+00
         0.00000E+00
         0.00000E+00
         0.00000E+00
         0.00000E+00
         0.00000E+00
         0.00000E+00
         0.00000E+00
         0.00000E+00
         0.00000E+00
         0.00000E+00
         0.00000E+00
         0.00000E+00
         0.00000E+00
         0.00000E+00
         0.00000E+00
         0.00000E+00
         0.00000E+00
         0.00000E+00
         0.00000E+00
         0.00000E+00
         0.00000E+00
         0.00000E+00
         0.00000E+00
         0.00000E+00
         0.00000E+00
         0.00000E+00
         0.00000E+00
         0.00000E+00
         0.00000E+00
         0.00000E+00
         0.00000E+00
         0.00000E+00
         0.00000E+00
         0.00000E+00
         0.00000E+00
         0.00000E+00
         0.00000E+00
         0.00000E+00
         0.00000E+00
         0.00000E+00
         0.00000E+00
         0.00000E+00
         0.00000E+00
         0.00000E+00
         0.00000E+00
         0.00000E+00
         0.00000E+00
         0.00000E+00
         0.00000E+00
         0.00000E+00
         0.00000E+00
         0.00000E+00
         0.00000E+00
         0.00000E+00
         0.00000E+00
         0.00000E+00
         0.00000E+00
         0.00000E+00
         0.00000E+00
         0.00000E+00
         0.00000E+00
         0.00000E+00
         0.00000E+00
         0.00000E+00
         0.00000E+00
         0.00000E+00
         0.00000E+00
         0.00000E+00
         0.00000E+00
         0.00000E+00
         0.00000E+00
         0.00000E+00
         0.00000E+00
         0.00000E+00
         0.00000E+00
         0.00000E+00
         0.00000E+00
         0.00000E+00
         0.00000E+00
         0.00000E+00
         0.00000E+00
         0.00000E+00
         0.00000E+00
         0.00000E+00
         0.00000E+00
         0.00000E+00
         0.00000E+00
         0.00000E+00
         0.00000E+00
         0.00000E+00
         0.00000E+00
         0.00000E+00
         0.00000E+00
         0.00000E+00
         0.00000E+00
         0.00000E+00
         0.00000E+00
         0.00000E+00
         0.00000E+00
         0.00000E+00
         0.00000E+00
         0.00000E+00
         0.00000E+00
         0.00000E+00
         0.00000E+00
         0.00000E+00
         0.00000E+00
         0.00000E+00
         0.00000E+00
         0.00000E+00
         0.00000E+00
         0.00000E+00
         0.00000E+00
         0.00000E+00
         0.00000E+00
         0.00000E+00
         0.00000E+00
         0.00000E+00
         0.00000E+00
         0.00000E+00
         0.00000E+00
         0.00000E+00
         0.00000E+00
         0.00000E+00
         0.00000E+00
         0.00000E+00
         0.00000E+00
         0.00000E+00
         0.00000E+00
         0.00000E+00
         0.00000E+00
         0.00000E+00
         0.00000E+00
         0.00000E+00
         0.00000E+00
         0.00000E+00
         0.00000E+00
         0.00000E+00
         0.00000E+00
         0.00000E+00
         0.00000E+00
         0.00000E+00
         0.00000E+00
         0.00000E+00
         0.00000E+00
         0.00000E+00
         0.00000E+00
         0.00000E+00
         0.00000E+00
         0.00000E+00
         0.00000E+00
         0.00000E+00
         0.00000E+00
         0.00000E+00
         0.00000E+00
         0.00000E+00
         0.00000E+00
         0.00000E+00
         0.00000E+00
         0.00000E+00
         0.00000E+00
         0.00000E+00
         0.00000E+00
         0.00000E+00
         0.00000E+00
         0.00000E+00
         0.00000E+00
         0.00000E+00
         0.00000E+00
         0.00000E+00
         0.00000E+00
         0.00000E+00
         0.00000E+00
         0.00000E+00
         0.00000E+00
         0.00000E+00
         0.00000E+00
         0.00000E+00
         0.00000E+00
         0.00000E+00
         0.00000E+00
         0.00000E+00
         0.00000E+00
         0.00000E+00
         0.00000E+00
         0.00000E+00
         0.00000E+00
         0.00000E+00
         0.00000E+00
         0.00000E+00
         0.00000E+00
         0.00000E+00
         0.00000E+00
         0.00000E+00
         0.00000E+00
         0.00000E+00
         0.00000E+00
         0.00000E+00
         0.00000E+00
         0.00000E+00
         0.00000E+00
         0.00000E+00
         0.00000E+00
         0.00000E+00
         0.00000E+00
         0.00000E+00
         0.00000E+00
         0.00000E+00
         0.00000E+00
         0.00000E+00
         0.00000E+00
         0.00000E+00
         0.00000E+00
         0.00000E+00
         0.00000E+00
         0.00000E+00
         0.00000E+00
         0.00000E+00
         0.00000E+00
         0.00000E+00
         0.00000E+00
         0.00000E+00
         0.00000E+00
         0.00000E+00
         0.00000E+00
         0.00000E+00
         0.00000E+00
         0.00000E+00
         0.00000E+00
         0.00000E+00
         0.00000E+00
         0.00000E+00
         0.00000E+00
         0.00000E+00
         0.00000E+00
         0.00000E+00
         0.00000E+00
         0.00000E+00
         0.00000E+00
         0.00000E+00
         0.00000E+00
         0.00000E+00
         0.00000E+00
         0.00000E+00
         0.00000E+00
         0.00000E+00
         0.00000E+00
         0.00000E+00
         0.00000E+00
         0.00000E+00
         0.00000E+00
         0.00000E+00
         0.00000E+00
         0.00000E+00
         0.00000E+00
         0.00000E+00
         0.00000E+00
         0.00000E+00
         0.00000E+00
         0.00000E+00
         0.00000E+00
         0.00000E+00
         0.00000E+00
         0.00000E+00
         0.00000E+00
         0.00000E+00
         0.00000E+00
         0.00000E+00
         0.00000E+00
         0.00000E+00
         0.00000E+00
         0.00000E+00
         0.00000E+00
         0.00000E+00
         0.00000E+00
         0.00000E+00
         0.00000E+00
         0.00000E+00
         0.00000E+00
         0.00000E+00
         0.00000E+00
         0.00000E+00
         0.00000E+00
         0.00000E+00
         0.00000E+00
         0.00000E+00
         0.00000E+00
         0.00000E+00
         0.00000E+00
         0.00000E+00
         0.00000E+00
         0.00000E+00
         0.00000E+00
         0.00000E+00
         0.00000E+00
         0.00000E+00
         0.00000E+00
         0.00000E+00
         0.00000E+00
         0.00000E+00
         0.00000E+00
         0.00000E+00
         0.00000E+00
         0.00000E+00
         0.00000E+00
         0.00000E+00
         0.00000E+00
         0.00000E+00
         0.00000E+00
         0.00000E+00
         0.00000E+00
         0.00000E+00
         0.00000E+00
         0.00000E+00
         0.00000E+00
         0.00000E+00
         0.00000E+00
         0.00000E+00
         0.00000E+00
         0.00000E+00
         0.00000E+00
         0.00000E+00
         0.00000E+00
         0.00000E+00
         0.00000E+00
         0.00000E+00
         0.00000E+00
         0.00000E+00
         0.00000E+00
         0.00000E+00
         0.00000E+00
         0.00000E+00
         0.00000E+00
         0.00000E+00
         0.00000E+00
         0.00000E+00
         0.00000E+00
         0.00000E+00
         0.00000E+00
         0.00000E+00
         0.00000E+00
         0.00000E+00
         0.00000E+00
         0.00000E+00
         0.00000E+00
         0.00000E+00
         0.00000E+00
         0.00000E+00
         0.00000E+00
         0.00000E+00
         0.00000E+00
         0.00000E+00
         0.00000E+00
         0.00000E+00
         0.00000E+00
         0.00000E+00
         0.00000E+00
         0.00000E+00
         0.00000E+00
         0.00000E+00
         0.00000E+00
         0.00000E+00
         0.00000E+00
         0.00000E+00
         0.00000E+00
         0.00000E+00
         0.00000E+00
         0.00000E+00
         0.00000E+00
         0.00000E+00
         0.00000E+00
         0.00000E+00
         0.00000E+00
         0.00000E+00
         0.00000E+00
         0.00000E+00
         0.00000E+00
         0.00000E+00
         0.00000E+00
         0.00000E+00
         0.00000E+00
         0.00000E+00
         0.00000E+00
         0.00000E+00
         0.00000E+00
         0.00000E+00
         0.00000E+00
         0.00000E+00
         0.00000E+00
         0.00000E+00
         0.00000E+00
         0.00000E+00
         0.00000E+00
         0.00000E+00
         0.00000E+00
         0.00000E+00
         0.00000E+00
         0.00000E+00
         0.00000E+00
         0.00000E+00
         0.00000E+00
         0.00000E+00
         0.00000E+00
         0.00000E+00
         0.00000E+00
         0.00000E+00
         0.00000E+00
         0.00000E+00
         0.00000E+00
         0.00000E+00
         0.00000E+00
         0.00000E+00
         0.00000E+00
         0.00000E+00
         0.00000E+00
         0.00000E+00
         0.00000E+00
         0.00000E+00
         0.00000E+00
         0.00000E+00
         0.00000E+00
         0.00000E+00
         0.00000E+00
         0.00000E+00
         0.00000E+00
         0.00000E+00
         0.00000E+00
         0.00000E+00
         0.00000E+00
         0.00000E+00
         0.00000E+00
         0.00000E+00
         0.00000E+00
         0.00000E+00
         0.00000E+00
         0.00000E+00
         0.00000E+00
         0.00000E+00
         0.00000E+00
         0.00000E+00
         0.00000E+00
         0.00000E+00
         0.00000E+00
         0.00000E+00
         0.00000E+00
         0.00000E+00
         0.00000E+00
         0.00000E+00
         0.00000E+00
         0.00000E+00
         0.00000E+00
         0.00000E+00
         0.00000E+00
         0.00000E+00
         0.00000E+00
         0.00000E+00
         0.00000E+00
         0.00000E+00
         0.00000E+00
         0.00000E+00
         0.00000E+00
         0.00000E+00
         0.00000E+00
         0.00000E+00
         0.00000E+00
         0.00000E+00
         0.00000E+00
         0.00000E+00
         0.00000E+00
         0.00000E+00
         0.00000E+00
         0.00000E+00
         0.00000E+00
         0.00000E+00
         0.00000E+00
         0.00000E+00
         0.00000E+00
         0.00000E+00
         0.00000E+00
         0.00000E+00
         0.00000E+00
         0.00000E+00
         0.00000E+00
         0.00000E+00
         0.00000E+00
         0.00000E+00
         0.00000E+00
         0.00000E+00
         0.00000E+00
         0.00000E+00
         0.00000E+00
         0.00000E+00
         0.00000E+00
         0.00000E+00
         0.00000E+00
         0.00000E+00
         0.00000E+00
         0.00000E+00
         0.00000E+00
         0.00000E+00
         0.00000E+00
         0.00000E+00
         0.00000E+00
         0.00000E+00
         0.00000E+00
         0.00000E+00
         0.00000E+00
         0.00000E+00
         0.00000E+00
         0.00000E+00
         0.00000E+00
         0.00000E+00
         0.00000E+00
         0.00000E+00
         0.00000E+00
         0.00000E+00
         0.00000E+00
         0.00000E+00
         0.00000E+00
         0.00000E+00
         0.00000E+00
         0.00000E+00
         0.00000E+00
         0.00000E+00
         0.00000E+00
         0.00000E+00
         0.00000E+00
         0.00000E+00
         0.00000E+00
         0.00000E+00
         0.00000E+00
         0.00000E+00
         0.00000E+00
         0.00000E+00
         0.00000E+00
         0.00000E+00
         0.00000E+00
         0.00000E+00
         0.00000E+00
         0.00000E+00
         0.00000E+00
         0.00000E+00
         0.00000E+00
         0.00000E+00
         0.00000E+00
         0.00000E+00
         0.00000E+00
         0.00000E+00
         0.00000E+00
         0.00000E+00
         0.00000E+00
         0.00000E+00
         0.00000E+00
         0.00000E+00
         0.00000E+00
         0.00000E+00
         0.00000E+00
         0.00000E+00
         0.00000E+00
         0.00000E+00
         0.00000E+00
         0.00000E+00
         0.00000E+00
         0.00000E+00
         0.00000E+00
         0.00000E+00
         0.00000E+00
         0.00000E+00
         0.00000E+00
         0.00000E+00
         0.00000E+00
         0.00000E+00
         0.00000E+00
         0.00000E+00
         0.00000E+00
         0.00000E+00
         0.00000E+00
         0.00000E+00
         0.00000E+00
         0.00000E+00
         0.00000E+00
         0.00000E+00
         0.00000E+00
         0.00000E+00
         0.00000E+00
         0.00000E+00
         0.00000E+00
         0.00000E+00
         0.00000E+00
         0.00000E+00
         0.00000E+00
         0.00000E+00
         0.00000E+00
         0.00000E+00
         0.00000E+00
         0.00000E+00
         0.00000E+00
         0.00000E+00
         0.00000E+00
         0.00000E+00
         0.00000E+00
         0.00000E+00
         0.00000E+00
         0.00000E+00
         0.00000E+00
         0.00000E+00
         0.00000E+00
         0.00000E+00
         0.00000E+00
         0.00000E+00
         0.00000E+00
         0.00000E+00
         0.00000E+00
         0.00000E+00
         0.00000E+00
         0.00000E+00
         0.00000E+00
         0.00000E+00
         0.00000E+00
         0.00000E+00
         0.00000E+00
         0.00000E+00
         0.00000E+00
         0.00000E+00
         0.00000E+00
         0.00000E+00
         0.00000E+00
         0.00000E+00
         0.00000E+00
         0.00000E+00
         0.00000E+00
         0.00000E+00
         0.00000E+00
         0.00000E+00
         0.00000E+00
         0.00000E+00
         0.00000E+00
         0.00000E+00
         0.00000E+00
         0.00000E+00
         0.00000E+00
         0.00000E+00
         0.00000E+00
         0.00000E+00
         0.00000E+00
         0.00000E+00
         0.00000E+00
         0.00000E+00
         0.00000E+00
         0.00000E+00
         0.00000E+00
         0.00000E+00
         0.00000E+00
         0.00000E+00
         0.00000E+00
         0.00000E+00
         0.00000E+00
         0.00000E+00
         0.00000E+00
         0.00000E+00
         0.00000E+00
         0.00000E+00
         0.00000E+00
         0.00000E+00
         0.00000E+00
         0.00000E+00
         0.00000E+00
         0.00000E+00
         0.00000E+00
         0.00000E+00
         0.00000E+00
         0.00000E+00
         0.00000E+00
         0.00000E+00
         0.00000E+00
         0.00000E+00
         0.00000E+00
         0.00000E+00
         0.00000E+00
         0.00000E+00
         0.00000E+00
         0.00000E+00
         0.00000E+00
         0.00000E+00
         0.00000E+00
         0.00000E+00
         0.00000E+00
         0.00000E+00
         0.00000E+00
         0.00000E+00
         0.00000E+00
         0.00000E+00
         0.00000E+00
         0.00000E+00
         0.00000E+00
         0.00000E+00
         0.00000E+00
         0.00000E+00
         0.00000E+00
         0.00000E+00
         0.00000E+00
         0.00000E+00
         0.00000E+00
         0.00000E+00
         0.00000E+00
         0.00000E+00
         0.00000E+00
         0.00000E+00
         0.00000E+00
         0.00000E+00
         0.00000E+00
         0.00000E+00
         0.00000E+00
         0.00000E+00
         0.00000E+00
         0.00000E+00
         0.00000E+00
         0.00000E+00
         0.00000E+00
         0.00000E+00
         0.00000E+00
         0.00000E+00
         0.00000E+00
         0.00000E+00
         0.00000E+00
         0.00000E+00
         0.00000E+00
         0.00000E+00
         0.00000E+00
         0.00000E+00
         0.00000E+00
         0.00000E+00
         0.00000E+00
         0.00000E+00
         0.00000E+00
         0.00000E+00
         0.00000E+00
         0.00000E+00
         0.00000E+00
         0.00000E+00
         0.00000E+00
         0.00000E+00
         0.00000E+00
         0.00000E+00
         0.00000E+00
         0.00000E+00
         0.00000E+00
         0.00000E+00
         0.00000E+00
         0.00000E+00
         0.00000E+00
         0.00000E+00
         0.00000E+00
         0.00000E+00
         0.00000E+00
         0.00000E+00
         0.00000E+00
         0.00000E+00
         0.00000E+00
         0.00000E+00
         0.00000E+00
         0.00000E+00
         0.00000E+00
         0.00000E+00
         0.00000E+00
         0.00000E+00
         0.00000E+00
         0.00000E+00
         0.00000E+00
         0.00000E+00
         0.00000E+00
         0.00000E+00
         0.00000E+00
         0.00000E+00
         0.00000E+00
         0.00000E+00
         0.00000E+00
         0.00000E+00
         0.00000E+00
         0.00000E+00
         0.00000E+00
         0.00000E+00
         0.00000E+00
         0.00000E+00
         0.00000E+00
         0.00000E+00
         0.00000E+00
         0.00000E+00
         0.00000E+00
         0.00000E+00
         0.00000E+00
         0.00000E+00
         0.00000E+00
         0.00000E+00
         0.00000E+00
         0.00000E+00
         0.00000E+00
         0.00000E+00
         0.00000E+00
         0.00000E+00
         0.00000E+00
         0.00000E+00
         0.00000E+00
         0.00000E+00
         0.00000E+00
         0.00000E+00
         0.00000E+00
         0.00000E+00
         0.00000E+00
         0.00000E+00
         0.00000E+00
         0.00000E+00
         0.00000E+00
         0.00000E+00
         0.00000E+00
         0.00000E+00
         0.00000E+00
         0.00000E+00
         0.00000E+00
         0.00000E+00
         0.00000E+00
         0.00000E+00
         0.00000E+00
         0.00000E+00
         0.00000E+00
         0.00000E+00
         0.00000E+00
         0.00000E+00
         0.00000E+00
         0.00000E+00
         0.00000E+00
         0.00000E+00
         0.00000E+00
         0.00000E+00
         0.00000E+00
         0.00000E+00
         0.00000E+00
         0.00000E+00
         0.00000E+00
         0.00000E+00
         0.00000E+00
         0.00000E+00
         0.00000E+00
         0.00000E+00
         0.00000E+00
         0.00000E+00
         0.00000E+00
         0.00000E+00
         0.00000E+00
         0.00000E+00
         0.00000E+00
         0.00000E+00
         0.00000E+00
         0.00000E+00
         0.00000E+00
         0.00000E+00
         0.00000E+00
         0.00000E+00
         0.00000E+00
         0.00000E+00
         0.00000E+00
         0.00000E+00
         0.00000E+00
         0.00000E+00
         0.00000E+00
         0.00000E+00
         0.00000E+00
         0.00000E+00
         0.00000E+00
         0.00000E+00
         0.00000E+00
         0.00000E+00
         0.00000E+00
         0.00000E+00
         0.00000E+00
         0.00000E+00
         0.00000E+00
         0.00000E+00
         0.00000E+00
         0.00000E+00
         0.00000E+00
         0.00000E+00
         0.00000E+00
         0.00000E+00
         0.00000E+00
         0.00000E+00
         0.00000E+00
         0.00000E+00
         0.00000E+00
         0.00000E+00
         0.00000E+00
         0.00000E+00
         0.00000E+00
         0.00000E+00
         0.00000E+00
         0.00000E+00
         0.00000E+00
         0.00000E+00
         0.00000E+00
         0.00000E+00
         0.00000E+00
         0.00000E+00
         0.00000E+00
         0.00000E+00
         0.00000E+00
         0.00000E+00
         0.00000E+00
         0.00000E+00
         0.00000E+00
         0.00000E+00
         0.00000E+00
         0.00000E+00
         0.00000E+00
         0.00000E+00
         0.00000E+00
         0.00000E+00
         0.00000E+00
         0.00000E+00
         0.00000E+00
         0.00000E+00
         0.00000E+00
         0.00000E+00
         0.00000E+00
         0.00000E+00
         0.00000E+00
         0.00000E+00
         0.00000E+00
         0.00000E+00
         0.00000E+00
         0.00000E+00
         0.00000E+00
         0.00000E+00
         0.00000E+00
         0.00000E+00
         0.00000E+00
         0.00000E+00
         0.00000E+00
         0.00000E+00
         0.00000E+00
         0.00000E+00
         0.00000E+00
         0.00000E+00
         0.00000E+00
         0.00000E+00
         0.00000E+00
         0.00000E+00
         0.00000E+00
         0.00000E+00
         0.00000E+00
         0.00000E+00
         0.00000E+00
         0.00000E+00
         0.00000E+00
         0.00000E+00
         0.00000E+00
         0.00000E+00
         0.00000E+00
         0.00000E+00
         0.00000E+00
         0.00000E+00
         0.00000E+00
         0.00000E+00
         0.00000E+00
         0.00000E+00
         0.00000E+00
         0.00000E+00
         0.00000E+00
         0.00000E+00
         0.00000E+00
         0.00000E+00
         0.00000E+00
         0.00000E+00
         0.00000E+00
         0.00000E+00
         0.00000E+00
         0.00000E+00
         0.00000E+00
         0.00000E+00
         0.00000E+00
         0.00000E+00
         0.00000E+00
         0.00000E+00
         0.00000E+00
         0.00000E+00
         0.00000E+00
         0.00000E+00
         0.00000E+00
         0.00000E+00
         0.00000E+00
         0.00000E+00
         0.00000E+00
         0.00000E+00
         0.00000E+00
         0.00000E+00
         0.00000E+00
         0.00000E+00
         0.00000E+00
         0.00000E+00
         0.00000E+00
         0.00000E+00
         0.00000E+00
         0.00000E+00
         0.00000E+00
         0.00000E+00
         0.00000E+00
         0.00000E+00
         0.00000E+00
         0.00000E+00
         0.00000E+00
         0.00000E+00
         0.00000E+00
         0.00000E+00
         0.00000E+00
         0.00000E+00
         0.00000E+00
         0.00000E+00
         0.00000E+00
         0.00000E+00
         0.00000E+00
         0.00000E+00
         0.00000E+00
         0.00000E+00
         0.00000E+00
         0.00000E+00
         0.00000E+00
         0.00000E+00
         0.00000E+00
         0.00000E+00
         0.00000E+00
         0.00000E+00
         0.00000E+00
         0.00000E+00
         0.00000E+00
         0.00000E+00
         0.00000E+00
         0.00000E+00
         0.00000E+00
         0.00000E+00
         0.00000E+00
         0.00000E+00
         0.00000E+00
         0.00000E+00
         0.00000E+00
         0.00000E+00
         0.00000E+00
         0.00000E+00
         0.00000E+00
         0.00000E+00
         0.00000E+00
         0.00000E+00
         0.00000E+00
         0.00000E+00
         0.00000E+00
         0.00000E+00
         0.00000E+00
         0.00000E+00
         0.00000E+00
         0.00000E+00
         0.00000E+00
         0.00000E+00
         0.00000E+00
         0.00000E+00
         0.00000E+00
         0.00000E+00
         0.00000E+00
         0.00000E+00
         0.00000E+00
         0.00000E+00
         0.00000E+00
         0.00000E+00
         0.00000E+00
         0.00000E+00
         0.00000E+00
         0.00000E+00
         0.00000E+00
         0.00000E+00
         0.00000E+00
         0.00000E+00
         0.00000E+00
         0.00000E+00
         0.00000E+00
         0.00000E+00
         0.00000E+00
         0.00000E+00
         0.00000E+00
         0.00000E+00
         0.00000E+00
         0.00000E+00
         0.00000E+00
         0.00000E+00
         0.00000E+00
         0.00000E+00
         0.00000E+00
         0.00000E+00
         0.00000E+00
         0.00000E+00
         0.00000E+00
         0.00000E+00
         0.00000E+00
         0.00000E+00
         0.00000E+00
         0.00000E+00
         0.00000E+00
         0.00000E+00
         0.00000E+00
         0.00000E+00
         0.00000E+00
         0.00000E+00
         0.00000E+00
         0.00000E+00
         0.00000E+00
         0.00000E+00
         0.00000E+00
         0.00000E+00
         0.00000E+00
         0.00000E+00
         0.00000E+00
         0.00000E+00
         0.00000E+00
         0.00000E+00
         0.00000E+00
         0.00000E+00
         0.00000E+00
         0.00000E+00
         0.00000E+00
         0.00000E+00
         0.00000E+00
         0.00000E+00
         0.00000E+00
         0.00000E+00
         0.00000E+00
         0.00000E+00
         0.00000E+00
         0.00000E+00
         0.00000E+00
         0.00000E+00
         0.00000E+00
         0.00000E+00
         0.00000E+00
         0.00000E+00
         0.00000E+00
         0.00000E+00
         0.00000E+00
         0.00000E+00
         0.00000E+00
         0.00000E+00
         0.00000E+00
         0.00000E+00
         0.00000E+00
         0.00000E+00
         0.00000E+00
         0.00000E+00
         0.00000E+00
         0.00000E+00
         0.00000E+00
         0.00000E+00
         0.00000E+00
         0.00000E+00
         0.00000E+00
         0.00000E+00
         0.00000E+00
         0.00000E+00
         0.00000E+00
         0.00000E+00
         0.00000E+00
         0.00000E+00
         0.00000E+00
         0.00000E+00
         0.00000E+00
         0.00000E+00
         0.00000E+00
         0.00000E+00
         0.00000E+00
         0.00000E+00
         0.00000E+00
         0.00000E+00
         0.00000E+00
         0.00000E+00
         0.00000E+00
         0.00000E+00
         0.00000E+00
         0.00000E+00
         0.00000E+00
         0.00000E+00
         0.00000E+00
         0.00000E+00
         0.00000E+00
         0.00000E+00
         0.00000E+00
         0.00000E+00
         0.00000E+00
         0.00000E+00
         0.00000E+00
         0.00000E+00
         0.00000E+00
         0.00000E+00
         0.00000E+00
         0.00000E+00
         0.00000E+00
         0.00000E+00
         0.00000E+00
         0.00000E+00
         0.00000E+00
         0.00000E+00
         0.00000E+00
         0.00000E+00
         0.00000E+00
         0.00000E+00
         0.00000E+00
         0.00000E+00
         0.00000E+00
         0.00000E+00
         0.00000E+00
         0.00000E+00
         0.00000E+00
         0.00000E+00
         0.00000E+00
         0.00000E+00
         0.00000E+00
         0.00000E+00
         0.00000E+00
         0.00000E+00
         0.00000E+00
         0.00000E+00
         0.00000E+00
         0.00000E+00
         0.00000E+00
         0.00000E+00
         0.00000E+00
         0.00000E+00
         0.00000E+00
         0.00000E+00
         0.00000E+00
         0.00000E+00
         0.00000E+00
         0.00000E+00
         0.00000E+00
         0.00000E+00
         0.00000E+00
         0.00000E+00
         0.00000E+00
         0.00000E+00
         0.00000E+00
         0.00000E+00
         0.00000E+00
         0.00000E+00
         0.00000E+00
         0.00000E+00
         0.00000E+00
         0.00000E+00
         0.00000E+00
         0.00000E+00
         0.00000E+00
         0.00000E+00
         0.00000E+00
         0.00000E+00
         0.00000E+00
         0.00000E+00
         0.00000E+00
         0.00000E+00
         0.00000E+00
         0.00000E+00
         0.00000E+00
         0.00000E+00
         0.00000E+00
         0.00000E+00
         0.00000E+00
         0.00000E+00
         0.00000E+00
         0.00000E+00
         0.00000E+00
         0.00000E+00
         0.00000E+00
         0.00000E+00
         0.00000E+00
         0.00000E+00
         0.00000E+00
         0.00000E+00
         0.00000E+00
         0.00000E+00
         0.00000E+00
         0.00000E+00
         0.00000E+00
         0.00000E+00
         0.00000E+00
         0.00000E+00
         0.00000E+00
         0.00000E+00
         0.00000E+00
         0.00000E+00
         0.00000E+00
         0.00000E+00
         0.00000E+00
         0.00000E+00
         0.00000E+00
         0.00000E+00
         0.00000E+00
         0.00000E+00
         0.00000E+00
         0.00000E+00
         0.00000E+00
         0.00000E+00
         0.00000E+00
         0.00000E+00
         0.00000E+00
         0.00000E+00
         0.00000E+00
         0.00000E+00
         0.00000E+00
         0.00000E+00
         0.00000E+00
         0.00000E+00
         0.00000E+00
         0.00000E+00
         0.00000E+00
         0.00000E+00
         0.00000E+00
         0.00000E+00
         0.00000E+00
         0.00000E+00
         0.00000E+00
         0.00000E+00
         0.00000E+00
         0.00000E+00
         0.00000E+00
         0.00000E+00
         0.00000E+00
         0.00000E+00
         0.00000E+00
         0.00000E+00
         0.00000E+00
         0.00000E+00
         0.00000E+00
         0.00000E+00
         0.00000E+00
         0.00000E+00
         0.00000E+00
         0.00000E+00
         0.00000E+00
         0.00000E+00
         0.00000E+00
         0.00000E+00
         0.00000E+00
         0.00000E+00
         0.00000E+00
         0.00000E+00
         0.00000E+00
         0.00000E+00
         0.00000E+00
         0.00000E+00
         0.00000E+00
         0.00000E+00
         0.00000E+00
         0.00000E+00
         0.00000E+00
         0.00000E+00
         0.00000E+00
         0.00000E+00
         0.00000E+00
         0.00000E+00
         0.00000E+00
         0.00000E+00
         0.00000E+00
         0.00000E+00
         0.00000E+00
         0.00000E+00
         0.00000E+00
         0.00000E+00
         0.00000E+00
         0.00000E+00
         0.00000E+00
         0.00000E+00
         0.00000E+00
         0.00000E+00
         0.00000E+00
         0.00000E+00
         0.00000E+00
         0.00000E+00
         0.00000E+00
         0.00000E+00
         0.00000E+00
         0.00000E+00
         0.00000E+00
         0.00000E+00
         0.00000E+00
         0.00000E+00
         0.00000E+00
         0.00000E+00
         0.00000E+00
         0.00000E+00
         0.00000E+00
         0.00000E+00
         0.00000E+00
         0.00000E+00
         0.00000E+00
         0.00000E+00
         0.00000E+00
         0.00000E+00
         0.00000E+00
         0.00000E+00
         0.00000E+00
         0.00000E+00
         0.00000E+00
         0.00000E+00
         0.00000E+00
         0.00000E+00
         0.00000E+00
         0.00000E+00
         0.00000E+00
         0.00000E+00
         0.00000E+00
         0.00000E+00
         0.00000E+00
         0.00000E+00
         0.00000E+00
         0.00000E+00
         0.00000E+00
         0.00000E+00
         0.00000E+00
         0.00000E+00
         0.00000E+00
         0.00000E+00
         0.00000E+00
         0.00000E+00
         0.00000E+00
         0.00000E+00
         0.00000E+00
         0.00000E+00
         0.00000E+00
         0.00000E+00
         0.00000E+00
         0.00000E+00
         0.00000E+00
         0.00000E+00
         0.00000E+00
         0.00000E+00
         0.00000E+00
         0.00000E+00
         0.00000E+00
         0.00000E+00
         0.00000E+00
         0.00000E+00
         0.00000E+00
         0.00000E+00
         0.00000E+00
         0.00000E+00
         0.00000E+00
         0.00000E+00
         0.00000E+00
         0.00000E+00
         0.00000E+00
         0.00000E+00
         0.00000E+00
         0.00000E+00
         0.00000E+00
         0.00000E+00
         0.00000E+00
         0.00000E+00
         0.00000E+00
         0.00000E+00
         0.00000E+00
         0.00000E+00
         0.00000E+00
         0.00000E+00
         0.00000E+00
         0.00000E+00
         0.00000E+00
         0.00000E+00
         0.00000E+00
         0.00000E+00
         0.00000E+00
         0.00000E+00
         0.00000E+00
         0.00000E+00
         0.00000E+00
         0.00000E+00
         0.00000E+00
         0.00000E+00
         0.00000E+00
         0.00000E+00
         0.00000E+00
         0.00000E+00
         0.00000E+00
         0.00000E+00
         0.00000E+00
         0.00000E+00
         0.00000E+00
         0.00000E+00
         0.00000E+00
         0.00000E+00
         0.00000E+00
         0.00000E+00
         0.00000E+00
         0.00000E+00
         0.00000E+00
         0.00000E+00
         0.00000E+00
         0.00000E+00
         0.00000E+00
         0.00000E+00
         0.00000E+00
         0.00000E+00
         0.00000E+00
         0.00000E+00
         0.00000E+00
         0.00000E+00
         0.00000E+00
         0.00000E+00
         0.00000E+00
         0.00000E+00
         0.00000E+00
         0.00000E+00
         0.00000E+00
         0.00000E+00
         0.00000E+00
         0.00000E+00
         0.00000E+00
         0.00000E+00
         0.00000E+00
         0.00000E+00
         0.00000E+00
         0.00000E+00
         0.00000E+00
         0.00000E+00
         0.00000E+00
         0.00000E+00
         0.00000E+00
         0.00000E+00
         0.00000E+00
         0.00000E+00
         0.00000E+00
         0.00000E+00
         0.00000E+00
         0.00000E+00
         0.00000E+00
         0.00000E+00
         0.00000E+00
         0.00000E+00
         0.00000E+00
         0.00000E+00
         0.00000E+00
         0.00000E+00
         0.00000E+00
         0.00000E+00
         0.00000E+00
         0.00000E+00
         0.00000E+00
         0.00000E+00
         0.00000E+00
         0.00000E+00
         0.00000E+00
         0.00000E+00
         0.00000E+00
         0.00000E+00
         0.00000E+00
         0.00000E+00
         0.00000E+00
         0.00000E+00
         0.00000E+00
         0.00000E+00
         0.00000E+00
         0.00000E+00
         0.00000E+00
         0.00000E+00
         0.00000E+00
         0.00000E+00
         0.00000E+00
         0.00000E+00
         0.00000E+00
         0.00000E+00
         0.00000E+00
         0.00000E+00
         0.00000E+00
         0.00000E+00
         0.00000E+00
         0.00000E+00
         0.00000E+00
         0.00000E+00
         0.00000E+00
         0.00000E+00
         0.00000E+00
         0.00000E+00
         0.00000E+00
         0.00000E+00
         0.00000E+00
         0.00000E+00
         0.00000E+00
         0.00000E+00
         0.00000E+00
         0.00000E+00
         0.00000E+00
         0.00000E+00
         0.00000E+00
         0.00000E+00
         0.00000E+00
         0.00000E+00
         0.00000E+00
         0.00000E+00
         0.00000E+00
         0.00000E+00
         0.00000E+00
         0.00000E+00
         0.00000E+00
         0.00000E+00
         0.00000E+00
         0.00000E+00
         0.00000E+00
         0.00000E+00
         0.00000E+00
         0.00000E+00
         0.00000E+00
         0.00000E+00
         0.00000E+00
         0.00000E+00
         0.00000E+00
         0.00000E+00
         0.00000E+00
         0.00000E+00
         0.00000E+00
         0.00000E+00
         0.00000E+00
         0.00000E+00
         0.00000E+00
         0.00000E+00
         0.00000E+00
         0.00000E+00
         0.00000E+00
         0.00000E+00
         0.00000E+00
         0.00000E+00
         0.00000E+00
         0.00000E+00
         0.00000E+00
         0.00000E+00
         0.00000E+00
         0.00000E+00
         0.00000E+00
         0.00000E+00
         0.00000E+00
         0.00000E+00
         0.00000E+00
         0.00000E+00
         0.00000E+00
         0.00000E+00
         0.00000E+00
         0.00000E+00
         0.00000E+00
         0.00000E+00
         0.00000E+00
         0.00000E+00
         0.00000E+00
         0.00000E+00
         0.00000E+00
         0.00000E+00
         0.00000E+00
         0.00000E+00
         0.00000E+00
         0.00000E+00
         0.00000E+00
         0.00000E+00
         0.00000E+00
         0.00000E+00
         0.00000E+00
         0.00000E+00
         0.00000E+00
         0.00000E+00
         0.00000E+00
         0.00000E+00
         0.00000E+00
         0.00000E+00
         0.00000E+00
         0.00000E+00
         0.00000E+00
         0.00000E+00
         0.00000E+00
         0.00000E+00
         0.00000E+00
         0.00000E+00
         0.00000E+00
         0.00000E+00
         0.00000E+00
         0.00000E+00
         0.00000E+00
         0.00000E+00
         0.00000E+00
         0.00000E+00
         0.00000E+00
         0.00000E+00
         0.00000E+00
         0.00000E+00
         0.00000E+00
         0.00000E+00
         0.00000E+00
         0.00000E+00
         0.00000E+00
         0.00000E+00
         0.00000E+00
         0.00000E+00
         0.00000E+00
         0.00000E+00
         0.00000E+00
         0.00000E+00
         0.00000E+00
         0.00000E+00
         0.00000E+00
         0.00000E+00
         0.00000E+00
         0.00000E+00
         0.00000E+00
         0.00000E+00
         0.00000E+00
         0.00000E+00
         0.00000E+00
         0.00000E+00
         0.00000E+00
         0.00000E+00
         0.00000E+00
         0.00000E+00
         0.00000E+00
         0.00000E+00
         0.00000E+00
         0.00000E+00
         0.00000E+00
         0.00000E+00
         0.00000E+00
         0.00000E+00
         0.00000E+00
         0.00000E+00
         0.00000E+00
         0.00000E+00
         0.00000E+00
         0.00000E+00
         0.00000E+00
         0.00000E+00
         0.00000E+00
         0.00000E+00
         0.00000E+00
         0.00000E+00
         0.00000E+00
         0.00000E+00
         0.00000E+00
         0.00000E+00
         0.00000E+00
         0.00000E+00
         0.00000E+00
         0.00000E+00
         0.00000E+00
         0.00000E+00
         0.00000E+00
         0.00000E+00
         0.00000E+00
         0.00000E+00
         0.00000E+00
         0.00000E+00
         0.00000E+00
         0.00000E+00
         0.00000E+00
         0.00000E+00
         0.00000E+00
         0.00000E+00
         0.00000E+00
         0.00000E+00
         0.00000E+00
         0.00000E+00
         0.00000E+00
         0.00000E+00
         0.00000E+00
         0.00000E+00
         0.00000E+00
         0.00000E+00
         0.00000E+00
         0.00000E+00
         0.00000E+00
         0.00000E+00
         0.00000E+00
         0.00000E+00
         0.00000E+00
         0.00000E+00
         0.00000E+00
         0.00000E+00
         0.00000E+00
         0.00000E+00
         0.00000E+00
         0.00000E+00
         0.00000E+00
         0.00000E+00
         0.00000E+00
         0.00000E+00
         0.00000E+00
         0.00000E+00
         0.00000E+00
         0.00000E+00
         0.00000E+00
         0.00000E+00
         0.00000E+00
         0.00000E+00
         0.00000E+00
         0.00000E+00
         0.00000E+00
         0.00000E+00
         0.00000E+00
         0.00000E+00
         0.00000E+00
         0.00000E+00
         0.00000E+00
         0.00000E+00
         0.00000E+00
         0.00000E+00
         0.00000E+00
         0.00000E+00
         0.00000E+00
         0.00000E+00
         0.00000E+00
         0.00000E+00
         0.00000E+00
         0.00000E+00
         0.00000E+00
         0.00000E+00
         0.00000E+00
         0.00000E+00
         0.00000E+00
         0.00000E+00
         0.00000E+00
         0.00000E+00
         0.00000E+00
         0.00000E+00
         0.00000E+00
         0.00000E+00
         0.00000E+00
         0.00000E+00
         0.00000E+00
         0.00000E+00
         0.00000E+00
         0.00000E+00
         0.00000E+00
         0.00000E+00
         0.00000E+00
         0.00000E+00
         0.00000E+00
         0.00000E+00
  
SCALARS                      eps_shear  double 1
LOOKUP_TABLE default
         0.00000E+00
         0.00000E+00
         0.00000E+00
         0.00000E+00
         0.00000E+00
         0.00000E+00
         0.00000E+00
         0.00000E+00
         0.00000E+00
         0.00000E+00
         0.00000E+00
         0.00000E+00
         0.00000E+00
         0.00000E+00
         0.00000E+00
         0.00000E+00
         0.00000E+00
         0.00000E+00
         0.00000E+00
         0.00000E+00
         0.00000E+00
         0.00000E+00
         0.00000E+00
         0.00000E+00
         0.00000E+00
         0.00000E+00
         0.00000E+00
         0.00000E+00
         0.00000E+00
         0.00000E+00
         0.00000E+00
         0.00000E+00
         0.00000E+00
         0.00000E+00
         0.00000E+00
         0.00000E+00
         0.00000E+00
         0.00000E+00
         0.00000E+00
         0.00000E+00
         0.00000E+00
         0.00000E+00
         0.00000E+00
         0.00000E+00
         0.00000E+00
         0.00000E+00
         0.00000E+00
         0.00000E+00
         0.00000E+00
         0.00000E+00
         0.00000E+00
         0.00000E+00
         0.00000E+00
         0.00000E+00
         0.00000E+00
         0.00000E+00
         0.00000E+00
         0.00000E+00
         0.00000E+00
         0.00000E+00
         0.00000E+00
         0.00000E+00
         0.00000E+00
         0.00000E+00
         0.00000E+00
         0.00000E+00
         0.00000E+00
         0.00000E+00
         0.00000E+00
         0.00000E+00
         0.00000E+00
         0.00000E+00
         0.00000E+00
         0.00000E+00
         0.00000E+00
         0.00000E+00
         0.00000E+00
         0.00000E+00
         0.00000E+00
         0.00000E+00
         0.00000E+00
         0.00000E+00
         0.00000E+00
         0.00000E+00
         0.00000E+00
         0.00000E+00
         0.00000E+00
         0.00000E+00
         0.00000E+00
         0.00000E+00
         0.00000E+00
         0.00000E+00
         0.00000E+00
         0.00000E+00
         0.00000E+00
         0.00000E+00
         0.00000E+00
         0.00000E+00
         0.00000E+00
         0.00000E+00
         0.00000E+00
         0.00000E+00
         0.00000E+00
         0.00000E+00
         0.00000E+00
         0.00000E+00
         0.00000E+00
         0.00000E+00
         0.00000E+00
         0.00000E+00
         0.00000E+00
         0.00000E+00
         0.00000E+00
         0.00000E+00
         0.00000E+00
         0.00000E+00
         0.00000E+00
         0.00000E+00
         0.00000E+00
         0.00000E+00
         0.00000E+00
         0.00000E+00
         0.00000E+00
         0.00000E+00
         0.00000E+00
         0.00000E+00
         0.00000E+00
         0.00000E+00
         0.00000E+00
         0.00000E+00
         0.00000E+00
         0.00000E+00
         0.00000E+00
         0.00000E+00
         0.00000E+00
         0.00000E+00
         0.00000E+00
         0.00000E+00
         0.00000E+00
         0.00000E+00
         0.00000E+00
         0.00000E+00
         0.00000E+00
         0.00000E+00
         0.00000E+00
         0.00000E+00
         0.00000E+00
         0.00000E+00
         0.00000E+00
         0.00000E+00
         0.00000E+00
         0.00000E+00
         0.00000E+00
         0.00000E+00
         0.00000E+00
         0.00000E+00
         0.00000E+00
         0.00000E+00
         0.00000E+00
         0.00000E+00
         0.00000E+00
         0.00000E+00
         0.00000E+00
         0.00000E+00
         0.00000E+00
         0.00000E+00
         0.00000E+00
         0.00000E+00
         0.00000E+00
         0.00000E+00
         0.00000E+00
         0.00000E+00
         0.00000E+00
         0.00000E+00
         0.00000E+00
         0.00000E+00
         0.00000E+00
         0.00000E+00
         0.00000E+00
         0.00000E+00
         0.00000E+00
         0.00000E+00
         0.00000E+00
         0.00000E+00
         0.00000E+00
         0.00000E+00
         0.00000E+00
         0.00000E+00
         0.00000E+00
         0.00000E+00
         0.00000E+00
         0.00000E+00
         0.00000E+00
         0.00000E+00
         0.00000E+00
         0.00000E+00
         0.00000E+00
         0.00000E+00
         0.00000E+00
         0.00000E+00
         0.00000E+00
         0.00000E+00
         0.00000E+00
         0.00000E+00
         0.00000E+00
         0.00000E+00
         0.00000E+00
         0.00000E+00
         0.00000E+00
         0.00000E+00
         0.00000E+00
         0.00000E+00
         0.00000E+00
         0.00000E+00
         0.00000E+00
         0.00000E+00
         0.00000E+00
         0.00000E+00
         0.00000E+00
         0.00000E+00
         0.00000E+00
         0.00000E+00
         0.00000E+00
         0.00000E+00
         0.00000E+00
         0.00000E+00
         0.00000E+00
         0.00000E+00
         0.00000E+00
         0.00000E+00
         0.00000E+00
         0.00000E+00
         0.00000E+00
         0.00000E+00
         0.00000E+00
         0.00000E+00
         0.00000E+00
         0.00000E+00
         0.00000E+00
         0.00000E+00
         0.00000E+00
         0.00000E+00
         0.00000E+00
         0.00000E+00
         0.00000E+00
         0.00000E+00
         0.00000E+00
         0.00000E+00
         0.00000E+00
         0.00000E+00
         0.00000E+00
         0.00000E+00
         0.00000E+00
         0.00000E+00
         0.00000E+00
         0.00000E+00
         0.00000E+00
         0.00000E+00
         0.00000E+00
         0.00000E+00
         0.00000E+00
         0.00000E+00
         0.00000E+00
         0.00000E+00
         0.00000E+00
         0.00000E+00
         0.00000E+00
         0.00000E+00
         0.00000E+00
         0.00000E+00
         0.00000E+00
         0.00000E+00
         0.00000E+00
         0.00000E+00
         0.00000E+00
         0.00000E+00
         0.00000E+00
         0.00000E+00
         0.00000E+00
         0.00000E+00
         0.00000E+00
         0.00000E+00
         0.00000E+00
         0.00000E+00
         0.00000E+00
         0.00000E+00
         0.00000E+00
         0.00000E+00
         0.00000E+00
         0.00000E+00
         0.00000E+00
         0.00000E+00
         0.00000E+00
         0.00000E+00
         0.00000E+00
         0.00000E+00
         0.00000E+00
         0.00000E+00
         0.00000E+00
         0.00000E+00
         0.00000E+00
         0.00000E+00
         0.00000E+00
         0.00000E+00
         0.00000E+00
         0.00000E+00
         0.00000E+00
         0.00000E+00
         0.00000E+00
         0.00000E+00
         0.00000E+00
         0.00000E+00
         0.00000E+00
         0.00000E+00
         0.00000E+00
         0.00000E+00
         0.00000E+00
         0.00000E+00
         0.00000E+00
         0.00000E+00
         0.00000E+00
         0.00000E+00
         0.00000E+00
         0.00000E+00
         0.00000E+00
         0.00000E+00
         0.00000E+00
         0.00000E+00
         0.00000E+00
         0.00000E+00
         0.00000E+00
         0.00000E+00
         0.00000E+00
         0.00000E+00
         0.00000E+00
         0.00000E+00
         0.00000E+00
         0.00000E+00
         0.00000E+00
         0.00000E+00
         0.00000E+00
         0.00000E+00
         0.00000E+00
         0.00000E+00
         0.00000E+00
         0.00000E+00
         0.00000E+00
         0.00000E+00
         0.00000E+00
         0.00000E+00
         0.00000E+00
         0.00000E+00
         0.00000E+00
         0.00000E+00
         0.00000E+00
         0.00000E+00
         0.00000E+00
         0.00000E+00
         0.00000E+00
         0.00000E+00
         0.00000E+00
         0.00000E+00
         0.00000E+00
         0.00000E+00
         0.00000E+00
         0.00000E+00
         0.00000E+00
         0.00000E+00
         0.00000E+00
         0.00000E+00
         0.00000E+00
         0.00000E+00
         0.00000E+00
         0.00000E+00
         0.00000E+00
         0.00000E+00
         0.00000E+00
         0.00000E+00
         0.00000E+00
         0.00000E+00
         0.00000E+00
         0.00000E+00
         0.00000E+00
         0.00000E+00
         0.00000E+00
         0.00000E+00
         0.00000E+00
         0.00000E+00
         0.00000E+00
         0.00000E+00
         0.00000E+00
         0.00000E+00
         0.00000E+00
         0.00000E+00
         0.00000E+00
         0.00000E+00
         0.00000E+00
         0.00000E+00
         0.00000E+00
         0.00000E+00
         0.00000E+00
         0.00000E+00
         0.00000E+00
         0.00000E+00
         0.00000E+00
         0.00000E+00
         0.00000E+00
         0.00000E+00
         0.00000E+00
         0.00000E+00
         0.00000E+00
         0.00000E+00
         0.00000E+00
         0.00000E+00
         0.00000E+00
         0.00000E+00
         0.00000E+00
         0.00000E+00
         0.00000E+00
         0.00000E+00
         0.00000E+00
         0.00000E+00
         0.00000E+00
         0.00000E+00
         0.00000E+00
         0.00000E+00
         0.00000E+00
         0.00000E+00
         0.00000E+00
         0.00000E+00
         0.00000E+00
         0.00000E+00
         0.00000E+00
         0.00000E+00
         0.00000E+00
         0.00000E+00
         0.00000E+00
         0.00000E+00
         0.00000E+00
         0.00000E+00
         0.00000E+00
         0.00000E+00
         0.00000E+00
         0.00000E+00
         0.00000E+00
         0.00000E+00
         0.00000E+00
         0.00000E+00
         0.00000E+00
         0.00000E+00
         0.00000E+00
         0.00000E+00
         0.00000E+00
         0.00000E+00
         0.00000E+00
         0.00000E+00
         0.00000E+00
         0.00000E+00
         0.00000E+00
         0.00000E+00
         0.00000E+00
         0.00000E+00
         0.00000E+00
         0.00000E+00
         0.00000E+00
         0.00000E+00
         0.00000E+00
         0.00000E+00
         0.00000E+00
         0.00000E+00
         0.00000E+00
         0.00000E+00
         0.00000E+00
         0.00000E+00
         0.00000E+00
         0.00000E+00
         0.00000E+00
         0.00000E+00
         0.00000E+00
         0.00000E+00
         0.00000E+00
         0.00000E+00
         0.00000E+00
         0.00000E+00
         0.00000E+00
         0.00000E+00
         0.00000E+00
         0.00000E+00
         0.00000E+00
         0.00000E+00
         0.00000E+00
         0.00000E+00
         0.00000E+00
         0.00000E+00
         0.00000E+00
         0.00000E+00
         0.00000E+00
         0.00000E+00
         0.00000E+00
         0.00000E+00
         0.00000E+00
         0.00000E+00
         0.00000E+00
         0.00000E+00
         0.00000E+00
         0.00000E+00
         0.00000E+00
         0.00000E+00
         0.00000E+00
         0.00000E+00
         0.00000E+00
         0.00000E+00
         0.00000E+00
         0.00000E+00
         0.00000E+00
         0.00000E+00
         0.00000E+00
         0.00000E+00
         0.00000E+00
         0.00000E+00
         0.00000E+00
         0.00000E+00
         0.00000E+00
         0.00000E+00
         0.00000E+00
         0.00000E+00
         0.00000E+00
         0.00000E+00
         0.00000E+00
         0.00000E+00
         0.00000E+00
         0.00000E+00
         0.00000E+00
         0.00000E+00
         0.00000E+00
         0.00000E+00
         0.00000E+00
         0.00000E+00
         0.00000E+00
         0.00000E+00
         0.00000E+00
         0.00000E+00
         0.00000E+00
         0.00000E+00
         0.00000E+00
         0.00000E+00
         0.00000E+00
         0.00000E+00
         0.00000E+00
         0.00000E+00
         0.00000E+00
         0.00000E+00
         0.00000E+00
         0.00000E+00
         0.00000E+00
         0.00000E+00
         0.00000E+00
         0.00000E+00
         0.00000E+00
         0.00000E+00
         0.00000E+00
         0.00000E+00
         0.00000E+00
         0.00000E+00
         0.00000E+00
         0.00000E+00
         0.00000E+00
         0.00000E+00
         0.00000E+00
         0.00000E+00
         0.00000E+00
         0.00000E+00
         0.00000E+00
         0.00000E+00
         0.00000E+00
         0.00000E+00
         0.00000E+00
         0.00000E+00
         0.00000E+00
         0.00000E+00
         0.00000E+00
         0.00000E+00
         0.00000E+00
         0.00000E+00
         0.00000E+00
         0.00000E+00
         0.00000E+00
         0.00000E+00
         0.00000E+00
         0.00000E+00
         0.00000E+00
         0.00000E+00
         0.00000E+00
         0.00000E+00
         0.00000E+00
         0.00000E+00
         0.00000E+00
         0.00000E+00
         0.00000E+00
         0.00000E+00
         0.00000E+00
         0.00000E+00
         0.00000E+00
         0.00000E+00
         0.00000E+00
         0.00000E+00
         0.00000E+00
         0.00000E+00
         0.00000E+00
         0.00000E+00
         0.00000E+00
         0.00000E+00
         0.00000E+00
         0.00000E+00
         0.00000E+00
         0.00000E+00
         0.00000E+00
         0.00000E+00
         0.00000E+00
         0.00000E+00
         0.00000E+00
         0.00000E+00
         0.00000E+00
         0.00000E+00
         0.00000E+00
         0.00000E+00
         0.00000E+00
         0.00000E+00
         0.00000E+00
         0.00000E+00
         0.00000E+00
         0.00000E+00
         0.00000E+00
         0.00000E+00
         0.00000E+00
         0.00000E+00
         0.00000E+00
         0.00000E+00
         0.00000E+00
         0.00000E+00
         0.00000E+00
         0.00000E+00
         0.00000E+00
         0.00000E+00
         0.00000E+00
         0.00000E+00
         0.00000E+00
         0.00000E+00
         0.00000E+00
         0.00000E+00
         0.00000E+00
         0.00000E+00
         0.00000E+00
         0.00000E+00
         0.00000E+00
         0.00000E+00
         0.00000E+00
         0.00000E+00
         0.00000E+00
         0.00000E+00
         0.00000E+00
         0.00000E+00
         0.00000E+00
         0.00000E+00
         0.00000E+00
         0.00000E+00
         0.00000E+00
         0.00000E+00
         0.00000E+00
         0.00000E+00
         0.00000E+00
         0.00000E+00
         0.00000E+00
         0.00000E+00
         0.00000E+00
         0.00000E+00
         0.00000E+00
         0.00000E+00
         0.00000E+00
         0.00000E+00
         0.00000E+00
         0.00000E+00
         0.00000E+00
         0.00000E+00
         0.00000E+00
         0.00000E+00
         0.00000E+00
         0.00000E+00
         0.00000E+00
         0.00000E+00
         0.00000E+00
         0.00000E+00
         0.00000E+00
         0.00000E+00
         0.00000E+00
         0.00000E+00
         0.00000E+00
         0.00000E+00
         0.00000E+00
         0.00000E+00
         0.00000E+00
         0.00000E+00
         0.00000E+00
         0.00000E+00
         0.00000E+00
         0.00000E+00
         0.00000E+00
         0.00000E+00
         0.00000E+00
         0.00000E+00
         0.00000E+00
         0.00000E+00
         0.00000E+00
         0.00000E+00
         0.00000E+00
         0.00000E+00
         0.00000E+00
         0.00000E+00
         0.00000E+00
         0.00000E+00
         0.00000E+00
         0.00000E+00
         0.00000E+00
         0.00000E+00
         0.00000E+00
         0.00000E+00
         0.00000E+00
         0.00000E+00
         0.00000E+00
         0.00000E+00
         0.00000E+00
         0.00000E+00
         0.00000E+00
         0.00000E+00
         0.00000E+00
         0.00000E+00
         0.00000E+00
         0.00000E+00
         0.00000E+00
         0.00000E+00
         0.00000E+00
         0.00000E+00
         0.00000E+00
         0.00000E+00
         0.00000E+00
         0.00000E+00
         0.00000E+00
         0.00000E+00
         0.00000E+00
         0.00000E+00
         0.00000E+00
         0.00000E+00
         0.00000E+00
         0.00000E+00
         0.00000E+00
         0.00000E+00
         0.00000E+00
         0.00000E+00
         0.00000E+00
         0.00000E+00
         0.00000E+00
         0.00000E+00
         0.00000E+00
         0.00000E+00
         0.00000E+00
         0.00000E+00
         0.00000E+00
         0.00000E+00
         0.00000E+00
         0.00000E+00
         0.00000E+00
         0.00000E+00
         0.00000E+00
         0.00000E+00
         0.00000E+00
         0.00000E+00
         0.00000E+00
         0.00000E+00
         0.00000E+00
         0.00000E+00
         0.00000E+00
         0.00000E+00
         0.00000E+00
         0.00000E+00
         0.00000E+00
         0.00000E+00
         0.00000E+00
         0.00000E+00
         0.00000E+00
         0.00000E+00
         0.00000E+00
         0.00000E+00
         0.00000E+00
         0.00000E+00
         0.00000E+00
         0.00000E+00
         0.00000E+00
         0.00000E+00
         0.00000E+00
         0.00000E+00
         0.00000E+00
         0.00000E+00
         0.00000E+00
         0.00000E+00
         0.00000E+00
         0.00000E+00
         0.00000E+00
         0.00000E+00
         0.00000E+00
         0.00000E+00
         0.00000E+00
         0.00000E+00
         0.00000E+00
         0.00000E+00
         0.00000E+00
         0.00000E+00
         0.00000E+00
         0.00000E+00
         0.00000E+00
         0.00000E+00
         0.00000E+00
         0.00000E+00
         0.00000E+00
         0.00000E+00
         0.00000E+00
         0.00000E+00
         0.00000E+00
         0.00000E+00
         0.00000E+00
         0.00000E+00
         0.00000E+00
         0.00000E+00
         0.00000E+00
         0.00000E+00
         0.00000E+00
         0.00000E+00
         0.00000E+00
         0.00000E+00
         0.00000E+00
         0.00000E+00
         0.00000E+00
         0.00000E+00
         0.00000E+00
         0.00000E+00
         0.00000E+00
         0.00000E+00
         0.00000E+00
         0.00000E+00
         0.00000E+00
         0.00000E+00
         0.00000E+00
         0.00000E+00
         0.00000E+00
         0.00000E+00
         0.00000E+00
         0.00000E+00
         0.00000E+00
         0.00000E+00
         0.00000E+00
         0.00000E+00
         0.00000E+00
         0.00000E+00
         0.00000E+00
         0.00000E+00
         0.00000E+00
         0.00000E+00
         0.00000E+00
         0.00000E+00
         0.00000E+00
         0.00000E+00
         0.00000E+00
         0.00000E+00
         0.00000E+00
         0.00000E+00
         0.00000E+00
         0.00000E+00
         0.00000E+00
         0.00000E+00
         0.00000E+00
         0.00000E+00
         0.00000E+00
         0.00000E+00
         0.00000E+00
         0.00000E+00
         0.00000E+00
         0.00000E+00
         0.00000E+00
         0.00000E+00
         0.00000E+00
         0.00000E+00
         0.00000E+00
         0.00000E+00
         0.00000E+00
         0.00000E+00
         0.00000E+00
         0.00000E+00
         0.00000E+00
         0.00000E+00
         0.00000E+00
         0.00000E+00
         0.00000E+00
         0.00000E+00
         0.00000E+00
         0.00000E+00
         0.00000E+00
         0.00000E+00
         0.00000E+00
         0.00000E+00
         0.00000E+00
         0.00000E+00
         0.00000E+00
         0.00000E+00
         0.00000E+00
         0.00000E+00
         0.00000E+00
         0.00000E+00
         0.00000E+00
         0.00000E+00
         0.00000E+00
         0.00000E+00
         0.00000E+00
         0.00000E+00
         0.00000E+00
         0.00000E+00
         0.00000E+00
         0.00000E+00
         0.00000E+00
         0.00000E+00
         0.00000E+00
         0.00000E+00
         0.00000E+00
         0.00000E+00
         0.00000E+00
         0.00000E+00
         0.00000E+00
         0.00000E+00
         0.00000E+00
         0.00000E+00
         0.00000E+00
         0.00000E+00
         0.00000E+00
         0.00000E+00
         0.00000E+00
         0.00000E+00
         0.00000E+00
         0.00000E+00
         0.00000E+00
         0.00000E+00
         0.00000E+00
         0.00000E+00
         0.00000E+00
         0.00000E+00
         0.00000E+00
         0.00000E+00
         0.00000E+00
         0.00000E+00
         0.00000E+00
         0.00000E+00
         0.00000E+00
         0.00000E+00
         0.00000E+00
         0.00000E+00
         0.00000E+00
         0.00000E+00
         0.00000E+00
         0.00000E+00
         0.00000E+00
         0.00000E+00
         0.00000E+00
         0.00000E+00
         0.00000E+00
         0.00000E+00
         0.00000E+00
         0.00000E+00
         0.00000E+00
         0.00000E+00
         0.00000E+00
         0.00000E+00
         0.00000E+00
         0.00000E+00
         0.00000E+00
         0.00000E+00
         0.00000E+00
         0.00000E+00
         0.00000E+00
         0.00000E+00
         0.00000E+00
         0.00000E+00
         0.00000E+00
         0.00000E+00
         0.00000E+00
         0.00000E+00
         0.00000E+00
         0.00000E+00
         0.00000E+00
         0.00000E+00
         0.00000E+00
         0.00000E+00
         0.00000E+00
         0.00000E+00
         0.00000E+00
         0.00000E+00
         0.00000E+00
         0.00000E+00
         0.00000E+00
         0.00000E+00
         0.00000E+00
         0.00000E+00
         0.00000E+00
         0.00000E+00
         0.00000E+00
         0.00000E+00
         0.00000E+00
         0.00000E+00
         0.00000E+00
         0.00000E+00
         0.00000E+00
         0.00000E+00
         0.00000E+00
         0.00000E+00
         0.00000E+00
         0.00000E+00
         0.00000E+00
         0.00000E+00
         0.00000E+00
         0.00000E+00
         0.00000E+00
         0.00000E+00
         0.00000E+00
         0.00000E+00
         0.00000E+00
         0.00000E+00
         0.00000E+00
         0.00000E+00
         0.00000E+00
         0.00000E+00
         0.00000E+00
         0.00000E+00
         0.00000E+00
         0.00000E+00
         0.00000E+00
         0.00000E+00
         0.00000E+00
         0.00000E+00
         0.00000E+00
         0.00000E+00
         0.00000E+00
         0.00000E+00
         0.00000E+00
         0.00000E+00
         0.00000E+00
         0.00000E+00
         0.00000E+00
         0.00000E+00
         0.00000E+00
         0.00000E+00
         0.00000E+00
         0.00000E+00
         0.00000E+00
         0.00000E+00
         0.00000E+00
         0.00000E+00
         0.00000E+00
         0.00000E+00
         0.00000E+00
         0.00000E+00
         0.00000E+00
         0.00000E+00
         0.00000E+00
         0.00000E+00
         0.00000E+00
         0.00000E+00
         0.00000E+00
         0.00000E+00
         0.00000E+00
         0.00000E+00
         0.00000E+00
         0.00000E+00
         0.00000E+00
         0.00000E+00
         0.00000E+00
         0.00000E+00
         0.00000E+00
         0.00000E+00
         0.00000E+00
         0.00000E+00
         0.00000E+00
         0.00000E+00
         0.00000E+00
         0.00000E+00
         0.00000E+00
         0.00000E+00
         0.00000E+00
         0.00000E+00
         0.00000E+00
         0.00000E+00
         0.00000E+00
         0.00000E+00
         0.00000E+00
         0.00000E+00
         0.00000E+00
         0.00000E+00
         0.00000E+00
         0.00000E+00
         0.00000E+00
         0.00000E+00
         0.00000E+00
         0.00000E+00
         0.00000E+00
         0.00000E+00
         0.00000E+00
         0.00000E+00
         0.00000E+00
         0.00000E+00
         0.00000E+00
         0.00000E+00
         0.00000E+00
         0.00000E+00
         0.00000E+00
         0.00000E+00
         0.00000E+00
         0.00000E+00
         0.00000E+00
         0.00000E+00
         0.00000E+00
         0.00000E+00
         0.00000E+00
         0.00000E+00
         0.00000E+00
         0.00000E+00
         0.00000E+00
         0.00000E+00
         0.00000E+00
         0.00000E+00
         0.00000E+00
         0.00000E+00
         0.00000E+00
         0.00000E+00
         0.00000E+00
         0.00000E+00
         0.00000E+00
         0.00000E+00
         0.00000E+00
         0.00000E+00
         0.00000E+00
         0.00000E+00
         0.00000E+00
         0.00000E+00
         0.00000E+00
         0.00000E+00
         0.00000E+00
         0.00000E+00
         0.00000E+00
         0.00000E+00
         0.00000E+00
         0.00000E+00
         0.00000E+00
         0.00000E+00
         0.00000E+00
         0.00000E+00
         0.00000E+00
         0.00000E+00
         0.00000E+00
         0.00000E+00
         0.00000E+00
         0.00000E+00
         0.00000E+00
         0.00000E+00
         0.00000E+00
         0.00000E+00
         0.00000E+00
         0.00000E+00
         0.00000E+00
         0.00000E+00
         0.00000E+00
         0.00000E+00
         0.00000E+00
         0.00000E+00
         0.00000E+00
         0.00000E+00
         0.00000E+00
         0.00000E+00
         0.00000E+00
         0.00000E+00
         0.00000E+00
         0.00000E+00
         0.00000E+00
         0.00000E+00
         0.00000E+00
         0.00000E+00
         0.00000E+00
         0.00000E+00
         0.00000E+00
         0.00000E+00
         0.00000E+00
         0.00000E+00
         0.00000E+00
         0.00000E+00
         0.00000E+00
         0.00000E+00
         0.00000E+00
         0.00000E+00
         0.00000E+00
         0.00000E+00
         0.00000E+00
         0.00000E+00
         0.00000E+00
         0.00000E+00
         0.00000E+00
         0.00000E+00
         0.00000E+00
         0.00000E+00
         0.00000E+00
         0.00000E+00
         0.00000E+00
         0.00000E+00
         0.00000E+00
         0.00000E+00
         0.00000E+00
         0.00000E+00
         0.00000E+00
         0.00000E+00
         0.00000E+00
         0.00000E+00
         0.00000E+00
         0.00000E+00
         0.00000E+00
         0.00000E+00
         0.00000E+00
         0.00000E+00
         0.00000E+00
         0.00000E+00
         0.00000E+00
         0.00000E+00
         0.00000E+00
         0.00000E+00
         0.00000E+00
         0.00000E+00
         0.00000E+00
         0.00000E+00
         0.00000E+00
         0.00000E+00
         0.00000E+00
         0.00000E+00
         0.00000E+00
         0.00000E+00
         0.00000E+00
         0.00000E+00
         0.00000E+00
         0.00000E+00
         0.00000E+00
         0.00000E+00
         0.00000E+00
         0.00000E+00
         0.00000E+00
         0.00000E+00
         0.00000E+00
         0.00000E+00
         0.00000E+00
         0.00000E+00
         0.00000E+00
         0.00000E+00
         0.00000E+00
         0.00000E+00
         0.00000E+00
         0.00000E+00
         0.00000E+00
         0.00000E+00
         0.00000E+00
         0.00000E+00
         0.00000E+00
         0.00000E+00
         0.00000E+00
         0.00000E+00
         0.00000E+00
         0.00000E+00
         0.00000E+00
         0.00000E+00
         0.00000E+00
         0.00000E+00
         0.00000E+00
         0.00000E+00
         0.00000E+00
         0.00000E+00
         0.00000E+00
         0.00000E+00
         0.00000E+00
         0.00000E+00
         0.00000E+00
         0.00000E+00
         0.00000E+00
         0.00000E+00
         0.00000E+00
         0.00000E+00
         0.00000E+00
         0.00000E+00
         0.00000E+00
         0.00000E+00
         0.00000E+00
         0.00000E+00
         0.00000E+00
         0.00000E+00
         0.00000E+00
         0.00000E+00
         0.00000E+00
         0.00000E+00
         0.00000E+00
         0.00000E+00
         0.00000E+00
         0.00000E+00
         0.00000E+00
         0.00000E+00
         0.00000E+00
         0.00000E+00
         0.00000E+00
         0.00000E+00
         0.00000E+00
         0.00000E+00
         0.00000E+00
         0.00000E+00
         0.00000E+00
         0.00000E+00
         0.00000E+00
         0.00000E+00
         0.00000E+00
         0.00000E+00
         0.00000E+00
         0.00000E+00
         0.00000E+00
         0.00000E+00
         0.00000E+00
         0.00000E+00
         0.00000E+00
         0.00000E+00
         0.00000E+00
         0.00000E+00
         0.00000E+00
         0.00000E+00
         0.00000E+00
         0.00000E+00
         0.00000E+00
         0.00000E+00
         0.00000E+00
         0.00000E+00
         0.00000E+00
         0.00000E+00
         0.00000E+00
         0.00000E+00
         0.00000E+00
         0.00000E+00
         0.00000E+00
         0.00000E+00
         0.00000E+00
         0.00000E+00
         0.00000E+00
         0.00000E+00
         0.00000E+00
         0.00000E+00
         0.00000E+00
         0.00000E+00
         0.00000E+00
         0.00000E+00
         0.00000E+00
         0.00000E+00
         0.00000E+00
         0.00000E+00
         0.00000E+00
         0.00000E+00
         0.00000E+00
         0.00000E+00
         0.00000E+00
         0.00000E+00
         0.00000E+00
         0.00000E+00
         0.00000E+00
         0.00000E+00
         0.00000E+00
         0.00000E+00
         0.00000E+00
         0.00000E+00
         0.00000E+00
         0.00000E+00
         0.00000E+00
         0.00000E+00
         0.00000E+00
         0.00000E+00
         0.00000E+00
         0.00000E+00
         0.00000E+00
         0.00000E+00
         0.00000E+00
         0.00000E+00
         0.00000E+00
         0.00000E+00
         0.00000E+00
         0.00000E+00
         0.00000E+00
         0.00000E+00
         0.00000E+00
         0.00000E+00
         0.00000E+00
         0.00000E+00
         0.00000E+00
         0.00000E+00
         0.00000E+00
         0.00000E+00
         0.00000E+00
         0.00000E+00
         0.00000E+00
         0.00000E+00
         0.00000E+00
         0.00000E+00
         0.00000E+00
         0.00000E+00
         0.00000E+00
         0.00000E+00
         0.00000E+00
         0.00000E+00
         0.00000E+00
         0.00000E+00
         0.00000E+00
         0.00000E+00
         0.00000E+00
         0.00000E+00
         0.00000E+00
         0.00000E+00
         0.00000E+00
         0.00000E+00
         0.00000E+00
         0.00000E+00
         0.00000E+00
         0.00000E+00
         0.00000E+00
         0.00000E+00
         0.00000E+00
         0.00000E+00
         0.00000E+00
         0.00000E+00
         0.00000E+00
         0.00000E+00
         0.00000E+00
         0.00000E+00
         0.00000E+00
         0.00000E+00
         0.00000E+00
         0.00000E+00
         0.00000E+00
         0.00000E+00
         0.00000E+00
         0.00000E+00
         0.00000E+00
         0.00000E+00
         0.00000E+00
         0.00000E+00
         0.00000E+00
         0.00000E+00
         0.00000E+00
         0.00000E+00
         0.00000E+00
         0.00000E+00
         0.00000E+00
         0.00000E+00
         0.00000E+00
         0.00000E+00
         0.00000E+00
         0.00000E+00
         0.00000E+00
         0.00000E+00
         0.00000E+00
         0.00000E+00
         0.00000E+00
         0.00000E+00
         0.00000E+00
         0.00000E+00
         0.00000E+00
         0.00000E+00
         0.00000E+00
         0.00000E+00
         0.00000E+00
         0.00000E+00
         0.00000E+00
         0.00000E+00
         0.00000E+00
         0.00000E+00
         0.00000E+00
         0.00000E+00
         0.00000E+00
         0.00000E+00
         0.00000E+00
         0.00000E+00
         0.00000E+00
         0.00000E+00
         0.00000E+00
         0.00000E+00
         0.00000E+00
         0.00000E+00
         0.00000E+00
         0.00000E+00
         0.00000E+00
         0.00000E+00
         0.00000E+00
         0.00000E+00
         0.00000E+00
         0.00000E+00
         0.00000E+00
         0.00000E+00
         0.00000E+00
         0.00000E+00
         0.00000E+00
         0.00000E+00
         0.00000E+00
         0.00000E+00
         0.00000E+00
         0.00000E+00
         0.00000E+00
         0.00000E+00
         0.00000E+00
         0.00000E+00
         0.00000E+00
         0.00000E+00
         0.00000E+00
         0.00000E+00
         0.00000E+00
         0.00000E+00
         0.00000E+00
         0.00000E+00
         0.00000E+00
         0.00000E+00
         0.00000E+00
         0.00000E+00
         0.00000E+00
         0.00000E+00
         0.00000E+00
         0.00000E+00
         0.00000E+00
         0.00000E+00
         0.00000E+00
         0.00000E+00
         0.00000E+00
         0.00000E+00
         0.00000E+00
         0.00000E+00
         0.00000E+00
         0.00000E+00
         0.00000E+00
         0.00000E+00
         0.00000E+00
         0.00000E+00
         0.00000E+00
         0.00000E+00
         0.00000E+00
         0.00000E+00
         0.00000E+00
         0.00000E+00
         0.00000E+00
         0.00000E+00
         0.00000E+00
         0.00000E+00
         0.00000E+00
         0.00000E+00
         0.00000E+00
         0.00000E+00
         0.00000E+00
         0.00000E+00
         0.00000E+00
         0.00000E+00
         0.00000E+00
         0.00000E+00
         0.00000E+00
         0.00000E+00
         0.00000E+00
         0.00000E+00
         0.00000E+00
         0.00000E+00
         0.00000E+00
         0.00000E+00
         0.00000E+00
         0.00000E+00
         0.00000E+00
         0.00000E+00
         0.00000E+00
         0.00000E+00
         0.00000E+00
         0.00000E+00
         0.00000E+00
         0.00000E+00
         0.00000E+00
         0.00000E+00
         0.00000E+00
         0.00000E+00
         0.00000E+00
         0.00000E+00
         0.00000E+00
         0.00000E+00
         0.00000E+00
         0.00000E+00
         0.00000E+00
         0.00000E+00
         0.00000E+00
         0.00000E+00
         0.00000E+00
         0.00000E+00
         0.00000E+00
         0.00000E+00
         0.00000E+00
         0.00000E+00
         0.00000E+00
         0.00000E+00
         0.00000E+00
         0.00000E+00
         0.00000E+00
         0.00000E+00
         0.00000E+00
         0.00000E+00
         0.00000E+00
         0.00000E+00
         0.00000E+00
         0.00000E+00
         0.00000E+00
         0.00000E+00
         0.00000E+00
         0.00000E+00
         0.00000E+00
         0.00000E+00
         0.00000E+00
         0.00000E+00
         0.00000E+00
         0.00000E+00
         0.00000E+00
         0.00000E+00
         0.00000E+00
         0.00000E+00
         0.00000E+00
         0.00000E+00
         0.00000E+00
         0.00000E+00
         0.00000E+00
         0.00000E+00
         0.00000E+00
         0.00000E+00
         0.00000E+00
         0.00000E+00
         0.00000E+00
         0.00000E+00
         0.00000E+00
         0.00000E+00
         0.00000E+00
         0.00000E+00
         0.00000E+00
         0.00000E+00
         0.00000E+00
         0.00000E+00
         0.00000E+00
         0.00000E+00
         0.00000E+00
         0.00000E+00
         0.00000E+00
         0.00000E+00
         0.00000E+00
         0.00000E+00
         0.00000E+00
         0.00000E+00
         0.00000E+00
         0.00000E+00
         0.00000E+00
         0.00000E+00
         0.00000E+00
         0.00000E+00
         0.00000E+00
         0.00000E+00
         0.00000E+00
         0.00000E+00
         0.00000E+00
         0.00000E+00
         0.00000E+00
         0.00000E+00
         0.00000E+00
         0.00000E+00
         0.00000E+00
         0.00000E+00
         0.00000E+00
         0.00000E+00
         0.00000E+00
         0.00000E+00
         0.00000E+00
         0.00000E+00
         0.00000E+00
         0.00000E+00
         0.00000E+00
         0.00000E+00
         0.00000E+00
         0.00000E+00
         0.00000E+00
         0.00000E+00
         0.00000E+00
         0.00000E+00
         0.00000E+00
         0.00000E+00
         0.00000E+00
         0.00000E+00
         0.00000E+00
         0.00000E+00
         0.00000E+00
         0.00000E+00
         0.00000E+00
         0.00000E+00
         0.00000E+00
         0.00000E+00
         0.00000E+00
         0.00000E+00
         0.00000E+00
         0.00000E+00
         0.00000E+00
         0.00000E+00
         0.00000E+00
         0.00000E+00
         0.00000E+00
         0.00000E+00
         0.00000E+00
         0.00000E+00
         0.00000E+00
         0.00000E+00
         0.00000E+00
         0.00000E+00
         0.00000E+00
         0.00000E+00
         0.00000E+00
         0.00000E+00
         0.00000E+00
         0.00000E+00
         0.00000E+00
         0.00000E+00
         0.00000E+00
         0.00000E+00
         0.00000E+00
         0.00000E+00
         0.00000E+00
         0.00000E+00
         0.00000E+00
         0.00000E+00
         0.00000E+00
         0.00000E+00
         0.00000E+00
         0.00000E+00
         0.00000E+00
         0.00000E+00
         0.00000E+00
         0.00000E+00
         0.00000E+00
         0.00000E+00
         0.00000E+00
         0.00000E+00
         0.00000E+00
         0.00000E+00
         0.00000E+00
         0.00000E+00
         0.00000E+00
         0.00000E+00
         0.00000E+00
         0.00000E+00
         0.00000E+00
         0.00000E+00
         0.00000E+00
         0.00000E+00
         0.00000E+00
         0.00000E+00
         0.00000E+00
         0.00000E+00
         0.00000E+00
         0.00000E+00
         0.00000E+00
         0.00000E+00
         0.00000E+00
         0.00000E+00
         0.00000E+00
         0.00000E+00
         0.00000E+00
         0.00000E+00
         0.00000E+00
         0.00000E+00
         0.00000E+00
         0.00000E+00
         0.00000E+00
         0.00000E+00
         0.00000E+00
         0.00000E+00
         0.00000E+00
         0.00000E+00
         0.00000E+00
         0.00000E+00
         0.00000E+00
         0.00000E+00
         0.00000E+00
         0.00000E+00
         0.00000E+00
         0.00000E+00
         0.00000E+00
         0.00000E+00
         0.00000E+00
         0.00000E+00
         0.00000E+00
         0.00000E+00
         0.00000E+00
         0.00000E+00
         0.00000E+00
         0.00000E+00
         0.00000E+00
         0.00000E+00
         0.00000E+00
         0.00000E+00
         0.00000E+00
         0.00000E+00
         0.00000E+00
         0.00000E+00
         0.00000E+00
         0.00000E+00
         0.00000E+00
         0.00000E+00
         0.00000E+00
         0.00000E+00
         0.00000E+00
         0.00000E+00
         0.00000E+00
         0.00000E+00
         0.00000E+00
         0.00000E+00
         0.00000E+00
         0.00000E+00
         0.00000E+00
         0.00000E+00
         0.00000E+00
         0.00000E+00
         0.00000E+00
         0.00000E+00
         0.00000E+00
         0.00000E+00
         0.00000E+00
         0.00000E+00
         0.00000E+00
         0.00000E+00
         0.00000E+00
         0.00000E+00
         0.00000E+00
         0.00000E+00
         0.00000E+00
         0.00000E+00
         0.00000E+00
         0.00000E+00
         0.00000E+00
         0.00000E+00
         0.00000E+00
         0.00000E+00
         0.00000E+00
         0.00000E+00
         0.00000E+00
         0.00000E+00
         0.00000E+00
         0.00000E+00
         0.00000E+00
         0.00000E+00
         0.00000E+00
         0.00000E+00
         0.00000E+00
         0.00000E+00
         0.00000E+00
         0.00000E+00
         0.00000E+00
         0.00000E+00
         0.00000E+00
         0.00000E+00
         0.00000E+00
         0.00000E+00
         0.00000E+00
         0.00000E+00
         0.00000E+00
         0.00000E+00
         0.00000E+00
         0.00000E+00
         0.00000E+00
         0.00000E+00
         0.00000E+00
         0.00000E+00
         0.00000E+00
         0.00000E+00
         0.00000E+00
         0.00000E+00
         0.00000E+00
         0.00000E+00
         0.00000E+00
         0.00000E+00
         0.00000E+00
         0.00000E+00
         0.00000E+00
         0.00000E+00
         0.00000E+00
         0.00000E+00
         0.00000E+00
         0.00000E+00
         0.00000E+00
         0.00000E+00
         0.00000E+00
         0.00000E+00
         0.00000E+00
         0.00000E+00
         0.00000E+00
         0.00000E+00
         0.00000E+00
         0.00000E+00
         0.00000E+00
         0.00000E+00
         0.00000E+00
         0.00000E+00
         0.00000E+00
         0.00000E+00
         0.00000E+00
         0.00000E+00
         0.00000E+00
         0.00000E+00
         0.00000E+00
         0.00000E+00
         0.00000E+00
         0.00000E+00
         0.00000E+00
         0.00000E+00
         0.00000E+00
         0.00000E+00
         0.00000E+00
         0.00000E+00
         0.00000E+00
         0.00000E+00
         0.00000E+00
         0.00000E+00
         0.00000E+00
         0.00000E+00
         0.00000E+00
         0.00000E+00
         0.00000E+00
         0.00000E+00
         0.00000E+00
         0.00000E+00
         0.00000E+00
         0.00000E+00
         0.00000E+00
         0.00000E+00
         0.00000E+00
         0.00000E+00
         0.00000E+00
         0.00000E+00
         0.00000E+00
         0.00000E+00
  
SCALARS                        eps_vol  double 1
LOOKUP_TABLE default
         0.00000E+00
         0.00000E+00
         0.00000E+00
         0.00000E+00
         0.00000E+00
         0.00000E+00
         0.00000E+00
         0.00000E+00
         0.00000E+00
         0.00000E+00
         0.00000E+00
         0.00000E+00
         0.00000E+00
         0.00000E+00
         0.00000E+00
         0.00000E+00
         0.00000E+00
         0.00000E+00
         0.00000E+00
         0.00000E+00
         0.00000E+00
         0.00000E+00
         0.00000E+00
         0.00000E+00
         0.00000E+00
         0.00000E+00
         0.00000E+00
         0.00000E+00
         0.00000E+00
         0.00000E+00
         0.00000E+00
         0.00000E+00
         0.00000E+00
         0.00000E+00
         0.00000E+00
         0.00000E+00
         0.00000E+00
         0.00000E+00
         0.00000E+00
         0.00000E+00
         0.00000E+00
         0.00000E+00
         0.00000E+00
         0.00000E+00
         0.00000E+00
         0.00000E+00
         0.00000E+00
         0.00000E+00
         0.00000E+00
         0.00000E+00
         0.00000E+00
         0.00000E+00
         0.00000E+00
         0.00000E+00
         0.00000E+00
         0.00000E+00
         0.00000E+00
         0.00000E+00
         0.00000E+00
         0.00000E+00
         0.00000E+00
         0.00000E+00
         0.00000E+00
         0.00000E+00
         0.00000E+00
         0.00000E+00
         0.00000E+00
         0.00000E+00
         0.00000E+00
         0.00000E+00
         0.00000E+00
         0.00000E+00
         0.00000E+00
         0.00000E+00
         0.00000E+00
         0.00000E+00
         0.00000E+00
         0.00000E+00
         0.00000E+00
         0.00000E+00
         0.00000E+00
         0.00000E+00
         0.00000E+00
         0.00000E+00
         0.00000E+00
         0.00000E+00
         0.00000E+00
         0.00000E+00
         0.00000E+00
         0.00000E+00
         0.00000E+00
         0.00000E+00
         0.00000E+00
         0.00000E+00
         0.00000E+00
         0.00000E+00
         0.00000E+00
         0.00000E+00
         0.00000E+00
         0.00000E+00
         0.00000E+00
         0.00000E+00
         0.00000E+00
         0.00000E+00
         0.00000E+00
         0.00000E+00
         0.00000E+00
         0.00000E+00
         0.00000E+00
         0.00000E+00
         0.00000E+00
         0.00000E+00
         0.00000E+00
         0.00000E+00
         0.00000E+00
         0.00000E+00
         0.00000E+00
         0.00000E+00
         0.00000E+00
         0.00000E+00
         0.00000E+00
         0.00000E+00
         0.00000E+00
         0.00000E+00
         0.00000E+00
         0.00000E+00
         0.00000E+00
         0.00000E+00
         0.00000E+00
         0.00000E+00
         0.00000E+00
         0.00000E+00
         0.00000E+00
         0.00000E+00
         0.00000E+00
         0.00000E+00
         0.00000E+00
         0.00000E+00
         0.00000E+00
         0.00000E+00
         0.00000E+00
         0.00000E+00
         0.00000E+00
         0.00000E+00
         0.00000E+00
         0.00000E+00
         0.00000E+00
         0.00000E+00
         0.00000E+00
         0.00000E+00
         0.00000E+00
         0.00000E+00
         0.00000E+00
         0.00000E+00
         0.00000E+00
         0.00000E+00
         0.00000E+00
         0.00000E+00
         0.00000E+00
         0.00000E+00
         0.00000E+00
         0.00000E+00
         0.00000E+00
         0.00000E+00
         0.00000E+00
         0.00000E+00
         0.00000E+00
         0.00000E+00
         0.00000E+00
         0.00000E+00
         0.00000E+00
         0.00000E+00
         0.00000E+00
         0.00000E+00
         0.00000E+00
         0.00000E+00
         0.00000E+00
         0.00000E+00
         0.00000E+00
         0.00000E+00
         0.00000E+00
         0.00000E+00
         0.00000E+00
         0.00000E+00
         0.00000E+00
         0.00000E+00
         0.00000E+00
         0.00000E+00
         0.00000E+00
         0.00000E+00
         0.00000E+00
         0.00000E+00
         0.00000E+00
         0.00000E+00
         0.00000E+00
         0.00000E+00
         0.00000E+00
         0.00000E+00
         0.00000E+00
         0.00000E+00
         0.00000E+00
         0.00000E+00
         0.00000E+00
         0.00000E+00
         0.00000E+00
         0.00000E+00
         0.00000E+00
         0.00000E+00
         0.00000E+00
         0.00000E+00
         0.00000E+00
         0.00000E+00
         0.00000E+00
         0.00000E+00
         0.00000E+00
         0.00000E+00
         0.00000E+00
         0.00000E+00
         0.00000E+00
         0.00000E+00
         0.00000E+00
         0.00000E+00
         0.00000E+00
         0.00000E+00
         0.00000E+00
         0.00000E+00
         0.00000E+00
         0.00000E+00
         0.00000E+00
         0.00000E+00
         0.00000E+00
         0.00000E+00
         0.00000E+00
         0.00000E+00
         0.00000E+00
         0.00000E+00
         0.00000E+00
         0.00000E+00
         0.00000E+00
         0.00000E+00
         0.00000E+00
         0.00000E+00
         0.00000E+00
         0.00000E+00
         0.00000E+00
         0.00000E+00
         0.00000E+00
         0.00000E+00
         0.00000E+00
         0.00000E+00
         0.00000E+00
         0.00000E+00
         0.00000E+00
         0.00000E+00
         0.00000E+00
         0.00000E+00
         0.00000E+00
         0.00000E+00
         0.00000E+00
         0.00000E+00
         0.00000E+00
         0.00000E+00
         0.00000E+00
         0.00000E+00
         0.00000E+00
         0.00000E+00
         0.00000E+00
         0.00000E+00
         0.00000E+00
         0.00000E+00
         0.00000E+00
         0.00000E+00
         0.00000E+00
         0.00000E+00
         0.00000E+00
         0.00000E+00
         0.00000E+00
         0.00000E+00
         0.00000E+00
         0.00000E+00
         0.00000E+00
         0.00000E+00
         0.00000E+00
         0.00000E+00
         0.00000E+00
         0.00000E+00
         0.00000E+00
         0.00000E+00
         0.00000E+00
         0.00000E+00
         0.00000E+00
         0.00000E+00
         0.00000E+00
         0.00000E+00
         0.00000E+00
         0.00000E+00
         0.00000E+00
         0.00000E+00
         0.00000E+00
         0.00000E+00
         0.00000E+00
         0.00000E+00
         0.00000E+00
         0.00000E+00
         0.00000E+00
         0.00000E+00
         0.00000E+00
         0.00000E+00
         0.00000E+00
         0.00000E+00
         0.00000E+00
         0.00000E+00
         0.00000E+00
         0.00000E+00
         0.00000E+00
         0.00000E+00
         0.00000E+00
         0.00000E+00
         0.00000E+00
         0.00000E+00
         0.00000E+00
         0.00000E+00
         0.00000E+00
         0.00000E+00
         0.00000E+00
         0.00000E+00
         0.00000E+00
         0.00000E+00
         0.00000E+00
         0.00000E+00
         0.00000E+00
         0.00000E+00
         0.00000E+00
         0.00000E+00
         0.00000E+00
         0.00000E+00
         0.00000E+00
         0.00000E+00
         0.00000E+00
         0.00000E+00
         0.00000E+00
         0.00000E+00
         0.00000E+00
         0.00000E+00
         0.00000E+00
         0.00000E+00
         0.00000E+00
         0.00000E+00
         0.00000E+00
         0.00000E+00
         0.00000E+00
         0.00000E+00
         0.00000E+00
         0.00000E+00
         0.00000E+00
         0.00000E+00
         0.00000E+00
         0.00000E+00
         0.00000E+00
         0.00000E+00
         0.00000E+00
         0.00000E+00
         0.00000E+00
         0.00000E+00
         0.00000E+00
         0.00000E+00
         0.00000E+00
         0.00000E+00
         0.00000E+00
         0.00000E+00
         0.00000E+00
         0.00000E+00
         0.00000E+00
         0.00000E+00
         0.00000E+00
         0.00000E+00
         0.00000E+00
         0.00000E+00
         0.00000E+00
         0.00000E+00
         0.00000E+00
         0.00000E+00
         0.00000E+00
         0.00000E+00
         0.00000E+00
         0.00000E+00
         0.00000E+00
         0.00000E+00
         0.00000E+00
         0.00000E+00
         0.00000E+00
         0.00000E+00
         0.00000E+00
         0.00000E+00
         0.00000E+00
         0.00000E+00
         0.00000E+00
         0.00000E+00
         0.00000E+00
         0.00000E+00
         0.00000E+00
         0.00000E+00
         0.00000E+00
         0.00000E+00
         0.00000E+00
         0.00000E+00
         0.00000E+00
         0.00000E+00
         0.00000E+00
         0.00000E+00
         0.00000E+00
         0.00000E+00
         0.00000E+00
         0.00000E+00
         0.00000E+00
         0.00000E+00
         0.00000E+00
         0.00000E+00
         0.00000E+00
         0.00000E+00
         0.00000E+00
         0.00000E+00
         0.00000E+00
         0.00000E+00
         0.00000E+00
         0.00000E+00
         0.00000E+00
         0.00000E+00
         0.00000E+00
         0.00000E+00
         0.00000E+00
         0.00000E+00
         0.00000E+00
         0.00000E+00
         0.00000E+00
         0.00000E+00
         0.00000E+00
         0.00000E+00
         0.00000E+00
         0.00000E+00
         0.00000E+00
         0.00000E+00
         0.00000E+00
         0.00000E+00
         0.00000E+00
         0.00000E+00
         0.00000E+00
         0.00000E+00
         0.00000E+00
         0.00000E+00
         0.00000E+00
         0.00000E+00
         0.00000E+00
         0.00000E+00
         0.00000E+00
         0.00000E+00
         0.00000E+00
         0.00000E+00
         0.00000E+00
         0.00000E+00
         0.00000E+00
         0.00000E+00
         0.00000E+00
         0.00000E+00
         0.00000E+00
         0.00000E+00
         0.00000E+00
         0.00000E+00
         0.00000E+00
         0.00000E+00
         0.00000E+00
         0.00000E+00
         0.00000E+00
         0.00000E+00
         0.00000E+00
         0.00000E+00
         0.00000E+00
         0.00000E+00
         0.00000E+00
         0.00000E+00
         0.00000E+00
         0.00000E+00
         0.00000E+00
         0.00000E+00
         0.00000E+00
         0.00000E+00
         0.00000E+00
         0.00000E+00
         0.00000E+00
         0.00000E+00
         0.00000E+00
         0.00000E+00
         0.00000E+00
         0.00000E+00
         0.00000E+00
         0.00000E+00
         0.00000E+00
         0.00000E+00
         0.00000E+00
         0.00000E+00
         0.00000E+00
         0.00000E+00
         0.00000E+00
         0.00000E+00
         0.00000E+00
         0.00000E+00
         0.00000E+00
         0.00000E+00
         0.00000E+00
         0.00000E+00
         0.00000E+00
         0.00000E+00
         0.00000E+00
         0.00000E+00
         0.00000E+00
         0.00000E+00
         0.00000E+00
         0.00000E+00
         0.00000E+00
         0.00000E+00
         0.00000E+00
         0.00000E+00
         0.00000E+00
         0.00000E+00
         0.00000E+00
         0.00000E+00
         0.00000E+00
         0.00000E+00
         0.00000E+00
         0.00000E+00
         0.00000E+00
         0.00000E+00
         0.00000E+00
         0.00000E+00
         0.00000E+00
         0.00000E+00
         0.00000E+00
         0.00000E+00
         0.00000E+00
         0.00000E+00
         0.00000E+00
         0.00000E+00
         0.00000E+00
         0.00000E+00
         0.00000E+00
         0.00000E+00
         0.00000E+00
         0.00000E+00
         0.00000E+00
         0.00000E+00
         0.00000E+00
         0.00000E+00
         0.00000E+00
         0.00000E+00
         0.00000E+00
         0.00000E+00
         0.00000E+00
         0.00000E+00
         0.00000E+00
         0.00000E+00
         0.00000E+00
         0.00000E+00
         0.00000E+00
         0.00000E+00
         0.00000E+00
         0.00000E+00
         0.00000E+00
         0.00000E+00
         0.00000E+00
         0.00000E+00
         0.00000E+00
         0.00000E+00
         0.00000E+00
         0.00000E+00
         0.00000E+00
         0.00000E+00
         0.00000E+00
         0.00000E+00
         0.00000E+00
         0.00000E+00
         0.00000E+00
         0.00000E+00
         0.00000E+00
         0.00000E+00
         0.00000E+00
         0.00000E+00
         0.00000E+00
         0.00000E+00
         0.00000E+00
         0.00000E+00
         0.00000E+00
         0.00000E+00
         0.00000E+00
         0.00000E+00
         0.00000E+00
         0.00000E+00
         0.00000E+00
         0.00000E+00
         0.00000E+00
         0.00000E+00
         0.00000E+00
         0.00000E+00
         0.00000E+00
         0.00000E+00
         0.00000E+00
         0.00000E+00
         0.00000E+00
         0.00000E+00
         0.00000E+00
         0.00000E+00
         0.00000E+00
         0.00000E+00
         0.00000E+00
         0.00000E+00
         0.00000E+00
         0.00000E+00
         0.00000E+00
         0.00000E+00
         0.00000E+00
         0.00000E+00
         0.00000E+00
         0.00000E+00
         0.00000E+00
         0.00000E+00
         0.00000E+00
         0.00000E+00
         0.00000E+00
         0.00000E+00
         0.00000E+00
         0.00000E+00
         0.00000E+00
         0.00000E+00
         0.00000E+00
         0.00000E+00
         0.00000E+00
         0.00000E+00
         0.00000E+00
         0.00000E+00
         0.00000E+00
         0.00000E+00
         0.00000E+00
         0.00000E+00
         0.00000E+00
         0.00000E+00
         0.00000E+00
         0.00000E+00
         0.00000E+00
         0.00000E+00
         0.00000E+00
         0.00000E+00
         0.00000E+00
         0.00000E+00
         0.00000E+00
         0.00000E+00
         0.00000E+00
         0.00000E+00
         0.00000E+00
         0.00000E+00
         0.00000E+00
         0.00000E+00
         0.00000E+00
         0.00000E+00
         0.00000E+00
         0.00000E+00
         0.00000E+00
         0.00000E+00
         0.00000E+00
         0.00000E+00
         0.00000E+00
         0.00000E+00
         0.00000E+00
         0.00000E+00
         0.00000E+00
         0.00000E+00
         0.00000E+00
         0.00000E+00
         0.00000E+00
         0.00000E+00
         0.00000E+00
         0.00000E+00
         0.00000E+00
         0.00000E+00
         0.00000E+00
         0.00000E+00
         0.00000E+00
         0.00000E+00
         0.00000E+00
         0.00000E+00
         0.00000E+00
         0.00000E+00
         0.00000E+00
         0.00000E+00
         0.00000E+00
         0.00000E+00
         0.00000E+00
         0.00000E+00
         0.00000E+00
         0.00000E+00
         0.00000E+00
         0.00000E+00
         0.00000E+00
         0.00000E+00
         0.00000E+00
         0.00000E+00
         0.00000E+00
         0.00000E+00
         0.00000E+00
         0.00000E+00
         0.00000E+00
         0.00000E+00
         0.00000E+00
         0.00000E+00
         0.00000E+00
         0.00000E+00
         0.00000E+00
         0.00000E+00
         0.00000E+00
         0.00000E+00
         0.00000E+00
         0.00000E+00
         0.00000E+00
         0.00000E+00
         0.00000E+00
         0.00000E+00
         0.00000E+00
         0.00000E+00
         0.00000E+00
         0.00000E+00
         0.00000E+00
         0.00000E+00
         0.00000E+00
         0.00000E+00
         0.00000E+00
         0.00000E+00
         0.00000E+00
         0.00000E+00
         0.00000E+00
         0.00000E+00
         0.00000E+00
         0.00000E+00
         0.00000E+00
         0.00000E+00
         0.00000E+00
         0.00000E+00
         0.00000E+00
         0.00000E+00
         0.00000E+00
         0.00000E+00
         0.00000E+00
         0.00000E+00
         0.00000E+00
         0.00000E+00
         0.00000E+00
         0.00000E+00
         0.00000E+00
         0.00000E+00
         0.00000E+00
         0.00000E+00
         0.00000E+00
         0.00000E+00
         0.00000E+00
         0.00000E+00
         0.00000E+00
         0.00000E+00
         0.00000E+00
         0.00000E+00
         0.00000E+00
         0.00000E+00
         0.00000E+00
         0.00000E+00
         0.00000E+00
         0.00000E+00
         0.00000E+00
         0.00000E+00
         0.00000E+00
         0.00000E+00
         0.00000E+00
         0.00000E+00
         0.00000E+00
         0.00000E+00
         0.00000E+00
         0.00000E+00
         0.00000E+00
         0.00000E+00
         0.00000E+00
         0.00000E+00
         0.00000E+00
         0.00000E+00
         0.00000E+00
         0.00000E+00
         0.00000E+00
         0.00000E+00
         0.00000E+00
         0.00000E+00
         0.00000E+00
         0.00000E+00
         0.00000E+00
         0.00000E+00
         0.00000E+00
         0.00000E+00
         0.00000E+00
         0.00000E+00
         0.00000E+00
         0.00000E+00
         0.00000E+00
         0.00000E+00
         0.00000E+00
         0.00000E+00
         0.00000E+00
         0.00000E+00
         0.00000E+00
         0.00000E+00
         0.00000E+00
         0.00000E+00
         0.00000E+00
         0.00000E+00
         0.00000E+00
         0.00000E+00
         0.00000E+00
         0.00000E+00
         0.00000E+00
         0.00000E+00
         0.00000E+00
         0.00000E+00
         0.00000E+00
         0.00000E+00
         0.00000E+00
         0.00000E+00
         0.00000E+00
         0.00000E+00
         0.00000E+00
         0.00000E+00
         0.00000E+00
         0.00000E+00
         0.00000E+00
         0.00000E+00
         0.00000E+00
         0.00000E+00
         0.00000E+00
         0.00000E+00
         0.00000E+00
         0.00000E+00
         0.00000E+00
         0.00000E+00
         0.00000E+00
         0.00000E+00
         0.00000E+00
         0.00000E+00
         0.00000E+00
         0.00000E+00
         0.00000E+00
         0.00000E+00
         0.00000E+00
         0.00000E+00
         0.00000E+00
         0.00000E+00
         0.00000E+00
         0.00000E+00
         0.00000E+00
         0.00000E+00
         0.00000E+00
         0.00000E+00
         0.00000E+00
         0.00000E+00
         0.00000E+00
         0.00000E+00
         0.00000E+00
         0.00000E+00
         0.00000E+00
         0.00000E+00
         0.00000E+00
         0.00000E+00
         0.00000E+00
         0.00000E+00
         0.00000E+00
         0.00000E+00
         0.00000E+00
         0.00000E+00
         0.00000E+00
         0.00000E+00
         0.00000E+00
         0.00000E+00
         0.00000E+00
         0.00000E+00
         0.00000E+00
         0.00000E+00
         0.00000E+00
         0.00000E+00
         0.00000E+00
         0.00000E+00
         0.00000E+00
         0.00000E+00
         0.00000E+00
         0.00000E+00
         0.00000E+00
         0.00000E+00
         0.00000E+00
         0.00000E+00
         0.00000E+00
         0.00000E+00
         0.00000E+00
         0.00000E+00
         0.00000E+00
         0.00000E+00
         0.00000E+00
         0.00000E+00
         0.00000E+00
         0.00000E+00
         0.00000E+00
         0.00000E+00
         0.00000E+00
         0.00000E+00
         0.00000E+00
         0.00000E+00
         0.00000E+00
         0.00000E+00
         0.00000E+00
         0.00000E+00
         0.00000E+00
         0.00000E+00
         0.00000E+00
         0.00000E+00
         0.00000E+00
         0.00000E+00
         0.00000E+00
         0.00000E+00
         0.00000E+00
         0.00000E+00
         0.00000E+00
         0.00000E+00
         0.00000E+00
         0.00000E+00
         0.00000E+00
         0.00000E+00
         0.00000E+00
         0.00000E+00
         0.00000E+00
         0.00000E+00
         0.00000E+00
         0.00000E+00
         0.00000E+00
         0.00000E+00
         0.00000E+00
         0.00000E+00
         0.00000E+00
         0.00000E+00
         0.00000E+00
         0.00000E+00
         0.00000E+00
         0.00000E+00
         0.00000E+00
         0.00000E+00
         0.00000E+00
         0.00000E+00
         0.00000E+00
         0.00000E+00
         0.00000E+00
         0.00000E+00
         0.00000E+00
         0.00000E+00
         0.00000E+00
         0.00000E+00
         0.00000E+00
         0.00000E+00
         0.00000E+00
         0.00000E+00
         0.00000E+00
         0.00000E+00
         0.00000E+00
         0.00000E+00
         0.00000E+00
         0.00000E+00
         0.00000E+00
         0.00000E+00
         0.00000E+00
         0.00000E+00
         0.00000E+00
         0.00000E+00
         0.00000E+00
         0.00000E+00
         0.00000E+00
         0.00000E+00
         0.00000E+00
         0.00000E+00
         0.00000E+00
         0.00000E+00
         0.00000E+00
         0.00000E+00
         0.00000E+00
         0.00000E+00
         0.00000E+00
         0.00000E+00
         0.00000E+00
         0.00000E+00
         0.00000E+00
         0.00000E+00
         0.00000E+00
         0.00000E+00
         0.00000E+00
         0.00000E+00
         0.00000E+00
         0.00000E+00
         0.00000E+00
         0.00000E+00
         0.00000E+00
         0.00000E+00
         0.00000E+00
         0.00000E+00
         0.00000E+00
         0.00000E+00
         0.00000E+00
         0.00000E+00
         0.00000E+00
         0.00000E+00
         0.00000E+00
         0.00000E+00
         0.00000E+00
         0.00000E+00
         0.00000E+00
         0.00000E+00
         0.00000E+00
         0.00000E+00
         0.00000E+00
         0.00000E+00
         0.00000E+00
         0.00000E+00
         0.00000E+00
         0.00000E+00
         0.00000E+00
         0.00000E+00
         0.00000E+00
         0.00000E+00
         0.00000E+00
         0.00000E+00
         0.00000E+00
         0.00000E+00
         0.00000E+00
         0.00000E+00
         0.00000E+00
         0.00000E+00
         0.00000E+00
         0.00000E+00
         0.00000E+00
         0.00000E+00
         0.00000E+00
         0.00000E+00
         0.00000E+00
         0.00000E+00
         0.00000E+00
         0.00000E+00
         0.00000E+00
         0.00000E+00
         0.00000E+00
         0.00000E+00
         0.00000E+00
         0.00000E+00
         0.00000E+00
         0.00000E+00
         0.00000E+00
         0.00000E+00
         0.00000E+00
         0.00000E+00
         0.00000E+00
         0.00000E+00
         0.00000E+00
         0.00000E+00
         0.00000E+00
         0.00000E+00
         0.00000E+00
         0.00000E+00
         0.00000E+00
         0.00000E+00
         0.00000E+00
         0.00000E+00
         0.00000E+00
         0.00000E+00
         0.00000E+00
         0.00000E+00
         0.00000E+00
         0.00000E+00
         0.00000E+00
         0.00000E+00
         0.00000E+00
         0.00000E+00
         0.00000E+00
         0.00000E+00
         0.00000E+00
         0.00000E+00
         0.00000E+00
         0.00000E+00
         0.00000E+00
         0.00000E+00
         0.00000E+00
         0.00000E+00
         0.00000E+00
         0.00000E+00
         0.00000E+00
         0.00000E+00
         0.00000E+00
         0.00000E+00
         0.00000E+00
         0.00000E+00
         0.00000E+00
         0.00000E+00
         0.00000E+00
         0.00000E+00
         0.00000E+00
         0.00000E+00
         0.00000E+00
         0.00000E+00
         0.00000E+00
         0.00000E+00
         0.00000E+00
         0.00000E+00
         0.00000E+00
         0.00000E+00
         0.00000E+00
         0.00000E+00
         0.00000E+00
         0.00000E+00
         0.00000E+00
         0.00000E+00
         0.00000E+00
         0.00000E+00
         0.00000E+00
         0.00000E+00
         0.00000E+00
         0.00000E+00
         0.00000E+00
         0.00000E+00
         0.00000E+00
         0.00000E+00
         0.00000E+00
         0.00000E+00
         0.00000E+00
         0.00000E+00
         0.00000E+00
         0.00000E+00
         0.00000E+00
         0.00000E+00
         0.00000E+00
         0.00000E+00
         0.00000E+00
         0.00000E+00
         0.00000E+00
         0.00000E+00
         0.00000E+00
         0.00000E+00
         0.00000E+00
         0.00000E+00
         0.00000E+00
         0.00000E+00
         0.00000E+00
         0.00000E+00
         0.00000E+00
         0.00000E+00
         0.00000E+00
         0.00000E+00
         0.00000E+00
         0.00000E+00
         0.00000E+00
         0.00000E+00
         0.00000E+00
         0.00000E+00
         0.00000E+00
         0.00000E+00
         0.00000E+00
         0.00000E+00
         0.00000E+00
         0.00000E+00
         0.00000E+00
         0.00000E+00
         0.00000E+00
         0.00000E+00
         0.00000E+00
         0.00000E+00
         0.00000E+00
         0.00000E+00
         0.00000E+00
         0.00000E+00
         0.00000E+00
         0.00000E+00
         0.00000E+00
         0.00000E+00
         0.00000E+00
         0.00000E+00
         0.00000E+00
         0.00000E+00
         0.00000E+00
         0.00000E+00
         0.00000E+00
         0.00000E+00
         0.00000E+00
         0.00000E+00
         0.00000E+00
         0.00000E+00
         0.00000E+00
         0.00000E+00
         0.00000E+00
         0.00000E+00
         0.00000E+00
         0.00000E+00
         0.00000E+00
         0.00000E+00
         0.00000E+00
         0.00000E+00
         0.00000E+00
         0.00000E+00
         0.00000E+00
         0.00000E+00
         0.00000E+00
         0.00000E+00
         0.00000E+00
         0.00000E+00
         0.00000E+00
         0.00000E+00
         0.00000E+00
         0.00000E+00
         0.00000E+00
         0.00000E+00
         0.00000E+00
         0.00000E+00
         0.00000E+00
         0.00000E+00
         0.00000E+00
         0.00000E+00
         0.00000E+00
         0.00000E+00
         0.00000E+00
         0.00000E+00
         0.00000E+00
         0.00000E+00
         0.00000E+00
         0.00000E+00
         0.00000E+00
         0.00000E+00
         0.00000E+00
         0.00000E+00
         0.00000E+00
         0.00000E+00
         0.00000E+00
         0.00000E+00
         0.00000E+00
         0.00000E+00
         0.00000E+00
         0.00000E+00
         0.00000E+00
         0.00000E+00
         0.00000E+00
         0.00000E+00
         0.00000E+00
         0.00000E+00
         0.00000E+00
         0.00000E+00
         0.00000E+00
         0.00000E+00
         0.00000E+00
         0.00000E+00
         0.00000E+00
         0.00000E+00
         0.00000E+00
         0.00000E+00
         0.00000E+00
         0.00000E+00
         0.00000E+00
         0.00000E+00
         0.00000E+00
         0.00000E+00
         0.00000E+00
         0.00000E+00
         0.00000E+00
         0.00000E+00
         0.00000E+00
         0.00000E+00
         0.00000E+00
         0.00000E+00
         0.00000E+00
         0.00000E+00
         0.00000E+00
         0.00000E+00
         0.00000E+00
         0.00000E+00
         0.00000E+00
         0.00000E+00
         0.00000E+00
         0.00000E+00
         0.00000E+00
         0.00000E+00
         0.00000E+00
         0.00000E+00
         0.00000E+00
         0.00000E+00
         0.00000E+00
         0.00000E+00
         0.00000E+00
         0.00000E+00
         0.00000E+00
         0.00000E+00
         0.00000E+00
         0.00000E+00
         0.00000E+00
         0.00000E+00
         0.00000E+00
         0.00000E+00
         0.00000E+00
         0.00000E+00
         0.00000E+00
         0.00000E+00
         0.00000E+00
         0.00000E+00
         0.00000E+00
         0.00000E+00
         0.00000E+00
         0.00000E+00
         0.00000E+00
         0.00000E+00
         0.00000E+00
         0.00000E+00
         0.00000E+00
         0.00000E+00
         0.00000E+00
         0.00000E+00
         0.00000E+00
         0.00000E+00
         0.00000E+00
         0.00000E+00
         0.00000E+00
         0.00000E+00
         0.00000E+00
         0.00000E+00
         0.00000E+00
         0.00000E+00
         0.00000E+00
         0.00000E+00
         0.00000E+00
         0.00000E+00
         0.00000E+00
         0.00000E+00
         0.00000E+00
         0.00000E+00
         0.00000E+00
         0.00000E+00
         0.00000E+00
         0.00000E+00
         0.00000E+00
         0.00000E+00
         0.00000E+00
         0.00000E+00
         0.00000E+00
         0.00000E+00
         0.00000E+00
         0.00000E+00
         0.00000E+00
         0.00000E+00
         0.00000E+00
         0.00000E+00
         0.00000E+00
         0.00000E+00
         0.00000E+00
         0.00000E+00
         0.00000E+00
         0.00000E+00
         0.00000E+00
         0.00000E+00
         0.00000E+00
         0.00000E+00
         0.00000E+00
         0.00000E+00
         0.00000E+00
         0.00000E+00
         0.00000E+00
         0.00000E+00
         0.00000E+00
         0.00000E+00
         0.00000E+00
         0.00000E+00
         0.00000E+00
         0.00000E+00
         0.00000E+00
         0.00000E+00
         0.00000E+00
         0.00000E+00
         0.00000E+00
         0.00000E+00
         0.00000E+00
         0.00000E+00
         0.00000E+00
         0.00000E+00
         0.00000E+00
         0.00000E+00
         0.00000E+00
         0.00000E+00
         0.00000E+00
         0.00000E+00
         0.00000E+00
         0.00000E+00
         0.00000E+00
         0.00000E+00
         0.00000E+00
         0.00000E+00
         0.00000E+00
         0.00000E+00
         0.00000E+00
         0.00000E+00
         0.00000E+00
         0.00000E+00
         0.00000E+00
         0.00000E+00
         0.00000E+00
         0.00000E+00
         0.00000E+00
         0.00000E+00
         0.00000E+00
         0.00000E+00
         0.00000E+00
         0.00000E+00
         0.00000E+00
         0.00000E+00
         0.00000E+00
         0.00000E+00
         0.00000E+00
         0.00000E+00
         0.00000E+00
         0.00000E+00
         0.00000E+00
         0.00000E+00
         0.00000E+00
         0.00000E+00
         0.00000E+00
         0.00000E+00
         0.00000E+00
         0.00000E+00
         0.00000E+00
         0.00000E+00
         0.00000E+00
         0.00000E+00
         0.00000E+00
         0.00000E+00
         0.00000E+00
         0.00000E+00
         0.00000E+00
         0.00000E+00
         0.00000E+00
         0.00000E+00
         0.00000E+00
         0.00000E+00
         0.00000E+00
         0.00000E+00
         0.00000E+00
         0.00000E+00
         0.00000E+00
         0.00000E+00
         0.00000E+00
         0.00000E+00
         0.00000E+00
         0.00000E+00
         0.00000E+00
         0.00000E+00
         0.00000E+00
         0.00000E+00
         0.00000E+00
         0.00000E+00
         0.00000E+00
         0.00000E+00
         0.00000E+00
         0.00000E+00
         0.00000E+00
         0.00000E+00
         0.00000E+00
         0.00000E+00
         0.00000E+00
         0.00000E+00
         0.00000E+00
         0.00000E+00
         0.00000E+00
         0.00000E+00
         0.00000E+00
         0.00000E+00
         0.00000E+00
         0.00000E+00
         0.00000E+00
         0.00000E+00
         0.00000E+00
         0.00000E+00
         0.00000E+00
         0.00000E+00
         0.00000E+00
         0.00000E+00
         0.00000E+00
         0.00000E+00
         0.00000E+00
         0.00000E+00
         0.00000E+00
         0.00000E+00
         0.00000E+00
         0.00000E+00
         0.00000E+00
         0.00000E+00
         0.00000E+00
         0.00000E+00
         0.00000E+00
         0.00000E+00
         0.00000E+00
         0.00000E+00
         0.00000E+00
         0.00000E+00
         0.00000E+00
         0.00000E+00
         0.00000E+00
         0.00000E+00
         0.00000E+00
         0.00000E+00
         0.00000E+00
         0.00000E+00
         0.00000E+00
         0.00000E+00
         0.00000E+00
         0.00000E+00
         0.00000E+00
         0.00000E+00
         0.00000E+00
         0.00000E+00
         0.00000E+00
         0.00000E+00
         0.00000E+00
         0.00000E+00
         0.00000E+00
         0.00000E+00
         0.00000E+00
         0.00000E+00
         0.00000E+00
         0.00000E+00
         0.00000E+00
         0.00000E+00
         0.00000E+00
         0.00000E+00
         0.00000E+00
         0.00000E+00
         0.00000E+00
         0.00000E+00
         0.00000E+00
         0.00000E+00
         0.00000E+00
         0.00000E+00
         0.00000E+00
         0.00000E+00
         0.00000E+00
         0.00000E+00
         0.00000E+00
         0.00000E+00
         0.00000E+00
         0.00000E+00
         0.00000E+00
         0.00000E+00
         0.00000E+00
         0.00000E+00
         0.00000E+00
         0.00000E+00
         0.00000E+00
         0.00000E+00
         0.00000E+00
         0.00000E+00
         0.00000E+00
         0.00000E+00
         0.00000E+00
         0.00000E+00
         0.00000E+00
         0.00000E+00
         0.00000E+00
         0.00000E+00
         0.00000E+00
         0.00000E+00
         0.00000E+00
         0.00000E+00
         0.00000E+00
         0.00000E+00
         0.00000E+00
         0.00000E+00
         0.00000E+00
         0.00000E+00
         0.00000E+00
         0.00000E+00
         0.00000E+00
         0.00000E+00
         0.00000E+00
         0.00000E+00
         0.00000E+00
         0.00000E+00
         0.00000E+00
         0.00000E+00
         0.00000E+00
         0.00000E+00
         0.00000E+00
         0.00000E+00
         0.00000E+00
         0.00000E+00
         0.00000E+00
         0.00000E+00
         0.00000E+00
         0.00000E+00
         0.00000E+00
         0.00000E+00
         0.00000E+00
         0.00000E+00
         0.00000E+00
         0.00000E+00
         0.00000E+00
         0.00000E+00
         0.00000E+00
         0.00000E+00
         0.00000E+00
         0.00000E+00
         0.00000E+00
         0.00000E+00
         0.00000E+00
         0.00000E+00
         0.00000E+00
         0.00000E+00
         0.00000E+00
         0.00000E+00
         0.00000E+00
         0.00000E+00
         0.00000E+00
         0.00000E+00
         0.00000E+00
         0.00000E+00
         0.00000E+00
         0.00000E+00
         0.00000E+00
         0.00000E+00
         0.00000E+00
         0.00000E+00
         0.00000E+00
         0.00000E+00
         0.00000E+00
         0.00000E+00
         0.00000E+00
         0.00000E+00
         0.00000E+00
         0.00000E+00
         0.00000E+00
         0.00000E+00
         0.00000E+00
         0.00000E+00
         0.00000E+00
         0.00000E+00
         0.00000E+00
         0.00000E+00
         0.00000E+00
         0.00000E+00
         0.00000E+00
         0.00000E+00
         0.00000E+00
         0.00000E+00
         0.00000E+00
         0.00000E+00
         0.00000E+00
         0.00000E+00
         0.00000E+00
         0.00000E+00
         0.00000E+00
         0.00000E+00
         0.00000E+00
         0.00000E+00
         0.00000E+00
         0.00000E+00
         0.00000E+00
         0.00000E+00
         0.00000E+00
         0.00000E+00
         0.00000E+00
         0.00000E+00
         0.00000E+00
         0.00000E+00
         0.00000E+00
         0.00000E+00
         0.00000E+00
         0.00000E+00
         0.00000E+00
         0.00000E+00
         0.00000E+00
         0.00000E+00
         0.00000E+00
         0.00000E+00
         0.00000E+00
         0.00000E+00
         0.00000E+00
         0.00000E+00
         0.00000E+00
         0.00000E+00
         0.00000E+00
         0.00000E+00
         0.00000E+00
         0.00000E+00
         0.00000E+00
         0.00000E+00
         0.00000E+00
         0.00000E+00
         0.00000E+00
         0.00000E+00
         0.00000E+00
         0.00000E+00
         0.00000E+00
         0.00000E+00
         0.00000E+00
         0.00000E+00
         0.00000E+00
         0.00000E+00
         0.00000E+00
         0.00000E+00
         0.00000E+00
         0.00000E+00
         0.00000E+00
         0.00000E+00
         0.00000E+00
         0.00000E+00
         0.00000E+00
         0.00000E+00
         0.00000E+00
         0.00000E+00
         0.00000E+00
         0.00000E+00
         0.00000E+00
         0.00000E+00
         0.00000E+00
         0.00000E+00
         0.00000E+00
         0.00000E+00
         0.00000E+00
         0.00000E+00
         0.00000E+00
         0.00000E+00
         0.00000E+00
         0.00000E+00
         0.00000E+00
         0.00000E+00
         0.00000E+00
         0.00000E+00
         0.00000E+00
         0.00000E+00
         0.00000E+00
         0.00000E+00
         0.00000E+00
         0.00000E+00
         0.00000E+00
         0.00000E+00
         0.00000E+00
         0.00000E+00
         0.00000E+00
         0.00000E+00
         0.00000E+00
         0.00000E+00
         0.00000E+00
         0.00000E+00
         0.00000E+00
         0.00000E+00
         0.00000E+00
         0.00000E+00
         0.00000E+00
         0.00000E+00
         0.00000E+00
         0.00000E+00
         0.00000E+00
         0.00000E+00
         0.00000E+00
         0.00000E+00
         0.00000E+00
         0.00000E+00
         0.00000E+00
         0.00000E+00
         0.00000E+00
         0.00000E+00
         0.00000E+00
         0.00000E+00
         0.00000E+00
         0.00000E+00
         0.00000E+00
         0.00000E+00
         0.00000E+00
         0.00000E+00
         0.00000E+00
         0.00000E+00
         0.00000E+00
         0.00000E+00
         0.00000E+00
         0.00000E+00
         0.00000E+00
         0.00000E+00
         0.00000E+00
         0.00000E+00
         0.00000E+00
         0.00000E+00
         0.00000E+00
         0.00000E+00
         0.00000E+00
         0.00000E+00
         0.00000E+00
         0.00000E+00
         0.00000E+00
         0.00000E+00
         0.00000E+00
         0.00000E+00
         0.00000E+00
         0.00000E+00
         0.00000E+00
         0.00000E+00
         0.00000E+00
         0.00000E+00
         0.00000E+00
         0.00000E+00
         0.00000E+00
         0.00000E+00
         0.00000E+00
         0.00000E+00
         0.00000E+00
         0.00000E+00
         0.00000E+00
         0.00000E+00
         0.00000E+00
         0.00000E+00
         0.00000E+00
         0.00000E+00
         0.00000E+00
         0.00000E+00
         0.00000E+00
         0.00000E+00
         0.00000E+00
         0.00000E+00
         0.00000E+00
         0.00000E+00
         0.00000E+00
         0.00000E+00
         0.00000E+00
         0.00000E+00
         0.00000E+00
         0.00000E+00
         0.00000E+00
         0.00000E+00
         0.00000E+00
         0.00000E+00
         0.00000E+00
         0.00000E+00
         0.00000E+00
         0.00000E+00
         0.00000E+00
         0.00000E+00
         0.00000E+00
         0.00000E+00
         0.00000E+00
         0.00000E+00
         0.00000E+00
         0.00000E+00
         0.00000E+00
         0.00000E+00
         0.00000E+00
         0.00000E+00
         0.00000E+00
         0.00000E+00
         0.00000E+00
         0.00000E+00
         0.00000E+00
         0.00000E+00
         0.00000E+00
         0.00000E+00
         0.00000E+00
         0.00000E+00
         0.00000E+00
         0.00000E+00
         0.00000E+00
         0.00000E+00
         0.00000E+00
         0.00000E+00
         0.00000E+00
         0.00000E+00
         0.00000E+00
         0.00000E+00
         0.00000E+00
         0.00000E+00
         0.00000E+00
         0.00000E+00
         0.00000E+00
         0.00000E+00
         0.00000E+00
         0.00000E+00
         0.00000E+00
         0.00000E+00
         0.00000E+00
         0.00000E+00
         0.00000E+00
         0.00000E+00
         0.00000E+00
         0.00000E+00
         0.00000E+00
         0.00000E+00
         0.00000E+00
         0.00000E+00
         0.00000E+00
         0.00000E+00
         0.00000E+00
         0.00000E+00
         0.00000E+00
         0.00000E+00
         0.00000E+00
         0.00000E+00
         0.00000E+00
         0.00000E+00
         0.00000E+00
         0.00000E+00
         0.00000E+00
         0.00000E+00
         0.00000E+00
         0.00000E+00
         0.00000E+00
         0.00000E+00
         0.00000E+00
         0.00000E+00
         0.00000E+00
         0.00000E+00
         0.00000E+00
         0.00000E+00
         0.00000E+00
         0.00000E+00
         0.00000E+00
         0.00000E+00
         0.00000E+00
         0.00000E+00
         0.00000E+00
         0.00000E+00
         0.00000E+00
         0.00000E+00
         0.00000E+00
         0.00000E+00
         0.00000E+00
         0.00000E+00
         0.00000E+00
         0.00000E+00
         0.00000E+00
         0.00000E+00
         0.00000E+00
         0.00000E+00
         0.00000E+00
         0.00000E+00
         0.00000E+00
         0.00000E+00
         0.00000E+00
         0.00000E+00
         0.00000E+00
         0.00000E+00
         0.00000E+00
         0.00000E+00
  
SCALARS                            eps  double 1
LOOKUP_TABLE default
         0.94859E+00
         0.93715E+00
         0.94441E+00
         0.95747E+00
         0.00000E+00
         0.00000E+00
         0.00000E+00
         0.00000E+00
         0.93682E+00
         0.94065E+00
         0.00000E+00
         0.00000E+00
         0.92058E+00
         0.91996E+00
         0.00000E+00
         0.00000E+00
         0.95556E+00
         0.92086E+00
         0.00000E+00
         0.00000E+00
         0.90816E+00
         0.89837E+00
         0.91401E+00
         0.00000E+00
         0.00000E+00
         0.00000E+00
         0.89872E+00
         0.88438E+00
         0.00000E+00
         0.00000E+00
         0.95493E+00
         0.93981E+00
         0.96962E+00
         0.00000E+00
         0.00000E+00
         0.00000E+00
         0.94616E+00
         0.92696E+00
         0.00000E+00
         0.00000E+00
         0.93858E+00
         0.92377E+00
         0.00000E+00
         0.00000E+00
         0.95114E+00
         0.95672E+00
         0.00000E+00
         0.00000E+00
         0.91186E+00
         0.00000E+00
         0.95563E+00
         0.00000E+00
         0.89457E+00
         0.00000E+00
         0.89005E+00
         0.00000E+00
         0.89014E+00
         0.90617E+00
         0.00000E+00
         0.00000E+00
         0.95462E+00
         0.94880E+00
         0.00000E+00
         0.00000E+00
         0.95826E+00
         0.00000E+00
         0.95134E+00
         0.00000E+00
         0.93332E+00
         0.93143E+00
         0.00000E+00
         0.00000E+00
         0.92732E+00
         0.00000E+00
         0.87932E+00
         0.00000E+00
         0.87683E+00
         0.00000E+00
         0.87811E+00
         0.00000E+00
         0.88509E+00
         0.89223E+00
         0.00000E+00
         0.00000E+00
         0.90673E+00
         0.00000E+00
         0.95086E+00
         0.00000E+00
         0.94399E+00
         0.00000E+00
         0.93843E+00
         0.93523E+00
         0.00000E+00
         0.00000E+00
         0.93901E+00
         0.00000E+00
         0.94173E+00
         0.00000E+00
         0.93930E+00
         0.00000E+00
         0.93850E+00
         0.94094E+00
         0.00000E+00
         0.00000E+00
         0.92518E+00
         0.93180E+00
         0.00000E+00
         0.00000E+00
         0.92405E+00
         0.00000E+00
         0.93169E+00
         0.00000E+00
         0.92421E+00
         0.00000E+00
         0.90783E+00
         0.00000E+00
         0.89205E+00
         0.00000E+00
         0.88258E+00
         0.00000E+00
         0.88162E+00
         0.00000E+00
         0.88190E+00
         0.00000E+00
         0.89215E+00
         0.00000E+00
         0.91153E+00
         0.00000E+00
         0.93283E+00
         0.00000E+00
         0.94520E+00
         0.00000E+00
         0.95752E+00
         0.00000E+00
         0.96567E+00
         0.00000E+00
         0.96542E+00
         0.00000E+00
         0.94543E+00
         0.00000E+00
         0.93154E+00
         0.00000E+00
         0.92697E+00
         0.00000E+00
         0.93445E+00
         0.00000E+00
         0.93824E+00
         0.00000E+00
         0.93165E+00
         0.00000E+00
         0.93164E+00
         0.00000E+00
         0.93662E+00
         0.00000E+00
         0.94307E+00
         0.00000E+00
         0.22609E+00
         0.22928E+00
         0.22885E+00
         0.22468E+00
         0.23232E+00
         0.22851E+00
         0.23318E+00
         0.23076E+00
         0.22535E+00
         0.22875E+00
         0.23573E+00
         0.23658E+00
         0.23450E+00
         0.23430E+00
         0.23571E+00
         0.22489E+00
         0.22567E+00
         0.22345E+00
         0.22962E+00
         0.22852E+00
         0.23014E+00
         0.22911E+00
         0.23101E+00
         0.23047E+00
         0.22861E+00
         0.22874E+00
         0.23190E+00
         0.23161E+00
         0.23391E+00
         0.23043E+00
         0.22527E+00
         0.22932E+00
         0.22530E+00
         0.22797E+00
         0.23710E+00
         0.23423E+00
         0.23286E+00
         0.23451E+00
         0.23469E+00
         0.23727E+00
         0.23917E+00
         0.23459E+00
         0.23009E+00
         0.23069E+00
         0.23301E+00
         0.23700E+00
         0.23358E+00
         0.22985E+00
         0.23011E+00
         0.23300E+00
         0.23592E+00
         0.23199E+00
         0.24410E+00
         0.24093E+00
         0.24153E+00
         0.24082E+00
         0.24111E+00
         0.24301E+00
         0.24474E+00
         0.24515E+00
         0.24486E+00
         0.24510E+00
         0.24579E+00
         0.24120E+00
         0.23923E+00
         0.23846E+00
         0.23735E+00
         0.23650E+00
         0.23660E+00
         0.23820E+00
         0.24310E+00
         0.24202E+00
         0.24024E+00
         0.24018E+00
         0.24049E+00
         0.24207E+00
         0.23972E+00
         0.23885E+00
         0.75238E-03
         0.00000E+00
         0.00000E+00
         0.00000E+00
         0.90070E-03
         0.00000E+00
         0.00000E+00
         0.68890E-03
         0.00000E+00
         0.47035E-03
         0.00000E+00
         0.44210E-02
         0.26016E-02
         0.00000E+00
         0.47797E-02
         0.00000E+00
         0.00000E+00
         0.00000E+00
         0.00000E+00
         0.00000E+00
         0.28056E-02
         0.24388E-02
         0.22934E-02
         0.00000E+00
         0.00000E+00
         0.00000E+00
         0.00000E+00
         0.00000E+00
         0.00000E+00
         0.00000E+00
         0.00000E+00
         0.00000E+00
         0.00000E+00
         0.00000E+00
         0.20746E-02
         0.00000E+00
         0.90595E-03
         0.33173E-02
         0.18303E-02
         0.14880E-02
         0.34260E-02
         0.28127E-02
         0.28523E-02
         0.15034E-02
         0.10102E-02
         0.25277E-02
         0.58584E-03
         0.35036E-04
         0.00000E+00
         0.00000E+00
         0.18924E-02
         0.32635E-03
         0.19097E-01
         0.19634E-01
         0.20676E-01
         0.20501E-01
         0.22076E-01
         0.23953E-01
         0.22847E-01
         0.19943E-01
         0.19349E-01
         0.20943E-01
         0.20459E-01
         0.20134E-01
         0.16067E-01
         0.15110E-01
         0.16926E-01
         0.18366E-01
         0.19186E-01
         0.21261E-01
         0.20323E-01
         0.20964E-01
         0.18543E-01
         0.17438E-01
         0.18819E-01
         0.18322E-01
         0.18951E-01
         0.18763E-01
         0.75529E-03
         0.00000E+00
         0.00000E+00
         0.00000E+00
         0.89891E-03
         0.00000E+00
         0.00000E+00
         0.69255E-03
         0.00000E+00
         0.48085E-03
         0.00000E+00
         0.44207E-02
         0.26039E-02
         0.00000E+00
         0.47879E-02
         0.00000E+00
         0.00000E+00
         0.00000E+00
         0.00000E+00
         0.00000E+00
         0.28061E-02
         0.24385E-02
         0.22931E-02
         0.00000E+00
         0.00000E+00
         0.00000E+00
         0.00000E+00
         0.00000E+00
         0.00000E+00
         0.00000E+00
         0.00000E+00
         0.00000E+00
         0.00000E+00
         0.00000E+00
         0.20769E-02
         0.00000E+00
         0.90505E-03
         0.33273E-02
         0.18414E-02
         0.14944E-02
         0.34304E-02
         0.28158E-02
         0.28530E-02
         0.15033E-02
         0.10093E-02
         0.25274E-02
         0.58589E-03
         0.34842E-04
         0.00000E+00
         0.00000E+00
         0.18896E-02
         0.32108E-03
         0.19089E-01
         0.19629E-01
         0.20675E-01
         0.20501E-01
         0.22072E-01
         0.23943E-01
         0.22837E-01
         0.19936E-01
         0.19343E-01
         0.20936E-01
         0.20455E-01
         0.20135E-01
         0.16065E-01
         0.15110E-01
         0.16928E-01
         0.18372E-01
         0.19192E-01
         0.21266E-01
         0.20322E-01
         0.20963E-01
         0.18541E-01
         0.17437E-01
         0.18811E-01
         0.18308E-01
         0.18938E-01
         0.18751E-01
         0.75822E-03
         0.00000E+00
         0.00000E+00
         0.00000E+00
         0.89706E-03
         0.00000E+00
         0.00000E+00
         0.69621E-03
         0.00000E+00
         0.49126E-03
         0.00000E+00
         0.44205E-02
         0.26061E-02
         0.00000E+00
         0.47961E-02
         0.00000E+00
         0.00000E+00
         0.00000E+00
         0.00000E+00
         0.00000E+00
         0.28067E-02
         0.24381E-02
         0.22928E-02
         0.00000E+00
         0.00000E+00
         0.00000E+00
         0.00000E+00
         0.00000E+00
         0.00000E+00
         0.00000E+00
         0.00000E+00
         0.00000E+00
         0.00000E+00
         0.00000E+00
         0.20792E-02
         0.00000E+00
         0.90408E-03
         0.33374E-02
         0.18526E-02
         0.15008E-02
         0.34348E-02
         0.28190E-02
         0.28538E-02
         0.15034E-02
         0.10087E-02
         0.25272E-02
         0.58593E-03
         0.34614E-04
         0.00000E+00
         0.00000E+00
         0.18869E-02
         0.31584E-03
         0.19081E-01
         0.19623E-01
         0.20675E-01
         0.20501E-01
         0.22068E-01
         0.23934E-01
         0.22826E-01
         0.19930E-01
         0.19337E-01
         0.20929E-01
         0.20450E-01
         0.20136E-01
         0.16063E-01
         0.15109E-01
         0.16931E-01
         0.18377E-01
         0.19198E-01
         0.21272E-01
         0.20320E-01
         0.20961E-01
         0.18538E-01
         0.17436E-01
         0.18803E-01
         0.18294E-01
         0.18926E-01
         0.18740E-01
         0.76114E-03
         0.00000E+00
         0.00000E+00
         0.00000E+00
         0.89522E-03
         0.00000E+00
         0.00000E+00
         0.69982E-03
         0.00000E+00
         0.50147E-03
         0.00000E+00
         0.44203E-02
         0.26085E-02
         0.00000E+00
         0.48043E-02
         0.00000E+00
         0.00000E+00
         0.00000E+00
         0.00000E+00
         0.00000E+00
         0.28075E-02
         0.24379E-02
         0.22928E-02
         0.00000E+00
         0.00000E+00
         0.00000E+00
         0.00000E+00
         0.00000E+00
         0.00000E+00
         0.00000E+00
         0.00000E+00
         0.00000E+00
         0.00000E+00
         0.00000E+00
         0.20815E-02
         0.00000E+00
         0.90314E-03
         0.33475E-02
         0.18639E-02
         0.15076E-02
         0.34396E-02
         0.28223E-02
         0.28549E-02
         0.15039E-02
         0.10082E-02
         0.25271E-02
         0.58621E-03
         0.34437E-04
         0.00000E+00
         0.00000E+00
         0.18840E-02
         0.31056E-03
         0.19073E-01
         0.19618E-01
         0.20675E-01
         0.20502E-01
         0.22064E-01
         0.23925E-01
         0.22815E-01
         0.19924E-01
         0.19332E-01
         0.20921E-01
         0.20447E-01
         0.20137E-01
         0.16062E-01
         0.15108E-01
         0.16934E-01
         0.18383E-01
         0.19204E-01
         0.21277E-01
         0.20319E-01
         0.20960E-01
         0.18536E-01
         0.17434E-01
         0.18796E-01
         0.18279E-01
         0.18913E-01
         0.18728E-01
         0.76403E-03
         0.00000E+00
         0.00000E+00
         0.00000E+00
         0.89345E-03
         0.00000E+00
         0.00000E+00
         0.70340E-03
         0.00000E+00
         0.51145E-03
         0.00000E+00
         0.44200E-02
         0.26107E-02
         0.00000E+00
         0.48126E-02
         0.00000E+00
         0.00000E+00
         0.00000E+00
         0.00000E+00
         0.00000E+00
         0.28084E-02
         0.24377E-02
         0.22932E-02
         0.00000E+00
         0.00000E+00
         0.00000E+00
         0.00000E+00
         0.00000E+00
         0.00000E+00
         0.00000E+00
         0.00000E+00
         0.00000E+00
         0.00000E+00
         0.00000E+00
         0.20838E-02
         0.00000E+00
         0.90225E-03
         0.33576E-02
         0.18754E-02
         0.15146E-02
         0.34446E-02
         0.28257E-02
         0.28563E-02
         0.15049E-02
         0.10080E-02
         0.25274E-02
         0.58666E-03
         0.34400E-04
         0.00000E+00
         0.00000E+00
         0.18813E-02
         0.30529E-03
         0.19065E-01
         0.19612E-01
         0.20675E-01
         0.20502E-01
         0.22060E-01
         0.23916E-01
         0.22804E-01
         0.19918E-01
         0.19326E-01
         0.20914E-01
         0.20443E-01
         0.20139E-01
         0.16061E-01
         0.15108E-01
         0.16936E-01
         0.18390E-01
         0.19212E-01
         0.21283E-01
         0.20318E-01
         0.20958E-01
         0.18534E-01
         0.17433E-01
         0.18788E-01
         0.18265E-01
         0.18901E-01
         0.18716E-01
         0.76677E-03
         0.00000E+00
         0.00000E+00
         0.00000E+00
         0.89164E-03
         0.00000E+00
         0.00000E+00
         0.70673E-03
         0.00000E+00
         0.52114E-03
         0.00000E+00
         0.44199E-02
         0.26130E-02
         0.00000E+00
         0.48208E-02
         0.00000E+00
         0.00000E+00
         0.00000E+00
         0.00000E+00
         0.00000E+00
         0.28094E-02
         0.24377E-02
         0.22937E-02
         0.00000E+00
         0.00000E+00
         0.00000E+00
         0.00000E+00
         0.00000E+00
         0.00000E+00
         0.00000E+00
         0.00000E+00
         0.00000E+00
         0.00000E+00
         0.00000E+00
         0.20862E-02
         0.00000E+00
         0.90145E-03
         0.33678E-02
         0.18871E-02
         0.15219E-02
         0.34497E-02
         0.28292E-02
         0.28578E-02
         0.15060E-02
         0.10081E-02
         0.25279E-02
         0.58718E-03
         0.34464E-04
         0.00000E+00
         0.00000E+00
         0.18786E-02
         0.30016E-03
         0.19057E-01
         0.19607E-01
         0.20675E-01
         0.20502E-01
         0.22055E-01
         0.23906E-01
         0.22793E-01
         0.19912E-01
         0.19320E-01
         0.20907E-01
         0.20439E-01
         0.20140E-01
         0.16060E-01
         0.15107E-01
         0.16940E-01
         0.18397E-01
         0.19220E-01
         0.21289E-01
         0.20316E-01
         0.20957E-01
         0.18531E-01
         0.17432E-01
         0.18781E-01
         0.18251E-01
         0.18888E-01
         0.18704E-01
         0.76930E-03
         0.00000E+00
         0.00000E+00
         0.00000E+00
         0.88990E-03
         0.00000E+00
         0.00000E+00
         0.70959E-03
         0.00000E+00
         0.53043E-03
         0.00000E+00
         0.44199E-02
         0.26156E-02
         0.00000E+00
         0.48291E-02
         0.00000E+00
         0.00000E+00
         0.00000E+00
         0.00000E+00
         0.00000E+00
         0.28104E-02
         0.24377E-02
         0.22943E-02
         0.00000E+00
         0.00000E+00
         0.00000E+00
         0.00000E+00
         0.00000E+00
         0.00000E+00
         0.00000E+00
         0.00000E+00
         0.00000E+00
         0.00000E+00
         0.00000E+00
         0.20886E-02
         0.00000E+00
         0.90076E-03
         0.33781E-02
         0.18989E-02
         0.15292E-02
         0.34550E-02
         0.28328E-02
         0.28593E-02
         0.15072E-02
         0.10084E-02
         0.25286E-02
         0.58798E-03
         0.34848E-04
         0.00000E+00
         0.00000E+00
         0.18762E-02
         0.29502E-03
         0.19049E-01
         0.19601E-01
         0.20675E-01
         0.20502E-01
         0.22051E-01
         0.23897E-01
         0.22782E-01
         0.19905E-01
         0.19314E-01
         0.20899E-01
         0.20435E-01
         0.20142E-01
         0.16060E-01
         0.15107E-01
         0.16943E-01
         0.18405E-01
         0.19227E-01
         0.21295E-01
         0.20315E-01
         0.20955E-01
         0.18529E-01
         0.17431E-01
         0.18773E-01
         0.18237E-01
         0.18876E-01
         0.18693E-01
         0.77173E-03
         0.00000E+00
         0.00000E+00
         0.00000E+00
         0.88826E-03
         0.00000E+00
         0.00000E+00
         0.71218E-03
         0.00000E+00
         0.53953E-03
         0.00000E+00
         0.44199E-02
         0.26182E-02
         0.00000E+00
         0.48374E-02
         0.00000E+00
         0.00000E+00
         0.00000E+00
         0.00000E+00
         0.00000E+00
         0.28114E-02
         0.24377E-02
         0.22949E-02
         0.00000E+00
         0.00000E+00
         0.00000E+00
         0.00000E+00
         0.00000E+00
         0.00000E+00
         0.00000E+00
         0.00000E+00
         0.00000E+00
         0.00000E+00
         0.00000E+00
         0.20912E-02
         0.00000E+00
         0.90024E-03
         0.33884E-02
         0.19107E-02
         0.15365E-02
         0.34602E-02
         0.28365E-02
         0.28609E-02
         0.15085E-02
         0.10088E-02
         0.25296E-02
         0.58889E-03
         0.35313E-04
         0.00000E+00
         0.00000E+00
         0.18738E-02
         0.29000E-03
         0.19040E-01
         0.19596E-01
         0.20674E-01
         0.20502E-01
         0.22047E-01
         0.23888E-01
         0.22771E-01
         0.19899E-01
         0.19309E-01
         0.20892E-01
         0.20431E-01
         0.20143E-01
         0.16059E-01
         0.15107E-01
         0.16946E-01
         0.18412E-01
         0.19235E-01
         0.21301E-01
         0.20313E-01
         0.20954E-01
         0.18527E-01
         0.17430E-01
         0.18765E-01
         0.18223E-01
         0.18864E-01
         0.18681E-01
         0.77414E-03
         0.00000E+00
         0.00000E+00
         0.00000E+00
         0.88654E-03
         0.00000E+00
         0.00000E+00
         0.71479E-03
         0.00000E+00
         0.54861E-03
         0.00000E+00
         0.44200E-02
         0.26208E-02
         0.00000E+00
         0.48458E-02
         0.00000E+00
         0.00000E+00
         0.00000E+00
         0.00000E+00
         0.00000E+00
         0.28124E-02
         0.24378E-02
         0.22955E-02
         0.00000E+00
         0.00000E+00
         0.00000E+00
         0.00000E+00
         0.00000E+00
         0.00000E+00
         0.00000E+00
         0.00000E+00
         0.00000E+00
         0.00000E+00
         0.00000E+00
         0.20938E-02
         0.00000E+00
         0.89968E-03
         0.33988E-02
         0.19226E-02
         0.15438E-02
         0.34655E-02
         0.28401E-02
         0.28624E-02
         0.15098E-02
         0.10092E-02
         0.25305E-02
         0.58974E-03
         0.35799E-04
         0.00000E+00
         0.00000E+00
         0.18715E-02
         0.28491E-03
         0.19032E-01
         0.19590E-01
         0.20674E-01
         0.20502E-01
         0.22043E-01
         0.23879E-01
         0.22760E-01
         0.19893E-01
         0.19303E-01
         0.20884E-01
         0.20427E-01
         0.20145E-01
         0.16058E-01
         0.15106E-01
         0.16949E-01
         0.18419E-01
         0.19243E-01
         0.21306E-01
         0.20312E-01
         0.20952E-01
         0.18526E-01
         0.17429E-01
         0.18758E-01
         0.18209E-01
         0.18851E-01
         0.18669E-01
         0.77651E-03
         0.00000E+00
         0.00000E+00
         0.00000E+00
         0.88483E-03
         0.00000E+00
         0.00000E+00
         0.71741E-03
         0.00000E+00
         0.55769E-03
         0.00000E+00
         0.44200E-02
         0.26235E-02
         0.00000E+00
         0.48541E-02
         0.00000E+00
         0.00000E+00
         0.00000E+00
         0.00000E+00
         0.00000E+00
         0.28135E-02
         0.24377E-02
         0.22960E-02
         0.00000E+00
         0.00000E+00
         0.00000E+00
         0.00000E+00
         0.00000E+00
         0.00000E+00
         0.00000E+00
         0.00000E+00
         0.00000E+00
         0.00000E+00
         0.00000E+00
         0.20962E-02
         0.00000E+00
         0.89916E-03
         0.34092E-02
         0.19344E-02
         0.15512E-02
         0.34707E-02
         0.28437E-02
         0.28640E-02
         0.15111E-02
         0.10096E-02
         0.25314E-02
         0.59066E-03
         0.36344E-04
         0.00000E+00
         0.00000E+00
         0.18690E-02
         0.27983E-03
         0.19024E-01
         0.19585E-01
         0.20674E-01
         0.20502E-01
         0.22039E-01
         0.23869E-01
         0.22748E-01
         0.19887E-01
         0.19297E-01
         0.20877E-01
         0.20423E-01
         0.20147E-01
         0.16058E-01
         0.15106E-01
         0.16952E-01
         0.18426E-01
         0.19251E-01
         0.21312E-01
         0.20310E-01
         0.20951E-01
         0.18524E-01
         0.17428E-01
         0.18750E-01
         0.18195E-01
         0.18839E-01
         0.18658E-01
         0.77889E-03
         0.00000E+00
         0.00000E+00
         0.00000E+00
         0.88318E-03
         0.00000E+00
         0.00000E+00
         0.71999E-03
         0.00000E+00
         0.56676E-03
         0.00000E+00
         0.44200E-02
         0.26261E-02
         0.00000E+00
         0.48625E-02
         0.00000E+00
         0.00000E+00
         0.00000E+00
         0.00000E+00
         0.00000E+00
         0.28145E-02
         0.24377E-02
         0.22966E-02
         0.00000E+00
         0.00000E+00
         0.00000E+00
         0.00000E+00
         0.00000E+00
         0.00000E+00
         0.00000E+00
         0.00000E+00
         0.00000E+00
         0.00000E+00
         0.00000E+00
         0.20988E-02
         0.00000E+00
         0.89863E-03
         0.34196E-02
         0.19463E-02
         0.15584E-02
         0.34759E-02
         0.28473E-02
         0.28655E-02
         0.15124E-02
         0.10101E-02
         0.25323E-02
         0.59158E-03
         0.36826E-04
         0.00000E+00
         0.00000E+00
         0.18668E-02
         0.27481E-03
         0.19016E-01
         0.19580E-01
         0.20673E-01
         0.20502E-01
         0.22034E-01
         0.23860E-01
         0.22737E-01
         0.19880E-01
         0.19292E-01
         0.20869E-01
         0.20419E-01
         0.20148E-01
         0.16057E-01
         0.15106E-01
         0.16955E-01
         0.18434E-01
         0.19258E-01
         0.21318E-01
         0.20309E-01
         0.20949E-01
         0.18522E-01
         0.17427E-01
         0.18742E-01
         0.18181E-01
         0.18826E-01
         0.18646E-01
         0.78127E-03
         0.00000E+00
         0.00000E+00
         0.00000E+00
         0.88148E-03
         0.00000E+00
         0.00000E+00
         0.72259E-03
         0.00000E+00
         0.57581E-03
         0.00000E+00
         0.44201E-02
         0.26286E-02
         0.00000E+00
         0.48708E-02
         0.00000E+00
         0.00000E+00
         0.00000E+00
         0.00000E+00
         0.00000E+00
         0.28155E-02
         0.24377E-02
         0.22972E-02
         0.00000E+00
         0.00000E+00
         0.00000E+00
         0.00000E+00
         0.00000E+00
         0.00000E+00
         0.00000E+00
         0.00000E+00
         0.00000E+00
         0.00000E+00
         0.00000E+00
         0.21014E-02
         0.00000E+00
         0.89806E-03
         0.34300E-02
         0.19582E-02
         0.15657E-02
         0.34812E-02
         0.28509E-02
         0.28671E-02
         0.15137E-02
         0.10105E-02
         0.25332E-02
         0.59244E-03
         0.37383E-04
         0.00000E+00
         0.00000E+00
         0.18644E-02
         0.26973E-03
         0.19008E-01
         0.19574E-01
         0.20673E-01
         0.20503E-01
         0.22030E-01
         0.23851E-01
         0.22726E-01
         0.19874E-01
         0.19286E-01
         0.20862E-01
         0.20416E-01
         0.20150E-01
         0.16056E-01
         0.15105E-01
         0.16958E-01
         0.18441E-01
         0.19266E-01
         0.21324E-01
         0.20307E-01
         0.20948E-01
         0.18520E-01
         0.17426E-01
         0.18735E-01
         0.18167E-01
         0.18814E-01
         0.18634E-01
         0.78366E-03
         0.00000E+00
         0.00000E+00
         0.00000E+00
         0.87980E-03
         0.00000E+00
         0.00000E+00
         0.72519E-03
         0.00000E+00
         0.58484E-03
         0.00000E+00
         0.44201E-02
         0.26313E-02
         0.00000E+00
         0.48793E-02
         0.00000E+00
         0.00000E+00
         0.00000E+00
         0.00000E+00
         0.00000E+00
         0.28165E-02
         0.24377E-02
         0.22978E-02
         0.00000E+00
         0.00000E+00
         0.00000E+00
         0.00000E+00
         0.00000E+00
         0.00000E+00
         0.00000E+00
         0.00000E+00
         0.00000E+00
         0.00000E+00
         0.00000E+00
         0.21039E-02
         0.00000E+00
         0.89754E-03
         0.34404E-02
         0.19701E-02
         0.15730E-02
         0.34865E-02
         0.28545E-02
         0.28686E-02
         0.15150E-02
         0.10110E-02
         0.25340E-02
         0.59338E-03
         0.37883E-04
         0.00000E+00
         0.00000E+00
         0.18619E-02
         0.26465E-03
         0.19000E-01
         0.19569E-01
         0.20673E-01
         0.20503E-01
         0.22026E-01
         0.23841E-01
         0.22715E-01
         0.19868E-01
         0.19280E-01
         0.20854E-01
         0.20412E-01
         0.20151E-01
         0.16055E-01
         0.15105E-01
         0.16961E-01
         0.18448E-01
         0.19274E-01
         0.21329E-01
         0.20305E-01
         0.20946E-01
         0.18518E-01
         0.17425E-01
         0.18727E-01
         0.18153E-01
         0.18802E-01
         0.18623E-01
         0.78603E-03
         0.00000E+00
         0.00000E+00
         0.00000E+00
         0.87817E-03
         0.00000E+00
         0.00000E+00
         0.72776E-03
         0.00000E+00
         0.59388E-03
         0.00000E+00
         0.44202E-02
         0.26339E-02
         0.00000E+00
         0.48876E-02
         0.00000E+00
         0.00000E+00
         0.00000E+00
         0.00000E+00
         0.00000E+00
         0.28175E-02
         0.24377E-02
         0.22984E-02
         0.00000E+00
         0.00000E+00
         0.00000E+00
         0.00000E+00
         0.00000E+00
         0.00000E+00
         0.00000E+00
         0.00000E+00
         0.00000E+00
         0.00000E+00
         0.00000E+00
         0.21066E-02
         0.00000E+00
         0.89698E-03
         0.34508E-02
         0.19820E-02
         0.15802E-02
         0.34917E-02
         0.28581E-02
         0.28702E-02
         0.15163E-02
         0.10114E-02
         0.25350E-02
         0.59432E-03
         0.38376E-04
         0.00000E+00
         0.00000E+00
         0.18596E-02
         0.25964E-03
         0.18991E-01
         0.19563E-01
         0.20672E-01
         0.20503E-01
         0.22022E-01
         0.23832E-01
         0.22704E-01
         0.19861E-01
         0.19275E-01
         0.20846E-01
         0.20408E-01
         0.20153E-01
         0.16055E-01
         0.15105E-01
         0.16964E-01
         0.18455E-01
         0.19282E-01
         0.21335E-01
         0.20304E-01
         0.20945E-01
         0.18516E-01
         0.17424E-01
         0.18719E-01
         0.18139E-01
         0.18789E-01
         0.18611E-01
         0.78839E-03
         0.00000E+00
         0.00000E+00
         0.00000E+00
         0.87647E-03
         0.00000E+00
         0.00000E+00
         0.73036E-03
         0.00000E+00
         0.60291E-03
         0.00000E+00
         0.44202E-02
         0.26364E-02
         0.00000E+00
         0.48960E-02
         0.00000E+00
         0.00000E+00
         0.00000E+00
         0.00000E+00
         0.00000E+00
         0.28186E-02
         0.24377E-02
         0.22989E-02
         0.00000E+00
         0.00000E+00
         0.00000E+00
         0.00000E+00
         0.00000E+00
         0.00000E+00
         0.00000E+00
         0.00000E+00
         0.00000E+00
         0.00000E+00
         0.00000E+00
         0.21091E-02
         0.00000E+00
         0.89646E-03
         0.34612E-02
         0.19939E-02
         0.15875E-02
         0.34969E-02
         0.28617E-02
         0.28717E-02
         0.15176E-02
         0.10118E-02
         0.25359E-02
         0.59516E-03
         0.38930E-04
         0.00000E+00
         0.00000E+00
         0.18573E-02
         0.25456E-03
         0.18983E-01
         0.19558E-01
         0.20672E-01
         0.20503E-01
         0.22018E-01
         0.23823E-01
         0.22692E-01
         0.19855E-01
         0.19269E-01
         0.20839E-01
         0.20404E-01
         0.20154E-01
         0.16054E-01
         0.15104E-01
         0.16967E-01
         0.18463E-01
         0.19290E-01
         0.21341E-01
         0.20302E-01
         0.20943E-01
         0.18514E-01
         0.17423E-01
         0.18712E-01
         0.18124E-01
         0.18777E-01
         0.18599E-01
         0.79073E-03
         0.00000E+00
         0.00000E+00
         0.00000E+00
         0.87477E-03
         0.00000E+00
         0.00000E+00
         0.73295E-03
         0.00000E+00
         0.61194E-03
         0.00000E+00
         0.44203E-02
         0.26391E-02
         0.00000E+00
         0.49043E-02
         0.00000E+00
         0.00000E+00
         0.00000E+00
         0.00000E+00
         0.00000E+00
         0.28196E-02
         0.24377E-02
         0.22995E-02
         0.00000E+00
         0.00000E+00
         0.00000E+00
         0.00000E+00
         0.00000E+00
         0.00000E+00
         0.00000E+00
         0.00000E+00
         0.00000E+00
         0.00000E+00
         0.00000E+00
         0.21117E-02
         0.00000E+00
         0.89593E-03
         0.34717E-02
         0.20058E-02
         0.15947E-02
         0.35021E-02
         0.28652E-02
         0.28732E-02
         0.15188E-02
         0.10123E-02
         0.25368E-02
         0.59609E-03
         0.39421E-04
         0.00000E+00
         0.00000E+00
         0.18549E-02
         0.24948E-03
         0.18975E-01
         0.19553E-01
         0.20672E-01
         0.20503E-01
         0.22014E-01
         0.23813E-01
         0.22681E-01
         0.19849E-01
         0.19263E-01
         0.20831E-01
         0.20400E-01
         0.20156E-01
         0.16053E-01
         0.15104E-01
         0.16970E-01
         0.18470E-01
         0.19297E-01
         0.21346E-01
         0.20301E-01
         0.20942E-01
         0.18512E-01
         0.17422E-01
         0.18704E-01
         0.18110E-01
         0.18765E-01
         0.18588E-01
         0.79308E-03
         0.00000E+00
         0.00000E+00
         0.00000E+00
         0.87316E-03
         0.00000E+00
         0.00000E+00
         0.73552E-03
         0.00000E+00
         0.62094E-03
         0.00000E+00
         0.44203E-02
         0.26417E-02
         0.00000E+00
         0.49127E-02
         0.00000E+00
         0.00000E+00
         0.00000E+00
         0.00000E+00
         0.00000E+00
         0.28206E-02
         0.24376E-02
         0.23001E-02
         0.00000E+00
         0.00000E+00
         0.00000E+00
         0.00000E+00
         0.00000E+00
         0.00000E+00
         0.00000E+00
         0.00000E+00
         0.00000E+00
         0.00000E+00
         0.00000E+00
         0.21143E-02
         0.00000E+00
         0.89535E-03
         0.34821E-02
         0.20178E-02
         0.16018E-02
         0.35072E-02
         0.28688E-02
         0.28747E-02
         0.15202E-02
         0.10127E-02
         0.25377E-02
         0.59704E-03
         0.39986E-04
         0.00000E+00
         0.00000E+00
         0.18525E-02
         0.24449E-03
         0.18967E-01
         0.19547E-01
         0.20671E-01
         0.20503E-01
         0.22009E-01
         0.23804E-01
         0.22670E-01
         0.19842E-01
         0.19258E-01
         0.20823E-01
         0.20396E-01
         0.20158E-01
         0.16052E-01
         0.15104E-01
         0.16973E-01
         0.18477E-01
         0.19305E-01
         0.21352E-01
         0.20299E-01
         0.20940E-01
         0.18510E-01
         0.17421E-01
         0.18696E-01
         0.18096E-01
         0.18753E-01
         0.18576E-01
         0.79543E-03
         0.00000E+00
         0.00000E+00
         0.00000E+00
         0.87148E-03
         0.00000E+00
         0.00000E+00
         0.73806E-03
         0.00000E+00
         0.62987E-03
         0.00000E+00
         0.44204E-02
         0.26443E-02
         0.00000E+00
         0.49210E-02
         0.00000E+00
         0.00000E+00
         0.00000E+00
         0.00000E+00
         0.00000E+00
         0.28216E-02
         0.24376E-02
         0.23007E-02
         0.00000E+00
         0.00000E+00
         0.00000E+00
         0.00000E+00
         0.00000E+00
         0.00000E+00
         0.00000E+00
         0.00000E+00
         0.00000E+00
         0.00000E+00
         0.00000E+00
         0.21169E-02
         0.00000E+00
         0.89485E-03
         0.34927E-02
         0.20297E-02
         0.16087E-02
         0.35121E-02
         0.28720E-02
         0.28761E-02
         0.15215E-02
         0.10131E-02
         0.25387E-02
         0.59791E-03
         0.40510E-04
         0.00000E+00
         0.00000E+00
         0.18502E-02
         0.23942E-03
         0.18959E-01
         0.19542E-01
         0.20671E-01
         0.20503E-01
         0.22005E-01
         0.23795E-01
         0.22658E-01
         0.19836E-01
         0.19252E-01
         0.20815E-01
         0.20393E-01
         0.20160E-01
         0.16052E-01
         0.15103E-01
         0.16976E-01
         0.18484E-01
         0.19313E-01
         0.21358E-01
         0.20298E-01
         0.20939E-01
         0.18508E-01
         0.17420E-01
         0.18688E-01
         0.18082E-01
         0.18740E-01
         0.18564E-01
         0.79777E-03
         0.00000E+00
         0.00000E+00
         0.00000E+00
         0.86979E-03
         0.00000E+00
         0.00000E+00
         0.74060E-03
         0.00000E+00
         0.63873E-03
         0.00000E+00
         0.44205E-02
         0.26469E-02
         0.00000E+00
         0.49294E-02
         0.00000E+00
         0.00000E+00
         0.00000E+00
         0.00000E+00
         0.00000E+00
         0.28227E-02
         0.24374E-02
         0.23013E-02
         0.00000E+00
         0.00000E+00
         0.00000E+00
         0.00000E+00
         0.00000E+00
         0.00000E+00
         0.00000E+00
         0.00000E+00
         0.00000E+00
         0.00000E+00
         0.00000E+00
         0.21195E-02
         0.00000E+00
         0.89432E-03
         0.35032E-02
         0.20415E-02
         0.16155E-02
         0.35167E-02
         0.28749E-02
         0.28773E-02
         0.15228E-02
         0.10136E-02
         0.25396E-02
         0.59885E-03
         0.41026E-04
         0.00000E+00
         0.00000E+00
         0.18478E-02
         0.23431E-03
         0.18951E-01
         0.19537E-01
         0.20670E-01
         0.20503E-01
         0.22001E-01
         0.23785E-01
         0.22647E-01
         0.19830E-01
         0.19246E-01
         0.20806E-01
         0.20389E-01
         0.20163E-01
         0.16052E-01
         0.15103E-01
         0.16979E-01
         0.18491E-01
         0.19321E-01
         0.21363E-01
         0.20296E-01
         0.20937E-01
         0.18506E-01
         0.17419E-01
         0.18681E-01
         0.18068E-01
         0.18728E-01
         0.18553E-01
         0.80014E-03
         0.00000E+00
         0.00000E+00
         0.00000E+00
         0.86821E-03
         0.00000E+00
         0.00000E+00
         0.74315E-03
         0.00000E+00
         0.64756E-03
         0.00000E+00
         0.44205E-02
         0.26495E-02
         0.00000E+00
         0.49377E-02
         0.00000E+00
         0.00000E+00
         0.00000E+00
         0.00000E+00
         0.00000E+00
         0.28237E-02
         0.24373E-02
         0.23018E-02
         0.00000E+00
         0.00000E+00
         0.00000E+00
         0.00000E+00
         0.00000E+00
         0.00000E+00
         0.00000E+00
         0.00000E+00
         0.00000E+00
         0.00000E+00
         0.00000E+00
         0.21222E-02
         0.00000E+00
         0.89373E-03
         0.35137E-02
         0.20533E-02
         0.16219E-02
         0.35211E-02
         0.28777E-02
         0.28785E-02
         0.15241E-02
         0.10140E-02
         0.25405E-02
         0.59978E-03
         0.41600E-04
         0.00000E+00
         0.00000E+00
         0.18455E-02
         0.22935E-03
         0.18942E-01
         0.19531E-01
         0.20670E-01
         0.20503E-01
         0.21997E-01
         0.23776E-01
         0.22636E-01
         0.19823E-01
         0.19241E-01
         0.20798E-01
         0.20385E-01
         0.20166E-01
         0.16052E-01
         0.15103E-01
         0.16982E-01
         0.18498E-01
         0.19328E-01
         0.21369E-01
         0.20295E-01
         0.20936E-01
         0.18504E-01
         0.17418E-01
         0.18673E-01
         0.18054E-01
         0.18716E-01
         0.18541E-01
         0.97602E-03
         0.00000E+00
         0.00000E+00
         0.00000E+00
         0.11028E-02
         0.00000E+00
         0.00000E+00
         0.96624E-03
         0.00000E+00
         0.88155E-03
         0.00000E+00
         0.46233E-02
         0.28560E-02
         0.00000E+00
         0.51490E-02
         0.00000E+00
         0.00000E+00
         0.00000E+00
         0.00000E+00
         0.00000E+00
         0.29960E-02
         0.26209E-02
         0.24721E-02
         0.00000E+00
         0.00000E+00
         0.00000E+00
         0.00000E+00
         0.00000E+00
         0.00000E+00
         0.00000E+00
         0.00000E+00
         0.00000E+00
         0.00000E+00
         0.00000E+00
         0.23528E-02
         0.27209E-03
         0.11261E-02
         0.37364E-02
         0.23052E-02
         0.18799E-02
         0.37302E-02
         0.30801E-02
         0.30614E-02
         0.17064E-02
         0.12296E-02
         0.27571E-02
         0.85431E-03
         0.29770E-03
         0.00000E+00
         0.15135E-03
         0.20631E-02
         0.48110E-03
         0.19169E-01
         0.19751E-01
         0.20897E-01
         0.20721E-01
         0.22217E-01
         0.24004E-01
         0.22867E-01
         0.20065E-01
         0.19487E-01
         0.21046E-01
         0.20628E-01
         0.20395E-01
         0.16255E-01
         0.15293E-01
         0.17171E-01
         0.18691E-01
         0.19523E-01
         0.21581E-01
         0.20525E-01
         0.21166E-01
         0.18714E-01
         0.17621E-01
         0.18876E-01
         0.18252E-01
         0.18910E-01
         0.18736E-01
         0.10358E-01
         0.10055E-01
         0.98367E-02
         0.85827E-02
         0.12023E-01
         0.10663E-01
         0.10728E-01
         0.11836E-01
         0.93238E-02
         0.11775E-01
         0.12111E-01
         0.16750E-01
         0.14225E-01
         0.12819E-01
         0.17670E-01
         0.92968E-02
         0.95826E-02
         0.79210E-02
         0.10082E-01
         0.10504E-01
         0.13265E-01
         0.13291E-01
         0.12423E-01
         0.94749E-02
         0.11333E-01
         0.89307E-02
         0.12770E-01
         0.12017E-01
         0.12159E-01
         0.11825E-01
         0.92129E-02
         0.93915E-02
         0.86560E-02
         0.91226E-02
         0.13883E-01
         0.11660E-01
         0.12157E-01
         0.16261E-01
         0.14956E-01
         0.14527E-01
         0.15993E-01
         0.14855E-01
         0.14135E-01
         0.11638E-01
         0.11788E-01
         0.14115E-01
         0.12035E-01
         0.11009E-01
         0.10502E-01
         0.11132E-01
         0.13182E-01
         0.11322E-01
         0.33487E-01
         0.33629E-01
         0.35055E-01
         0.34506E-01
         0.36384E-01
         0.38954E-01
         0.38336E-01
         0.35722E-01
         0.35233E-01
         0.36973E-01
         0.36128E-01
         0.34933E-01
         0.29563E-01
         0.27940E-01
         0.29589E-01
         0.31027E-01
         0.31913E-01
         0.34859E-01
         0.34744E-01
         0.35454E-01
         0.32200E-01
         0.30800E-01
         0.32391E-01
         0.31753E-01
         0.32182E-01
         0.31894E-01
  
SCALARS                            dam  double 1
LOOKUP_TABLE default
         0.00000E+00
         0.00000E+00
         0.00000E+00
         0.00000E+00
         0.00000E+00
         0.00000E+00
         0.00000E+00
         0.00000E+00
         0.00000E+00
         0.00000E+00
         0.00000E+00
         0.00000E+00
         0.00000E+00
         0.00000E+00
         0.00000E+00
         0.00000E+00
         0.00000E+00
         0.00000E+00
         0.00000E+00
         0.00000E+00
         0.00000E+00
         0.00000E+00
         0.00000E+00
         0.00000E+00
         0.00000E+00
         0.00000E+00
         0.00000E+00
         0.00000E+00
         0.00000E+00
         0.00000E+00
         0.00000E+00
         0.00000E+00
         0.00000E+00
         0.00000E+00
         0.00000E+00
         0.00000E+00
         0.00000E+00
         0.00000E+00
         0.00000E+00
         0.00000E+00
         0.00000E+00
         0.00000E+00
         0.00000E+00
         0.00000E+00
         0.00000E+00
         0.00000E+00
         0.00000E+00
         0.00000E+00
         0.00000E+00
         0.00000E+00
         0.00000E+00
         0.00000E+00
         0.00000E+00
         0.00000E+00
         0.00000E+00
         0.00000E+00
         0.00000E+00
         0.00000E+00
         0.00000E+00
         0.00000E+00
         0.00000E+00
         0.00000E+00
         0.00000E+00
         0.00000E+00
         0.00000E+00
         0.00000E+00
         0.00000E+00
         0.00000E+00
         0.00000E+00
         0.00000E+00
         0.00000E+00
         0.00000E+00
         0.00000E+00
         0.00000E+00
         0.00000E+00
         0.00000E+00
         0.00000E+00
         0.00000E+00
         0.00000E+00
         0.00000E+00
         0.00000E+00
         0.00000E+00
         0.00000E+00
         0.00000E+00
         0.00000E+00
         0.00000E+00
         0.00000E+00
         0.00000E+00
         0.00000E+00
         0.00000E+00
         0.00000E+00
         0.00000E+00
         0.00000E+00
         0.00000E+00
         0.00000E+00
         0.00000E+00
         0.00000E+00
         0.00000E+00
         0.00000E+00
         0.00000E+00
         0.00000E+00
         0.00000E+00
         0.00000E+00
         0.00000E+00
         0.00000E+00
         0.00000E+00
         0.00000E+00
         0.00000E+00
         0.00000E+00
         0.00000E+00
         0.00000E+00
         0.00000E+00
         0.00000E+00
         0.00000E+00
         0.00000E+00
         0.00000E+00
         0.00000E+00
         0.00000E+00
         0.00000E+00
         0.00000E+00
         0.00000E+00
         0.00000E+00
         0.00000E+00
         0.00000E+00
         0.00000E+00
         0.00000E+00
         0.00000E+00
         0.00000E+00
         0.00000E+00
         0.00000E+00
         0.00000E+00
         0.00000E+00
         0.00000E+00
         0.00000E+00
         0.00000E+00
         0.00000E+00
         0.00000E+00
         0.00000E+00
         0.00000E+00
         0.00000E+00
         0.00000E+00
         0.00000E+00
         0.00000E+00
         0.00000E+00
         0.00000E+00
         0.00000E+00
         0.00000E+00
         0.00000E+00
         0.00000E+00
         0.00000E+00
         0.00000E+00
         0.00000E+00
         0.00000E+00
         0.00000E+00
         0.00000E+00
         0.00000E+00
         0.00000E+00
         0.00000E+00
         0.00000E+00
         0.00000E+00
         0.00000E+00
         0.00000E+00
         0.00000E+00
         0.00000E+00
         0.00000E+00
         0.00000E+00
         0.00000E+00
         0.00000E+00
         0.00000E+00
         0.00000E+00
         0.00000E+00
         0.00000E+00
         0.00000E+00
         0.00000E+00
         0.00000E+00
         0.00000E+00
         0.00000E+00
         0.00000E+00
         0.00000E+00
         0.00000E+00
         0.00000E+00
         0.00000E+00
         0.00000E+00
         0.00000E+00
         0.00000E+00
         0.00000E+00
         0.00000E+00
         0.00000E+00
         0.00000E+00
         0.00000E+00
         0.00000E+00
         0.00000E+00
         0.00000E+00
         0.00000E+00
         0.00000E+00
         0.00000E+00
         0.00000E+00
         0.00000E+00
         0.00000E+00
         0.00000E+00
         0.00000E+00
         0.00000E+00
         0.00000E+00
         0.00000E+00
         0.00000E+00
         0.00000E+00
         0.00000E+00
         0.00000E+00
         0.00000E+00
         0.00000E+00
         0.00000E+00
         0.00000E+00
         0.00000E+00
         0.00000E+00
         0.00000E+00
         0.00000E+00
         0.00000E+00
         0.00000E+00
         0.00000E+00
         0.00000E+00
         0.00000E+00
         0.00000E+00
         0.00000E+00
         0.00000E+00
         0.00000E+00
         0.00000E+00
         0.00000E+00
         0.00000E+00
         0.00000E+00
         0.00000E+00
         0.00000E+00
         0.00000E+00
         0.00000E+00
         0.00000E+00
         0.00000E+00
         0.00000E+00
         0.00000E+00
         0.00000E+00
         0.00000E+00
         0.00000E+00
         0.00000E+00
         0.00000E+00
         0.00000E+00
         0.00000E+00
         0.00000E+00
         0.00000E+00
         0.00000E+00
         0.00000E+00
         0.00000E+00
         0.00000E+00
         0.00000E+00
         0.00000E+00
         0.00000E+00
         0.00000E+00
         0.00000E+00
         0.00000E+00
         0.00000E+00
         0.00000E+00
         0.00000E+00
         0.00000E+00
         0.00000E+00
         0.00000E+00
         0.00000E+00
         0.00000E+00
         0.00000E+00
         0.00000E+00
         0.00000E+00
         0.00000E+00
         0.00000E+00
         0.00000E+00
         0.00000E+00
         0.00000E+00
         0.00000E+00
         0.00000E+00
         0.00000E+00
         0.00000E+00
         0.00000E+00
         0.00000E+00
         0.00000E+00
         0.00000E+00
         0.00000E+00
         0.00000E+00
         0.00000E+00
         0.00000E+00
         0.00000E+00
         0.00000E+00
         0.00000E+00
         0.00000E+00
         0.00000E+00
         0.00000E+00
         0.00000E+00
         0.00000E+00
         0.00000E+00
         0.00000E+00
         0.00000E+00
         0.00000E+00
         0.00000E+00
         0.00000E+00
         0.00000E+00
         0.00000E+00
         0.00000E+00
         0.00000E+00
         0.00000E+00
         0.00000E+00
         0.00000E+00
         0.00000E+00
         0.00000E+00
         0.00000E+00
         0.00000E+00
         0.00000E+00
         0.00000E+00
         0.00000E+00
         0.00000E+00
         0.00000E+00
         0.00000E+00
         0.00000E+00
         0.00000E+00
         0.00000E+00
         0.00000E+00
         0.00000E+00
         0.00000E+00
         0.00000E+00
         0.00000E+00
         0.00000E+00
         0.00000E+00
         0.00000E+00
         0.00000E+00
         0.00000E+00
         0.00000E+00
         0.00000E+00
         0.00000E+00
         0.00000E+00
         0.00000E+00
         0.00000E+00
         0.00000E+00
         0.00000E+00
         0.00000E+00
         0.00000E+00
         0.00000E+00
         0.00000E+00
         0.00000E+00
         0.00000E+00
         0.00000E+00
         0.00000E+00
         0.00000E+00
         0.00000E+00
         0.00000E+00
         0.00000E+00
         0.00000E+00
         0.00000E+00
         0.00000E+00
         0.00000E+00
         0.00000E+00
         0.00000E+00
         0.00000E+00
         0.00000E+00
         0.00000E+00
         0.00000E+00
         0.00000E+00
         0.00000E+00
         0.00000E+00
         0.00000E+00
         0.00000E+00
         0.00000E+00
         0.00000E+00
         0.00000E+00
         0.00000E+00
         0.00000E+00
         0.00000E+00
         0.00000E+00
         0.00000E+00
         0.00000E+00
         0.00000E+00
         0.00000E+00
         0.00000E+00
         0.00000E+00
         0.00000E+00
         0.00000E+00
         0.00000E+00
         0.00000E+00
         0.00000E+00
         0.00000E+00
         0.00000E+00
         0.00000E+00
         0.00000E+00
         0.00000E+00
         0.00000E+00
         0.00000E+00
         0.00000E+00
         0.00000E+00
         0.00000E+00
         0.00000E+00
         0.00000E+00
         0.00000E+00
         0.00000E+00
         0.00000E+00
         0.00000E+00
         0.00000E+00
         0.00000E+00
         0.00000E+00
         0.00000E+00
         0.00000E+00
         0.00000E+00
         0.00000E+00
         0.00000E+00
         0.00000E+00
         0.00000E+00
         0.00000E+00
         0.00000E+00
         0.00000E+00
         0.00000E+00
         0.00000E+00
         0.00000E+00
         0.00000E+00
         0.00000E+00
         0.00000E+00
         0.00000E+00
         0.00000E+00
         0.00000E+00
         0.00000E+00
         0.00000E+00
         0.00000E+00
         0.00000E+00
         0.00000E+00
         0.00000E+00
         0.00000E+00
         0.00000E+00
         0.00000E+00
         0.00000E+00
         0.00000E+00
         0.00000E+00
         0.00000E+00
         0.00000E+00
         0.00000E+00
         0.00000E+00
         0.00000E+00
         0.00000E+00
         0.00000E+00
         0.00000E+00
         0.00000E+00
         0.00000E+00
         0.00000E+00
         0.00000E+00
         0.00000E+00
         0.00000E+00
         0.00000E+00
         0.00000E+00
         0.00000E+00
         0.00000E+00
         0.00000E+00
         0.00000E+00
         0.00000E+00
         0.00000E+00
         0.00000E+00
         0.00000E+00
         0.00000E+00
         0.00000E+00
         0.00000E+00
         0.00000E+00
         0.00000E+00
         0.00000E+00
         0.00000E+00
         0.00000E+00
         0.00000E+00
         0.00000E+00
         0.00000E+00
         0.00000E+00
         0.00000E+00
         0.00000E+00
         0.00000E+00
         0.00000E+00
         0.00000E+00
         0.00000E+00
         0.00000E+00
         0.00000E+00
         0.00000E+00
         0.00000E+00
         0.00000E+00
         0.00000E+00
         0.00000E+00
         0.00000E+00
         0.00000E+00
         0.00000E+00
         0.00000E+00
         0.00000E+00
         0.00000E+00
         0.00000E+00
         0.00000E+00
         0.00000E+00
         0.00000E+00
         0.00000E+00
         0.00000E+00
         0.00000E+00
         0.00000E+00
         0.00000E+00
         0.00000E+00
         0.00000E+00
         0.00000E+00
         0.00000E+00
         0.00000E+00
         0.00000E+00
         0.00000E+00
         0.00000E+00
         0.00000E+00
         0.00000E+00
         0.00000E+00
         0.00000E+00
         0.00000E+00
         0.00000E+00
         0.00000E+00
         0.00000E+00
         0.00000E+00
         0.00000E+00
         0.00000E+00
         0.00000E+00
         0.00000E+00
         0.00000E+00
         0.00000E+00
         0.00000E+00
         0.00000E+00
         0.00000E+00
         0.00000E+00
         0.00000E+00
         0.00000E+00
         0.00000E+00
         0.00000E+00
         0.00000E+00
         0.00000E+00
         0.00000E+00
         0.00000E+00
         0.00000E+00
         0.00000E+00
         0.00000E+00
         0.00000E+00
         0.00000E+00
         0.00000E+00
         0.00000E+00
         0.00000E+00
         0.00000E+00
         0.00000E+00
         0.00000E+00
         0.00000E+00
         0.00000E+00
         0.00000E+00
         0.00000E+00
         0.00000E+00
         0.00000E+00
         0.00000E+00
         0.00000E+00
         0.00000E+00
         0.00000E+00
         0.00000E+00
         0.00000E+00
         0.00000E+00
         0.00000E+00
         0.00000E+00
         0.00000E+00
         0.00000E+00
         0.00000E+00
         0.00000E+00
         0.00000E+00
         0.00000E+00
         0.00000E+00
         0.00000E+00
         0.00000E+00
         0.00000E+00
         0.00000E+00
         0.00000E+00
         0.00000E+00
         0.00000E+00
         0.00000E+00
         0.00000E+00
         0.00000E+00
         0.00000E+00
         0.00000E+00
         0.00000E+00
         0.00000E+00
         0.00000E+00
         0.00000E+00
         0.00000E+00
         0.00000E+00
         0.00000E+00
         0.00000E+00
         0.00000E+00
         0.00000E+00
         0.00000E+00
         0.00000E+00
         0.00000E+00
         0.00000E+00
         0.00000E+00
         0.00000E+00
         0.00000E+00
         0.00000E+00
         0.00000E+00
         0.00000E+00
         0.00000E+00
         0.00000E+00
         0.00000E+00
         0.00000E+00
         0.00000E+00
         0.00000E+00
         0.00000E+00
         0.00000E+00
         0.00000E+00
         0.00000E+00
         0.00000E+00
         0.00000E+00
         0.00000E+00
         0.00000E+00
         0.00000E+00
         0.00000E+00
         0.00000E+00
         0.00000E+00
         0.00000E+00
         0.00000E+00
         0.00000E+00
         0.00000E+00
         0.00000E+00
         0.00000E+00
         0.00000E+00
         0.00000E+00
         0.00000E+00
         0.00000E+00
         0.00000E+00
         0.00000E+00
         0.00000E+00
         0.00000E+00
         0.00000E+00
         0.00000E+00
         0.00000E+00
         0.00000E+00
         0.00000E+00
         0.00000E+00
         0.00000E+00
         0.00000E+00
         0.00000E+00
         0.00000E+00
         0.00000E+00
         0.00000E+00
         0.00000E+00
         0.00000E+00
         0.00000E+00
         0.00000E+00
         0.00000E+00
         0.00000E+00
         0.00000E+00
         0.00000E+00
         0.00000E+00
         0.00000E+00
         0.00000E+00
         0.00000E+00
         0.00000E+00
         0.00000E+00
         0.00000E+00
         0.00000E+00
         0.00000E+00
         0.00000E+00
         0.00000E+00
         0.00000E+00
         0.00000E+00
         0.00000E+00
         0.00000E+00
         0.00000E+00
         0.00000E+00
         0.00000E+00
         0.00000E+00
         0.00000E+00
         0.00000E+00
         0.00000E+00
         0.00000E+00
         0.00000E+00
         0.00000E+00
         0.00000E+00
         0.00000E+00
         0.00000E+00
         0.00000E+00
         0.00000E+00
         0.00000E+00
         0.00000E+00
         0.00000E+00
         0.00000E+00
         0.00000E+00
         0.00000E+00
         0.00000E+00
         0.00000E+00
         0.00000E+00
         0.00000E+00
         0.00000E+00
         0.00000E+00
         0.00000E+00
         0.00000E+00
         0.00000E+00
         0.00000E+00
         0.00000E+00
         0.00000E+00
         0.00000E+00
         0.00000E+00
         0.00000E+00
         0.00000E+00
         0.00000E+00
         0.00000E+00
         0.00000E+00
         0.00000E+00
         0.00000E+00
         0.00000E+00
         0.00000E+00
         0.00000E+00
         0.00000E+00
         0.00000E+00
         0.00000E+00
         0.00000E+00
         0.00000E+00
         0.00000E+00
         0.00000E+00
         0.00000E+00
         0.00000E+00
         0.00000E+00
         0.00000E+00
         0.00000E+00
         0.00000E+00
         0.00000E+00
         0.00000E+00
         0.00000E+00
         0.00000E+00
         0.00000E+00
         0.00000E+00
         0.00000E+00
         0.00000E+00
         0.00000E+00
         0.00000E+00
         0.00000E+00
         0.00000E+00
         0.00000E+00
         0.00000E+00
         0.00000E+00
         0.00000E+00
         0.00000E+00
         0.00000E+00
         0.00000E+00
         0.00000E+00
         0.00000E+00
         0.00000E+00
         0.00000E+00
         0.00000E+00
         0.00000E+00
         0.00000E+00
         0.00000E+00
         0.00000E+00
         0.00000E+00
         0.00000E+00
         0.00000E+00
         0.00000E+00
         0.00000E+00
         0.00000E+00
         0.00000E+00
         0.00000E+00
         0.00000E+00
         0.00000E+00
         0.00000E+00
         0.00000E+00
         0.00000E+00
         0.00000E+00
         0.00000E+00
         0.00000E+00
         0.00000E+00
         0.00000E+00
         0.00000E+00
         0.00000E+00
         0.00000E+00
         0.00000E+00
         0.00000E+00
         0.00000E+00
         0.00000E+00
         0.00000E+00
         0.00000E+00
         0.00000E+00
         0.00000E+00
         0.00000E+00
         0.00000E+00
         0.00000E+00
         0.00000E+00
         0.00000E+00
         0.00000E+00
         0.00000E+00
         0.00000E+00
         0.00000E+00
         0.00000E+00
         0.00000E+00
         0.00000E+00
         0.00000E+00
         0.00000E+00
         0.00000E+00
         0.00000E+00
         0.00000E+00
         0.00000E+00
         0.00000E+00
         0.00000E+00
         0.00000E+00
         0.00000E+00
         0.00000E+00
         0.00000E+00
         0.00000E+00
         0.00000E+00
         0.00000E+00
         0.00000E+00
         0.00000E+00
         0.00000E+00
         0.00000E+00
         0.00000E+00
         0.00000E+00
         0.00000E+00
         0.00000E+00
         0.00000E+00
         0.00000E+00
         0.00000E+00
         0.00000E+00
         0.00000E+00
         0.00000E+00
         0.00000E+00
         0.00000E+00
         0.00000E+00
         0.00000E+00
         0.00000E+00
         0.00000E+00
         0.00000E+00
         0.00000E+00
         0.00000E+00
         0.00000E+00
         0.00000E+00
         0.00000E+00
         0.00000E+00
         0.00000E+00
         0.00000E+00
         0.00000E+00
         0.00000E+00
         0.00000E+00
         0.00000E+00
         0.00000E+00
         0.00000E+00
         0.00000E+00
         0.00000E+00
         0.00000E+00
         0.00000E+00
         0.00000E+00
         0.00000E+00
         0.00000E+00
         0.00000E+00
         0.00000E+00
         0.00000E+00
         0.00000E+00
         0.00000E+00
         0.00000E+00
         0.00000E+00
         0.00000E+00
         0.00000E+00
         0.00000E+00
         0.00000E+00
         0.00000E+00
         0.00000E+00
         0.00000E+00
         0.00000E+00
         0.00000E+00
         0.00000E+00
         0.00000E+00
         0.00000E+00
         0.00000E+00
         0.00000E+00
         0.00000E+00
         0.00000E+00
         0.00000E+00
         0.00000E+00
         0.00000E+00
         0.00000E+00
         0.00000E+00
         0.00000E+00
         0.00000E+00
         0.00000E+00
         0.00000E+00
         0.00000E+00
         0.00000E+00
         0.00000E+00
         0.00000E+00
         0.00000E+00
         0.00000E+00
         0.00000E+00
         0.00000E+00
         0.00000E+00
         0.00000E+00
         0.00000E+00
         0.00000E+00
         0.00000E+00
         0.00000E+00
         0.00000E+00
         0.00000E+00
         0.00000E+00
         0.00000E+00
         0.00000E+00
         0.00000E+00
         0.00000E+00
         0.00000E+00
         0.00000E+00
         0.00000E+00
         0.00000E+00
         0.00000E+00
         0.00000E+00
         0.00000E+00
         0.00000E+00
         0.00000E+00
         0.00000E+00
         0.00000E+00
         0.00000E+00
         0.00000E+00
         0.00000E+00
         0.00000E+00
         0.00000E+00
         0.00000E+00
         0.00000E+00
         0.00000E+00
         0.00000E+00
         0.00000E+00
         0.00000E+00
         0.00000E+00
         0.00000E+00
         0.00000E+00
         0.00000E+00
         0.00000E+00
         0.00000E+00
         0.00000E+00
         0.00000E+00
         0.00000E+00
         0.00000E+00
         0.00000E+00
         0.00000E+00
         0.00000E+00
         0.00000E+00
         0.00000E+00
         0.00000E+00
         0.00000E+00
         0.00000E+00
         0.00000E+00
         0.00000E+00
         0.00000E+00
         0.00000E+00
         0.00000E+00
         0.00000E+00
         0.00000E+00
         0.00000E+00
         0.00000E+00
         0.00000E+00
         0.00000E+00
         0.00000E+00
         0.00000E+00
         0.00000E+00
         0.00000E+00
         0.00000E+00
         0.00000E+00
         0.00000E+00
         0.00000E+00
         0.00000E+00
         0.00000E+00
         0.00000E+00
         0.00000E+00
         0.00000E+00
         0.00000E+00
         0.00000E+00
         0.00000E+00
         0.00000E+00
         0.00000E+00
         0.00000E+00
         0.00000E+00
         0.00000E+00
         0.00000E+00
         0.00000E+00
         0.00000E+00
         0.00000E+00
         0.00000E+00
         0.00000E+00
         0.00000E+00
         0.00000E+00
         0.00000E+00
         0.00000E+00
         0.00000E+00
         0.00000E+00
         0.00000E+00
         0.00000E+00
         0.00000E+00
         0.00000E+00
         0.00000E+00
         0.00000E+00
         0.00000E+00
         0.00000E+00
         0.00000E+00
         0.00000E+00
         0.00000E+00
         0.00000E+00
         0.00000E+00
         0.00000E+00
         0.00000E+00
         0.00000E+00
         0.00000E+00
         0.00000E+00
         0.00000E+00
         0.00000E+00
         0.00000E+00
         0.00000E+00
         0.00000E+00
         0.00000E+00
         0.00000E+00
         0.00000E+00
         0.00000E+00
         0.00000E+00
         0.00000E+00
         0.00000E+00
         0.00000E+00
         0.00000E+00
         0.00000E+00
         0.00000E+00
         0.00000E+00
         0.00000E+00
         0.00000E+00
         0.00000E+00
         0.00000E+00
         0.00000E+00
         0.00000E+00
         0.00000E+00
         0.00000E+00
         0.00000E+00
         0.00000E+00
         0.00000E+00
         0.00000E+00
         0.00000E+00
         0.00000E+00
         0.00000E+00
         0.00000E+00
         0.00000E+00
         0.00000E+00
         0.00000E+00
         0.00000E+00
         0.00000E+00
         0.00000E+00
         0.00000E+00
         0.00000E+00
         0.00000E+00
         0.00000E+00
         0.00000E+00
         0.00000E+00
         0.00000E+00
         0.00000E+00
         0.00000E+00
         0.00000E+00
         0.00000E+00
         0.00000E+00
         0.00000E+00
         0.00000E+00
         0.00000E+00
         0.00000E+00
         0.00000E+00
         0.00000E+00
         0.00000E+00
         0.00000E+00
         0.00000E+00
         0.00000E+00
         0.00000E+00
         0.00000E+00
         0.00000E+00
         0.00000E+00
         0.00000E+00
         0.00000E+00
         0.00000E+00
         0.00000E+00
         0.00000E+00
         0.00000E+00
         0.00000E+00
         0.00000E+00
         0.00000E+00
         0.00000E+00
         0.00000E+00
         0.00000E+00
         0.00000E+00
         0.00000E+00
         0.00000E+00
         0.00000E+00
         0.00000E+00
         0.00000E+00
         0.00000E+00
         0.00000E+00
         0.00000E+00
         0.00000E+00
         0.00000E+00
         0.00000E+00
         0.00000E+00
         0.00000E+00
         0.00000E+00
         0.00000E+00
         0.00000E+00
         0.00000E+00
         0.00000E+00
         0.00000E+00
         0.00000E+00
         0.00000E+00
         0.00000E+00
         0.00000E+00
         0.00000E+00
         0.00000E+00
         0.00000E+00
         0.00000E+00
         0.00000E+00
         0.00000E+00
         0.00000E+00
         0.00000E+00
         0.00000E+00
         0.00000E+00
         0.00000E+00
         0.00000E+00
         0.00000E+00
         0.00000E+00
         0.00000E+00
         0.00000E+00
         0.00000E+00
         0.00000E+00
         0.00000E+00
         0.00000E+00
         0.00000E+00
         0.00000E+00
         0.00000E+00
         0.00000E+00
         0.00000E+00
         0.00000E+00
         0.00000E+00
         0.00000E+00
         0.00000E+00
         0.00000E+00
         0.00000E+00
         0.00000E+00
         0.00000E+00
         0.00000E+00
         0.00000E+00
         0.00000E+00
         0.00000E+00
         0.00000E+00
         0.00000E+00
         0.00000E+00
         0.00000E+00
         0.00000E+00
         0.00000E+00
         0.00000E+00
         0.00000E+00
         0.00000E+00
         0.00000E+00
         0.00000E+00
         0.00000E+00
         0.00000E+00
         0.00000E+00
         0.00000E+00
         0.00000E+00
         0.00000E+00
         0.00000E+00
         0.00000E+00
         0.00000E+00
         0.00000E+00
         0.00000E+00
         0.00000E+00
         0.00000E+00
         0.00000E+00
         0.00000E+00
         0.00000E+00
         0.00000E+00
         0.00000E+00
         0.00000E+00
         0.00000E+00
         0.00000E+00
         0.00000E+00
         0.00000E+00
         0.00000E+00
         0.00000E+00
         0.00000E+00
         0.00000E+00
         0.00000E+00
         0.00000E+00
         0.00000E+00
         0.00000E+00
         0.00000E+00
         0.00000E+00
         0.00000E+00
         0.00000E+00
         0.00000E+00
         0.00000E+00
         0.00000E+00
         0.00000E+00
         0.00000E+00
         0.00000E+00
         0.00000E+00
         0.00000E+00
         0.00000E+00
         0.00000E+00
         0.00000E+00
         0.00000E+00
         0.00000E+00
         0.00000E+00
         0.00000E+00
         0.00000E+00
         0.00000E+00
         0.00000E+00
         0.00000E+00
         0.00000E+00
         0.00000E+00
         0.00000E+00
         0.00000E+00
         0.00000E+00
         0.00000E+00
         0.00000E+00
         0.00000E+00
         0.00000E+00
         0.00000E+00
         0.00000E+00
         0.00000E+00
         0.00000E+00
         0.00000E+00
         0.00000E+00
         0.00000E+00
         0.00000E+00
         0.00000E+00
         0.00000E+00
         0.00000E+00
         0.00000E+00
         0.00000E+00
         0.00000E+00
         0.00000E+00
         0.00000E+00
         0.00000E+00
         0.00000E+00
         0.00000E+00
         0.00000E+00
         0.00000E+00
         0.00000E+00
         0.00000E+00
         0.00000E+00
         0.00000E+00
         0.00000E+00
         0.00000E+00
         0.00000E+00
         0.00000E+00
         0.00000E+00
         0.00000E+00
         0.00000E+00
         0.00000E+00
         0.00000E+00
         0.00000E+00
         0.00000E+00
         0.00000E+00
         0.00000E+00
         0.00000E+00
         0.00000E+00
         0.00000E+00
         0.00000E+00
         0.00000E+00
         0.00000E+00
         0.00000E+00
         0.00000E+00
         0.00000E+00
         0.00000E+00
         0.00000E+00
         0.00000E+00
         0.00000E+00
         0.00000E+00
         0.00000E+00
         0.00000E+00
         0.00000E+00
         0.00000E+00
         0.00000E+00
         0.00000E+00
         0.00000E+00
         0.00000E+00
         0.00000E+00
         0.00000E+00
         0.00000E+00
         0.00000E+00
         0.00000E+00
         0.00000E+00
         0.00000E+00
         0.00000E+00
         0.00000E+00
         0.00000E+00
         0.00000E+00
         0.00000E+00
         0.00000E+00
         0.00000E+00
         0.00000E+00
         0.00000E+00
         0.00000E+00
         0.00000E+00
         0.00000E+00
         0.00000E+00
         0.00000E+00
         0.00000E+00
         0.00000E+00
         0.00000E+00
         0.00000E+00
         0.00000E+00
         0.00000E+00
         0.00000E+00
         0.00000E+00
         0.00000E+00
         0.00000E+00
         0.00000E+00
         0.00000E+00
         0.00000E+00
         0.00000E+00
         0.00000E+00
         0.00000E+00
         0.00000E+00
         0.00000E+00
         0.00000E+00
         0.00000E+00
         0.00000E+00
         0.00000E+00
         0.00000E+00
         0.00000E+00
         0.00000E+00
         0.00000E+00
         0.00000E+00
         0.00000E+00
         0.00000E+00
         0.00000E+00
         0.00000E+00
         0.00000E+00
         0.00000E+00
         0.00000E+00
         0.00000E+00
         0.00000E+00
         0.00000E+00
         0.00000E+00
         0.00000E+00
         0.00000E+00
         0.00000E+00
         0.00000E+00
         0.00000E+00
         0.00000E+00
         0.00000E+00
         0.00000E+00
         0.00000E+00
         0.00000E+00
         0.00000E+00
         0.00000E+00
         0.00000E+00
         0.00000E+00
         0.00000E+00
         0.00000E+00
         0.00000E+00
         0.00000E+00
         0.00000E+00
         0.00000E+00
         0.00000E+00
         0.00000E+00
         0.00000E+00
         0.00000E+00
         0.00000E+00
         0.00000E+00
         0.00000E+00
         0.00000E+00
         0.00000E+00
         0.00000E+00
         0.00000E+00
         0.00000E+00
         0.00000E+00
         0.00000E+00
         0.00000E+00
         0.00000E+00
         0.00000E+00
         0.00000E+00
         0.00000E+00
         0.00000E+00
         0.00000E+00
         0.00000E+00
         0.00000E+00
         0.00000E+00
         0.00000E+00
         0.00000E+00
         0.00000E+00
         0.00000E+00
         0.00000E+00
         0.00000E+00
         0.00000E+00
         0.00000E+00
         0.00000E+00
         0.00000E+00
         0.00000E+00
         0.00000E+00
         0.00000E+00
         0.00000E+00
         0.00000E+00
         0.00000E+00
         0.00000E+00
         0.00000E+00
         0.00000E+00
         0.00000E+00
         0.00000E+00
         0.00000E+00
         0.00000E+00
         0.00000E+00
         0.00000E+00
         0.00000E+00
         0.00000E+00
         0.00000E+00
         0.00000E+00
         0.00000E+00
         0.00000E+00
         0.00000E+00
         0.00000E+00
         0.00000E+00
         0.00000E+00
         0.00000E+00
         0.00000E+00
         0.00000E+00
         0.00000E+00
         0.00000E+00
         0.00000E+00
         0.00000E+00
         0.00000E+00
         0.00000E+00
         0.00000E+00
         0.00000E+00
         0.00000E+00
         0.00000E+00
         0.00000E+00
         0.00000E+00
         0.00000E+00
         0.00000E+00
         0.00000E+00
         0.00000E+00
         0.00000E+00
         0.00000E+00
         0.00000E+00
         0.00000E+00
         0.00000E+00
         0.00000E+00
         0.00000E+00
         0.00000E+00
         0.00000E+00
         0.00000E+00
         0.00000E+00
         0.00000E+00
         0.00000E+00
         0.00000E+00
         0.00000E+00
         0.00000E+00
         0.00000E+00
         0.00000E+00
         0.00000E+00
         0.00000E+00
         0.00000E+00
         0.00000E+00
         0.00000E+00
         0.00000E+00
         0.00000E+00
         0.00000E+00
         0.00000E+00
         0.00000E+00
         0.00000E+00
         0.00000E+00
         0.00000E+00
         0.00000E+00
         0.00000E+00
         0.00000E+00
         0.00000E+00
         0.00000E+00
         0.00000E+00
         0.00000E+00
         0.00000E+00
         0.00000E+00
         0.00000E+00
         0.00000E+00
         0.00000E+00
         0.00000E+00
         0.00000E+00
         0.00000E+00
         0.00000E+00
         0.00000E+00
         0.00000E+00
         0.00000E+00
         0.00000E+00
         0.00000E+00
         0.00000E+00
         0.00000E+00
         0.00000E+00
         0.00000E+00
         0.00000E+00
         0.00000E+00
         0.00000E+00
         0.00000E+00
         0.00000E+00
         0.00000E+00
         0.00000E+00
         0.00000E+00
         0.00000E+00
         0.00000E+00
         0.00000E+00
         0.00000E+00
         0.00000E+00
         0.00000E+00
         0.00000E+00
         0.00000E+00
         0.00000E+00
         0.00000E+00
         0.00000E+00
         0.00000E+00
         0.00000E+00
         0.00000E+00
         0.00000E+00
         0.00000E+00
         0.00000E+00
         0.00000E+00
         0.00000E+00
         0.00000E+00
         0.00000E+00
         0.00000E+00
         0.00000E+00
         0.00000E+00
         0.00000E+00
         0.00000E+00
         0.00000E+00
         0.00000E+00
         0.00000E+00
         0.00000E+00
         0.00000E+00
         0.00000E+00
         0.00000E+00
         0.00000E+00
         0.00000E+00
         0.00000E+00
         0.00000E+00
         0.00000E+00
         0.00000E+00
         0.00000E+00
         0.00000E+00
         0.00000E+00
         0.00000E+00
         0.00000E+00
         0.00000E+00
         0.00000E+00
         0.00000E+00
         0.00000E+00
         0.00000E+00
         0.00000E+00
         0.00000E+00
         0.00000E+00
         0.00000E+00
         0.00000E+00
         0.00000E+00
         0.00000E+00
         0.00000E+00
         0.00000E+00
         0.00000E+00
         0.00000E+00
         0.00000E+00
         0.00000E+00
         0.00000E+00
         0.00000E+00
         0.00000E+00
         0.00000E+00
         0.00000E+00
         0.00000E+00
         0.00000E+00
         0.00000E+00
         0.00000E+00
         0.00000E+00
         0.00000E+00
         0.00000E+00
         0.00000E+00
         0.00000E+00
         0.00000E+00
         0.00000E+00
         0.00000E+00
         0.00000E+00
         0.00000E+00
         0.00000E+00
         0.00000E+00
         0.00000E+00
         0.00000E+00
         0.00000E+00
         0.00000E+00
         0.00000E+00
         0.00000E+00
         0.00000E+00
         0.00000E+00
         0.00000E+00
         0.00000E+00
         0.00000E+00
         0.00000E+00
         0.00000E+00
         0.00000E+00
         0.00000E+00
         0.00000E+00
         0.00000E+00
         0.00000E+00
         0.00000E+00
         0.00000E+00
         0.00000E+00
         0.00000E+00
         0.00000E+00
         0.00000E+00
         0.00000E+00
         0.00000E+00
         0.00000E+00
         0.00000E+00
         0.00000E+00
         0.00000E+00
         0.00000E+00
         0.00000E+00
         0.00000E+00
         0.00000E+00
         0.00000E+00
         0.00000E+00
         0.00000E+00
         0.00000E+00
         0.00000E+00
         0.00000E+00
         0.00000E+00
         0.00000E+00
         0.00000E+00
         0.00000E+00
         0.00000E+00
         0.00000E+00
         0.00000E+00
         0.00000E+00
         0.00000E+00
         0.00000E+00
         0.00000E+00
         0.00000E+00
         0.00000E+00
         0.00000E+00
         0.00000E+00
         0.00000E+00
         0.00000E+00
         0.00000E+00
         0.00000E+00
         0.00000E+00
         0.00000E+00
         0.00000E+00
         0.00000E+00
         0.00000E+00
         0.00000E+00
         0.00000E+00
         0.00000E+00
         0.00000E+00
         0.00000E+00
         0.00000E+00
         0.00000E+00
         0.00000E+00
         0.00000E+00
         0.00000E+00
         0.00000E+00
         0.00000E+00
         0.00000E+00
         0.00000E+00
         0.00000E+00
         0.00000E+00
         0.00000E+00
         0.00000E+00
         0.00000E+00
         0.00000E+00
         0.00000E+00
         0.00000E+00
         0.00000E+00
         0.00000E+00
         0.00000E+00
         0.00000E+00
         0.00000E+00
         0.00000E+00
         0.00000E+00
         0.00000E+00
         0.00000E+00
         0.00000E+00
         0.00000E+00
         0.00000E+00
         0.00000E+00
         0.00000E+00
         0.00000E+00
         0.00000E+00
         0.00000E+00
         0.00000E+00
         0.00000E+00
         0.00000E+00
         0.00000E+00
         0.00000E+00
         0.00000E+00
         0.00000E+00
         0.00000E+00
         0.00000E+00
         0.00000E+00
         0.00000E+00
         0.00000E+00
         0.00000E+00
         0.00000E+00
         0.00000E+00
         0.00000E+00
         0.00000E+00
         0.00000E+00
         0.00000E+00
         0.00000E+00
         0.00000E+00
         0.00000E+00
         0.00000E+00
         0.00000E+00
         0.00000E+00
         0.00000E+00
         0.00000E+00
         0.00000E+00
         0.00000E+00
         0.00000E+00
         0.00000E+00
         0.00000E+00
         0.00000E+00
         0.00000E+00
         0.00000E+00
         0.00000E+00
         0.00000E+00
         0.00000E+00
         0.00000E+00
         0.00000E+00
         0.00000E+00
         0.00000E+00
         0.00000E+00
         0.00000E+00
         0.00000E+00
         0.00000E+00
         0.00000E+00
         0.00000E+00
         0.00000E+00
         0.00000E+00
         0.00000E+00
         0.00000E+00
         0.00000E+00
         0.00000E+00
         0.00000E+00
         0.00000E+00
         0.00000E+00
         0.00000E+00
         0.00000E+00
         0.00000E+00
         0.00000E+00
         0.00000E+00
         0.00000E+00
         0.00000E+00
         0.00000E+00
         0.00000E+00
         0.00000E+00
         0.00000E+00
         0.00000E+00
         0.00000E+00
         0.00000E+00
         0.00000E+00
         0.00000E+00
         0.00000E+00
         0.00000E+00
         0.00000E+00
         0.00000E+00
         0.00000E+00
         0.00000E+00
         0.00000E+00
         0.00000E+00
         0.00000E+00
         0.00000E+00
         0.00000E+00
         0.00000E+00
         0.00000E+00
         0.00000E+00
         0.00000E+00
         0.00000E+00
         0.00000E+00
         0.00000E+00
         0.00000E+00
         0.00000E+00
         0.00000E+00
         0.00000E+00
         0.00000E+00
         0.00000E+00
         0.00000E+00
         0.00000E+00
         0.00000E+00
         0.00000E+00
         0.00000E+00
         0.00000E+00
         0.00000E+00
         0.00000E+00
         0.00000E+00
         0.00000E+00
         0.00000E+00
         0.00000E+00
         0.00000E+00
         0.00000E+00
         0.00000E+00
         0.00000E+00
         0.00000E+00
         0.00000E+00
         0.00000E+00
         0.00000E+00
         0.00000E+00
         0.00000E+00
         0.00000E+00
         0.00000E+00
         0.00000E+00
         0.00000E+00
         0.00000E+00
         0.00000E+00
         0.00000E+00
         0.00000E+00
         0.00000E+00
         0.00000E+00
         0.00000E+00
         0.00000E+00
         0.00000E+00
         0.00000E+00
         0.00000E+00
         0.00000E+00
         0.00000E+00
         0.00000E+00
         0.00000E+00
         0.00000E+00
         0.00000E+00
         0.00000E+00
         0.00000E+00
         0.00000E+00
         0.00000E+00
         0.00000E+00
         0.00000E+00
         0.00000E+00
         0.00000E+00
         0.00000E+00
         0.00000E+00
         0.00000E+00
         0.00000E+00
         0.00000E+00
         0.00000E+00
         0.00000E+00
         0.00000E+00
         0.00000E+00
         0.00000E+00
         0.00000E+00
         0.00000E+00
         0.00000E+00
         0.00000E+00
         0.00000E+00
         0.00000E+00
         0.00000E+00
         0.00000E+00
         0.00000E+00
         0.00000E+00
         0.00000E+00
         0.00000E+00
         0.00000E+00
         0.00000E+00
         0.00000E+00
         0.00000E+00
         0.00000E+00
         0.00000E+00
         0.00000E+00
         0.00000E+00
         0.00000E+00
         0.00000E+00
         0.00000E+00
         0.00000E+00
         0.00000E+00
         0.00000E+00
         0.00000E+00
         0.00000E+00
         0.00000E+00
         0.00000E+00
         0.00000E+00
         0.00000E+00
         0.00000E+00
         0.00000E+00
         0.00000E+00
         0.00000E+00
         0.00000E+00
         0.00000E+00
         0.00000E+00
         0.00000E+00
         0.00000E+00
         0.00000E+00
         0.00000E+00
         0.00000E+00
         0.00000E+00
         0.00000E+00
         0.00000E+00
         0.00000E+00
         0.00000E+00
         0.00000E+00
         0.00000E+00
         0.00000E+00
         0.00000E+00
         0.00000E+00
         0.00000E+00
         0.00000E+00
         0.00000E+00
         0.00000E+00
         0.00000E+00
         0.00000E+00
         0.00000E+00
         0.00000E+00
         0.00000E+00
         0.00000E+00
         0.00000E+00
         0.00000E+00
         0.00000E+00
         0.00000E+00
         0.00000E+00
         0.00000E+00
         0.00000E+00
         0.00000E+00
         0.00000E+00
         0.00000E+00
         0.00000E+00
         0.00000E+00
         0.00000E+00
         0.00000E+00
         0.00000E+00
         0.00000E+00
         0.00000E+00
         0.00000E+00
         0.00000E+00
         0.00000E+00
         0.00000E+00
         0.00000E+00
         0.00000E+00
         0.00000E+00
         0.00000E+00
         0.00000E+00
         0.00000E+00
         0.00000E+00
         0.00000E+00
         0.00000E+00
         0.00000E+00
         0.00000E+00
         0.00000E+00
         0.00000E+00
         0.00000E+00
         0.00000E+00
         0.00000E+00
         0.00000E+00
         0.00000E+00
         0.00000E+00
         0.00000E+00
         0.00000E+00
         0.00000E+00
         0.00000E+00
         0.00000E+00
         0.00000E+00
         0.00000E+00
         0.00000E+00
  
SCALARS           initial_coordinate_x  double 1
LOOKUP_TABLE default
         0.10378E-02
         0.17452E-02
         0.23177E-02
         0.16698E-02
         0.10379E-02
         0.17453E-02
         0.23178E-02
         0.16700E-02
         0.30377E-02
         0.27791E-02
         0.30377E-02
         0.27788E-02
         0.12850E-02
         0.65139E-03
         0.12851E-02
         0.65164E-03
         0.12757E-03
        -0.12822E-03
         0.12783E-03
        -0.12804E-03
         0.94500E-03
         0.11327E-02
         0.17490E-02
         0.94533E-03
         0.11330E-02
         0.17494E-02
         0.40588E-03
         0.39779E-03
         0.40594E-03
         0.39781E-03
        -0.76303E-03
        -0.86604E-03
         0.46119E-03
        -0.76268E-03
        -0.86593E-03
         0.46164E-03
        -0.18300E-02
        -0.18440E-02
        -0.18297E-02
        -0.18441E-02
        -0.27238E-02
        -0.28028E-02
        -0.27238E-02
        -0.28031E-02
        -0.25365E-02
        -0.19287E-02
        -0.25363E-02
        -0.19283E-02
        -0.99363E-03
        -0.99377E-03
        -0.14380E-02
        -0.14377E-02
        -0.31574E-03
        -0.31594E-03
        -0.11068E-02
        -0.11071E-02
        -0.18845E-02
        -0.18713E-02
        -0.18846E-02
        -0.18714E-02
        -0.15871E-03
        -0.94089E-03
        -0.15844E-03
        -0.94029E-03
         0.78856E-03
         0.78922E-03
         0.17211E-02
         0.17211E-02
         0.32050E-02
         0.28046E-02
         0.32047E-02
         0.28047E-02
         0.23059E-02
         0.23060E-02
        -0.40614E-03
        -0.40627E-03
        -0.12092E-02
        -0.12092E-02
        -0.19448E-02
        -0.19448E-02
        -0.25029E-02
        -0.26371E-02
        -0.25029E-02
        -0.26372E-02
        -0.27671E-02
        -0.27674E-02
        -0.21123E-02
        -0.21122E-02
        -0.16087E-02
        -0.16087E-02
        -0.11939E-02
        -0.58641E-03
        -0.11937E-02
        -0.58606E-03
         0.20912E-03
         0.20952E-03
         0.10586E-02
         0.10589E-02
         0.18413E-02
         0.18413E-02
         0.24544E-02
         0.26022E-02
         0.24543E-02
         0.26021E-02
         0.37964E-02
         0.39100E-02
         0.37964E-02
         0.39100E-02
         0.34621E-02
         0.34621E-02
         0.29267E-02
         0.29267E-02
         0.22211E-02
         0.22211E-02
         0.13865E-02
         0.13865E-02
         0.47130E-03
         0.47130E-03
        -0.47130E-03
        -0.47130E-03
        -0.13865E-02
        -0.13865E-02
        -0.22211E-02
        -0.22211E-02
        -0.29267E-02
        -0.29267E-02
        -0.34621E-02
        -0.34621E-02
        -0.37964E-02
        -0.37964E-02
        -0.39100E-02
        -0.39100E-02
        -0.37964E-02
        -0.37964E-02
        -0.34621E-02
        -0.34621E-02
        -0.29267E-02
        -0.29267E-02
        -0.22211E-02
        -0.22211E-02
        -0.13865E-02
        -0.13865E-02
        -0.47130E-03
        -0.47130E-03
         0.47130E-03
         0.47130E-03
         0.13865E-02
         0.13865E-02
         0.22211E-02
         0.22211E-02
         0.29267E-02
         0.29267E-02
         0.34621E-02
         0.34621E-02
         0.37964E-02
         0.37964E-02
         0.10376E-02
         0.17450E-02
         0.23175E-02
         0.16696E-02
         0.30377E-02
         0.27795E-02
         0.12849E-02
         0.65115E-03
         0.12731E-03
        -0.12841E-03
         0.94467E-03
         0.11323E-02
         0.17487E-02
         0.40583E-03
         0.39777E-03
        -0.76338E-03
        -0.86615E-03
         0.46074E-03
        -0.18303E-02
        -0.18439E-02
        -0.27238E-02
        -0.28025E-02
        -0.25366E-02
        -0.19292E-02
        -0.99349E-03
        -0.14384E-02
        -0.31554E-03
        -0.11064E-02
        -0.18845E-02
        -0.18712E-02
        -0.15899E-03
        -0.94149E-03
         0.78790E-03
         0.17210E-02
         0.32053E-02
         0.28046E-02
         0.23058E-02
        -0.40600E-03
        -0.12092E-02
        -0.19447E-02
        -0.25028E-02
        -0.26370E-02
        -0.27668E-02
        -0.21125E-02
        -0.16088E-02
        -0.11940E-02
        -0.58676E-03
         0.20871E-03
         0.10583E-02
         0.18413E-02
         0.24545E-02
         0.26022E-02
         0.37964E-02
         0.39100E-02
         0.34621E-02
         0.29267E-02
         0.22211E-02
         0.13865E-02
         0.47130E-03
        -0.47130E-03
        -0.13865E-02
        -0.22211E-02
        -0.29267E-02
        -0.34621E-02
        -0.37964E-02
        -0.39100E-02
        -0.37964E-02
        -0.34621E-02
        -0.29267E-02
        -0.22211E-02
        -0.13865E-02
        -0.47130E-03
         0.47130E-03
         0.13865E-02
         0.22211E-02
         0.29267E-02
         0.34621E-02
         0.37964E-02
         0.10375E-02
         0.17448E-02
         0.23174E-02
         0.16694E-02
         0.30377E-02
         0.27798E-02
         0.12848E-02
         0.65090E-03
         0.12705E-03
        -0.12859E-03
         0.94434E-03
         0.11320E-02
         0.17483E-02
         0.40577E-03
         0.39776E-03
        -0.76374E-03
        -0.86626E-03
         0.46029E-03
        -0.18306E-02
        -0.18438E-02
        -0.27238E-02
        -0.28022E-02
        -0.25368E-02
        -0.19296E-02
        -0.99334E-03
        -0.14387E-02
        -0.31534E-03
        -0.11061E-02
        -0.18844E-02
        -0.18710E-02
        -0.15926E-03
        -0.94209E-03
         0.78724E-03
         0.17210E-02
         0.32056E-02
         0.28046E-02
         0.23057E-02
        -0.40586E-03
        -0.12092E-02
        -0.19447E-02
        -0.25028E-02
        -0.26369E-02
        -0.27665E-02
        -0.21126E-02
        -0.16088E-02
        -0.11941E-02
        -0.58711E-03
         0.20830E-03
         0.10580E-02
         0.18414E-02
         0.24546E-02
         0.26023E-02
         0.37964E-02
         0.39100E-02
         0.34621E-02
         0.29267E-02
         0.22211E-02
         0.13865E-02
         0.47130E-03
        -0.47130E-03
        -0.13865E-02
        -0.22211E-02
        -0.29267E-02
        -0.34621E-02
        -0.37964E-02
        -0.39100E-02
        -0.37964E-02
        -0.34621E-02
        -0.29267E-02
        -0.22211E-02
        -0.13865E-02
        -0.47130E-03
         0.47130E-03
         0.13865E-02
         0.22211E-02
         0.29267E-02
         0.34621E-02
         0.37964E-02
         0.10374E-02
         0.17446E-02
         0.23173E-02
         0.16692E-02
         0.30376E-02
         0.27801E-02
         0.12847E-02
         0.65065E-03
         0.12678E-03
        -0.12878E-03
         0.94401E-03
         0.11316E-02
         0.17479E-02
         0.40572E-03
         0.39774E-03
        -0.76409E-03
        -0.86637E-03
         0.45985E-03
        -0.18309E-02
        -0.18437E-02
        -0.27237E-02
        -0.28020E-02
        -0.25369E-02
        -0.19300E-02
        -0.99320E-03
        -0.14391E-02
        -0.31514E-03
        -0.11057E-02
        -0.18844E-02
        -0.18709E-02
        -0.15954E-03
        -0.94269E-03
         0.78658E-03
         0.17209E-02
         0.32060E-02
         0.28046E-02
         0.23056E-02
        -0.40572E-03
        -0.12092E-02
        -0.19446E-02
        -0.25028E-02
        -0.26368E-02
        -0.27662E-02
        -0.21128E-02
        -0.16088E-02
        -0.11942E-02
        -0.58746E-03
         0.20790E-03
         0.10577E-02
         0.18414E-02
         0.24548E-02
         0.26024E-02
         0.37964E-02
         0.39100E-02
         0.34621E-02
         0.29267E-02
         0.22211E-02
         0.13865E-02
         0.47130E-03
        -0.47130E-03
        -0.13865E-02
        -0.22211E-02
        -0.29267E-02
        -0.34621E-02
        -0.37964E-02
        -0.39100E-02
        -0.37964E-02
        -0.34621E-02
        -0.29267E-02
        -0.22211E-02
        -0.13865E-02
        -0.47130E-03
         0.47130E-03
         0.13865E-02
         0.22211E-02
         0.29267E-02
         0.34621E-02
         0.37964E-02
         0.10373E-02
         0.17445E-02
         0.23172E-02
         0.16689E-02
         0.30376E-02
         0.27805E-02
         0.12846E-02
         0.65041E-03
         0.12652E-03
        -0.12896E-03
         0.94367E-03
         0.11313E-02
         0.17475E-02
         0.40566E-03
         0.39772E-03
        -0.76444E-03
        -0.86648E-03
         0.45940E-03
        -0.18312E-02
        -0.18436E-02
        -0.27237E-02
        -0.28017E-02
        -0.25371E-02
        -0.19305E-02
        -0.99305E-03
        -0.14394E-02
        -0.31494E-03
        -0.11054E-02
        -0.18843E-02
        -0.18708E-02
        -0.15981E-03
        -0.94328E-03
         0.78592E-03
         0.17209E-02
         0.32063E-02
         0.28045E-02
         0.23055E-02
        -0.40558E-03
        -0.12092E-02
        -0.19446E-02
        -0.25027E-02
        -0.26367E-02
        -0.27658E-02
        -0.21129E-02
        -0.16089E-02
        -0.11943E-02
        -0.58781E-03
         0.20749E-03
         0.10574E-02
         0.18415E-02
         0.24549E-02
         0.26025E-02
         0.37964E-02
         0.39100E-02
         0.34621E-02
         0.29267E-02
         0.22211E-02
         0.13865E-02
         0.47130E-03
        -0.47130E-03
        -0.13865E-02
        -0.22211E-02
        -0.29267E-02
        -0.34621E-02
        -0.37964E-02
        -0.39100E-02
        -0.37964E-02
        -0.34621E-02
        -0.29267E-02
        -0.22211E-02
        -0.13865E-02
        -0.47130E-03
         0.47130E-03
         0.13865E-02
         0.22211E-02
         0.29267E-02
         0.34621E-02
         0.37964E-02
         0.10372E-02
         0.17443E-02
         0.23171E-02
         0.16687E-02
         0.30376E-02
         0.27808E-02
         0.12845E-02
         0.65016E-03
         0.12626E-03
        -0.12915E-03
         0.94334E-03
         0.11310E-02
         0.17471E-02
         0.40561E-03
         0.39770E-03
        -0.76480E-03
        -0.86659E-03
         0.45895E-03
        -0.18315E-02
        -0.18435E-02
        -0.27237E-02
        -0.28014E-02
        -0.25372E-02
        -0.19309E-02
        -0.99291E-03
        -0.14398E-02
        -0.31474E-03
        -0.11051E-02
        -0.18843E-02
        -0.18706E-02
        -0.16009E-03
        -0.94388E-03
         0.78526E-03
         0.17208E-02
         0.32066E-02
         0.28045E-02
         0.23053E-02
        -0.40545E-03
        -0.12092E-02
        -0.19446E-02
        -0.25027E-02
        -0.26366E-02
        -0.27655E-02
        -0.21130E-02
        -0.16089E-02
        -0.11944E-02
        -0.58816E-03
         0.20709E-03
         0.10571E-02
         0.18415E-02
         0.24550E-02
         0.26025E-02
         0.37964E-02
         0.39100E-02
         0.34621E-02
         0.29267E-02
         0.22211E-02
         0.13865E-02
         0.47130E-03
        -0.47130E-03
        -0.13865E-02
        -0.22211E-02
        -0.29267E-02
        -0.34621E-02
        -0.37964E-02
        -0.39100E-02
        -0.37964E-02
        -0.34621E-02
        -0.29267E-02
        -0.22211E-02
        -0.13865E-02
        -0.47130E-03
         0.47130E-03
         0.13865E-02
         0.22211E-02
         0.29267E-02
         0.34621E-02
         0.37964E-02
         0.10371E-02
         0.17441E-02
         0.23169E-02
         0.16685E-02
         0.30376E-02
         0.27812E-02
         0.12844E-02
         0.64992E-03
         0.12600E-03
        -0.12933E-03
         0.94301E-03
         0.11306E-02
         0.17467E-02
         0.40556E-03
         0.39769E-03
        -0.76515E-03
        -0.86670E-03
         0.45850E-03
        -0.18318E-02
        -0.18434E-02
        -0.27236E-02
        -0.28011E-02
        -0.25374E-02
        -0.19313E-02
        -0.99277E-03
        -0.14401E-02
        -0.31454E-03
        -0.11047E-02
        -0.18842E-02
        -0.18705E-02
        -0.16036E-03
        -0.94448E-03
         0.78460E-03
         0.17208E-02
         0.32070E-02
         0.28045E-02
         0.23052E-02
        -0.40531E-03
        -0.12092E-02
        -0.19445E-02
        -0.25027E-02
        -0.26366E-02
        -0.27652E-02
        -0.21132E-02
        -0.16090E-02
        -0.11946E-02
        -0.58851E-03
         0.20668E-03
         0.10567E-02
         0.18416E-02
         0.24551E-02
         0.26026E-02
         0.37964E-02
         0.39100E-02
         0.34621E-02
         0.29267E-02
         0.22211E-02
         0.13865E-02
         0.47130E-03
        -0.47130E-03
        -0.13865E-02
        -0.22211E-02
        -0.29267E-02
        -0.34621E-02
        -0.37964E-02
        -0.39100E-02
        -0.37964E-02
        -0.34621E-02
        -0.29267E-02
        -0.22211E-02
        -0.13865E-02
        -0.47130E-03
         0.47130E-03
         0.13865E-02
         0.22211E-02
         0.29267E-02
         0.34621E-02
         0.37964E-02
         0.10370E-02
         0.17439E-02
         0.23168E-02
         0.16683E-02
         0.30375E-02
         0.27815E-02
         0.12843E-02
         0.64967E-03
         0.12573E-03
        -0.12952E-03
         0.94268E-03
         0.11303E-02
         0.17463E-02
         0.40550E-03
         0.39767E-03
        -0.76551E-03
        -0.86680E-03
         0.45806E-03
        -0.18321E-02
        -0.18433E-02
        -0.27236E-02
        -0.28009E-02
        -0.25375E-02
        -0.19317E-02
        -0.99262E-03
        -0.14405E-02
        -0.31434E-03
        -0.11044E-02
        -0.18842E-02
        -0.18704E-02
        -0.16064E-03
        -0.94508E-03
         0.78394E-03
         0.17208E-02
         0.32073E-02
         0.28045E-02
         0.23051E-02
        -0.40517E-03
        -0.12092E-02
        -0.19445E-02
        -0.25026E-02
        -0.26365E-02
        -0.27649E-02
        -0.21133E-02
        -0.16090E-02
        -0.11947E-02
        -0.58886E-03
         0.20627E-03
         0.10564E-02
         0.18416E-02
         0.24553E-02
         0.26027E-02
         0.37964E-02
         0.39100E-02
         0.34621E-02
         0.29267E-02
         0.22211E-02
         0.13865E-02
         0.47130E-03
        -0.47130E-03
        -0.13865E-02
        -0.22211E-02
        -0.29267E-02
        -0.34621E-02
        -0.37964E-02
        -0.39100E-02
        -0.37964E-02
        -0.34621E-02
        -0.29267E-02
        -0.22211E-02
        -0.13865E-02
        -0.47130E-03
         0.47130E-03
         0.13865E-02
         0.22211E-02
         0.29267E-02
         0.34621E-02
         0.37964E-02
         0.10368E-02
         0.17438E-02
         0.23167E-02
         0.16681E-02
         0.30375E-02
         0.27819E-02
         0.12842E-02
         0.64943E-03
         0.12547E-03
        -0.12970E-03
         0.94235E-03
         0.11300E-02
         0.17459E-02
         0.40545E-03
         0.39766E-03
        -0.76586E-03
        -0.86691E-03
         0.45761E-03
        -0.18324E-02
        -0.18432E-02
        -0.27236E-02
        -0.28006E-02
        -0.25377E-02
        -0.19322E-02
        -0.99248E-03
        -0.14408E-02
        -0.31414E-03
        -0.11040E-02
        -0.18841E-02
        -0.18703E-02
        -0.16091E-03
        -0.94568E-03
         0.78328E-03
         0.17207E-02
         0.32076E-02
         0.28044E-02
         0.23050E-02
        -0.40503E-03
        -0.12092E-02
        -0.19445E-02
        -0.25026E-02
        -0.26364E-02
        -0.27646E-02
        -0.21134E-02
        -0.16091E-02
        -0.11948E-02
        -0.58921E-03
         0.20587E-03
         0.10561E-02
         0.18416E-02
         0.24554E-02
         0.26027E-02
         0.37964E-02
         0.39100E-02
         0.34621E-02
         0.29267E-02
         0.22211E-02
         0.13865E-02
         0.47130E-03
        -0.47130E-03
        -0.13865E-02
        -0.22211E-02
        -0.29267E-02
        -0.34621E-02
        -0.37964E-02
        -0.39100E-02
        -0.37964E-02
        -0.34621E-02
        -0.29267E-02
        -0.22211E-02
        -0.13865E-02
        -0.47130E-03
         0.47130E-03
         0.13865E-02
         0.22211E-02
         0.29267E-02
         0.34621E-02
         0.37964E-02
         0.10367E-02
         0.17436E-02
         0.23166E-02
         0.16679E-02
         0.30375E-02
         0.27822E-02
         0.12841E-02
         0.64918E-03
         0.12521E-03
        -0.12989E-03
         0.94202E-03
         0.11296E-02
         0.17455E-02
         0.40539E-03
         0.39764E-03
        -0.76621E-03
        -0.86702E-03
         0.45716E-03
        -0.18326E-02
        -0.18431E-02
        -0.27235E-02
        -0.28003E-02
        -0.25379E-02
        -0.19326E-02
        -0.99233E-03
        -0.14412E-02
        -0.31394E-03
        -0.11037E-02
        -0.18841E-02
        -0.18701E-02
        -0.16119E-03
        -0.94628E-03
         0.78262E-03
         0.17207E-02
         0.32079E-02
         0.28044E-02
         0.23049E-02
        -0.40490E-03
        -0.12093E-02
        -0.19444E-02
        -0.25026E-02
        -0.26363E-02
        -0.27643E-02
        -0.21136E-02
        -0.16091E-02
        -0.11949E-02
        -0.58956E-03
         0.20546E-03
         0.10558E-02
         0.18417E-02
         0.24555E-02
         0.26028E-02
         0.37964E-02
         0.39100E-02
         0.34621E-02
         0.29267E-02
         0.22211E-02
         0.13865E-02
         0.47130E-03
        -0.47130E-03
        -0.13865E-02
        -0.22211E-02
        -0.29267E-02
        -0.34621E-02
        -0.37964E-02
        -0.39100E-02
        -0.37964E-02
        -0.34621E-02
        -0.29267E-02
        -0.22211E-02
        -0.13865E-02
        -0.47130E-03
         0.47130E-03
         0.13865E-02
         0.22211E-02
         0.29267E-02
         0.34621E-02
         0.37964E-02
         0.10366E-02
         0.17434E-02
         0.23164E-02
         0.16677E-02
         0.30375E-02
         0.27825E-02
         0.12840E-02
         0.64894E-03
         0.12495E-03
        -0.13007E-03
         0.94169E-03
         0.11293E-02
         0.17451E-02
         0.40534E-03
         0.39762E-03
        -0.76657E-03
        -0.86713E-03
         0.45671E-03
        -0.18329E-02
        -0.18430E-02
        -0.27235E-02
        -0.28001E-02
        -0.25380E-02
        -0.19330E-02
        -0.99219E-03
        -0.14415E-02
        -0.31374E-03
        -0.11033E-02
        -0.18840E-02
        -0.18700E-02
        -0.16146E-03
        -0.94687E-03
         0.78195E-03
         0.17207E-02
         0.32083E-02
         0.28044E-02
         0.23048E-02
        -0.40476E-03
        -0.12093E-02
        -0.19444E-02
        -0.25026E-02
        -0.26362E-02
        -0.27640E-02
        -0.21137E-02
        -0.16091E-02
        -0.11950E-02
        -0.58991E-03
         0.20505E-03
         0.10555E-02
         0.18417E-02
         0.24556E-02
         0.26029E-02
         0.37964E-02
         0.39100E-02
         0.34621E-02
         0.29267E-02
         0.22211E-02
         0.13865E-02
         0.47130E-03
        -0.47130E-03
        -0.13865E-02
        -0.22211E-02
        -0.29267E-02
        -0.34621E-02
        -0.37964E-02
        -0.39100E-02
        -0.37964E-02
        -0.34621E-02
        -0.29267E-02
        -0.22211E-02
        -0.13865E-02
        -0.47130E-03
         0.47130E-03
         0.13865E-02
         0.22211E-02
         0.29267E-02
         0.34621E-02
         0.37964E-02
         0.10365E-02
         0.17432E-02
         0.23163E-02
         0.16675E-02
         0.30374E-02
         0.27829E-02
         0.12839E-02
         0.64869E-03
         0.12468E-03
        -0.13026E-03
         0.94135E-03
         0.11289E-02
         0.17447E-02
         0.40528E-03
         0.39760E-03
        -0.76692E-03
        -0.86724E-03
         0.45626E-03
        -0.18332E-02
        -0.18430E-02
        -0.27235E-02
        -0.27998E-02
        -0.25382E-02
        -0.19334E-02
        -0.99205E-03
        -0.14419E-02
        -0.31354E-03
        -0.11030E-02
        -0.18840E-02
        -0.18699E-02
        -0.16174E-03
        -0.94747E-03
         0.78129E-03
         0.17206E-02
         0.32086E-02
         0.28044E-02
         0.23047E-02
        -0.40462E-03
        -0.12093E-02
        -0.19444E-02
        -0.25025E-02
        -0.26361E-02
        -0.27637E-02
        -0.21139E-02
        -0.16092E-02
        -0.11951E-02
        -0.59025E-03
         0.20465E-03
         0.10552E-02
         0.18418E-02
         0.24558E-02
         0.26030E-02
         0.37964E-02
         0.39100E-02
         0.34621E-02
         0.29267E-02
         0.22211E-02
         0.13865E-02
         0.47130E-03
        -0.47130E-03
        -0.13865E-02
        -0.22211E-02
        -0.29267E-02
        -0.34621E-02
        -0.37964E-02
        -0.39100E-02
        -0.37964E-02
        -0.34621E-02
        -0.29267E-02
        -0.22211E-02
        -0.13865E-02
        -0.47130E-03
         0.47130E-03
         0.13865E-02
         0.22211E-02
         0.29267E-02
         0.34621E-02
         0.37964E-02
         0.10364E-02
         0.17430E-02
         0.23162E-02
         0.16672E-02
         0.30374E-02
         0.27832E-02
         0.12838E-02
         0.64845E-03
         0.12442E-03
        -0.13044E-03
         0.94102E-03
         0.11286E-02
         0.17443E-02
         0.40523E-03
         0.39759E-03
        -0.76727E-03
        -0.86735E-03
         0.45582E-03
        -0.18335E-02
        -0.18429E-02
        -0.27235E-02
        -0.27995E-02
        -0.25383E-02
        -0.19339E-02
        -0.99190E-03
        -0.14422E-02
        -0.31334E-03
        -0.11026E-02
        -0.18839E-02
        -0.18697E-02
        -0.16201E-03
        -0.94807E-03
         0.78063E-03
         0.17206E-02
         0.32089E-02
         0.28043E-02
         0.23046E-02
        -0.40448E-03
        -0.12093E-02
        -0.19443E-02
        -0.25025E-02
        -0.26360E-02
        -0.27633E-02
        -0.21140E-02
        -0.16092E-02
        -0.11953E-02
        -0.59060E-03
         0.20424E-03
         0.10549E-02
         0.18418E-02
         0.24559E-02
         0.26030E-02
         0.37964E-02
         0.39100E-02
         0.34621E-02
         0.29267E-02
         0.22211E-02
         0.13865E-02
         0.47130E-03
        -0.47130E-03
        -0.13865E-02
        -0.22211E-02
        -0.29267E-02
        -0.34621E-02
        -0.37964E-02
        -0.39100E-02
        -0.37964E-02
        -0.34621E-02
        -0.29267E-02
        -0.22211E-02
        -0.13865E-02
        -0.47130E-03
         0.47130E-03
         0.13865E-02
         0.22211E-02
         0.29267E-02
         0.34621E-02
         0.37964E-02
         0.10363E-02
         0.17429E-02
         0.23161E-02
         0.16670E-02
         0.30374E-02
         0.27836E-02
         0.12837E-02
         0.64820E-03
         0.12416E-03
        -0.13063E-03
         0.94069E-03
         0.11282E-02
         0.17439E-02
         0.40518E-03
         0.39757E-03
        -0.76763E-03
        -0.86746E-03
         0.45537E-03
        -0.18338E-02
        -0.18428E-02
        -0.27234E-02
        -0.27992E-02
        -0.25385E-02
        -0.19343E-02
        -0.99176E-03
        -0.14425E-02
        -0.31314E-03
        -0.11023E-02
        -0.18839E-02
        -0.18696E-02
        -0.16229E-03
        -0.94867E-03
         0.77997E-03
         0.17205E-02
         0.32092E-02
         0.28043E-02
         0.23044E-02
        -0.40434E-03
        -0.12093E-02
        -0.19443E-02
        -0.25025E-02
        -0.26359E-02
        -0.27630E-02
        -0.21141E-02
        -0.16093E-02
        -0.11954E-02
        -0.59095E-03
         0.20384E-03
         0.10546E-02
         0.18419E-02
         0.24560E-02
         0.26031E-02
         0.37964E-02
         0.39100E-02
         0.34621E-02
         0.29267E-02
         0.22211E-02
         0.13865E-02
         0.47130E-03
        -0.47130E-03
        -0.13865E-02
        -0.22211E-02
        -0.29267E-02
        -0.34621E-02
        -0.37964E-02
        -0.39100E-02
        -0.37964E-02
        -0.34621E-02
        -0.29267E-02
        -0.22211E-02
        -0.13865E-02
        -0.47130E-03
         0.47130E-03
         0.13865E-02
         0.22211E-02
         0.29267E-02
         0.34621E-02
         0.37964E-02
         0.10362E-02
         0.17427E-02
         0.23160E-02
         0.16668E-02
         0.30373E-02
         0.27839E-02
         0.12836E-02
         0.64796E-03
         0.12390E-03
        -0.13082E-03
         0.94036E-03
         0.11279E-02
         0.17435E-02
         0.40512E-03
         0.39755E-03
        -0.76798E-03
        -0.86756E-03
         0.45492E-03
        -0.18341E-02
        -0.18427E-02
        -0.27234E-02
        -0.27990E-02
        -0.25386E-02
        -0.19347E-02
        -0.99161E-03
        -0.14429E-02
        -0.31294E-03
        -0.11019E-02
        -0.18838E-02
        -0.18695E-02
        -0.16256E-03
        -0.94927E-03
         0.77931E-03
         0.17205E-02
         0.32096E-02
         0.28043E-02
         0.23043E-02
        -0.40420E-03
        -0.12093E-02
        -0.19443E-02
        -0.25024E-02
        -0.26358E-02
        -0.27627E-02
        -0.21143E-02
        -0.16093E-02
        -0.11955E-02
        -0.59130E-03
         0.20343E-03
         0.10543E-02
         0.18419E-02
         0.24561E-02
         0.26032E-02
         0.37964E-02
         0.39100E-02
         0.34621E-02
         0.29267E-02
         0.22211E-02
         0.13865E-02
         0.47130E-03
        -0.47130E-03
        -0.13865E-02
        -0.22211E-02
        -0.29267E-02
        -0.34621E-02
        -0.37964E-02
        -0.39100E-02
        -0.37964E-02
        -0.34621E-02
        -0.29267E-02
        -0.22211E-02
        -0.13865E-02
        -0.47130E-03
         0.47130E-03
         0.13865E-02
         0.22211E-02
         0.29267E-02
         0.34621E-02
         0.37964E-02
         0.10360E-02
         0.17425E-02
         0.23158E-02
         0.16666E-02
         0.30373E-02
         0.27842E-02
         0.12835E-02
         0.64771E-03
         0.12363E-03
        -0.13100E-03
         0.94003E-03
         0.11276E-02
         0.17432E-02
         0.40507E-03
         0.39754E-03
        -0.76834E-03
        -0.86767E-03
         0.45447E-03
        -0.18344E-02
        -0.18426E-02
        -0.27234E-02
        -0.27987E-02
        -0.25388E-02
        -0.19352E-02
        -0.99147E-03
        -0.14433E-02
        -0.31274E-03
        -0.11016E-02
        -0.18838E-02
        -0.18694E-02
        -0.16284E-03
        -0.94986E-03
         0.77865E-03
         0.17205E-02
         0.32099E-02
         0.28042E-02
         0.23042E-02
        -0.40407E-03
        -0.12093E-02
        -0.19442E-02
        -0.25024E-02
        -0.26358E-02
        -0.27624E-02
        -0.21144E-02
        -0.16094E-02
        -0.11956E-02
        -0.59165E-03
         0.20302E-03
         0.10540E-02
         0.18419E-02
         0.24563E-02
         0.26033E-02
         0.37964E-02
         0.39100E-02
         0.34621E-02
         0.29267E-02
         0.22211E-02
         0.13865E-02
         0.47130E-03
        -0.47130E-03
        -0.13865E-02
        -0.22211E-02
        -0.29267E-02
        -0.34621E-02
        -0.37964E-02
        -0.39100E-02
        -0.37964E-02
        -0.34621E-02
        -0.29267E-02
        -0.22211E-02
        -0.13865E-02
        -0.47130E-03
         0.47130E-03
         0.13865E-02
         0.22211E-02
         0.29267E-02
         0.34621E-02
         0.37964E-02
         0.10359E-02
         0.17423E-02
         0.23157E-02
         0.16664E-02
         0.30373E-02
         0.27846E-02
         0.12834E-02
         0.64747E-03
         0.12337E-03
        -0.13118E-03
         0.93970E-03
         0.11272E-02
         0.17428E-02
         0.40501E-03
         0.39752E-03
        -0.76869E-03
        -0.86778E-03
         0.45402E-03
        -0.18347E-02
        -0.18425E-02
        -0.27234E-02
        -0.27984E-02
        -0.25389E-02
        -0.19356E-02
        -0.99133E-03
        -0.14436E-02
        -0.31254E-03
        -0.11013E-02
        -0.18837E-02
        -0.18692E-02
        -0.16311E-03
        -0.95046E-03
         0.77799E-03
         0.17204E-02
         0.32102E-02
         0.28042E-02
         0.23041E-02
        -0.40393E-03
        -0.12093E-02
        -0.19442E-02
        -0.25024E-02
        -0.26357E-02
        -0.27621E-02
        -0.21146E-02
        -0.16094E-02
        -0.11957E-02
        -0.59200E-03
         0.20262E-03
         0.10536E-02
         0.18420E-02
         0.24564E-02
         0.26033E-02
         0.37964E-02
         0.39100E-02
         0.34621E-02
         0.29267E-02
         0.22211E-02
         0.13865E-02
         0.47130E-03
        -0.47130E-03
        -0.13865E-02
        -0.22211E-02
        -0.29267E-02
        -0.34621E-02
        -0.37964E-02
        -0.39100E-02
        -0.37964E-02
        -0.34621E-02
        -0.29267E-02
        -0.22211E-02
        -0.13865E-02
        -0.47130E-03
         0.47130E-03
         0.13865E-02
         0.22211E-02
         0.29267E-02
         0.34621E-02
         0.37964E-02
         0.10358E-02
         0.17422E-02
         0.23156E-02
         0.16662E-02
         0.30373E-02
         0.27849E-02
         0.12833E-02
         0.64722E-03
         0.12311E-03
        -0.13137E-03
         0.93937E-03
         0.11269E-02
         0.17424E-02
         0.40496E-03
         0.39750E-03
        -0.76904E-03
        -0.86789E-03
         0.45358E-03
        -0.18350E-02
        -0.18424E-02
        -0.27233E-02
        -0.27981E-02
        -0.25391E-02
        -0.19360E-02
        -0.99118E-03
        -0.14440E-02
        -0.31234E-03
        -0.11009E-02
        -0.18836E-02
        -0.18691E-02
        -0.16339E-03
        -0.95106E-03
         0.77733E-03
         0.17204E-02
         0.32105E-02
         0.28042E-02
         0.23040E-02
        -0.40379E-03
        -0.12093E-02
        -0.19441E-02
        -0.25023E-02
        -0.26356E-02
        -0.27618E-02
        -0.21147E-02
        -0.16094E-02
        -0.11958E-02
        -0.59235E-03
         0.20221E-03
         0.10533E-02
         0.18420E-02
         0.24565E-02
         0.26034E-02
         0.37964E-02
         0.39100E-02
         0.34621E-02
         0.29267E-02
         0.22211E-02
         0.13865E-02
         0.47130E-03
        -0.47130E-03
        -0.13865E-02
        -0.22211E-02
        -0.29267E-02
        -0.34621E-02
        -0.37964E-02
        -0.39100E-02
        -0.37964E-02
        -0.34621E-02
        -0.29267E-02
        -0.22211E-02
        -0.13865E-02
        -0.47130E-03
         0.47130E-03
         0.13865E-02
         0.22211E-02
         0.29267E-02
         0.34621E-02
         0.37964E-02
         0.10357E-02
         0.17420E-02
         0.23155E-02
         0.16660E-02
         0.30372E-02
         0.27853E-02
         0.12832E-02
         0.64698E-03
         0.12285E-03
        -0.13155E-03
         0.93903E-03
         0.11266E-02
         0.17420E-02
         0.40490E-03
         0.39749E-03
        -0.76940E-03
        -0.86800E-03
         0.45313E-03
        -0.18353E-02
        -0.18423E-02
        -0.27233E-02
        -0.27979E-02
        -0.25393E-02
        -0.19365E-02
        -0.99104E-03
        -0.14443E-02
        -0.31214E-03
        -0.11006E-02
        -0.18836E-02
        -0.18690E-02
        -0.16366E-03
        -0.95166E-03
         0.77667E-03
         0.17203E-02
         0.32109E-02
         0.28042E-02
         0.23039E-02
        -0.40365E-03
        -0.12093E-02
        -0.19441E-02
        -0.25023E-02
        -0.26355E-02
        -0.27615E-02
        -0.21148E-02
        -0.16095E-02
        -0.11960E-02
        -0.59270E-03
         0.20180E-03
         0.10530E-02
         0.18421E-02
         0.24566E-02
         0.26035E-02
         0.37964E-02
         0.39100E-02
         0.34621E-02
         0.29267E-02
         0.22211E-02
         0.13865E-02
         0.47130E-03
        -0.47130E-03
        -0.13865E-02
        -0.22211E-02
        -0.29267E-02
        -0.34621E-02
        -0.37964E-02
        -0.39100E-02
        -0.37964E-02
        -0.34621E-02
        -0.29267E-02
        -0.22211E-02
        -0.13865E-02
        -0.47130E-03
         0.47130E-03
         0.13865E-02
         0.22211E-02
         0.29267E-02
         0.34621E-02
         0.37964E-02
         0.10356E-02
         0.17418E-02
         0.23153E-02
         0.16657E-02
         0.30372E-02
         0.27856E-02
         0.12830E-02
         0.64673E-03
         0.12259E-03
        -0.13174E-03
         0.93870E-03
         0.11262E-02
         0.17416E-02
         0.40485E-03
         0.39747E-03
        -0.76975E-03
        -0.86811E-03
         0.45268E-03
        -0.18356E-02
        -0.18422E-02
        -0.27233E-02
        -0.27976E-02
        -0.25394E-02
        -0.19369E-02
        -0.99090E-03
        -0.14446E-02
        -0.31194E-03
        -0.11002E-02
        -0.18835E-02
        -0.18689E-02
        -0.16394E-03
        -0.95226E-03
         0.77601E-03
         0.17203E-02
         0.32112E-02
         0.28042E-02
         0.23038E-02
        -0.40352E-03
        -0.12093E-02
        -0.19441E-02
        -0.25023E-02
        -0.26354E-02
        -0.27612E-02
        -0.21150E-02
        -0.16095E-02
        -0.11961E-02
        -0.59305E-03
         0.20140E-03
         0.10527E-02
         0.18421E-02
         0.24568E-02
         0.26036E-02
         0.37964E-02
         0.39100E-02
         0.34621E-02
         0.29267E-02
         0.22211E-02
         0.13865E-02
         0.47130E-03
        -0.47130E-03
        -0.13865E-02
        -0.22211E-02
        -0.29267E-02
        -0.34621E-02
        -0.37964E-02
        -0.39100E-02
        -0.37964E-02
        -0.34621E-02
        -0.29267E-02
        -0.22211E-02
        -0.13865E-02
        -0.47130E-03
         0.47130E-03
         0.13865E-02
         0.22211E-02
         0.29267E-02
         0.34621E-02
         0.37964E-02
         0.10355E-02
         0.17416E-02
         0.23152E-02
         0.16655E-02
         0.30372E-02
         0.27860E-02
         0.12829E-02
         0.64649E-03
         0.12232E-03
        -0.13193E-03
         0.93837E-03
         0.11259E-02
         0.17412E-02
         0.40480E-03
         0.39745E-03
        -0.77011E-03
        -0.86822E-03
         0.45223E-03
        -0.18359E-02
        -0.18421E-02
        -0.27232E-02
        -0.27973E-02
        -0.25396E-02
        -0.19373E-02
        -0.99075E-03
        -0.14450E-02
        -0.31173E-03
        -0.10999E-02
        -0.18835E-02
        -0.18687E-02
        -0.16421E-03
        -0.95285E-03
         0.77535E-03
         0.17202E-02
         0.32115E-02
         0.28041E-02
         0.23037E-02
        -0.40338E-03
        -0.12093E-02
        -0.19440E-02
        -0.25023E-02
        -0.26353E-02
        -0.27609E-02
        -0.21151E-02
        -0.16096E-02
        -0.11962E-02
        -0.59340E-03
         0.20099E-03
         0.10524E-02
         0.18422E-02
         0.24569E-02
         0.26036E-02
         0.37964E-02
         0.39100E-02
         0.34621E-02
         0.29267E-02
         0.22211E-02
         0.13865E-02
         0.47130E-03
        -0.47130E-03
        -0.13865E-02
        -0.22211E-02
        -0.29267E-02
        -0.34621E-02
        -0.37964E-02
        -0.39100E-02
        -0.37964E-02
        -0.34621E-02
        -0.29267E-02
        -0.22211E-02
        -0.13865E-02
        -0.47130E-03
         0.47130E-03
         0.13865E-02
         0.22211E-02
         0.29267E-02
         0.34621E-02
         0.37964E-02
         0.10354E-02
         0.17414E-02
         0.23151E-02
         0.16653E-02
         0.30372E-02
         0.27863E-02
         0.12829E-02
         0.64624E-03
         0.12206E-03
        -0.13211E-03
         0.93804E-03
         0.11255E-02
         0.17408E-02
         0.40474E-03
         0.39744E-03
        -0.77046E-03
        -0.86832E-03
         0.45179E-03
        -0.18362E-02
        -0.18420E-02
        -0.27232E-02
        -0.27970E-02
        -0.25397E-02
        -0.19377E-02
        -0.99061E-03
        -0.14453E-02
        -0.31153E-03
        -0.10995E-02
        -0.18834E-02
        -0.18686E-02
        -0.16449E-03
        -0.95345E-03
         0.77469E-03
         0.17202E-02
         0.32119E-02
         0.28041E-02
         0.23036E-02
        -0.40324E-03
        -0.12093E-02
        -0.19440E-02
        -0.25022E-02
        -0.26352E-02
        -0.27606E-02
        -0.21152E-02
        -0.16096E-02
        -0.11963E-02
        -0.59375E-03
         0.20059E-03
         0.10521E-02
         0.18422E-02
         0.24570E-02
         0.26037E-02
         0.37964E-02
         0.39100E-02
         0.34621E-02
         0.29267E-02
         0.22211E-02
         0.13865E-02
         0.47130E-03
        -0.47130E-03
        -0.13865E-02
        -0.22211E-02
        -0.29267E-02
        -0.34621E-02
        -0.37964E-02
        -0.39100E-02
        -0.37964E-02
        -0.34621E-02
        -0.29267E-02
        -0.22211E-02
        -0.13865E-02
        -0.47130E-03
         0.47130E-03
         0.13865E-02
         0.22211E-02
         0.29267E-02
         0.34621E-02
         0.37964E-02
         0.10352E-02
         0.17413E-02
         0.23150E-02
         0.16651E-02
         0.30371E-02
         0.27866E-02
         0.12827E-02
         0.64600E-03
         0.12180E-03
        -0.13230E-03
         0.93771E-03
         0.11252E-02
         0.17404E-02
         0.40469E-03
         0.39742E-03
        -0.77081E-03
        -0.86843E-03
         0.45134E-03
        -0.18365E-02
        -0.18419E-02
        -0.27232E-02
        -0.27968E-02
        -0.25399E-02
        -0.19382E-02
        -0.99046E-03
        -0.14457E-02
        -0.31133E-03
        -0.10992E-02
        -0.18834E-02
        -0.18685E-02
        -0.16476E-03
        -0.95405E-03
         0.77402E-03
         0.17202E-02
         0.32122E-02
         0.28041E-02
         0.23034E-02
        -0.40310E-03
        -0.12093E-02
        -0.19440E-02
        -0.25022E-02
        -0.26351E-02
        -0.27602E-02
        -0.21154E-02
        -0.16097E-02
        -0.11964E-02
        -0.59409E-03
         0.20018E-03
         0.10518E-02
         0.18422E-02
         0.24571E-02
         0.26038E-02
         0.37964E-02
         0.39100E-02
         0.34621E-02
         0.29267E-02
         0.22211E-02
         0.13865E-02
         0.47130E-03
        -0.47130E-03
        -0.13865E-02
        -0.22211E-02
        -0.29267E-02
        -0.34621E-02
        -0.37964E-02
        -0.39100E-02
        -0.37964E-02
        -0.34621E-02
        -0.29267E-02
        -0.22211E-02
        -0.13865E-02
        -0.47130E-03
         0.47130E-03
         0.13865E-02
         0.22211E-02
         0.29267E-02
         0.34621E-02
         0.37964E-02
         0.10351E-02
         0.17411E-02
         0.23149E-02
         0.16649E-02
         0.30371E-02
         0.27870E-02
         0.12826E-02
         0.64575E-03
         0.12154E-03
        -0.13248E-03
         0.93738E-03
         0.11249E-02
         0.17400E-02
         0.40463E-03
         0.39740E-03
        -0.77117E-03
        -0.86854E-03
         0.45089E-03
        -0.18368E-02
        -0.18418E-02
        -0.27232E-02
        -0.27965E-02
        -0.25400E-02
        -0.19386E-02
        -0.99032E-03
        -0.14460E-02
        -0.31113E-03
        -0.10988E-02
        -0.18833E-02
        -0.18683E-02
        -0.16504E-03
        -0.95465E-03
         0.77336E-03
         0.17201E-02
         0.32125E-02
         0.28041E-02
         0.23033E-02
        -0.40296E-03
        -0.12093E-02
        -0.19439E-02
        -0.25022E-02
        -0.26350E-02
        -0.27599E-02
        -0.21155E-02
        -0.16097E-02
        -0.11965E-02
        -0.59444E-03
         0.19977E-03
         0.10515E-02
         0.18423E-02
         0.24573E-02
         0.26039E-02
         0.37964E-02
         0.39100E-02
         0.34621E-02
         0.29267E-02
         0.22211E-02
         0.13865E-02
         0.47130E-03
        -0.47130E-03
        -0.13865E-02
        -0.22211E-02
        -0.29267E-02
        -0.34621E-02
        -0.37964E-02
        -0.39100E-02
        -0.37964E-02
        -0.34621E-02
        -0.29267E-02
        -0.22211E-02
        -0.13865E-02
        -0.47130E-03
         0.47130E-03
         0.13865E-02
         0.22211E-02
         0.29267E-02
         0.34621E-02
         0.37964E-02
  
SCALARS           initial_coordinate_y  double 1
LOOKUP_TABLE default
         0.67292E-03
         0.12308E-02
         0.59151E-03
        -0.33775E-03
         0.67237E-03
         0.12301E-02
         0.59098E-03
        -0.33851E-03
         0.14882E-03
        -0.67643E-03
         0.14846E-03
        -0.67692E-03
         0.18412E-02
         0.14576E-02
         0.18410E-02
         0.14566E-02
         0.29933E-03
         0.11672E-02
         0.29819E-03
         0.11655E-02
         0.22748E-02
         0.28286E-02
         0.24238E-02
         0.22746E-02
         0.28291E-02
         0.24236E-02
         0.21685E-02
         0.29366E-02
         0.21684E-02
         0.29369E-02
        -0.10033E-02
         0.78969E-04
        -0.70318E-03
        -0.10032E-02
         0.78160E-04
        -0.70391E-03
        -0.71196E-03
         0.82749E-04
        -0.71210E-03
         0.82626E-04
        -0.77865E-03
         0.40713E-04
        -0.77882E-03
         0.40439E-04
        -0.15195E-02
        -0.13230E-02
        -0.15195E-02
        -0.13231E-02
         0.98847E-03
         0.98712E-03
        -0.17325E-02
        -0.17325E-02
         0.20220E-02
         0.20217E-02
         0.18615E-02
         0.18616E-02
         0.17175E-02
         0.90940E-03
         0.17175E-02
         0.90916E-03
        -0.19800E-02
        -0.23489E-02
        -0.19800E-02
        -0.23489E-02
        -0.17074E-02
        -0.17074E-02
        -0.14894E-02
        -0.14892E-02
         0.76036E-03
         0.12477E-02
         0.75936E-03
         0.12473E-02
         0.18665E-02
         0.18664E-02
         0.29038E-02
         0.29049E-02
         0.27207E-02
         0.27212E-02
         0.24642E-02
         0.24645E-02
         0.22359E-02
         0.16503E-02
         0.22359E-02
         0.16503E-02
         0.87493E-03
         0.87466E-03
        -0.21373E-02
        -0.21373E-02
        -0.26931E-02
        -0.26931E-02
        -0.31291E-02
        -0.30382E-02
        -0.31291E-02
        -0.30382E-02
        -0.28748E-02
        -0.28748E-02
        -0.26423E-02
        -0.26420E-02
        -0.23707E-02
        -0.23705E-02
        -0.21445E-02
        -0.15105E-02
        -0.21439E-02
        -0.15106E-02
         0.93572E-03
         0.00000E+00
         0.93572E-03
         0.00000E+00
         0.18171E-02
         0.18171E-02
         0.25928E-02
         0.25928E-02
         0.32179E-02
         0.32179E-02
         0.36559E-02
         0.36559E-02
         0.38815E-02
         0.38815E-02
         0.38815E-02
         0.38815E-02
         0.36559E-02
         0.36559E-02
         0.32179E-02
         0.32179E-02
         0.25928E-02
         0.25928E-02
         0.18171E-02
         0.18171E-02
         0.93572E-03
         0.93572E-03
         0.22152E-17
        -0.47884E-18
        -0.93572E-03
        -0.93572E-03
        -0.18171E-02
        -0.18171E-02
        -0.25928E-02
        -0.25928E-02
        -0.32179E-02
        -0.32179E-02
        -0.36559E-02
        -0.36559E-02
        -0.38815E-02
        -0.38815E-02
        -0.38815E-02
        -0.38815E-02
        -0.36559E-02
        -0.36559E-02
        -0.32179E-02
        -0.32179E-02
        -0.25928E-02
        -0.25928E-02
        -0.18171E-02
        -0.18171E-02
        -0.93572E-03
        -0.93572E-03
         0.67348E-03
         0.12314E-02
         0.59203E-03
        -0.33700E-03
         0.14918E-03
        -0.67594E-03
         0.18414E-02
         0.14586E-02
         0.30048E-03
         0.11690E-02
         0.22749E-02
         0.28282E-02
         0.24239E-02
         0.21685E-02
         0.29364E-02
        -0.10035E-02
         0.79778E-04
        -0.70245E-03
        -0.71182E-03
         0.82873E-04
        -0.77848E-03
         0.40986E-04
        -0.15194E-02
        -0.13228E-02
         0.98983E-03
        -0.17324E-02
         0.20223E-02
         0.18614E-02
         0.17175E-02
         0.90964E-03
        -0.19800E-02
        -0.23489E-02
        -0.17074E-02
        -0.14896E-02
         0.76137E-03
         0.12481E-02
         0.18665E-02
         0.29027E-02
         0.27202E-02
         0.24640E-02
         0.22359E-02
         0.16503E-02
         0.87519E-03
        -0.21373E-02
        -0.26932E-02
        -0.31291E-02
        -0.30382E-02
        -0.28748E-02
        -0.26426E-02
        -0.23709E-02
        -0.21450E-02
        -0.15104E-02
         0.93572E-03
         0.00000E+00
         0.18171E-02
         0.25928E-02
         0.32179E-02
         0.36559E-02
         0.38815E-02
         0.38815E-02
         0.36559E-02
         0.32179E-02
         0.25928E-02
         0.18171E-02
         0.93572E-03
        -0.47884E-18
        -0.93572E-03
        -0.18171E-02
        -0.25928E-02
        -0.32179E-02
        -0.36559E-02
        -0.38815E-02
        -0.38815E-02
        -0.36559E-02
        -0.32179E-02
        -0.25928E-02
        -0.18171E-02
        -0.93572E-03
         0.67403E-03
         0.12321E-02
         0.59255E-03
        -0.33624E-03
         0.14955E-03
        -0.67544E-03
         0.18415E-02
         0.14596E-02
         0.30163E-03
         0.11707E-02
         0.22750E-02
         0.28277E-02
         0.24241E-02
         0.21685E-02
         0.29361E-02
        -0.10036E-02
         0.80588E-04
        -0.70173E-03
        -0.71168E-03
         0.82996E-04
        -0.77831E-03
         0.41259E-04
        -0.15194E-02
        -0.13227E-02
         0.99119E-03
        -0.17324E-02
         0.20226E-02
         0.18613E-02
         0.17175E-02
         0.90988E-03
        -0.19801E-02
        -0.23490E-02
        -0.17074E-02
        -0.14899E-02
         0.76237E-03
         0.12485E-02
         0.18666E-02
         0.29017E-02
         0.27198E-02
         0.24638E-02
         0.22359E-02
         0.16503E-02
         0.87545E-03
        -0.21374E-02
        -0.26932E-02
        -0.31291E-02
        -0.30382E-02
        -0.28748E-02
        -0.26428E-02
        -0.23711E-02
        -0.21456E-02
        -0.15103E-02
         0.93572E-03
         0.00000E+00
         0.18171E-02
         0.25928E-02
         0.32179E-02
         0.36559E-02
         0.38815E-02
         0.38815E-02
         0.36559E-02
         0.32179E-02
         0.25928E-02
         0.18171E-02
         0.93572E-03
         0.39516E-17
        -0.93572E-03
        -0.18171E-02
        -0.25928E-02
        -0.32179E-02
        -0.36559E-02
        -0.38815E-02
        -0.38815E-02
        -0.36559E-02
        -0.32179E-02
        -0.25928E-02
        -0.18171E-02
        -0.93572E-03
         0.67459E-03
         0.12328E-02
         0.59308E-03
        -0.33549E-03
         0.14991E-03
        -0.67495E-03
         0.18417E-02
         0.14606E-02
         0.30278E-03
         0.11725E-02
         0.22752E-02
         0.28273E-02
         0.24242E-02
         0.21686E-02
         0.29359E-02
        -0.10038E-02
         0.81397E-04
        -0.70100E-03
        -0.71154E-03
         0.83120E-04
        -0.77814E-03
         0.41533E-04
        -0.15193E-02
        -0.13227E-02
         0.99254E-03
        -0.17324E-02
         0.20228E-02
         0.18611E-02
         0.17175E-02
         0.91012E-03
        -0.19801E-02
        -0.23490E-02
        -0.17074E-02
        -0.14901E-02
         0.76338E-03
         0.12490E-02
         0.18666E-02
         0.29006E-02
         0.27193E-02
         0.24636E-02
         0.22359E-02
         0.16503E-02
         0.87571E-03
        -0.21374E-02
        -0.26932E-02
        -0.31291E-02
        -0.30382E-02
        -0.28748E-02
        -0.26431E-02
        -0.23713E-02
        -0.21461E-02
        -0.15102E-02
         0.93572E-03
         0.00000E+00
         0.18171E-02
         0.25928E-02
         0.32179E-02
         0.36559E-02
         0.38815E-02
         0.38815E-02
         0.36559E-02
         0.32179E-02
         0.25928E-02
         0.18171E-02
         0.93572E-03
        -0.47884E-18
        -0.93572E-03
        -0.18171E-02
        -0.25928E-02
        -0.32179E-02
        -0.36559E-02
        -0.38815E-02
        -0.38815E-02
        -0.36559E-02
        -0.32179E-02
        -0.25928E-02
        -0.18171E-02
        -0.93572E-03
         0.67514E-03
         0.12334E-02
         0.59360E-03
        -0.33474E-03
         0.15027E-03
        -0.67446E-03
         0.18419E-02
         0.14616E-02
         0.30393E-03
         0.11742E-02
         0.22753E-02
         0.28269E-02
         0.24244E-02
         0.21686E-02
         0.29356E-02
        -0.10039E-02
         0.82206E-04
        -0.70028E-03
        -0.71140E-03
         0.83243E-04
        -0.77797E-03
         0.41806E-04
        -0.15193E-02
        -0.13226E-02
         0.99390E-03
        -0.17323E-02
         0.20231E-02
         0.18610E-02
         0.17175E-02
         0.91036E-03
        -0.19801E-02
        -0.23490E-02
        -0.17074E-02
        -0.14904E-02
         0.76439E-03
         0.12494E-02
         0.18666E-02
         0.28995E-02
         0.27188E-02
         0.24633E-02
         0.22359E-02
         0.16503E-02
         0.87597E-03
        -0.21374E-02
        -0.26932E-02
        -0.31291E-02
        -0.30382E-02
        -0.28748E-02
        -0.26434E-02
        -0.23715E-02
        -0.21467E-02
        -0.15101E-02
         0.93572E-03
         0.00000E+00
         0.18171E-02
         0.25928E-02
         0.32179E-02
         0.36559E-02
         0.38815E-02
         0.38815E-02
         0.36559E-02
         0.32179E-02
         0.25928E-02
         0.18171E-02
         0.93572E-03
        -0.47884E-18
        -0.93572E-03
        -0.18171E-02
        -0.25928E-02
        -0.32179E-02
        -0.36559E-02
        -0.38815E-02
        -0.38815E-02
        -0.36559E-02
        -0.32179E-02
        -0.25928E-02
        -0.18171E-02
        -0.93572E-03
         0.67570E-03
         0.12341E-02
         0.59412E-03
        -0.33398E-03
         0.15064E-03
        -0.67396E-03
         0.18421E-02
         0.14626E-02
         0.30507E-03
         0.11760E-02
         0.22754E-02
         0.28264E-02
         0.24245E-02
         0.21686E-02
         0.29353E-02
        -0.10040E-02
         0.83015E-04
        -0.69955E-03
        -0.71126E-03
         0.83367E-04
        -0.77780E-03
         0.42080E-04
        -0.15192E-02
        -0.13224E-02
         0.99526E-03
        -0.17323E-02
         0.20234E-02
         0.18609E-02
         0.17175E-02
         0.91060E-03
        -0.19801E-02
        -0.23490E-02
        -0.17074E-02
        -0.14906E-02
         0.76539E-03
         0.12498E-02
         0.18667E-02
         0.28984E-02
         0.27184E-02
         0.24631E-02
         0.22359E-02
         0.16503E-02
         0.87623E-03
        -0.21374E-02
        -0.26932E-02
        -0.31291E-02
        -0.30382E-02
        -0.28748E-02
        -0.26436E-02
        -0.23717E-02
        -0.21472E-02
        -0.15100E-02
         0.93572E-03
         0.00000E+00
         0.18171E-02
         0.25928E-02
         0.32179E-02
         0.36559E-02
         0.38815E-02
         0.38815E-02
         0.36559E-02
         0.32179E-02
         0.25928E-02
         0.18171E-02
         0.93572E-03
        -0.47884E-18
        -0.93572E-03
        -0.18171E-02
        -0.25928E-02
        -0.32179E-02
        -0.36559E-02
        -0.38815E-02
        -0.38815E-02
        -0.36559E-02
        -0.32179E-02
        -0.25928E-02
        -0.18171E-02
        -0.93572E-03
         0.67625E-03
         0.12348E-02
         0.59465E-03
        -0.33323E-03
         0.15100E-03
        -0.67347E-03
         0.18423E-02
         0.14636E-02
         0.30622E-03
         0.11777E-02
         0.22755E-02
         0.28260E-02
         0.24247E-02
         0.21687E-02
         0.29351E-02
        -0.10042E-02
         0.83825E-04
        -0.69882E-03
        -0.71112E-03
         0.83490E-04
        -0.77763E-03
         0.42353E-04
        -0.15192E-02
        -0.13223E-02
         0.99661E-03
        -0.17322E-02
         0.20237E-02
         0.18607E-02
         0.17175E-02
         0.91084E-03
        -0.19801E-02
        -0.23491E-02
        -0.17074E-02
        -0.14909E-02
         0.76640E-03
         0.12503E-02
         0.18667E-02
         0.28974E-02
         0.27179E-02
         0.24629E-02
         0.22359E-02
         0.16503E-02
         0.87650E-03
        -0.21374E-02
        -0.26933E-02
        -0.31291E-02
        -0.30382E-02
        -0.28749E-02
        -0.26439E-02
        -0.23719E-02
        -0.21478E-02
        -0.15099E-02
         0.93572E-03
         0.00000E+00
         0.18171E-02
         0.25928E-02
         0.32179E-02
         0.36559E-02
         0.38815E-02
         0.38815E-02
         0.36559E-02
         0.32179E-02
         0.25928E-02
         0.18171E-02
         0.93572E-03
        -0.47884E-18
        -0.93572E-03
        -0.18171E-02
        -0.25928E-02
        -0.32179E-02
        -0.36559E-02
        -0.38815E-02
        -0.38815E-02
        -0.36559E-02
        -0.32179E-02
        -0.25928E-02
        -0.18171E-02
        -0.93572E-03
         0.67680E-03
         0.12354E-02
         0.59517E-03
        -0.33247E-03
         0.15136E-03
        -0.67298E-03
         0.18425E-02
         0.14646E-02
         0.30737E-03
         0.11795E-02
         0.22757E-02
         0.28255E-02
         0.24248E-02
         0.21687E-02
         0.29348E-02
        -0.10043E-02
         0.84634E-04
        -0.69810E-03
        -0.71098E-03
         0.83614E-04
        -0.77746E-03
         0.42626E-04
        -0.15191E-02
        -0.13223E-02
         0.99797E-03
        -0.17322E-02
         0.20240E-02
         0.18606E-02
         0.17175E-02
         0.91108E-03
        -0.19802E-02
        -0.23491E-02
        -0.17074E-02
        -0.14911E-02
         0.76740E-03
         0.12507E-02
         0.18668E-02
         0.28963E-02
         0.27174E-02
         0.24627E-02
         0.22358E-02
         0.16503E-02
         0.87676E-03
        -0.21374E-02
        -0.26933E-02
        -0.31291E-02
        -0.30382E-02
        -0.28749E-02
        -0.26442E-02
        -0.23721E-02
        -0.21483E-02
        -0.15097E-02
         0.93572E-03
         0.00000E+00
         0.18171E-02
         0.25928E-02
         0.32179E-02
         0.36559E-02
         0.38815E-02
         0.38815E-02
         0.36559E-02
         0.32179E-02
         0.25928E-02
         0.18171E-02
         0.93572E-03
        -0.47884E-18
        -0.93572E-03
        -0.18171E-02
        -0.25928E-02
        -0.32179E-02
        -0.36559E-02
        -0.38815E-02
        -0.38815E-02
        -0.36559E-02
        -0.32179E-02
        -0.25928E-02
        -0.18171E-02
        -0.93572E-03
         0.67736E-03
         0.12361E-02
         0.59570E-03
        -0.33172E-03
         0.15173E-03
        -0.67248E-03
         0.18427E-02
         0.14656E-02
         0.30852E-03
         0.11812E-02
         0.22758E-02
         0.28251E-02
         0.24249E-02
         0.21688E-02
         0.29345E-02
        -0.10044E-02
         0.85443E-04
        -0.69737E-03
        -0.71084E-03
         0.83737E-04
        -0.77729E-03
         0.42899E-04
        -0.15191E-02
        -0.13222E-02
         0.99932E-03
        -0.17322E-02
         0.20243E-02
         0.18605E-02
         0.17175E-02
         0.91132E-03
        -0.19802E-02
        -0.23491E-02
        -0.17074E-02
        -0.14914E-02
         0.76841E-03
         0.12511E-02
         0.18668E-02
         0.28952E-02
         0.27170E-02
         0.24624E-02
         0.22358E-02
         0.16503E-02
         0.87702E-03
        -0.21374E-02
        -0.26933E-02
        -0.31291E-02
        -0.30382E-02
        -0.28749E-02
        -0.26444E-02
        -0.23723E-02
        -0.21489E-02
        -0.15096E-02
         0.93572E-03
         0.00000E+00
         0.18171E-02
         0.25928E-02
         0.32179E-02
         0.36559E-02
         0.38815E-02
         0.38815E-02
         0.36559E-02
         0.32179E-02
         0.25928E-02
         0.18171E-02
         0.93572E-03
        -0.47884E-18
        -0.93572E-03
        -0.18171E-02
        -0.25928E-02
        -0.32179E-02
        -0.36559E-02
        -0.38815E-02
        -0.38815E-02
        -0.36559E-02
        -0.32179E-02
        -0.25928E-02
        -0.18171E-02
        -0.93572E-03
         0.67791E-03
         0.12368E-02
         0.59622E-03
        -0.33096E-03
         0.15209E-03
        -0.67199E-03
         0.18429E-02
         0.14666E-02
         0.30967E-03
         0.11830E-02
         0.22759E-02
         0.28247E-02
         0.24251E-02
         0.21688E-02
         0.29343E-02
        -0.10046E-02
         0.86253E-04
        -0.69665E-03
        -0.71070E-03
         0.83861E-04
        -0.77712E-03
         0.43173E-04
        -0.15190E-02
        -0.13220E-02
         0.10007E-02
        -0.17321E-02
         0.20245E-02
         0.18603E-02
         0.17175E-02
         0.91156E-03
        -0.19802E-02
        -0.23491E-02
        -0.17074E-02
        -0.14916E-02
         0.76941E-03
         0.12515E-02
         0.18668E-02
         0.28942E-02
         0.27165E-02
         0.24622E-02
         0.22358E-02
         0.16503E-02
         0.87728E-03
        -0.21374E-02
        -0.26933E-02
        -0.31291E-02
        -0.30382E-02
        -0.28749E-02
        -0.26447E-02
        -0.23725E-02
        -0.21494E-02
        -0.15095E-02
         0.93572E-03
         0.00000E+00
         0.18171E-02
         0.25928E-02
         0.32179E-02
         0.36559E-02
         0.38815E-02
         0.38815E-02
         0.36559E-02
         0.32179E-02
         0.25928E-02
         0.18171E-02
         0.93572E-03
        -0.47884E-18
        -0.93572E-03
        -0.18171E-02
        -0.25928E-02
        -0.32179E-02
        -0.36559E-02
        -0.38815E-02
        -0.38815E-02
        -0.36559E-02
        -0.32179E-02
        -0.25928E-02
        -0.18171E-02
        -0.93572E-03
         0.67847E-03
         0.12374E-02
         0.59674E-03
        -0.33021E-03
         0.15245E-03
        -0.67150E-03
         0.18430E-02
         0.14676E-02
         0.31081E-03
         0.11847E-02
         0.22761E-02
         0.28242E-02
         0.24252E-02
         0.21688E-02
         0.29340E-02
        -0.10047E-02
         0.87062E-04
        -0.69592E-03
        -0.71056E-03
         0.83985E-04
        -0.77695E-03
         0.43446E-04
        -0.15190E-02
        -0.13219E-02
         0.10020E-02
        -0.17321E-02
         0.20248E-02
         0.18602E-02
         0.17175E-02
         0.91180E-03
        -0.19803E-02
        -0.23491E-02
        -0.17073E-02
        -0.14919E-02
         0.77042E-03
         0.12520E-02
         0.18669E-02
         0.28931E-02
         0.27160E-02
         0.24620E-02
         0.22358E-02
         0.16503E-02
         0.87754E-03
        -0.21374E-02
        -0.26933E-02
        -0.31291E-02
        -0.30382E-02
        -0.28749E-02
        -0.26450E-02
        -0.23727E-02
        -0.21500E-02
        -0.15094E-02
         0.93572E-03
         0.00000E+00
         0.18171E-02
         0.25928E-02
         0.32179E-02
         0.36559E-02
         0.38815E-02
         0.38815E-02
         0.36559E-02
         0.32179E-02
         0.25928E-02
         0.18171E-02
         0.93572E-03
         0.39516E-17
        -0.93572E-03
        -0.18171E-02
        -0.25928E-02
        -0.32179E-02
        -0.36559E-02
        -0.38815E-02
        -0.38815E-02
        -0.36559E-02
        -0.32179E-02
        -0.25928E-02
        -0.18171E-02
        -0.93572E-03
         0.67902E-03
         0.12381E-02
         0.59727E-03
        -0.32945E-03
         0.15282E-03
        -0.67100E-03
         0.18432E-02
         0.14686E-02
         0.31196E-03
         0.11865E-02
         0.22762E-02
         0.28238E-02
         0.24254E-02
         0.21688E-02
         0.29337E-02
        -0.10049E-02
         0.87871E-04
        -0.69519E-03
        -0.71042E-03
         0.84108E-04
        -0.77678E-03
         0.43720E-04
        -0.15189E-02
        -0.13219E-02
         0.10034E-02
        -0.17320E-02
         0.20251E-02
         0.18601E-02
         0.17175E-02
         0.91204E-03
        -0.19803E-02
        -0.23492E-02
        -0.17073E-02
        -0.14921E-02
         0.77142E-03
         0.12524E-02
         0.18669E-02
         0.28920E-02
         0.27155E-02
         0.24618E-02
         0.22358E-02
         0.16503E-02
         0.87781E-03
        -0.21374E-02
        -0.26934E-02
        -0.31291E-02
        -0.30382E-02
        -0.28749E-02
        -0.26452E-02
        -0.23729E-02
        -0.21505E-02
        -0.15093E-02
         0.93572E-03
         0.00000E+00
         0.18171E-02
         0.25928E-02
         0.32179E-02
         0.36559E-02
         0.38815E-02
         0.38815E-02
         0.36559E-02
         0.32179E-02
         0.25928E-02
         0.18171E-02
         0.93572E-03
        -0.47884E-18
        -0.93572E-03
        -0.18171E-02
        -0.25928E-02
        -0.32179E-02
        -0.36559E-02
        -0.38815E-02
        -0.38815E-02
        -0.36559E-02
        -0.32179E-02
        -0.25928E-02
        -0.18171E-02
        -0.93572E-03
         0.67958E-03
         0.12387E-02
         0.59779E-03
        -0.32870E-03
         0.15318E-03
        -0.67051E-03
         0.18434E-02
         0.14696E-02
         0.31311E-03
         0.11882E-02
         0.22763E-02
         0.28233E-02
         0.24255E-02
         0.21689E-02
         0.29335E-02
        -0.10050E-02
         0.88681E-04
        -0.69447E-03
        -0.71028E-03
         0.84232E-04
        -0.77661E-03
         0.43993E-04
        -0.15189E-02
        -0.13218E-02
         0.10048E-02
        -0.17320E-02
         0.20254E-02
         0.18599E-02
         0.17175E-02
         0.91228E-03
        -0.19803E-02
        -0.23492E-02
        -0.17073E-02
        -0.14923E-02
         0.77243E-03
         0.12528E-02
         0.18670E-02
         0.28910E-02
         0.27151E-02
         0.24615E-02
         0.22358E-02
         0.16503E-02
         0.87807E-03
        -0.21374E-02
        -0.26934E-02
        -0.31291E-02
        -0.30382E-02
        -0.28749E-02
        -0.26455E-02
        -0.23732E-02
        -0.21511E-02
        -0.15092E-02
         0.93572E-03
         0.00000E+00
         0.18171E-02
         0.25928E-02
         0.32179E-02
         0.36559E-02
         0.38815E-02
         0.38815E-02
         0.36559E-02
         0.32179E-02
         0.25928E-02
         0.18171E-02
         0.93572E-03
         0.22152E-17
        -0.93572E-03
        -0.18171E-02
        -0.25928E-02
        -0.32179E-02
        -0.36559E-02
        -0.38815E-02
        -0.38815E-02
        -0.36559E-02
        -0.32179E-02
        -0.25928E-02
        -0.18171E-02
        -0.93572E-03
         0.68013E-03
         0.12394E-02
         0.59831E-03
        -0.32794E-03
         0.15354E-03
        -0.67002E-03
         0.18436E-02
         0.14706E-02
         0.31426E-03
         0.11900E-02
         0.22765E-02
         0.28229E-02
         0.24257E-02
         0.21689E-02
         0.29332E-02
        -0.10051E-02
         0.89490E-04
        -0.69374E-03
        -0.71013E-03
         0.84355E-04
        -0.77644E-03
         0.44266E-04
        -0.15188E-02
        -0.13216E-02
         0.10061E-02
        -0.17320E-02
         0.20257E-02
         0.18598E-02
         0.17175E-02
         0.91252E-03
        -0.19803E-02
        -0.23492E-02
        -0.17073E-02
        -0.14926E-02
         0.77343E-03
         0.12533E-02
         0.18670E-02
         0.28899E-02
         0.27146E-02
         0.24613E-02
         0.22358E-02
         0.16503E-02
         0.87833E-03
        -0.21374E-02
        -0.26934E-02
        -0.31291E-02
        -0.30382E-02
        -0.28750E-02
        -0.26458E-02
        -0.23734E-02
        -0.21516E-02
        -0.15091E-02
         0.93572E-03
         0.00000E+00
         0.18171E-02
         0.25928E-02
         0.32179E-02
         0.36559E-02
         0.38815E-02
         0.38815E-02
         0.36559E-02
         0.32179E-02
         0.25928E-02
         0.18171E-02
         0.93572E-03
        -0.47884E-18
        -0.93572E-03
        -0.18171E-02
        -0.25928E-02
        -0.32179E-02
        -0.36559E-02
        -0.38815E-02
        -0.38815E-02
        -0.36559E-02
        -0.32179E-02
        -0.25928E-02
        -0.18171E-02
        -0.93572E-03
         0.68068E-03
         0.12401E-02
         0.59884E-03
        -0.32719E-03
         0.15391E-03
        -0.66953E-03
         0.18438E-02
         0.14716E-02
         0.31541E-03
         0.11917E-02
         0.22766E-02
         0.28225E-02
         0.24258E-02
         0.21690E-02
         0.29330E-02
        -0.10053E-02
         0.90299E-04
        -0.69302E-03
        -0.70999E-03
         0.84479E-04
        -0.77627E-03
         0.44540E-04
        -0.15188E-02
        -0.13215E-02
         0.10075E-02
        -0.17319E-02
         0.20260E-02
         0.18597E-02
         0.17175E-02
         0.91276E-03
        -0.19804E-02
        -0.23493E-02
        -0.17073E-02
        -0.14928E-02
         0.77444E-03
         0.12537E-02
         0.18670E-02
         0.28888E-02
         0.27141E-02
         0.24611E-02
         0.22358E-02
         0.16503E-02
         0.87859E-03
        -0.21374E-02
        -0.26934E-02
        -0.31291E-02
        -0.30382E-02
        -0.28750E-02
        -0.26460E-02
        -0.23736E-02
        -0.21521E-02
        -0.15090E-02
         0.93572E-03
         0.00000E+00
         0.18171E-02
         0.25928E-02
         0.32179E-02
         0.36559E-02
         0.38815E-02
         0.38815E-02
         0.36559E-02
         0.32179E-02
         0.25928E-02
         0.18171E-02
         0.93572E-03
         0.22152E-17
        -0.93572E-03
        -0.18171E-02
        -0.25928E-02
        -0.32179E-02
        -0.36559E-02
        -0.38815E-02
        -0.38815E-02
        -0.36559E-02
        -0.32179E-02
        -0.25928E-02
        -0.18171E-02
        -0.93572E-03
         0.68124E-03
         0.12407E-02
         0.59936E-03
        -0.32643E-03
         0.15427E-03
        -0.66903E-03
         0.18440E-02
         0.14727E-02
         0.31656E-03
         0.11935E-02
         0.22767E-02
         0.28220E-02
         0.24260E-02
         0.21690E-02
         0.29327E-02
        -0.10054E-02
         0.91108E-04
        -0.69229E-03
        -0.70985E-03
         0.84602E-04
        -0.77610E-03
         0.44813E-04
        -0.15187E-02
        -0.13215E-02
         0.10088E-02
        -0.17319E-02
         0.20262E-02
         0.18595E-02
         0.17175E-02
         0.91300E-03
        -0.19804E-02
        -0.23493E-02
        -0.17073E-02
        -0.14931E-02
         0.77544E-03
         0.12541E-02
         0.18671E-02
         0.28877E-02
         0.27137E-02
         0.24609E-02
         0.22358E-02
         0.16503E-02
         0.87885E-03
        -0.21374E-02
        -0.26934E-02
        -0.31291E-02
        -0.30382E-02
        -0.28750E-02
        -0.26463E-02
        -0.23738E-02
        -0.21527E-02
        -0.15088E-02
         0.93572E-03
         0.00000E+00
         0.18171E-02
         0.25928E-02
         0.32179E-02
         0.36559E-02
         0.38815E-02
         0.38815E-02
         0.36559E-02
         0.32179E-02
         0.25928E-02
         0.18171E-02
         0.93572E-03
        -0.47884E-18
        -0.93572E-03
        -0.18171E-02
        -0.25928E-02
        -0.32179E-02
        -0.36559E-02
        -0.38815E-02
        -0.38815E-02
        -0.36559E-02
        -0.32179E-02
        -0.25928E-02
        -0.18171E-02
        -0.93572E-03
         0.68179E-03
         0.12414E-02
         0.59988E-03
        -0.32568E-03
         0.15463E-03
        -0.66854E-03
         0.18442E-02
         0.14736E-02
         0.31770E-03
         0.11952E-02
         0.22768E-02
         0.28216E-02
         0.24261E-02
         0.21690E-02
         0.29324E-02
        -0.10056E-02
         0.91918E-04
        -0.69156E-03
        -0.70971E-03
         0.84726E-04
        -0.77593E-03
         0.45086E-04
        -0.15187E-02
        -0.13213E-02
         0.10102E-02
        -0.17318E-02
         0.20265E-02
         0.18594E-02
         0.17175E-02
         0.91324E-03
        -0.19804E-02
        -0.23493E-02
        -0.17073E-02
        -0.14933E-02
         0.77645E-03
         0.12545E-02
         0.18671E-02
         0.28867E-02
         0.27132E-02
         0.24606E-02
         0.22358E-02
         0.16503E-02
         0.87912E-03
        -0.21374E-02
        -0.26935E-02
        -0.31291E-02
        -0.30381E-02
        -0.28750E-02
        -0.26466E-02
        -0.23740E-02
        -0.21533E-02
        -0.15087E-02
         0.93572E-03
         0.00000E+00
         0.18171E-02
         0.25928E-02
         0.32179E-02
         0.36559E-02
         0.38815E-02
         0.38815E-02
         0.36559E-02
         0.32179E-02
         0.25928E-02
         0.18171E-02
         0.93572E-03
        -0.47884E-18
        -0.93572E-03
        -0.18171E-02
        -0.25928E-02
        -0.32179E-02
        -0.36559E-02
        -0.38815E-02
        -0.38815E-02
        -0.36559E-02
        -0.32179E-02
        -0.25928E-02
        -0.18171E-02
        -0.93572E-03
         0.68235E-03
         0.12421E-02
         0.60041E-03
        -0.32493E-03
         0.15500E-03
        -0.66805E-03
         0.18444E-02
         0.14747E-02
         0.31885E-03
         0.11970E-02
         0.22770E-02
         0.28211E-02
         0.24262E-02
         0.21691E-02
         0.29322E-02
        -0.10057E-02
         0.92727E-04
        -0.69084E-03
        -0.70957E-03
         0.84849E-04
        -0.77576E-03
         0.45359E-04
        -0.15186E-02
        -0.13212E-02
         0.10115E-02
        -0.17318E-02
         0.20268E-02
         0.18593E-02
         0.17175E-02
         0.91347E-03
        -0.19804E-02
        -0.23493E-02
        -0.17073E-02
        -0.14936E-02
         0.77745E-03
         0.12550E-02
         0.18671E-02
         0.28856E-02
         0.27127E-02
         0.24604E-02
         0.22358E-02
         0.16503E-02
         0.87938E-03
        -0.21374E-02
        -0.26935E-02
        -0.31291E-02
        -0.30381E-02
        -0.28750E-02
        -0.26468E-02
        -0.23742E-02
        -0.21538E-02
        -0.15086E-02
         0.93572E-03
         0.00000E+00
         0.18171E-02
         0.25928E-02
         0.32179E-02
         0.36559E-02
         0.38815E-02
         0.38815E-02
         0.36559E-02
         0.32179E-02
         0.25928E-02
         0.18171E-02
         0.93572E-03
        -0.47884E-18
        -0.93572E-03
        -0.18171E-02
        -0.25928E-02
        -0.32179E-02
        -0.36559E-02
        -0.38815E-02
        -0.38815E-02
        -0.36559E-02
        -0.32179E-02
        -0.25928E-02
        -0.18171E-02
        -0.93572E-03
         0.68290E-03
         0.12427E-02
         0.60093E-03
        -0.32417E-03
         0.15536E-03
        -0.66755E-03
         0.18445E-02
         0.14757E-02
         0.32000E-03
         0.11987E-02
         0.22771E-02
         0.28207E-02
         0.24264E-02
         0.21691E-02
         0.29319E-02
        -0.10058E-02
         0.93536E-04
        -0.69011E-03
        -0.70943E-03
         0.84973E-04
        -0.77559E-03
         0.45633E-04
        -0.15186E-02
        -0.13212E-02
         0.10129E-02
        -0.17318E-02
         0.20271E-02
         0.18592E-02
         0.17175E-02
         0.91371E-03
        -0.19805E-02
        -0.23493E-02
        -0.17073E-02
        -0.14938E-02
         0.77846E-03
         0.12554E-02
         0.18672E-02
         0.28845E-02
         0.27122E-02
         0.24602E-02
         0.22358E-02
         0.16502E-02
         0.87964E-03
        -0.21374E-02
        -0.26935E-02
        -0.31291E-02
        -0.30381E-02
        -0.28750E-02
        -0.26471E-02
        -0.23744E-02
        -0.21543E-02
        -0.15085E-02
         0.93572E-03
         0.00000E+00
         0.18171E-02
         0.25928E-02
         0.32179E-02
         0.36559E-02
         0.38815E-02
         0.38815E-02
         0.36559E-02
         0.32179E-02
         0.25928E-02
         0.18171E-02
         0.93572E-03
        -0.47884E-18
        -0.93572E-03
        -0.18171E-02
        -0.25928E-02
        -0.32179E-02
        -0.36559E-02
        -0.38815E-02
        -0.38815E-02
        -0.36559E-02
        -0.32179E-02
        -0.25928E-02
        -0.18171E-02
        -0.93572E-03
         0.68346E-03
         0.12434E-02
         0.60145E-03
        -0.32342E-03
         0.15572E-03
        -0.66706E-03
         0.18447E-02
         0.14767E-02
         0.32115E-03
         0.12005E-02
         0.22772E-02
         0.28203E-02
         0.24265E-02
         0.21691E-02
         0.29316E-02
        -0.10060E-02
         0.94345E-04
        -0.68939E-03
        -0.70929E-03
         0.85096E-04
        -0.77542E-03
         0.45906E-04
        -0.15185E-02
        -0.13211E-02
         0.10142E-02
        -0.17317E-02
         0.20274E-02
         0.18590E-02
         0.17175E-02
         0.91395E-03
        -0.19805E-02
        -0.23494E-02
        -0.17073E-02
        -0.14941E-02
         0.77946E-03
         0.12558E-02
         0.18672E-02
         0.28835E-02
         0.27118E-02
         0.24600E-02
         0.22358E-02
         0.16502E-02
         0.87990E-03
        -0.21374E-02
        -0.26935E-02
        -0.31291E-02
        -0.30381E-02
        -0.28750E-02
        -0.26474E-02
        -0.23746E-02
        -0.21549E-02
        -0.15084E-02
         0.93572E-03
         0.00000E+00
         0.18171E-02
         0.25928E-02
         0.32179E-02
         0.36559E-02
         0.38815E-02
         0.38815E-02
         0.36559E-02
         0.32179E-02
         0.25928E-02
         0.18171E-02
         0.93572E-03
         0.22152E-17
        -0.93572E-03
        -0.18171E-02
        -0.25928E-02
        -0.32179E-02
        -0.36559E-02
        -0.38815E-02
        -0.38815E-02
        -0.36559E-02
        -0.32179E-02
        -0.25928E-02
        -0.18171E-02
        -0.93572E-03
         0.68401E-03
         0.12440E-02
         0.60198E-03
        -0.32266E-03
         0.15609E-03
        -0.66657E-03
         0.18449E-02
         0.14777E-02
         0.32230E-03
         0.12022E-02
         0.22774E-02
         0.28198E-02
         0.24267E-02
         0.21692E-02
         0.29314E-02
        -0.10061E-02
         0.95155E-04
        -0.68866E-03
        -0.70915E-03
         0.85220E-04
        -0.77525E-03
         0.46180E-04
        -0.15185E-02
        -0.13210E-02
         0.10156E-02
        -0.17317E-02
         0.20277E-02
         0.18589E-02
         0.17175E-02
         0.91419E-03
        -0.19805E-02
        -0.23494E-02
        -0.17073E-02
        -0.14943E-02
         0.78047E-03
         0.12563E-02
         0.18672E-02
         0.28824E-02
         0.27113E-02
         0.24597E-02
         0.22358E-02
         0.16502E-02
         0.88016E-03
        -0.21374E-02
        -0.26935E-02
        -0.31291E-02
        -0.30381E-02
        -0.28751E-02
        -0.26476E-02
        -0.23748E-02
        -0.21554E-02
        -0.15083E-02
         0.93572E-03
         0.00000E+00
         0.18171E-02
         0.25928E-02
         0.32179E-02
         0.36559E-02
         0.38815E-02
         0.38815E-02
         0.36559E-02
         0.32179E-02
         0.25928E-02
         0.18171E-02
         0.93572E-03
        -0.47884E-18
        -0.93572E-03
        -0.18171E-02
        -0.25928E-02
        -0.32179E-02
        -0.36559E-02
        -0.38815E-02
        -0.38815E-02
        -0.36559E-02
        -0.32179E-02
        -0.25928E-02
        -0.18171E-02
        -0.93572E-03
         0.68457E-03
         0.12447E-02
         0.60250E-03
        -0.32191E-03
         0.15645E-03
        -0.66607E-03
         0.18451E-02
         0.14787E-02
         0.32345E-03
         0.12040E-02
         0.22775E-02
         0.28194E-02
         0.24268E-02
         0.21692E-02
         0.29311E-02
        -0.10062E-02
         0.95964E-04
        -0.68793E-03
        -0.70901E-03
         0.85343E-04
        -0.77507E-03
         0.46453E-04
        -0.15184E-02
        -0.13209E-02
         0.10169E-02
        -0.17316E-02
         0.20280E-02
         0.18588E-02
         0.17175E-02
         0.91443E-03
        -0.19806E-02
        -0.23494E-02
        -0.17073E-02
        -0.14945E-02
         0.78148E-03
         0.12567E-02
         0.18673E-02
         0.28813E-02
         0.27108E-02
         0.24595E-02
         0.22358E-02
         0.16502E-02
         0.88043E-03
        -0.21374E-02
        -0.26936E-02
        -0.31291E-02
        -0.30381E-02
        -0.28751E-02
        -0.26479E-02
        -0.23750E-02
        -0.21560E-02
        -0.15082E-02
         0.93572E-03
         0.00000E+00
         0.18171E-02
         0.25928E-02
         0.32179E-02
         0.36559E-02
         0.38815E-02
         0.38815E-02
         0.36559E-02
         0.32179E-02
         0.25928E-02
         0.18171E-02
         0.93572E-03
        -0.47884E-18
        -0.93572E-03
        -0.18171E-02
        -0.25928E-02
        -0.32179E-02
        -0.36559E-02
        -0.38815E-02
        -0.38815E-02
        -0.36559E-02
        -0.32179E-02
        -0.25928E-02
        -0.18171E-02
        -0.93572E-03
         0.68512E-03
         0.12454E-02
         0.60302E-03
        -0.32115E-03
         0.15681E-03
        -0.66558E-03
         0.18453E-02
         0.14797E-02
         0.32459E-03
         0.12058E-02
         0.22776E-02
         0.28189E-02
         0.24270E-02
         0.21693E-02
         0.29308E-02
        -0.10064E-02
         0.96773E-04
        -0.68721E-03
        -0.70887E-03
         0.85467E-04
        -0.77490E-03
         0.46726E-04
        -0.15184E-02
        -0.13208E-02
         0.10183E-02
        -0.17316E-02
         0.20283E-02
         0.18586E-02
         0.17175E-02
         0.91467E-03
        -0.19806E-02
        -0.23494E-02
        -0.17073E-02
        -0.14948E-02
         0.78248E-03
         0.12571E-02
         0.18673E-02
         0.28802E-02
         0.27103E-02
         0.24593E-02
         0.22358E-02
         0.16502E-02
         0.88069E-03
        -0.21374E-02
        -0.26936E-02
        -0.31291E-02
        -0.30381E-02
        -0.28751E-02
        -0.26482E-02
        -0.23752E-02
        -0.21565E-02
        -0.15081E-02
         0.93572E-03
         0.00000E+00
         0.18171E-02
         0.25928E-02
         0.32179E-02
         0.36559E-02
         0.38815E-02
         0.38815E-02
         0.36559E-02
         0.32179E-02
         0.25928E-02
         0.18171E-02
         0.93572E-03
        -0.47884E-18
        -0.93572E-03
        -0.18171E-02
        -0.25928E-02
        -0.32179E-02
        -0.36559E-02
        -0.38815E-02
        -0.38815E-02
        -0.36559E-02
        -0.32179E-02
        -0.25928E-02
        -0.18171E-02
        -0.93572E-03
         0.68567E-03
         0.12460E-02
         0.60355E-03
        -0.32040E-03
         0.15718E-03
        -0.66509E-03
         0.18455E-02
         0.14807E-02
         0.32574E-03
         0.12075E-02
         0.22777E-02
         0.28185E-02
         0.24271E-02
         0.21693E-02
         0.29306E-02
        -0.10065E-02
         0.97583E-04
        -0.68648E-03
        -0.70873E-03
         0.85591E-04
        -0.77474E-03
         0.47000E-04
        -0.15183E-02
        -0.13207E-02
         0.10197E-02
        -0.17316E-02
         0.20285E-02
         0.18585E-02
         0.17175E-02
         0.91491E-03
        -0.19806E-02
        -0.23495E-02
        -0.17073E-02
        -0.14950E-02
         0.78348E-03
         0.12576E-02
         0.18674E-02
         0.28792E-02
         0.27099E-02
         0.24591E-02
         0.22358E-02
         0.16502E-02
         0.88095E-03
        -0.21374E-02
        -0.26936E-02
        -0.31290E-02
        -0.30381E-02
        -0.28751E-02
        -0.26484E-02
        -0.23754E-02
        -0.21571E-02
        -0.15080E-02
         0.93572E-03
         0.00000E+00
         0.18171E-02
         0.25928E-02
         0.32179E-02
         0.36559E-02
         0.38815E-02
         0.38815E-02
         0.36559E-02
         0.32179E-02
         0.25928E-02
         0.18171E-02
         0.93572E-03
         0.47884E-18
        -0.93572E-03
        -0.18171E-02
        -0.25928E-02
        -0.32179E-02
        -0.36559E-02
        -0.38815E-02
        -0.38815E-02
        -0.36559E-02
        -0.32179E-02
        -0.25928E-02
        -0.18171E-02
        -0.93572E-03
  
SCALARS           initial_coordinate_z  double 1
LOOKUP_TABLE default
        -0.10771E-01
        -0.10771E-01
        -0.10771E-01
        -0.10771E-01
        -0.11750E-01
        -0.11750E-01
        -0.11750E-01
        -0.11750E-01
        -0.10771E-01
        -0.10771E-01
        -0.11750E-01
        -0.11750E-01
        -0.10771E-01
        -0.10771E-01
        -0.11750E-01
        -0.11750E-01
        -0.10771E-01
        -0.10771E-01
        -0.11750E-01
        -0.11750E-01
        -0.10771E-01
        -0.10771E-01
        -0.10771E-01
        -0.11750E-01
        -0.11750E-01
        -0.11750E-01
        -0.10771E-01
        -0.10771E-01
        -0.11750E-01
        -0.11750E-01
        -0.10771E-01
        -0.10771E-01
        -0.10771E-01
        -0.11750E-01
        -0.11750E-01
        -0.11750E-01
        -0.10771E-01
        -0.10771E-01
        -0.11750E-01
        -0.11750E-01
        -0.10771E-01
        -0.10771E-01
        -0.11750E-01
        -0.11750E-01
        -0.10771E-01
        -0.10771E-01
        -0.11750E-01
        -0.11750E-01
        -0.10771E-01
        -0.11750E-01
        -0.10771E-01
        -0.11750E-01
        -0.10771E-01
        -0.11750E-01
        -0.10771E-01
        -0.11750E-01
        -0.10771E-01
        -0.10771E-01
        -0.11750E-01
        -0.11750E-01
        -0.10771E-01
        -0.10771E-01
        -0.11750E-01
        -0.11750E-01
        -0.10771E-01
        -0.11750E-01
        -0.10771E-01
        -0.11750E-01
        -0.10771E-01
        -0.10771E-01
        -0.11750E-01
        -0.11750E-01
        -0.10771E-01
        -0.11750E-01
        -0.10771E-01
        -0.11750E-01
        -0.10771E-01
        -0.11750E-01
        -0.10771E-01
        -0.11750E-01
        -0.10771E-01
        -0.10771E-01
        -0.11750E-01
        -0.11750E-01
        -0.10771E-01
        -0.11750E-01
        -0.10771E-01
        -0.11750E-01
        -0.10771E-01
        -0.11750E-01
        -0.10771E-01
        -0.10771E-01
        -0.11750E-01
        -0.11750E-01
        -0.10771E-01
        -0.11750E-01
        -0.10771E-01
        -0.11750E-01
        -0.10771E-01
        -0.11750E-01
        -0.10771E-01
        -0.10771E-01
        -0.11750E-01
        -0.11750E-01
        -0.10771E-01
        -0.10771E-01
        -0.11750E-01
        -0.11750E-01
        -0.10771E-01
        -0.11750E-01
        -0.10771E-01
        -0.11750E-01
        -0.10771E-01
        -0.11750E-01
        -0.10771E-01
        -0.11750E-01
        -0.10771E-01
        -0.11750E-01
        -0.10771E-01
        -0.11750E-01
        -0.10771E-01
        -0.11750E-01
        -0.10771E-01
        -0.11750E-01
        -0.10771E-01
        -0.11750E-01
        -0.10771E-01
        -0.11750E-01
        -0.10771E-01
        -0.11750E-01
        -0.10771E-01
        -0.11750E-01
        -0.10771E-01
        -0.11750E-01
        -0.10771E-01
        -0.11750E-01
        -0.10771E-01
        -0.11750E-01
        -0.10771E-01
        -0.11750E-01
        -0.10771E-01
        -0.11750E-01
        -0.10771E-01
        -0.11750E-01
        -0.10771E-01
        -0.11750E-01
        -0.10771E-01
        -0.11750E-01
        -0.10771E-01
        -0.11750E-01
        -0.10771E-01
        -0.11750E-01
        -0.10771E-01
        -0.11750E-01
        -0.10771E-01
        -0.11750E-01
        -0.97917E-02
        -0.97917E-02
        -0.97917E-02
        -0.97917E-02
        -0.97917E-02
        -0.97917E-02
        -0.97917E-02
        -0.97917E-02
        -0.97917E-02
        -0.97917E-02
        -0.97917E-02
        -0.97917E-02
        -0.97917E-02
        -0.97917E-02
        -0.97917E-02
        -0.97917E-02
        -0.97917E-02
        -0.97917E-02
        -0.97917E-02
        -0.97917E-02
        -0.97917E-02
        -0.97917E-02
        -0.97917E-02
        -0.97917E-02
        -0.97917E-02
        -0.97917E-02
        -0.97917E-02
        -0.97917E-02
        -0.97917E-02
        -0.97917E-02
        -0.97917E-02
        -0.97917E-02
        -0.97917E-02
        -0.97917E-02
        -0.97917E-02
        -0.97917E-02
        -0.97917E-02
        -0.97917E-02
        -0.97917E-02
        -0.97917E-02
        -0.97917E-02
        -0.97917E-02
        -0.97917E-02
        -0.97917E-02
        -0.97917E-02
        -0.97917E-02
        -0.97917E-02
        -0.97917E-02
        -0.97917E-02
        -0.97917E-02
        -0.97917E-02
        -0.97917E-02
        -0.97917E-02
        -0.97917E-02
        -0.97917E-02
        -0.97917E-02
        -0.97917E-02
        -0.97917E-02
        -0.97917E-02
        -0.97917E-02
        -0.97917E-02
        -0.97917E-02
        -0.97917E-02
        -0.97917E-02
        -0.97917E-02
        -0.97917E-02
        -0.97917E-02
        -0.97917E-02
        -0.97917E-02
        -0.97917E-02
        -0.97917E-02
        -0.97917E-02
        -0.97917E-02
        -0.97917E-02
        -0.97917E-02
        -0.97917E-02
        -0.97917E-02
        -0.97917E-02
        -0.88125E-02
        -0.88125E-02
        -0.88125E-02
        -0.88125E-02
        -0.88125E-02
        -0.88125E-02
        -0.88125E-02
        -0.88125E-02
        -0.88125E-02
        -0.88125E-02
        -0.88125E-02
        -0.88125E-02
        -0.88125E-02
        -0.88125E-02
        -0.88125E-02
        -0.88125E-02
        -0.88125E-02
        -0.88125E-02
        -0.88125E-02
        -0.88125E-02
        -0.88125E-02
        -0.88125E-02
        -0.88125E-02
        -0.88125E-02
        -0.88125E-02
        -0.88125E-02
        -0.88125E-02
        -0.88125E-02
        -0.88125E-02
        -0.88125E-02
        -0.88125E-02
        -0.88125E-02
        -0.88125E-02
        -0.88125E-02
        -0.88125E-02
        -0.88125E-02
        -0.88125E-02
        -0.88125E-02
        -0.88125E-02
        -0.88125E-02
        -0.88125E-02
        -0.88125E-02
        -0.88125E-02
        -0.88125E-02
        -0.88125E-02
        -0.88125E-02
        -0.88125E-02
        -0.88125E-02
        -0.88125E-02
        -0.88125E-02
        -0.88125E-02
        -0.88125E-02
        -0.88125E-02
        -0.88125E-02
        -0.88125E-02
        -0.88125E-02
        -0.88125E-02
        -0.88125E-02
        -0.88125E-02
        -0.88125E-02
        -0.88125E-02
        -0.88125E-02
        -0.88125E-02
        -0.88125E-02
        -0.88125E-02
        -0.88125E-02
        -0.88125E-02
        -0.88125E-02
        -0.88125E-02
        -0.88125E-02
        -0.88125E-02
        -0.88125E-02
        -0.88125E-02
        -0.88125E-02
        -0.88125E-02
        -0.88125E-02
        -0.88125E-02
        -0.88125E-02
        -0.78333E-02
        -0.78333E-02
        -0.78333E-02
        -0.78333E-02
        -0.78333E-02
        -0.78333E-02
        -0.78333E-02
        -0.78333E-02
        -0.78333E-02
        -0.78333E-02
        -0.78333E-02
        -0.78333E-02
        -0.78333E-02
        -0.78333E-02
        -0.78333E-02
        -0.78333E-02
        -0.78333E-02
        -0.78333E-02
        -0.78333E-02
        -0.78333E-02
        -0.78333E-02
        -0.78333E-02
        -0.78333E-02
        -0.78333E-02
        -0.78333E-02
        -0.78333E-02
        -0.78333E-02
        -0.78333E-02
        -0.78333E-02
        -0.78333E-02
        -0.78333E-02
        -0.78333E-02
        -0.78333E-02
        -0.78333E-02
        -0.78333E-02
        -0.78333E-02
        -0.78333E-02
        -0.78333E-02
        -0.78333E-02
        -0.78333E-02
        -0.78333E-02
        -0.78333E-02
        -0.78333E-02
        -0.78333E-02
        -0.78333E-02
        -0.78333E-02
        -0.78333E-02
        -0.78333E-02
        -0.78333E-02
        -0.78333E-02
        -0.78333E-02
        -0.78333E-02
        -0.78333E-02
        -0.78333E-02
        -0.78333E-02
        -0.78333E-02
        -0.78333E-02
        -0.78333E-02
        -0.78333E-02
        -0.78333E-02
        -0.78333E-02
        -0.78333E-02
        -0.78333E-02
        -0.78333E-02
        -0.78333E-02
        -0.78333E-02
        -0.78333E-02
        -0.78333E-02
        -0.78333E-02
        -0.78333E-02
        -0.78333E-02
        -0.78333E-02
        -0.78333E-02
        -0.78333E-02
        -0.78333E-02
        -0.78333E-02
        -0.78333E-02
        -0.78333E-02
        -0.68542E-02
        -0.68542E-02
        -0.68542E-02
        -0.68542E-02
        -0.68542E-02
        -0.68542E-02
        -0.68542E-02
        -0.68542E-02
        -0.68542E-02
        -0.68542E-02
        -0.68542E-02
        -0.68542E-02
        -0.68542E-02
        -0.68542E-02
        -0.68542E-02
        -0.68542E-02
        -0.68542E-02
        -0.68542E-02
        -0.68542E-02
        -0.68542E-02
        -0.68542E-02
        -0.68542E-02
        -0.68542E-02
        -0.68542E-02
        -0.68542E-02
        -0.68542E-02
        -0.68542E-02
        -0.68542E-02
        -0.68542E-02
        -0.68542E-02
        -0.68542E-02
        -0.68542E-02
        -0.68542E-02
        -0.68542E-02
        -0.68542E-02
        -0.68542E-02
        -0.68542E-02
        -0.68542E-02
        -0.68542E-02
        -0.68542E-02
        -0.68542E-02
        -0.68542E-02
        -0.68542E-02
        -0.68542E-02
        -0.68542E-02
        -0.68542E-02
        -0.68542E-02
        -0.68542E-02
        -0.68542E-02
        -0.68542E-02
        -0.68542E-02
        -0.68542E-02
        -0.68542E-02
        -0.68542E-02
        -0.68542E-02
        -0.68542E-02
        -0.68542E-02
        -0.68542E-02
        -0.68542E-02
        -0.68542E-02
        -0.68542E-02
        -0.68542E-02
        -0.68542E-02
        -0.68542E-02
        -0.68542E-02
        -0.68542E-02
        -0.68542E-02
        -0.68542E-02
        -0.68542E-02
        -0.68542E-02
        -0.68542E-02
        -0.68542E-02
        -0.68542E-02
        -0.68542E-02
        -0.68542E-02
        -0.68542E-02
        -0.68542E-02
        -0.68542E-02
        -0.58750E-02
        -0.58750E-02
        -0.58750E-02
        -0.58750E-02
        -0.58750E-02
        -0.58750E-02
        -0.58750E-02
        -0.58750E-02
        -0.58750E-02
        -0.58750E-02
        -0.58750E-02
        -0.58750E-02
        -0.58750E-02
        -0.58750E-02
        -0.58750E-02
        -0.58750E-02
        -0.58750E-02
        -0.58750E-02
        -0.58750E-02
        -0.58750E-02
        -0.58750E-02
        -0.58750E-02
        -0.58750E-02
        -0.58750E-02
        -0.58750E-02
        -0.58750E-02
        -0.58750E-02
        -0.58750E-02
        -0.58750E-02
        -0.58750E-02
        -0.58750E-02
        -0.58750E-02
        -0.58750E-02
        -0.58750E-02
        -0.58750E-02
        -0.58750E-02
        -0.58750E-02
        -0.58750E-02
        -0.58750E-02
        -0.58750E-02
        -0.58750E-02
        -0.58750E-02
        -0.58750E-02
        -0.58750E-02
        -0.58750E-02
        -0.58750E-02
        -0.58750E-02
        -0.58750E-02
        -0.58750E-02
        -0.58750E-02
        -0.58750E-02
        -0.58750E-02
        -0.58750E-02
        -0.58750E-02
        -0.58750E-02
        -0.58750E-02
        -0.58750E-02
        -0.58750E-02
        -0.58750E-02
        -0.58750E-02
        -0.58750E-02
        -0.58750E-02
        -0.58750E-02
        -0.58750E-02
        -0.58750E-02
        -0.58750E-02
        -0.58750E-02
        -0.58750E-02
        -0.58750E-02
        -0.58750E-02
        -0.58750E-02
        -0.58750E-02
        -0.58750E-02
        -0.58750E-02
        -0.58750E-02
        -0.58750E-02
        -0.58750E-02
        -0.58750E-02
        -0.48958E-02
        -0.48958E-02
        -0.48958E-02
        -0.48958E-02
        -0.48958E-02
        -0.48958E-02
        -0.48958E-02
        -0.48958E-02
        -0.48958E-02
        -0.48958E-02
        -0.48958E-02
        -0.48958E-02
        -0.48958E-02
        -0.48958E-02
        -0.48958E-02
        -0.48958E-02
        -0.48958E-02
        -0.48958E-02
        -0.48958E-02
        -0.48958E-02
        -0.48958E-02
        -0.48958E-02
        -0.48958E-02
        -0.48958E-02
        -0.48958E-02
        -0.48958E-02
        -0.48958E-02
        -0.48958E-02
        -0.48958E-02
        -0.48958E-02
        -0.48958E-02
        -0.48958E-02
        -0.48958E-02
        -0.48958E-02
        -0.48958E-02
        -0.48958E-02
        -0.48958E-02
        -0.48958E-02
        -0.48958E-02
        -0.48958E-02
        -0.48958E-02
        -0.48958E-02
        -0.48958E-02
        -0.48958E-02
        -0.48958E-02
        -0.48958E-02
        -0.48958E-02
        -0.48958E-02
        -0.48958E-02
        -0.48958E-02
        -0.48958E-02
        -0.48958E-02
        -0.48958E-02
        -0.48958E-02
        -0.48958E-02
        -0.48958E-02
        -0.48958E-02
        -0.48958E-02
        -0.48958E-02
        -0.48958E-02
        -0.48958E-02
        -0.48958E-02
        -0.48958E-02
        -0.48958E-02
        -0.48958E-02
        -0.48958E-02
        -0.48958E-02
        -0.48958E-02
        -0.48958E-02
        -0.48958E-02
        -0.48958E-02
        -0.48958E-02
        -0.48958E-02
        -0.48958E-02
        -0.48958E-02
        -0.48958E-02
        -0.48958E-02
        -0.48958E-02
        -0.39167E-02
        -0.39167E-02
        -0.39167E-02
        -0.39167E-02
        -0.39167E-02
        -0.39167E-02
        -0.39167E-02
        -0.39167E-02
        -0.39167E-02
        -0.39167E-02
        -0.39167E-02
        -0.39167E-02
        -0.39167E-02
        -0.39167E-02
        -0.39167E-02
        -0.39167E-02
        -0.39167E-02
        -0.39167E-02
        -0.39167E-02
        -0.39167E-02
        -0.39167E-02
        -0.39167E-02
        -0.39167E-02
        -0.39167E-02
        -0.39167E-02
        -0.39167E-02
        -0.39167E-02
        -0.39167E-02
        -0.39167E-02
        -0.39167E-02
        -0.39167E-02
        -0.39167E-02
        -0.39167E-02
        -0.39167E-02
        -0.39167E-02
        -0.39167E-02
        -0.39167E-02
        -0.39167E-02
        -0.39167E-02
        -0.39167E-02
        -0.39167E-02
        -0.39167E-02
        -0.39167E-02
        -0.39167E-02
        -0.39167E-02
        -0.39167E-02
        -0.39167E-02
        -0.39167E-02
        -0.39167E-02
        -0.39167E-02
        -0.39167E-02
        -0.39167E-02
        -0.39167E-02
        -0.39167E-02
        -0.39167E-02
        -0.39167E-02
        -0.39167E-02
        -0.39167E-02
        -0.39167E-02
        -0.39167E-02
        -0.39167E-02
        -0.39167E-02
        -0.39167E-02
        -0.39167E-02
        -0.39167E-02
        -0.39167E-02
        -0.39167E-02
        -0.39167E-02
        -0.39167E-02
        -0.39167E-02
        -0.39167E-02
        -0.39167E-02
        -0.39167E-02
        -0.39167E-02
        -0.39167E-02
        -0.39167E-02
        -0.39167E-02
        -0.39167E-02
        -0.29375E-02
        -0.29375E-02
        -0.29375E-02
        -0.29375E-02
        -0.29375E-02
        -0.29375E-02
        -0.29375E-02
        -0.29375E-02
        -0.29375E-02
        -0.29375E-02
        -0.29375E-02
        -0.29375E-02
        -0.29375E-02
        -0.29375E-02
        -0.29375E-02
        -0.29375E-02
        -0.29375E-02
        -0.29375E-02
        -0.29375E-02
        -0.29375E-02
        -0.29375E-02
        -0.29375E-02
        -0.29375E-02
        -0.29375E-02
        -0.29375E-02
        -0.29375E-02
        -0.29375E-02
        -0.29375E-02
        -0.29375E-02
        -0.29375E-02
        -0.29375E-02
        -0.29375E-02
        -0.29375E-02
        -0.29375E-02
        -0.29375E-02
        -0.29375E-02
        -0.29375E-02
        -0.29375E-02
        -0.29375E-02
        -0.29375E-02
        -0.29375E-02
        -0.29375E-02
        -0.29375E-02
        -0.29375E-02
        -0.29375E-02
        -0.29375E-02
        -0.29375E-02
        -0.29375E-02
        -0.29375E-02
        -0.29375E-02
        -0.29375E-02
        -0.29375E-02
        -0.29375E-02
        -0.29375E-02
        -0.29375E-02
        -0.29375E-02
        -0.29375E-02
        -0.29375E-02
        -0.29375E-02
        -0.29375E-02
        -0.29375E-02
        -0.29375E-02
        -0.29375E-02
        -0.29375E-02
        -0.29375E-02
        -0.29375E-02
        -0.29375E-02
        -0.29375E-02
        -0.29375E-02
        -0.29375E-02
        -0.29375E-02
        -0.29375E-02
        -0.29375E-02
        -0.29375E-02
        -0.29375E-02
        -0.29375E-02
        -0.29375E-02
        -0.29375E-02
        -0.19583E-02
        -0.19583E-02
        -0.19583E-02
        -0.19583E-02
        -0.19583E-02
        -0.19583E-02
        -0.19583E-02
        -0.19583E-02
        -0.19583E-02
        -0.19583E-02
        -0.19583E-02
        -0.19583E-02
        -0.19583E-02
        -0.19583E-02
        -0.19583E-02
        -0.19583E-02
        -0.19583E-02
        -0.19583E-02
        -0.19583E-02
        -0.19583E-02
        -0.19583E-02
        -0.19583E-02
        -0.19583E-02
        -0.19583E-02
        -0.19583E-02
        -0.19583E-02
        -0.19583E-02
        -0.19583E-02
        -0.19583E-02
        -0.19583E-02
        -0.19583E-02
        -0.19583E-02
        -0.19583E-02
        -0.19583E-02
        -0.19583E-02
        -0.19583E-02
        -0.19583E-02
        -0.19583E-02
        -0.19583E-02
        -0.19583E-02
        -0.19583E-02
        -0.19583E-02
        -0.19583E-02
        -0.19583E-02
        -0.19583E-02
        -0.19583E-02
        -0.19583E-02
        -0.19583E-02
        -0.19583E-02
        -0.19583E-02
        -0.19583E-02
        -0.19583E-02
        -0.19583E-02
        -0.19583E-02
        -0.19583E-02
        -0.19583E-02
        -0.19583E-02
        -0.19583E-02
        -0.19583E-02
        -0.19583E-02
        -0.19583E-02
        -0.19583E-02
        -0.19583E-02
        -0.19583E-02
        -0.19583E-02
        -0.19583E-02
        -0.19583E-02
        -0.19583E-02
        -0.19583E-02
        -0.19583E-02
        -0.19583E-02
        -0.19583E-02
        -0.19583E-02
        -0.19583E-02
        -0.19583E-02
        -0.19583E-02
        -0.19583E-02
        -0.19583E-02
        -0.97917E-03
        -0.97917E-03
        -0.97917E-03
        -0.97917E-03
        -0.97917E-03
        -0.97917E-03
        -0.97917E-03
        -0.97917E-03
        -0.97917E-03
        -0.97917E-03
        -0.97917E-03
        -0.97917E-03
        -0.97917E-03
        -0.97917E-03
        -0.97917E-03
        -0.97917E-03
        -0.97917E-03
        -0.97917E-03
        -0.97917E-03
        -0.97917E-03
        -0.97917E-03
        -0.97917E-03
        -0.97917E-03
        -0.97917E-03
        -0.97917E-03
        -0.97917E-03
        -0.97917E-03
        -0.97917E-03
        -0.97917E-03
        -0.97917E-03
        -0.97917E-03
        -0.97917E-03
        -0.97917E-03
        -0.97917E-03
        -0.97917E-03
        -0.97917E-03
        -0.97917E-03
        -0.97917E-03
        -0.97917E-03
        -0.97917E-03
        -0.97917E-03
        -0.97917E-03
        -0.97917E-03
        -0.97917E-03
        -0.97917E-03
        -0.97917E-03
        -0.97917E-03
        -0.97917E-03
        -0.97917E-03
        -0.97917E-03
        -0.97917E-03
        -0.97917E-03
        -0.97917E-03
        -0.97917E-03
        -0.97917E-03
        -0.97917E-03
        -0.97917E-03
        -0.97917E-03
        -0.97917E-03
        -0.97917E-03
        -0.97917E-03
        -0.97917E-03
        -0.97917E-03
        -0.97917E-03
        -0.97917E-03
        -0.97917E-03
        -0.97917E-03
        -0.97917E-03
        -0.97917E-03
        -0.97917E-03
        -0.97917E-03
        -0.97917E-03
        -0.97917E-03
        -0.97917E-03
        -0.97917E-03
        -0.97917E-03
        -0.97917E-03
        -0.97917E-03
         0.38917E-18
         0.44621E-18
         0.34485E-18
         0.23671E-18
         0.26613E-18
         0.16162E-18
         0.53980E-18
         0.50579E-18
         0.36337E-18
         0.48798E-18
         0.60712E-18
         0.67611E-18
         0.60634E-18
         0.60658E-18
         0.70997E-18
         0.20892E-18
         0.35894E-18
         0.21887E-18
         0.27638E-18
         0.38382E-18
         0.29058E-18
         0.40326E-18
         0.18564E-18
         0.19650E-18
         0.48570E-18
         0.12837E-18
         0.60589E-18
         0.60416E-18
         0.60524E-18
         0.49621E-18
         0.61582E-19
         0.32255E-19
         0.73874E-19
         0.78478E-19
         0.34514E-18
         0.42054E-18
         0.51644E-18
         0.72521E-18
         0.72233E-18
         0.70722E-18
         0.69126E-18
         0.61573E-18
         0.51484E-18
         0.91170E-19
         0.30347E-20
        -0.66516E-19
        -0.69988E-19
        -0.68643E-19
        -0.59779E-19
        -0.43507E-19
        -0.29471E-19
         0.53205E-19
         0.86819E-18
         0.00000E+00
         0.86819E-18
         0.86819E-18
         0.00000E+00
         0.00000E+00
         0.00000E+00
         0.17364E-17
         0.17364E-17
         0.17364E-17
         0.43410E-18
         0.43410E-18
         0.43410E-18
         0.00000E+00
         0.00000E+00
         0.00000E+00
         0.00000E+00
         0.00000E+00
         0.21705E-18
        -0.21705E-18
         0.00000E+00
         0.00000E+00
         0.00000E+00
        -0.32557E-18
         0.54262E-19
        -0.40697E-18
         0.97917E-03
         0.97917E-03
         0.97917E-03
         0.97917E-03
         0.97917E-03
         0.97917E-03
         0.97917E-03
         0.97917E-03
         0.97917E-03
         0.97917E-03
         0.97917E-03
         0.97917E-03
         0.97917E-03
         0.97917E-03
         0.97917E-03
         0.97917E-03
         0.97917E-03
         0.97917E-03
         0.97917E-03
         0.97917E-03
         0.97917E-03
         0.97917E-03
         0.97917E-03
         0.97917E-03
         0.97917E-03
         0.97917E-03
         0.97917E-03
         0.97917E-03
         0.97917E-03
         0.97917E-03
         0.97917E-03
         0.97917E-03
         0.97917E-03
         0.97917E-03
         0.97917E-03
         0.97917E-03
         0.97917E-03
         0.97917E-03
         0.97917E-03
         0.97917E-03
         0.97917E-03
         0.97917E-03
         0.97917E-03
         0.97917E-03
         0.97917E-03
         0.97917E-03
         0.97917E-03
         0.97917E-03
         0.97917E-03
         0.97917E-03
         0.97917E-03
         0.97917E-03
         0.97917E-03
         0.97917E-03
         0.97917E-03
         0.97917E-03
         0.97917E-03
         0.97917E-03
         0.97917E-03
         0.97917E-03
         0.97917E-03
         0.97917E-03
         0.97917E-03
         0.97917E-03
         0.97917E-03
         0.97917E-03
         0.97917E-03
         0.97917E-03
         0.97917E-03
         0.97917E-03
         0.97917E-03
         0.97917E-03
         0.97917E-03
         0.97917E-03
         0.97917E-03
         0.97917E-03
         0.97917E-03
         0.97917E-03
         0.19583E-02
         0.19583E-02
         0.19583E-02
         0.19583E-02
         0.19583E-02
         0.19583E-02
         0.19583E-02
         0.19583E-02
         0.19583E-02
         0.19583E-02
         0.19583E-02
         0.19583E-02
         0.19583E-02
         0.19583E-02
         0.19583E-02
         0.19583E-02
         0.19583E-02
         0.19583E-02
         0.19583E-02
         0.19583E-02
         0.19583E-02
         0.19583E-02
         0.19583E-02
         0.19583E-02
         0.19583E-02
         0.19583E-02
         0.19583E-02
         0.19583E-02
         0.19583E-02
         0.19583E-02
         0.19583E-02
         0.19583E-02
         0.19583E-02
         0.19583E-02
         0.19583E-02
         0.19583E-02
         0.19583E-02
         0.19583E-02
         0.19583E-02
         0.19583E-02
         0.19583E-02
         0.19583E-02
         0.19583E-02
         0.19583E-02
         0.19583E-02
         0.19583E-02
         0.19583E-02
         0.19583E-02
         0.19583E-02
         0.19583E-02
         0.19583E-02
         0.19583E-02
         0.19583E-02
         0.19583E-02
         0.19583E-02
         0.19583E-02
         0.19583E-02
         0.19583E-02
         0.19583E-02
         0.19583E-02
         0.19583E-02
         0.19583E-02
         0.19583E-02
         0.19583E-02
         0.19583E-02
         0.19583E-02
         0.19583E-02
         0.19583E-02
         0.19583E-02
         0.19583E-02
         0.19583E-02
         0.19583E-02
         0.19583E-02
         0.19583E-02
         0.19583E-02
         0.19583E-02
         0.19583E-02
         0.19583E-02
         0.29375E-02
         0.29375E-02
         0.29375E-02
         0.29375E-02
         0.29375E-02
         0.29375E-02
         0.29375E-02
         0.29375E-02
         0.29375E-02
         0.29375E-02
         0.29375E-02
         0.29375E-02
         0.29375E-02
         0.29375E-02
         0.29375E-02
         0.29375E-02
         0.29375E-02
         0.29375E-02
         0.29375E-02
         0.29375E-02
         0.29375E-02
         0.29375E-02
         0.29375E-02
         0.29375E-02
         0.29375E-02
         0.29375E-02
         0.29375E-02
         0.29375E-02
         0.29375E-02
         0.29375E-02
         0.29375E-02
         0.29375E-02
         0.29375E-02
         0.29375E-02
         0.29375E-02
         0.29375E-02
         0.29375E-02
         0.29375E-02
         0.29375E-02
         0.29375E-02
         0.29375E-02
         0.29375E-02
         0.29375E-02
         0.29375E-02
         0.29375E-02
         0.29375E-02
         0.29375E-02
         0.29375E-02
         0.29375E-02
         0.29375E-02
         0.29375E-02
         0.29375E-02
         0.29375E-02
         0.29375E-02
         0.29375E-02
         0.29375E-02
         0.29375E-02
         0.29375E-02
         0.29375E-02
         0.29375E-02
         0.29375E-02
         0.29375E-02
         0.29375E-02
         0.29375E-02
         0.29375E-02
         0.29375E-02
         0.29375E-02
         0.29375E-02
         0.29375E-02
         0.29375E-02
         0.29375E-02
         0.29375E-02
         0.29375E-02
         0.29375E-02
         0.29375E-02
         0.29375E-02
         0.29375E-02
         0.29375E-02
         0.39167E-02
         0.39167E-02
         0.39167E-02
         0.39167E-02
         0.39167E-02
         0.39167E-02
         0.39167E-02
         0.39167E-02
         0.39167E-02
         0.39167E-02
         0.39167E-02
         0.39167E-02
         0.39167E-02
         0.39167E-02
         0.39167E-02
         0.39167E-02
         0.39167E-02
         0.39167E-02
         0.39167E-02
         0.39167E-02
         0.39167E-02
         0.39167E-02
         0.39167E-02
         0.39167E-02
         0.39167E-02
         0.39167E-02
         0.39167E-02
         0.39167E-02
         0.39167E-02
         0.39167E-02
         0.39167E-02
         0.39167E-02
         0.39167E-02
         0.39167E-02
         0.39167E-02
         0.39167E-02
         0.39167E-02
         0.39167E-02
         0.39167E-02
         0.39167E-02
         0.39167E-02
         0.39167E-02
         0.39167E-02
         0.39167E-02
         0.39167E-02
         0.39167E-02
         0.39167E-02
         0.39167E-02
         0.39167E-02
         0.39167E-02
         0.39167E-02
         0.39167E-02
         0.39167E-02
         0.39167E-02
         0.39167E-02
         0.39167E-02
         0.39167E-02
         0.39167E-02
         0.39167E-02
         0.39167E-02
         0.39167E-02
         0.39167E-02
         0.39167E-02
         0.39167E-02
         0.39167E-02
         0.39167E-02
         0.39167E-02
         0.39167E-02
         0.39167E-02
         0.39167E-02
         0.39167E-02
         0.39167E-02
         0.39167E-02
         0.39167E-02
         0.39167E-02
         0.39167E-02
         0.39167E-02
         0.39167E-02
         0.48958E-02
         0.48958E-02
         0.48958E-02
         0.48958E-02
         0.48958E-02
         0.48958E-02
         0.48958E-02
         0.48958E-02
         0.48958E-02
         0.48958E-02
         0.48958E-02
         0.48958E-02
         0.48958E-02
         0.48958E-02
         0.48958E-02
         0.48958E-02
         0.48958E-02
         0.48958E-02
         0.48958E-02
         0.48958E-02
         0.48958E-02
         0.48958E-02
         0.48958E-02
         0.48958E-02
         0.48958E-02
         0.48958E-02
         0.48958E-02
         0.48958E-02
         0.48958E-02
         0.48958E-02
         0.48958E-02
         0.48958E-02
         0.48958E-02
         0.48958E-02
         0.48958E-02
         0.48958E-02
         0.48958E-02
         0.48958E-02
         0.48958E-02
         0.48958E-02
         0.48958E-02
         0.48958E-02
         0.48958E-02
         0.48958E-02
         0.48958E-02
         0.48958E-02
         0.48958E-02
         0.48958E-02
         0.48958E-02
         0.48958E-02
         0.48958E-02
         0.48958E-02
         0.48958E-02
         0.48958E-02
         0.48958E-02
         0.48958E-02
         0.48958E-02
         0.48958E-02
         0.48958E-02
         0.48958E-02
         0.48958E-02
         0.48958E-02
         0.48958E-02
         0.48958E-02
         0.48958E-02
         0.48958E-02
         0.48958E-02
         0.48958E-02
         0.48958E-02
         0.48958E-02
         0.48958E-02
         0.48958E-02
         0.48958E-02
         0.48958E-02
         0.48958E-02
         0.48958E-02
         0.48958E-02
         0.48958E-02
         0.58750E-02
         0.58750E-02
         0.58750E-02
         0.58750E-02
         0.58750E-02
         0.58750E-02
         0.58750E-02
         0.58750E-02
         0.58750E-02
         0.58750E-02
         0.58750E-02
         0.58750E-02
         0.58750E-02
         0.58750E-02
         0.58750E-02
         0.58750E-02
         0.58750E-02
         0.58750E-02
         0.58750E-02
         0.58750E-02
         0.58750E-02
         0.58750E-02
         0.58750E-02
         0.58750E-02
         0.58750E-02
         0.58750E-02
         0.58750E-02
         0.58750E-02
         0.58750E-02
         0.58750E-02
         0.58750E-02
         0.58750E-02
         0.58750E-02
         0.58750E-02
         0.58750E-02
         0.58750E-02
         0.58750E-02
         0.58750E-02
         0.58750E-02
         0.58750E-02
         0.58750E-02
         0.58750E-02
         0.58750E-02
         0.58750E-02
         0.58750E-02
         0.58750E-02
         0.58750E-02
         0.58750E-02
         0.58750E-02
         0.58750E-02
         0.58750E-02
         0.58750E-02
         0.58750E-02
         0.58750E-02
         0.58750E-02
         0.58750E-02
         0.58750E-02
         0.58750E-02
         0.58750E-02
         0.58750E-02
         0.58750E-02
         0.58750E-02
         0.58750E-02
         0.58750E-02
         0.58750E-02
         0.58750E-02
         0.58750E-02
         0.58750E-02
         0.58750E-02
         0.58750E-02
         0.58750E-02
         0.58750E-02
         0.58750E-02
         0.58750E-02
         0.58750E-02
         0.58750E-02
         0.58750E-02
         0.58750E-02
         0.68542E-02
         0.68542E-02
         0.68542E-02
         0.68542E-02
         0.68542E-02
         0.68542E-02
         0.68542E-02
         0.68542E-02
         0.68542E-02
         0.68542E-02
         0.68542E-02
         0.68542E-02
         0.68542E-02
         0.68542E-02
         0.68542E-02
         0.68542E-02
         0.68542E-02
         0.68542E-02
         0.68542E-02
         0.68542E-02
         0.68542E-02
         0.68542E-02
         0.68542E-02
         0.68542E-02
         0.68542E-02
         0.68542E-02
         0.68542E-02
         0.68542E-02
         0.68542E-02
         0.68542E-02
         0.68542E-02
         0.68542E-02
         0.68542E-02
         0.68542E-02
         0.68542E-02
         0.68542E-02
         0.68542E-02
         0.68542E-02
         0.68542E-02
         0.68542E-02
         0.68542E-02
         0.68542E-02
         0.68542E-02
         0.68542E-02
         0.68542E-02
         0.68542E-02
         0.68542E-02
         0.68542E-02
         0.68542E-02
         0.68542E-02
         0.68542E-02
         0.68542E-02
         0.68542E-02
         0.68542E-02
         0.68542E-02
         0.68542E-02
         0.68542E-02
         0.68542E-02
         0.68542E-02
         0.68542E-02
         0.68542E-02
         0.68542E-02
         0.68542E-02
         0.68542E-02
         0.68542E-02
         0.68542E-02
         0.68542E-02
         0.68542E-02
         0.68542E-02
         0.68542E-02
         0.68542E-02
         0.68542E-02
         0.68542E-02
         0.68542E-02
         0.68542E-02
         0.68542E-02
         0.68542E-02
         0.68542E-02
         0.78333E-02
         0.78333E-02
         0.78333E-02
         0.78333E-02
         0.78333E-02
         0.78333E-02
         0.78333E-02
         0.78333E-02
         0.78333E-02
         0.78333E-02
         0.78333E-02
         0.78333E-02
         0.78333E-02
         0.78333E-02
         0.78333E-02
         0.78333E-02
         0.78333E-02
         0.78333E-02
         0.78333E-02
         0.78333E-02
         0.78333E-02
         0.78333E-02
         0.78333E-02
         0.78333E-02
         0.78333E-02
         0.78333E-02
         0.78333E-02
         0.78333E-02
         0.78333E-02
         0.78333E-02
         0.78333E-02
         0.78333E-02
         0.78333E-02
         0.78333E-02
         0.78333E-02
         0.78333E-02
         0.78333E-02
         0.78333E-02
         0.78333E-02
         0.78333E-02
         0.78333E-02
         0.78333E-02
         0.78333E-02
         0.78333E-02
         0.78333E-02
         0.78333E-02
         0.78333E-02
         0.78333E-02
         0.78333E-02
         0.78333E-02
         0.78333E-02
         0.78333E-02
         0.78333E-02
         0.78333E-02
         0.78333E-02
         0.78333E-02
         0.78333E-02
         0.78333E-02
         0.78333E-02
         0.78333E-02
         0.78333E-02
         0.78333E-02
         0.78333E-02
         0.78333E-02
         0.78333E-02
         0.78333E-02
         0.78333E-02
         0.78333E-02
         0.78333E-02
         0.78333E-02
         0.78333E-02
         0.78333E-02
         0.78333E-02
         0.78333E-02
         0.78333E-02
         0.78333E-02
         0.78333E-02
         0.78333E-02
         0.88125E-02
         0.88125E-02
         0.88125E-02
         0.88125E-02
         0.88125E-02
         0.88125E-02
         0.88125E-02
         0.88125E-02
         0.88125E-02
         0.88125E-02
         0.88125E-02
         0.88125E-02
         0.88125E-02
         0.88125E-02
         0.88125E-02
         0.88125E-02
         0.88125E-02
         0.88125E-02
         0.88125E-02
         0.88125E-02
         0.88125E-02
         0.88125E-02
         0.88125E-02
         0.88125E-02
         0.88125E-02
         0.88125E-02
         0.88125E-02
         0.88125E-02
         0.88125E-02
         0.88125E-02
         0.88125E-02
         0.88125E-02
         0.88125E-02
         0.88125E-02
         0.88125E-02
         0.88125E-02
         0.88125E-02
         0.88125E-02
         0.88125E-02
         0.88125E-02
         0.88125E-02
         0.88125E-02
         0.88125E-02
         0.88125E-02
         0.88125E-02
         0.88125E-02
         0.88125E-02
         0.88125E-02
         0.88125E-02
         0.88125E-02
         0.88125E-02
         0.88125E-02
         0.88125E-02
         0.88125E-02
         0.88125E-02
         0.88125E-02
         0.88125E-02
         0.88125E-02
         0.88125E-02
         0.88125E-02
         0.88125E-02
         0.88125E-02
         0.88125E-02
         0.88125E-02
         0.88125E-02
         0.88125E-02
         0.88125E-02
         0.88125E-02
         0.88125E-02
         0.88125E-02
         0.88125E-02
         0.88125E-02
         0.88125E-02
         0.88125E-02
         0.88125E-02
         0.88125E-02
         0.88125E-02
         0.88125E-02
         0.97917E-02
         0.97917E-02
         0.97917E-02
         0.97917E-02
         0.97917E-02
         0.97917E-02
         0.97917E-02
         0.97917E-02
         0.97917E-02
         0.97917E-02
         0.97917E-02
         0.97917E-02
         0.97917E-02
         0.97917E-02
         0.97917E-02
         0.97917E-02
         0.97917E-02
         0.97917E-02
         0.97917E-02
         0.97917E-02
         0.97917E-02
         0.97917E-02
         0.97917E-02
         0.97917E-02
         0.97917E-02
         0.97917E-02
         0.97917E-02
         0.97917E-02
         0.97917E-02
         0.97917E-02
         0.97917E-02
         0.97917E-02
         0.97917E-02
         0.97917E-02
         0.97917E-02
         0.97917E-02
         0.97917E-02
         0.97917E-02
         0.97917E-02
         0.97917E-02
         0.97917E-02
         0.97917E-02
         0.97917E-02
         0.97917E-02
         0.97917E-02
         0.97917E-02
         0.97917E-02
         0.97917E-02
         0.97917E-02
         0.97917E-02
         0.97917E-02
         0.97917E-02
         0.97917E-02
         0.97917E-02
         0.97917E-02
         0.97917E-02
         0.97917E-02
         0.97917E-02
         0.97917E-02
         0.97917E-02
         0.97917E-02
         0.97917E-02
         0.97917E-02
         0.97917E-02
         0.97917E-02
         0.97917E-02
         0.97917E-02
         0.97917E-02
         0.97917E-02
         0.97917E-02
         0.97917E-02
         0.97917E-02
         0.97917E-02
         0.97917E-02
         0.97917E-02
         0.97917E-02
         0.97917E-02
         0.97917E-02
         0.10771E-01
         0.10771E-01
         0.10771E-01
         0.10771E-01
         0.10771E-01
         0.10771E-01
         0.10771E-01
         0.10771E-01
         0.10771E-01
         0.10771E-01
         0.10771E-01
         0.10771E-01
         0.10771E-01
         0.10771E-01
         0.10771E-01
         0.10771E-01
         0.10771E-01
         0.10771E-01
         0.10771E-01
         0.10771E-01
         0.10771E-01
         0.10771E-01
         0.10771E-01
         0.10771E-01
         0.10771E-01
         0.10771E-01
         0.10771E-01
         0.10771E-01
         0.10771E-01
         0.10771E-01
         0.10771E-01
         0.10771E-01
         0.10771E-01
         0.10771E-01
         0.10771E-01
         0.10771E-01
         0.10771E-01
         0.10771E-01
         0.10771E-01
         0.10771E-01
         0.10771E-01
         0.10771E-01
         0.10771E-01
         0.10771E-01
         0.10771E-01
         0.10771E-01
         0.10771E-01
         0.10771E-01
         0.10771E-01
         0.10771E-01
         0.10771E-01
         0.10771E-01
         0.10771E-01
         0.10771E-01
         0.10771E-01
         0.10771E-01
         0.10771E-01
         0.10771E-01
         0.10771E-01
         0.10771E-01
         0.10771E-01
         0.10771E-01
         0.10771E-01
         0.10771E-01
         0.10771E-01
         0.10771E-01
         0.10771E-01
         0.10771E-01
         0.10771E-01
         0.10771E-01
         0.10771E-01
         0.10771E-01
         0.10771E-01
         0.10771E-01
         0.10771E-01
         0.10771E-01
         0.10771E-01
         0.10771E-01
         0.11750E-01
         0.11750E-01
         0.11750E-01
         0.11750E-01
         0.11750E-01
         0.11750E-01
         0.11750E-01
         0.11750E-01
         0.11750E-01
         0.11750E-01
         0.11750E-01
         0.11750E-01
         0.11750E-01
         0.11750E-01
         0.11750E-01
         0.11750E-01
         0.11750E-01
         0.11750E-01
         0.11750E-01
         0.11750E-01
         0.11750E-01
         0.11750E-01
         0.11750E-01
         0.11750E-01
         0.11750E-01
         0.11750E-01
         0.11750E-01
         0.11750E-01
         0.11750E-01
         0.11750E-01
         0.11750E-01
         0.11750E-01
         0.11750E-01
         0.11750E-01
         0.11750E-01
         0.11750E-01
         0.11750E-01
         0.11750E-01
         0.11750E-01
         0.11750E-01
         0.11750E-01
         0.11750E-01
         0.11750E-01
         0.11750E-01
         0.11750E-01
         0.11750E-01
         0.11750E-01
         0.11750E-01
         0.11750E-01
         0.11750E-01
         0.11750E-01
         0.11750E-01
         0.11750E-01
         0.11750E-01
         0.11750E-01
         0.11750E-01
         0.11750E-01
         0.11750E-01
         0.11750E-01
         0.11750E-01
         0.11750E-01
         0.11750E-01
         0.11750E-01
         0.11750E-01
         0.11750E-01
         0.11750E-01
         0.11750E-01
         0.11750E-01
         0.11750E-01
         0.11750E-01
         0.11750E-01
         0.11750E-01
         0.11750E-01
         0.11750E-01
         0.11750E-01
         0.11750E-01
         0.11750E-01
         0.11750E-01
  
SCALARS                init_velocity_x  double 1
LOOKUP_TABLE default
         0.00000E+00
         0.00000E+00
         0.00000E+00
         0.00000E+00
         0.00000E+00
         0.00000E+00
         0.00000E+00
         0.00000E+00
         0.00000E+00
         0.00000E+00
         0.00000E+00
         0.00000E+00
         0.00000E+00
         0.00000E+00
         0.00000E+00
         0.00000E+00
         0.00000E+00
         0.00000E+00
         0.00000E+00
         0.00000E+00
         0.00000E+00
         0.00000E+00
         0.00000E+00
         0.00000E+00
         0.00000E+00
         0.00000E+00
         0.00000E+00
         0.00000E+00
         0.00000E+00
         0.00000E+00
         0.00000E+00
         0.00000E+00
         0.00000E+00
         0.00000E+00
         0.00000E+00
         0.00000E+00
         0.00000E+00
         0.00000E+00
         0.00000E+00
         0.00000E+00
         0.00000E+00
         0.00000E+00
         0.00000E+00
         0.00000E+00
         0.00000E+00
         0.00000E+00
         0.00000E+00
         0.00000E+00
         0.00000E+00
         0.00000E+00
         0.00000E+00
         0.00000E+00
         0.00000E+00
         0.00000E+00
         0.00000E+00
         0.00000E+00
         0.00000E+00
         0.00000E+00
         0.00000E+00
         0.00000E+00
         0.00000E+00
         0.00000E+00
         0.00000E+00
         0.00000E+00
         0.00000E+00
         0.00000E+00
         0.00000E+00
         0.00000E+00
         0.00000E+00
         0.00000E+00
         0.00000E+00
         0.00000E+00
         0.00000E+00
         0.00000E+00
         0.00000E+00
         0.00000E+00
         0.00000E+00
         0.00000E+00
         0.00000E+00
         0.00000E+00
         0.00000E+00
         0.00000E+00
         0.00000E+00
         0.00000E+00
         0.00000E+00
         0.00000E+00
         0.00000E+00
         0.00000E+00
         0.00000E+00
         0.00000E+00
         0.00000E+00
         0.00000E+00
         0.00000E+00
         0.00000E+00
         0.00000E+00
         0.00000E+00
         0.00000E+00
         0.00000E+00
         0.00000E+00
         0.00000E+00
         0.00000E+00
         0.00000E+00
         0.00000E+00
         0.00000E+00
         0.00000E+00
         0.00000E+00
         0.00000E+00
         0.00000E+00
         0.00000E+00
         0.00000E+00
         0.00000E+00
         0.00000E+00
         0.00000E+00
         0.00000E+00
         0.00000E+00
         0.00000E+00
         0.00000E+00
         0.00000E+00
         0.00000E+00
         0.00000E+00
         0.00000E+00
         0.00000E+00
         0.00000E+00
         0.00000E+00
         0.00000E+00
         0.00000E+00
         0.00000E+00
         0.00000E+00
         0.00000E+00
         0.00000E+00
         0.00000E+00
         0.00000E+00
         0.00000E+00
         0.00000E+00
         0.00000E+00
         0.00000E+00
         0.00000E+00
         0.00000E+00
         0.00000E+00
         0.00000E+00
         0.00000E+00
         0.00000E+00
         0.00000E+00
         0.00000E+00
         0.00000E+00
         0.00000E+00
         0.00000E+00
         0.00000E+00
         0.00000E+00
         0.00000E+00
         0.00000E+00
         0.00000E+00
         0.00000E+00
         0.00000E+00
         0.00000E+00
         0.00000E+00
         0.00000E+00
         0.00000E+00
         0.00000E+00
         0.00000E+00
         0.00000E+00
         0.00000E+00
         0.00000E+00
         0.00000E+00
         0.00000E+00
         0.00000E+00
         0.00000E+00
         0.00000E+00
         0.00000E+00
         0.00000E+00
         0.00000E+00
         0.00000E+00
         0.00000E+00
         0.00000E+00
         0.00000E+00
         0.00000E+00
         0.00000E+00
         0.00000E+00
         0.00000E+00
         0.00000E+00
         0.00000E+00
         0.00000E+00
         0.00000E+00
         0.00000E+00
         0.00000E+00
         0.00000E+00
         0.00000E+00
         0.00000E+00
         0.00000E+00
         0.00000E+00
         0.00000E+00
         0.00000E+00
         0.00000E+00
         0.00000E+00
         0.00000E+00
         0.00000E+00
         0.00000E+00
         0.00000E+00
         0.00000E+00
         0.00000E+00
         0.00000E+00
         0.00000E+00
         0.00000E+00
         0.00000E+00
         0.00000E+00
         0.00000E+00
         0.00000E+00
         0.00000E+00
         0.00000E+00
         0.00000E+00
         0.00000E+00
         0.00000E+00
         0.00000E+00
         0.00000E+00
         0.00000E+00
         0.00000E+00
         0.00000E+00
         0.00000E+00
         0.00000E+00
         0.00000E+00
         0.00000E+00
         0.00000E+00
         0.00000E+00
         0.00000E+00
         0.00000E+00
         0.00000E+00
         0.00000E+00
         0.00000E+00
         0.00000E+00
         0.00000E+00
         0.00000E+00
         0.00000E+00
         0.00000E+00
         0.00000E+00
         0.00000E+00
         0.00000E+00
         0.00000E+00
         0.00000E+00
         0.00000E+00
         0.00000E+00
         0.00000E+00
         0.00000E+00
         0.00000E+00
         0.00000E+00
         0.00000E+00
         0.00000E+00
         0.00000E+00
         0.00000E+00
         0.00000E+00
         0.00000E+00
         0.00000E+00
         0.00000E+00
         0.00000E+00
         0.00000E+00
         0.00000E+00
         0.00000E+00
         0.00000E+00
         0.00000E+00
         0.00000E+00
         0.00000E+00
         0.00000E+00
         0.00000E+00
         0.00000E+00
         0.00000E+00
         0.00000E+00
         0.00000E+00
         0.00000E+00
         0.00000E+00
         0.00000E+00
         0.00000E+00
         0.00000E+00
         0.00000E+00
         0.00000E+00
         0.00000E+00
         0.00000E+00
         0.00000E+00
         0.00000E+00
         0.00000E+00
         0.00000E+00
         0.00000E+00
         0.00000E+00
         0.00000E+00
         0.00000E+00
         0.00000E+00
         0.00000E+00
         0.00000E+00
         0.00000E+00
         0.00000E+00
         0.00000E+00
         0.00000E+00
         0.00000E+00
         0.00000E+00
         0.00000E+00
         0.00000E+00
         0.00000E+00
         0.00000E+00
         0.00000E+00
         0.00000E+00
         0.00000E+00
         0.00000E+00
         0.00000E+00
         0.00000E+00
         0.00000E+00
         0.00000E+00
         0.00000E+00
         0.00000E+00
         0.00000E+00
         0.00000E+00
         0.00000E+00
         0.00000E+00
         0.00000E+00
         0.00000E+00
         0.00000E+00
         0.00000E+00
         0.00000E+00
         0.00000E+00
         0.00000E+00
         0.00000E+00
         0.00000E+00
         0.00000E+00
         0.00000E+00
         0.00000E+00
         0.00000E+00
         0.00000E+00
         0.00000E+00
         0.00000E+00
         0.00000E+00
         0.00000E+00
         0.00000E+00
         0.00000E+00
         0.00000E+00
         0.00000E+00
         0.00000E+00
         0.00000E+00
         0.00000E+00
         0.00000E+00
         0.00000E+00
         0.00000E+00
         0.00000E+00
         0.00000E+00
         0.00000E+00
         0.00000E+00
         0.00000E+00
         0.00000E+00
         0.00000E+00
         0.00000E+00
         0.00000E+00
         0.00000E+00
         0.00000E+00
         0.00000E+00
         0.00000E+00
         0.00000E+00
         0.00000E+00
         0.00000E+00
         0.00000E+00
         0.00000E+00
         0.00000E+00
         0.00000E+00
         0.00000E+00
         0.00000E+00
         0.00000E+00
         0.00000E+00
         0.00000E+00
         0.00000E+00
         0.00000E+00
         0.00000E+00
         0.00000E+00
         0.00000E+00
         0.00000E+00
         0.00000E+00
         0.00000E+00
         0.00000E+00
         0.00000E+00
         0.00000E+00
         0.00000E+00
         0.00000E+00
         0.00000E+00
         0.00000E+00
         0.00000E+00
         0.00000E+00
         0.00000E+00
         0.00000E+00
         0.00000E+00
         0.00000E+00
         0.00000E+00
         0.00000E+00
         0.00000E+00
         0.00000E+00
         0.00000E+00
         0.00000E+00
         0.00000E+00
         0.00000E+00
         0.00000E+00
         0.00000E+00
         0.00000E+00
         0.00000E+00
         0.00000E+00
         0.00000E+00
         0.00000E+00
         0.00000E+00
         0.00000E+00
         0.00000E+00
         0.00000E+00
         0.00000E+00
         0.00000E+00
         0.00000E+00
         0.00000E+00
         0.00000E+00
         0.00000E+00
         0.00000E+00
         0.00000E+00
         0.00000E+00
         0.00000E+00
         0.00000E+00
         0.00000E+00
         0.00000E+00
         0.00000E+00
         0.00000E+00
         0.00000E+00
         0.00000E+00
         0.00000E+00
         0.00000E+00
         0.00000E+00
         0.00000E+00
         0.00000E+00
         0.00000E+00
         0.00000E+00
         0.00000E+00
         0.00000E+00
         0.00000E+00
         0.00000E+00
         0.00000E+00
         0.00000E+00
         0.00000E+00
         0.00000E+00
         0.00000E+00
         0.00000E+00
         0.00000E+00
         0.00000E+00
         0.00000E+00
         0.00000E+00
         0.00000E+00
         0.00000E+00
         0.00000E+00
         0.00000E+00
         0.00000E+00
         0.00000E+00
         0.00000E+00
         0.00000E+00
         0.00000E+00
         0.00000E+00
         0.00000E+00
         0.00000E+00
         0.00000E+00
         0.00000E+00
         0.00000E+00
         0.00000E+00
         0.00000E+00
         0.00000E+00
         0.00000E+00
         0.00000E+00
         0.00000E+00
         0.00000E+00
         0.00000E+00
         0.00000E+00
         0.00000E+00
         0.00000E+00
         0.00000E+00
         0.00000E+00
         0.00000E+00
         0.00000E+00
         0.00000E+00
         0.00000E+00
         0.00000E+00
         0.00000E+00
         0.00000E+00
         0.00000E+00
         0.00000E+00
         0.00000E+00
         0.00000E+00
         0.00000E+00
         0.00000E+00
         0.00000E+00
         0.00000E+00
         0.00000E+00
         0.00000E+00
         0.00000E+00
         0.00000E+00
         0.00000E+00
         0.00000E+00
         0.00000E+00
         0.00000E+00
         0.00000E+00
         0.00000E+00
         0.00000E+00
         0.00000E+00
         0.00000E+00
         0.00000E+00
         0.00000E+00
         0.00000E+00
         0.00000E+00
         0.00000E+00
         0.00000E+00
         0.00000E+00
         0.00000E+00
         0.00000E+00
         0.00000E+00
         0.00000E+00
         0.00000E+00
         0.00000E+00
         0.00000E+00
         0.00000E+00
         0.00000E+00
         0.00000E+00
         0.00000E+00
         0.00000E+00
         0.00000E+00
         0.00000E+00
         0.00000E+00
         0.00000E+00
         0.00000E+00
         0.00000E+00
         0.00000E+00
         0.00000E+00
         0.00000E+00
         0.00000E+00
         0.00000E+00
         0.00000E+00
         0.00000E+00
         0.00000E+00
         0.00000E+00
         0.00000E+00
         0.00000E+00
         0.00000E+00
         0.00000E+00
         0.00000E+00
         0.00000E+00
         0.00000E+00
         0.00000E+00
         0.00000E+00
         0.00000E+00
         0.00000E+00
         0.00000E+00
         0.00000E+00
         0.00000E+00
         0.00000E+00
         0.00000E+00
         0.00000E+00
         0.00000E+00
         0.00000E+00
         0.00000E+00
         0.00000E+00
         0.00000E+00
         0.00000E+00
         0.00000E+00
         0.00000E+00
         0.00000E+00
         0.00000E+00
         0.00000E+00
         0.00000E+00
         0.00000E+00
         0.00000E+00
         0.00000E+00
         0.00000E+00
         0.00000E+00
         0.00000E+00
         0.00000E+00
         0.00000E+00
         0.00000E+00
         0.00000E+00
         0.00000E+00
         0.00000E+00
         0.00000E+00
         0.00000E+00
         0.00000E+00
         0.00000E+00
         0.00000E+00
         0.00000E+00
         0.00000E+00
         0.00000E+00
         0.00000E+00
         0.00000E+00
         0.00000E+00
         0.00000E+00
         0.00000E+00
         0.00000E+00
         0.00000E+00
         0.00000E+00
         0.00000E+00
         0.00000E+00
         0.00000E+00
         0.00000E+00
         0.00000E+00
         0.00000E+00
         0.00000E+00
         0.00000E+00
         0.00000E+00
         0.00000E+00
         0.00000E+00
         0.00000E+00
         0.00000E+00
         0.00000E+00
         0.00000E+00
         0.00000E+00
         0.00000E+00
         0.00000E+00
         0.00000E+00
         0.00000E+00
         0.00000E+00
         0.00000E+00
         0.00000E+00
         0.00000E+00
         0.00000E+00
         0.00000E+00
         0.00000E+00
         0.00000E+00
         0.00000E+00
         0.00000E+00
         0.00000E+00
         0.00000E+00
         0.00000E+00
         0.00000E+00
         0.00000E+00
         0.00000E+00
         0.00000E+00
         0.00000E+00
         0.00000E+00
         0.00000E+00
         0.00000E+00
         0.00000E+00
         0.00000E+00
         0.00000E+00
         0.00000E+00
         0.00000E+00
         0.00000E+00
         0.00000E+00
         0.00000E+00
         0.00000E+00
         0.00000E+00
         0.00000E+00
         0.00000E+00
         0.00000E+00
         0.00000E+00
         0.00000E+00
         0.00000E+00
         0.00000E+00
         0.00000E+00
         0.00000E+00
         0.00000E+00
         0.00000E+00
         0.00000E+00
         0.00000E+00
         0.00000E+00
         0.00000E+00
         0.00000E+00
         0.00000E+00
         0.00000E+00
         0.00000E+00
         0.00000E+00
         0.00000E+00
         0.00000E+00
         0.00000E+00
         0.00000E+00
         0.00000E+00
         0.00000E+00
         0.00000E+00
         0.00000E+00
         0.00000E+00
         0.00000E+00
         0.00000E+00
         0.00000E+00
         0.00000E+00
         0.00000E+00
         0.00000E+00
         0.00000E+00
         0.00000E+00
         0.00000E+00
         0.00000E+00
         0.00000E+00
         0.00000E+00
         0.00000E+00
         0.00000E+00
         0.00000E+00
         0.00000E+00
         0.00000E+00
         0.00000E+00
         0.00000E+00
         0.00000E+00
         0.00000E+00
         0.00000E+00
         0.00000E+00
         0.00000E+00
         0.00000E+00
         0.00000E+00
         0.00000E+00
         0.00000E+00
         0.00000E+00
         0.00000E+00
         0.00000E+00
         0.00000E+00
         0.00000E+00
         0.00000E+00
         0.00000E+00
         0.00000E+00
         0.00000E+00
         0.00000E+00
         0.00000E+00
         0.00000E+00
         0.00000E+00
         0.00000E+00
         0.00000E+00
         0.00000E+00
         0.00000E+00
         0.00000E+00
         0.00000E+00
         0.00000E+00
         0.00000E+00
         0.00000E+00
         0.00000E+00
         0.00000E+00
         0.00000E+00
         0.00000E+00
         0.00000E+00
         0.00000E+00
         0.00000E+00
         0.00000E+00
         0.00000E+00
         0.00000E+00
         0.00000E+00
         0.00000E+00
         0.00000E+00
         0.00000E+00
         0.00000E+00
         0.00000E+00
         0.00000E+00
         0.00000E+00
         0.00000E+00
         0.00000E+00
         0.00000E+00
         0.00000E+00
         0.00000E+00
         0.00000E+00
         0.00000E+00
         0.00000E+00
         0.00000E+00
         0.00000E+00
         0.00000E+00
         0.00000E+00
         0.00000E+00
         0.00000E+00
         0.00000E+00
         0.00000E+00
         0.00000E+00
         0.00000E+00
         0.00000E+00
         0.00000E+00
         0.00000E+00
         0.00000E+00
         0.00000E+00
         0.00000E+00
         0.00000E+00
         0.00000E+00
         0.00000E+00
         0.00000E+00
         0.00000E+00
         0.00000E+00
         0.00000E+00
         0.00000E+00
         0.00000E+00
         0.00000E+00
         0.00000E+00
         0.00000E+00
         0.00000E+00
         0.00000E+00
         0.00000E+00
         0.00000E+00
         0.00000E+00
         0.00000E+00
         0.00000E+00
         0.00000E+00
         0.00000E+00
         0.00000E+00
         0.00000E+00
         0.00000E+00
         0.00000E+00
         0.00000E+00
         0.00000E+00
         0.00000E+00
         0.00000E+00
         0.00000E+00
         0.00000E+00
         0.00000E+00
         0.00000E+00
         0.00000E+00
         0.00000E+00
         0.00000E+00
         0.00000E+00
         0.00000E+00
         0.00000E+00
         0.00000E+00
         0.00000E+00
         0.00000E+00
         0.00000E+00
         0.00000E+00
         0.00000E+00
         0.00000E+00
         0.00000E+00
         0.00000E+00
         0.00000E+00
         0.00000E+00
         0.00000E+00
         0.00000E+00
         0.00000E+00
         0.00000E+00
         0.00000E+00
         0.00000E+00
         0.00000E+00
         0.00000E+00
         0.00000E+00
         0.00000E+00
         0.00000E+00
         0.00000E+00
         0.00000E+00
         0.00000E+00
         0.00000E+00
         0.00000E+00
         0.00000E+00
         0.00000E+00
         0.00000E+00
         0.00000E+00
         0.00000E+00
         0.00000E+00
         0.00000E+00
         0.00000E+00
         0.00000E+00
         0.00000E+00
         0.00000E+00
         0.00000E+00
         0.00000E+00
         0.00000E+00
         0.00000E+00
         0.00000E+00
         0.00000E+00
         0.00000E+00
         0.00000E+00
         0.00000E+00
         0.00000E+00
         0.00000E+00
         0.00000E+00
         0.00000E+00
         0.00000E+00
         0.00000E+00
         0.00000E+00
         0.00000E+00
         0.00000E+00
         0.00000E+00
         0.00000E+00
         0.00000E+00
         0.00000E+00
         0.00000E+00
         0.00000E+00
         0.00000E+00
         0.00000E+00
         0.00000E+00
         0.00000E+00
         0.00000E+00
         0.00000E+00
         0.00000E+00
         0.00000E+00
         0.00000E+00
         0.00000E+00
         0.00000E+00
         0.00000E+00
         0.00000E+00
         0.00000E+00
         0.00000E+00
         0.00000E+00
         0.00000E+00
         0.00000E+00
         0.00000E+00
         0.00000E+00
         0.00000E+00
         0.00000E+00
         0.00000E+00
         0.00000E+00
         0.00000E+00
         0.00000E+00
         0.00000E+00
         0.00000E+00
         0.00000E+00
         0.00000E+00
         0.00000E+00
         0.00000E+00
         0.00000E+00
         0.00000E+00
         0.00000E+00
         0.00000E+00
         0.00000E+00
         0.00000E+00
         0.00000E+00
         0.00000E+00
         0.00000E+00
         0.00000E+00
         0.00000E+00
         0.00000E+00
         0.00000E+00
         0.00000E+00
         0.00000E+00
         0.00000E+00
         0.00000E+00
         0.00000E+00
         0.00000E+00
         0.00000E+00
         0.00000E+00
         0.00000E+00
         0.00000E+00
         0.00000E+00
         0.00000E+00
         0.00000E+00
         0.00000E+00
         0.00000E+00
         0.00000E+00
         0.00000E+00
         0.00000E+00
         0.00000E+00
         0.00000E+00
         0.00000E+00
         0.00000E+00
         0.00000E+00
         0.00000E+00
         0.00000E+00
         0.00000E+00
         0.00000E+00
         0.00000E+00
         0.00000E+00
         0.00000E+00
         0.00000E+00
         0.00000E+00
         0.00000E+00
         0.00000E+00
         0.00000E+00
         0.00000E+00
         0.00000E+00
         0.00000E+00
         0.00000E+00
         0.00000E+00
         0.00000E+00
         0.00000E+00
         0.00000E+00
         0.00000E+00
         0.00000E+00
         0.00000E+00
         0.00000E+00
         0.00000E+00
         0.00000E+00
         0.00000E+00
         0.00000E+00
         0.00000E+00
         0.00000E+00
         0.00000E+00
         0.00000E+00
         0.00000E+00
         0.00000E+00
         0.00000E+00
         0.00000E+00
         0.00000E+00
         0.00000E+00
         0.00000E+00
         0.00000E+00
         0.00000E+00
         0.00000E+00
         0.00000E+00
         0.00000E+00
         0.00000E+00
         0.00000E+00
         0.00000E+00
         0.00000E+00
         0.00000E+00
         0.00000E+00
         0.00000E+00
         0.00000E+00
         0.00000E+00
         0.00000E+00
         0.00000E+00
         0.00000E+00
         0.00000E+00
         0.00000E+00
         0.00000E+00
         0.00000E+00
         0.00000E+00
         0.00000E+00
         0.00000E+00
         0.00000E+00
         0.00000E+00
         0.00000E+00
         0.00000E+00
         0.00000E+00
         0.00000E+00
         0.00000E+00
         0.00000E+00
         0.00000E+00
         0.00000E+00
         0.00000E+00
         0.00000E+00
         0.00000E+00
         0.00000E+00
         0.00000E+00
         0.00000E+00
         0.00000E+00
         0.00000E+00
         0.00000E+00
         0.00000E+00
         0.00000E+00
         0.00000E+00
         0.00000E+00
         0.00000E+00
         0.00000E+00
         0.00000E+00
         0.00000E+00
         0.00000E+00
         0.00000E+00
         0.00000E+00
         0.00000E+00
         0.00000E+00
         0.00000E+00
         0.00000E+00
         0.00000E+00
         0.00000E+00
         0.00000E+00
         0.00000E+00
         0.00000E+00
         0.00000E+00
         0.00000E+00
         0.00000E+00
         0.00000E+00
         0.00000E+00
         0.00000E+00
         0.00000E+00
         0.00000E+00
         0.00000E+00
         0.00000E+00
         0.00000E+00
         0.00000E+00
         0.00000E+00
         0.00000E+00
         0.00000E+00
         0.00000E+00
         0.00000E+00
         0.00000E+00
         0.00000E+00
         0.00000E+00
         0.00000E+00
         0.00000E+00
         0.00000E+00
         0.00000E+00
         0.00000E+00
         0.00000E+00
         0.00000E+00
         0.00000E+00
         0.00000E+00
         0.00000E+00
         0.00000E+00
         0.00000E+00
         0.00000E+00
         0.00000E+00
         0.00000E+00
         0.00000E+00
         0.00000E+00
         0.00000E+00
         0.00000E+00
         0.00000E+00
         0.00000E+00
         0.00000E+00
         0.00000E+00
         0.00000E+00
         0.00000E+00
         0.00000E+00
         0.00000E+00
         0.00000E+00
         0.00000E+00
         0.00000E+00
         0.00000E+00
         0.00000E+00
         0.00000E+00
         0.00000E+00
         0.00000E+00
         0.00000E+00
         0.00000E+00
         0.00000E+00
         0.00000E+00
         0.00000E+00
         0.00000E+00
         0.00000E+00
         0.00000E+00
         0.00000E+00
         0.00000E+00
         0.00000E+00
         0.00000E+00
         0.00000E+00
         0.00000E+00
         0.00000E+00
         0.00000E+00
         0.00000E+00
         0.00000E+00
         0.00000E+00
         0.00000E+00
         0.00000E+00
         0.00000E+00
         0.00000E+00
         0.00000E+00
         0.00000E+00
         0.00000E+00
         0.00000E+00
         0.00000E+00
         0.00000E+00
         0.00000E+00
         0.00000E+00
         0.00000E+00
         0.00000E+00
         0.00000E+00
         0.00000E+00
         0.00000E+00
         0.00000E+00
         0.00000E+00
         0.00000E+00
         0.00000E+00
         0.00000E+00
         0.00000E+00
         0.00000E+00
         0.00000E+00
         0.00000E+00
         0.00000E+00
         0.00000E+00
         0.00000E+00
         0.00000E+00
         0.00000E+00
         0.00000E+00
         0.00000E+00
         0.00000E+00
         0.00000E+00
         0.00000E+00
         0.00000E+00
         0.00000E+00
         0.00000E+00
         0.00000E+00
         0.00000E+00
         0.00000E+00
         0.00000E+00
         0.00000E+00
         0.00000E+00
         0.00000E+00
         0.00000E+00
         0.00000E+00
         0.00000E+00
         0.00000E+00
         0.00000E+00
         0.00000E+00
         0.00000E+00
         0.00000E+00
         0.00000E+00
         0.00000E+00
         0.00000E+00
         0.00000E+00
         0.00000E+00
         0.00000E+00
         0.00000E+00
         0.00000E+00
         0.00000E+00
         0.00000E+00
         0.00000E+00
         0.00000E+00
         0.00000E+00
         0.00000E+00
         0.00000E+00
         0.00000E+00
         0.00000E+00
         0.00000E+00
         0.00000E+00
         0.00000E+00
         0.00000E+00
         0.00000E+00
         0.00000E+00
         0.00000E+00
         0.00000E+00
         0.00000E+00
         0.00000E+00
         0.00000E+00
         0.00000E+00
         0.00000E+00
         0.00000E+00
         0.00000E+00
         0.00000E+00
         0.00000E+00
         0.00000E+00
         0.00000E+00
         0.00000E+00
         0.00000E+00
         0.00000E+00
         0.00000E+00
         0.00000E+00
         0.00000E+00
         0.00000E+00
         0.00000E+00
         0.00000E+00
         0.00000E+00
         0.00000E+00
         0.00000E+00
         0.00000E+00
         0.00000E+00
         0.00000E+00
         0.00000E+00
         0.00000E+00
         0.00000E+00
         0.00000E+00
         0.00000E+00
         0.00000E+00
         0.00000E+00
         0.00000E+00
         0.00000E+00
         0.00000E+00
         0.00000E+00
         0.00000E+00
         0.00000E+00
         0.00000E+00
         0.00000E+00
         0.00000E+00
         0.00000E+00
         0.00000E+00
         0.00000E+00
         0.00000E+00
         0.00000E+00
         0.00000E+00
         0.00000E+00
         0.00000E+00
         0.00000E+00
         0.00000E+00
         0.00000E+00
         0.00000E+00
         0.00000E+00
         0.00000E+00
         0.00000E+00
         0.00000E+00
         0.00000E+00
         0.00000E+00
         0.00000E+00
         0.00000E+00
         0.00000E+00
         0.00000E+00
         0.00000E+00
         0.00000E+00
         0.00000E+00
         0.00000E+00
         0.00000E+00
         0.00000E+00
         0.00000E+00
         0.00000E+00
         0.00000E+00
         0.00000E+00
         0.00000E+00
         0.00000E+00
         0.00000E+00
         0.00000E+00
         0.00000E+00
         0.00000E+00
         0.00000E+00
         0.00000E+00
         0.00000E+00
         0.00000E+00
         0.00000E+00
         0.00000E+00
         0.00000E+00
         0.00000E+00
         0.00000E+00
         0.00000E+00
         0.00000E+00
         0.00000E+00
         0.00000E+00
         0.00000E+00
         0.00000E+00
         0.00000E+00
         0.00000E+00
         0.00000E+00
         0.00000E+00
         0.00000E+00
         0.00000E+00
         0.00000E+00
         0.00000E+00
         0.00000E+00
         0.00000E+00
         0.00000E+00
         0.00000E+00
         0.00000E+00
         0.00000E+00
         0.00000E+00
         0.00000E+00
         0.00000E+00
         0.00000E+00
         0.00000E+00
         0.00000E+00
         0.00000E+00
         0.00000E+00
         0.00000E+00
         0.00000E+00
         0.00000E+00
         0.00000E+00
         0.00000E+00
         0.00000E+00
         0.00000E+00
         0.00000E+00
         0.00000E+00
         0.00000E+00
         0.00000E+00
         0.00000E+00
         0.00000E+00
         0.00000E+00
         0.00000E+00
         0.00000E+00
         0.00000E+00
         0.00000E+00
         0.00000E+00
         0.00000E+00
         0.00000E+00
         0.00000E+00
         0.00000E+00
         0.00000E+00
         0.00000E+00
         0.00000E+00
         0.00000E+00
         0.00000E+00
         0.00000E+00
         0.00000E+00
         0.00000E+00
         0.00000E+00
         0.00000E+00
         0.00000E+00
         0.00000E+00
         0.00000E+00
         0.00000E+00
         0.00000E+00
         0.00000E+00
         0.00000E+00
         0.00000E+00
         0.00000E+00
         0.00000E+00
         0.00000E+00
         0.00000E+00
         0.00000E+00
         0.00000E+00
         0.00000E+00
         0.00000E+00
         0.00000E+00
         0.00000E+00
         0.00000E+00
         0.00000E+00
         0.00000E+00
         0.00000E+00
         0.00000E+00
         0.00000E+00
         0.00000E+00
         0.00000E+00
         0.00000E+00
         0.00000E+00
         0.00000E+00
         0.00000E+00
         0.00000E+00
         0.00000E+00
         0.00000E+00
         0.00000E+00
         0.00000E+00
         0.00000E+00
         0.00000E+00
         0.00000E+00
         0.00000E+00
         0.00000E+00
         0.00000E+00
         0.00000E+00
         0.00000E+00
         0.00000E+00
         0.00000E+00
         0.00000E+00
         0.00000E+00
         0.00000E+00
         0.00000E+00
         0.00000E+00
         0.00000E+00
         0.00000E+00
         0.00000E+00
         0.00000E+00
         0.00000E+00
         0.00000E+00
         0.00000E+00
         0.00000E+00
         0.00000E+00
         0.00000E+00
         0.00000E+00
         0.00000E+00
         0.00000E+00
         0.00000E+00
         0.00000E+00
         0.00000E+00
         0.00000E+00
         0.00000E+00
         0.00000E+00
         0.00000E+00
         0.00000E+00
         0.00000E+00
         0.00000E+00
         0.00000E+00
         0.00000E+00
         0.00000E+00
         0.00000E+00
         0.00000E+00
         0.00000E+00
         0.00000E+00
         0.00000E+00
         0.00000E+00
         0.00000E+00
         0.00000E+00
         0.00000E+00
         0.00000E+00
         0.00000E+00
         0.00000E+00
         0.00000E+00
         0.00000E+00
         0.00000E+00
         0.00000E+00
         0.00000E+00
         0.00000E+00
         0.00000E+00
         0.00000E+00
         0.00000E+00
         0.00000E+00
         0.00000E+00
         0.00000E+00
         0.00000E+00
         0.00000E+00
         0.00000E+00
         0.00000E+00
         0.00000E+00
         0.00000E+00
         0.00000E+00
         0.00000E+00
         0.00000E+00
         0.00000E+00
         0.00000E+00
         0.00000E+00
         0.00000E+00
         0.00000E+00
         0.00000E+00
         0.00000E+00
         0.00000E+00
         0.00000E+00
         0.00000E+00
         0.00000E+00
         0.00000E+00
         0.00000E+00
         0.00000E+00
         0.00000E+00
         0.00000E+00
         0.00000E+00
         0.00000E+00
         0.00000E+00
         0.00000E+00
         0.00000E+00
         0.00000E+00
         0.00000E+00
         0.00000E+00
         0.00000E+00
         0.00000E+00
         0.00000E+00
         0.00000E+00
         0.00000E+00
         0.00000E+00
         0.00000E+00
         0.00000E+00
         0.00000E+00
         0.00000E+00
         0.00000E+00
         0.00000E+00
         0.00000E+00
         0.00000E+00
         0.00000E+00
         0.00000E+00
         0.00000E+00
         0.00000E+00
         0.00000E+00
         0.00000E+00
         0.00000E+00
         0.00000E+00
         0.00000E+00
         0.00000E+00
         0.00000E+00
         0.00000E+00
         0.00000E+00
         0.00000E+00
         0.00000E+00
         0.00000E+00
         0.00000E+00
         0.00000E+00
         0.00000E+00
         0.00000E+00
         0.00000E+00
         0.00000E+00
         0.00000E+00
         0.00000E+00
         0.00000E+00
         0.00000E+00
         0.00000E+00
         0.00000E+00
         0.00000E+00
         0.00000E+00
         0.00000E+00
         0.00000E+00
         0.00000E+00
         0.00000E+00
         0.00000E+00
         0.00000E+00
         0.00000E+00
         0.00000E+00
         0.00000E+00
         0.00000E+00
         0.00000E+00
         0.00000E+00
         0.00000E+00
         0.00000E+00
         0.00000E+00
         0.00000E+00
         0.00000E+00
         0.00000E+00
         0.00000E+00
         0.00000E+00
         0.00000E+00
         0.00000E+00
         0.00000E+00
         0.00000E+00
         0.00000E+00
         0.00000E+00
         0.00000E+00
         0.00000E+00
         0.00000E+00
         0.00000E+00
         0.00000E+00
         0.00000E+00
         0.00000E+00
         0.00000E+00
         0.00000E+00
         0.00000E+00
         0.00000E+00
         0.00000E+00
         0.00000E+00
         0.00000E+00
         0.00000E+00
         0.00000E+00
         0.00000E+00
         0.00000E+00
         0.00000E+00
         0.00000E+00
         0.00000E+00
         0.00000E+00
         0.00000E+00
         0.00000E+00
         0.00000E+00
         0.00000E+00
         0.00000E+00
         0.00000E+00
         0.00000E+00
         0.00000E+00
         0.00000E+00
         0.00000E+00
         0.00000E+00
         0.00000E+00
         0.00000E+00
         0.00000E+00
         0.00000E+00
         0.00000E+00
         0.00000E+00
         0.00000E+00
         0.00000E+00
         0.00000E+00
         0.00000E+00
         0.00000E+00
         0.00000E+00
         0.00000E+00
         0.00000E+00
         0.00000E+00
         0.00000E+00
         0.00000E+00
         0.00000E+00
         0.00000E+00
         0.00000E+00
         0.00000E+00
         0.00000E+00
         0.00000E+00
         0.00000E+00
         0.00000E+00
         0.00000E+00
         0.00000E+00
         0.00000E+00
         0.00000E+00
         0.00000E+00
         0.00000E+00
         0.00000E+00
         0.00000E+00
         0.00000E+00
         0.00000E+00
         0.00000E+00
         0.00000E+00
         0.00000E+00
         0.00000E+00
         0.00000E+00
         0.00000E+00
         0.00000E+00
         0.00000E+00
         0.00000E+00
         0.00000E+00
         0.00000E+00
         0.00000E+00
         0.00000E+00
         0.00000E+00
         0.00000E+00
         0.00000E+00
         0.00000E+00
         0.00000E+00
         0.00000E+00
         0.00000E+00
         0.00000E+00
         0.00000E+00
         0.00000E+00
         0.00000E+00
         0.00000E+00
         0.00000E+00
         0.00000E+00
         0.00000E+00
         0.00000E+00
         0.00000E+00
         0.00000E+00
         0.00000E+00
         0.00000E+00
         0.00000E+00
         0.00000E+00
         0.00000E+00
         0.00000E+00
         0.00000E+00
         0.00000E+00
         0.00000E+00
         0.00000E+00
         0.00000E+00
         0.00000E+00
         0.00000E+00
         0.00000E+00
         0.00000E+00
         0.00000E+00
         0.00000E+00
         0.00000E+00
         0.00000E+00
         0.00000E+00
         0.00000E+00
         0.00000E+00
         0.00000E+00
         0.00000E+00
         0.00000E+00
         0.00000E+00
         0.00000E+00
         0.00000E+00
         0.00000E+00
         0.00000E+00
         0.00000E+00
         0.00000E+00
         0.00000E+00
         0.00000E+00
         0.00000E+00
         0.00000E+00
         0.00000E+00
         0.00000E+00
         0.00000E+00
         0.00000E+00
         0.00000E+00
         0.00000E+00
         0.00000E+00
         0.00000E+00
         0.00000E+00
         0.00000E+00
         0.00000E+00
         0.00000E+00
         0.00000E+00
         0.00000E+00
         0.00000E+00
         0.00000E+00
         0.00000E+00
         0.00000E+00
         0.00000E+00
         0.00000E+00
         0.00000E+00
         0.00000E+00
         0.00000E+00
         0.00000E+00
         0.00000E+00
         0.00000E+00
         0.00000E+00
         0.00000E+00
         0.00000E+00
         0.00000E+00
         0.00000E+00
         0.00000E+00
         0.00000E+00
         0.00000E+00
         0.00000E+00
         0.00000E+00
         0.00000E+00
         0.00000E+00
         0.00000E+00
         0.00000E+00
         0.00000E+00
         0.00000E+00
         0.00000E+00
         0.00000E+00
         0.00000E+00
         0.00000E+00
         0.00000E+00
         0.00000E+00
         0.00000E+00
         0.00000E+00
         0.00000E+00
         0.00000E+00
         0.00000E+00
         0.00000E+00
         0.00000E+00
         0.00000E+00
         0.00000E+00
         0.00000E+00
         0.00000E+00
         0.00000E+00
         0.00000E+00
         0.00000E+00
         0.00000E+00
         0.00000E+00
         0.00000E+00
         0.00000E+00
         0.00000E+00
         0.00000E+00
         0.00000E+00
         0.00000E+00
         0.00000E+00
         0.00000E+00
         0.00000E+00
         0.00000E+00
         0.00000E+00
         0.00000E+00
         0.00000E+00
         0.00000E+00
         0.00000E+00
         0.00000E+00
         0.00000E+00
         0.00000E+00
         0.00000E+00
         0.00000E+00
         0.00000E+00
         0.00000E+00
         0.00000E+00
         0.00000E+00
         0.00000E+00
         0.00000E+00
         0.00000E+00
         0.00000E+00
         0.00000E+00
         0.00000E+00
         0.00000E+00
         0.00000E+00
         0.00000E+00
         0.00000E+00
         0.00000E+00
         0.00000E+00
         0.00000E+00
         0.00000E+00
         0.00000E+00
         0.00000E+00
         0.00000E+00
         0.00000E+00
         0.00000E+00
         0.00000E+00
         0.00000E+00
         0.00000E+00
         0.00000E+00
         0.00000E+00
         0.00000E+00
         0.00000E+00
         0.00000E+00
         0.00000E+00
         0.00000E+00
         0.00000E+00
         0.00000E+00
         0.00000E+00
         0.00000E+00
         0.00000E+00
         0.00000E+00
         0.00000E+00
         0.00000E+00
         0.00000E+00
         0.00000E+00
         0.00000E+00
         0.00000E+00
         0.00000E+00
         0.00000E+00
         0.00000E+00
         0.00000E+00
         0.00000E+00
         0.00000E+00
         0.00000E+00
         0.00000E+00
         0.00000E+00
         0.00000E+00
         0.00000E+00
         0.00000E+00
         0.00000E+00
         0.00000E+00
         0.00000E+00
         0.00000E+00
         0.00000E+00
         0.00000E+00
         0.00000E+00
         0.00000E+00
         0.00000E+00
         0.00000E+00
         0.00000E+00
         0.00000E+00
         0.00000E+00
         0.00000E+00
         0.00000E+00
         0.00000E+00
         0.00000E+00
         0.00000E+00
         0.00000E+00
         0.00000E+00
         0.00000E+00
         0.00000E+00
         0.00000E+00
         0.00000E+00
         0.00000E+00
         0.00000E+00
         0.00000E+00
         0.00000E+00
         0.00000E+00
         0.00000E+00
         0.00000E+00
         0.00000E+00
         0.00000E+00
         0.00000E+00
         0.00000E+00
         0.00000E+00
         0.00000E+00
         0.00000E+00
         0.00000E+00
         0.00000E+00
         0.00000E+00
         0.00000E+00
         0.00000E+00
         0.00000E+00
         0.00000E+00
         0.00000E+00
         0.00000E+00
         0.00000E+00
         0.00000E+00
         0.00000E+00
         0.00000E+00
         0.00000E+00
         0.00000E+00
         0.00000E+00
         0.00000E+00
         0.00000E+00
         0.00000E+00
         0.00000E+00
         0.00000E+00
         0.00000E+00
         0.00000E+00
         0.00000E+00
         0.00000E+00
         0.00000E+00
         0.00000E+00
         0.00000E+00
         0.00000E+00
         0.00000E+00
         0.00000E+00
         0.00000E+00
         0.00000E+00
         0.00000E+00
         0.00000E+00
         0.00000E+00
         0.00000E+00
         0.00000E+00
         0.00000E+00
         0.00000E+00
         0.00000E+00
         0.00000E+00
         0.00000E+00
         0.00000E+00
         0.00000E+00
         0.00000E+00
         0.00000E+00
         0.00000E+00
         0.00000E+00
         0.00000E+00
         0.00000E+00
         0.00000E+00
         0.00000E+00
         0.00000E+00
         0.00000E+00
         0.00000E+00
         0.00000E+00
         0.00000E+00
         0.00000E+00
         0.00000E+00
         0.00000E+00
         0.00000E+00
         0.00000E+00
         0.00000E+00
         0.00000E+00
         0.00000E+00
         0.00000E+00
         0.00000E+00
         0.00000E+00
         0.00000E+00
         0.00000E+00
         0.00000E+00
         0.00000E+00
         0.00000E+00
         0.00000E+00
         0.00000E+00
         0.00000E+00
         0.00000E+00
         0.00000E+00
         0.00000E+00
         0.00000E+00
         0.00000E+00
         0.00000E+00
         0.00000E+00
         0.00000E+00
         0.00000E+00
         0.00000E+00
         0.00000E+00
         0.00000E+00
         0.00000E+00
         0.00000E+00
         0.00000E+00
         0.00000E+00
         0.00000E+00
         0.00000E+00
         0.00000E+00
         0.00000E+00
         0.00000E+00
         0.00000E+00
  
SCALARS                init_velocity_y  double 1
LOOKUP_TABLE default
         0.00000E+00
         0.00000E+00
         0.00000E+00
         0.00000E+00
         0.00000E+00
         0.00000E+00
         0.00000E+00
         0.00000E+00
         0.00000E+00
         0.00000E+00
         0.00000E+00
         0.00000E+00
         0.00000E+00
         0.00000E+00
         0.00000E+00
         0.00000E+00
         0.00000E+00
         0.00000E+00
         0.00000E+00
         0.00000E+00
         0.00000E+00
         0.00000E+00
         0.00000E+00
         0.00000E+00
         0.00000E+00
         0.00000E+00
         0.00000E+00
         0.00000E+00
         0.00000E+00
         0.00000E+00
         0.00000E+00
         0.00000E+00
         0.00000E+00
         0.00000E+00
         0.00000E+00
         0.00000E+00
         0.00000E+00
         0.00000E+00
         0.00000E+00
         0.00000E+00
         0.00000E+00
         0.00000E+00
         0.00000E+00
         0.00000E+00
         0.00000E+00
         0.00000E+00
         0.00000E+00
         0.00000E+00
         0.00000E+00
         0.00000E+00
         0.00000E+00
         0.00000E+00
         0.00000E+00
         0.00000E+00
         0.00000E+00
         0.00000E+00
         0.00000E+00
         0.00000E+00
         0.00000E+00
         0.00000E+00
         0.00000E+00
         0.00000E+00
         0.00000E+00
         0.00000E+00
         0.00000E+00
         0.00000E+00
         0.00000E+00
         0.00000E+00
         0.00000E+00
         0.00000E+00
         0.00000E+00
         0.00000E+00
         0.00000E+00
         0.00000E+00
         0.00000E+00
         0.00000E+00
         0.00000E+00
         0.00000E+00
         0.00000E+00
         0.00000E+00
         0.00000E+00
         0.00000E+00
         0.00000E+00
         0.00000E+00
         0.00000E+00
         0.00000E+00
         0.00000E+00
         0.00000E+00
         0.00000E+00
         0.00000E+00
         0.00000E+00
         0.00000E+00
         0.00000E+00
         0.00000E+00
         0.00000E+00
         0.00000E+00
         0.00000E+00
         0.00000E+00
         0.00000E+00
         0.00000E+00
         0.00000E+00
         0.00000E+00
         0.00000E+00
         0.00000E+00
         0.00000E+00
         0.00000E+00
         0.00000E+00
         0.00000E+00
         0.00000E+00
         0.00000E+00
         0.00000E+00
         0.00000E+00
         0.00000E+00
         0.00000E+00
         0.00000E+00
         0.00000E+00
         0.00000E+00
         0.00000E+00
         0.00000E+00
         0.00000E+00
         0.00000E+00
         0.00000E+00
         0.00000E+00
         0.00000E+00
         0.00000E+00
         0.00000E+00
         0.00000E+00
         0.00000E+00
         0.00000E+00
         0.00000E+00
         0.00000E+00
         0.00000E+00
         0.00000E+00
         0.00000E+00
         0.00000E+00
         0.00000E+00
         0.00000E+00
         0.00000E+00
         0.00000E+00
         0.00000E+00
         0.00000E+00
         0.00000E+00
         0.00000E+00
         0.00000E+00
         0.00000E+00
         0.00000E+00
         0.00000E+00
         0.00000E+00
         0.00000E+00
         0.00000E+00
         0.00000E+00
         0.00000E+00
         0.00000E+00
         0.00000E+00
         0.00000E+00
         0.00000E+00
         0.00000E+00
         0.00000E+00
         0.00000E+00
         0.00000E+00
         0.00000E+00
         0.00000E+00
         0.00000E+00
         0.00000E+00
         0.00000E+00
         0.00000E+00
         0.00000E+00
         0.00000E+00
         0.00000E+00
         0.00000E+00
         0.00000E+00
         0.00000E+00
         0.00000E+00
         0.00000E+00
         0.00000E+00
         0.00000E+00
         0.00000E+00
         0.00000E+00
         0.00000E+00
         0.00000E+00
         0.00000E+00
         0.00000E+00
         0.00000E+00
         0.00000E+00
         0.00000E+00
         0.00000E+00
         0.00000E+00
         0.00000E+00
         0.00000E+00
         0.00000E+00
         0.00000E+00
         0.00000E+00
         0.00000E+00
         0.00000E+00
         0.00000E+00
         0.00000E+00
         0.00000E+00
         0.00000E+00
         0.00000E+00
         0.00000E+00
         0.00000E+00
         0.00000E+00
         0.00000E+00
         0.00000E+00
         0.00000E+00
         0.00000E+00
         0.00000E+00
         0.00000E+00
         0.00000E+00
         0.00000E+00
         0.00000E+00
         0.00000E+00
         0.00000E+00
         0.00000E+00
         0.00000E+00
         0.00000E+00
         0.00000E+00
         0.00000E+00
         0.00000E+00
         0.00000E+00
         0.00000E+00
         0.00000E+00
         0.00000E+00
         0.00000E+00
         0.00000E+00
         0.00000E+00
         0.00000E+00
         0.00000E+00
         0.00000E+00
         0.00000E+00
         0.00000E+00
         0.00000E+00
         0.00000E+00
         0.00000E+00
         0.00000E+00
         0.00000E+00
         0.00000E+00
         0.00000E+00
         0.00000E+00
         0.00000E+00
         0.00000E+00
         0.00000E+00
         0.00000E+00
         0.00000E+00
         0.00000E+00
         0.00000E+00
         0.00000E+00
         0.00000E+00
         0.00000E+00
         0.00000E+00
         0.00000E+00
         0.00000E+00
         0.00000E+00
         0.00000E+00
         0.00000E+00
         0.00000E+00
         0.00000E+00
         0.00000E+00
         0.00000E+00
         0.00000E+00
         0.00000E+00
         0.00000E+00
         0.00000E+00
         0.00000E+00
         0.00000E+00
         0.00000E+00
         0.00000E+00
         0.00000E+00
         0.00000E+00
         0.00000E+00
         0.00000E+00
         0.00000E+00
         0.00000E+00
         0.00000E+00
         0.00000E+00
         0.00000E+00
         0.00000E+00
         0.00000E+00
         0.00000E+00
         0.00000E+00
         0.00000E+00
         0.00000E+00
         0.00000E+00
         0.00000E+00
         0.00000E+00
         0.00000E+00
         0.00000E+00
         0.00000E+00
         0.00000E+00
         0.00000E+00
         0.00000E+00
         0.00000E+00
         0.00000E+00
         0.00000E+00
         0.00000E+00
         0.00000E+00
         0.00000E+00
         0.00000E+00
         0.00000E+00
         0.00000E+00
         0.00000E+00
         0.00000E+00
         0.00000E+00
         0.00000E+00
         0.00000E+00
         0.00000E+00
         0.00000E+00
         0.00000E+00
         0.00000E+00
         0.00000E+00
         0.00000E+00
         0.00000E+00
         0.00000E+00
         0.00000E+00
         0.00000E+00
         0.00000E+00
         0.00000E+00
         0.00000E+00
         0.00000E+00
         0.00000E+00
         0.00000E+00
         0.00000E+00
         0.00000E+00
         0.00000E+00
         0.00000E+00
         0.00000E+00
         0.00000E+00
         0.00000E+00
         0.00000E+00
         0.00000E+00
         0.00000E+00
         0.00000E+00
         0.00000E+00
         0.00000E+00
         0.00000E+00
         0.00000E+00
         0.00000E+00
         0.00000E+00
         0.00000E+00
         0.00000E+00
         0.00000E+00
         0.00000E+00
         0.00000E+00
         0.00000E+00
         0.00000E+00
         0.00000E+00
         0.00000E+00
         0.00000E+00
         0.00000E+00
         0.00000E+00
         0.00000E+00
         0.00000E+00
         0.00000E+00
         0.00000E+00
         0.00000E+00
         0.00000E+00
         0.00000E+00
         0.00000E+00
         0.00000E+00
         0.00000E+00
         0.00000E+00
         0.00000E+00
         0.00000E+00
         0.00000E+00
         0.00000E+00
         0.00000E+00
         0.00000E+00
         0.00000E+00
         0.00000E+00
         0.00000E+00
         0.00000E+00
         0.00000E+00
         0.00000E+00
         0.00000E+00
         0.00000E+00
         0.00000E+00
         0.00000E+00
         0.00000E+00
         0.00000E+00
         0.00000E+00
         0.00000E+00
         0.00000E+00
         0.00000E+00
         0.00000E+00
         0.00000E+00
         0.00000E+00
         0.00000E+00
         0.00000E+00
         0.00000E+00
         0.00000E+00
         0.00000E+00
         0.00000E+00
         0.00000E+00
         0.00000E+00
         0.00000E+00
         0.00000E+00
         0.00000E+00
         0.00000E+00
         0.00000E+00
         0.00000E+00
         0.00000E+00
         0.00000E+00
         0.00000E+00
         0.00000E+00
         0.00000E+00
         0.00000E+00
         0.00000E+00
         0.00000E+00
         0.00000E+00
         0.00000E+00
         0.00000E+00
         0.00000E+00
         0.00000E+00
         0.00000E+00
         0.00000E+00
         0.00000E+00
         0.00000E+00
         0.00000E+00
         0.00000E+00
         0.00000E+00
         0.00000E+00
         0.00000E+00
         0.00000E+00
         0.00000E+00
         0.00000E+00
         0.00000E+00
         0.00000E+00
         0.00000E+00
         0.00000E+00
         0.00000E+00
         0.00000E+00
         0.00000E+00
         0.00000E+00
         0.00000E+00
         0.00000E+00
         0.00000E+00
         0.00000E+00
         0.00000E+00
         0.00000E+00
         0.00000E+00
         0.00000E+00
         0.00000E+00
         0.00000E+00
         0.00000E+00
         0.00000E+00
         0.00000E+00
         0.00000E+00
         0.00000E+00
         0.00000E+00
         0.00000E+00
         0.00000E+00
         0.00000E+00
         0.00000E+00
         0.00000E+00
         0.00000E+00
         0.00000E+00
         0.00000E+00
         0.00000E+00
         0.00000E+00
         0.00000E+00
         0.00000E+00
         0.00000E+00
         0.00000E+00
         0.00000E+00
         0.00000E+00
         0.00000E+00
         0.00000E+00
         0.00000E+00
         0.00000E+00
         0.00000E+00
         0.00000E+00
         0.00000E+00
         0.00000E+00
         0.00000E+00
         0.00000E+00
         0.00000E+00
         0.00000E+00
         0.00000E+00
         0.00000E+00
         0.00000E+00
         0.00000E+00
         0.00000E+00
         0.00000E+00
         0.00000E+00
         0.00000E+00
         0.00000E+00
         0.00000E+00
         0.00000E+00
         0.00000E+00
         0.00000E+00
         0.00000E+00
         0.00000E+00
         0.00000E+00
         0.00000E+00
         0.00000E+00
         0.00000E+00
         0.00000E+00
         0.00000E+00
         0.00000E+00
         0.00000E+00
         0.00000E+00
         0.00000E+00
         0.00000E+00
         0.00000E+00
         0.00000E+00
         0.00000E+00
         0.00000E+00
         0.00000E+00
         0.00000E+00
         0.00000E+00
         0.00000E+00
         0.00000E+00
         0.00000E+00
         0.00000E+00
         0.00000E+00
         0.00000E+00
         0.00000E+00
         0.00000E+00
         0.00000E+00
         0.00000E+00
         0.00000E+00
         0.00000E+00
         0.00000E+00
         0.00000E+00
         0.00000E+00
         0.00000E+00
         0.00000E+00
         0.00000E+00
         0.00000E+00
         0.00000E+00
         0.00000E+00
         0.00000E+00
         0.00000E+00
         0.00000E+00
         0.00000E+00
         0.00000E+00
         0.00000E+00
         0.00000E+00
         0.00000E+00
         0.00000E+00
         0.00000E+00
         0.00000E+00
         0.00000E+00
         0.00000E+00
         0.00000E+00
         0.00000E+00
         0.00000E+00
         0.00000E+00
         0.00000E+00
         0.00000E+00
         0.00000E+00
         0.00000E+00
         0.00000E+00
         0.00000E+00
         0.00000E+00
         0.00000E+00
         0.00000E+00
         0.00000E+00
         0.00000E+00
         0.00000E+00
         0.00000E+00
         0.00000E+00
         0.00000E+00
         0.00000E+00
         0.00000E+00
         0.00000E+00
         0.00000E+00
         0.00000E+00
         0.00000E+00
         0.00000E+00
         0.00000E+00
         0.00000E+00
         0.00000E+00
         0.00000E+00
         0.00000E+00
         0.00000E+00
         0.00000E+00
         0.00000E+00
         0.00000E+00
         0.00000E+00
         0.00000E+00
         0.00000E+00
         0.00000E+00
         0.00000E+00
         0.00000E+00
         0.00000E+00
         0.00000E+00
         0.00000E+00
         0.00000E+00
         0.00000E+00
         0.00000E+00
         0.00000E+00
         0.00000E+00
         0.00000E+00
         0.00000E+00
         0.00000E+00
         0.00000E+00
         0.00000E+00
         0.00000E+00
         0.00000E+00
         0.00000E+00
         0.00000E+00
         0.00000E+00
         0.00000E+00
         0.00000E+00
         0.00000E+00
         0.00000E+00
         0.00000E+00
         0.00000E+00
         0.00000E+00
         0.00000E+00
         0.00000E+00
         0.00000E+00
         0.00000E+00
         0.00000E+00
         0.00000E+00
         0.00000E+00
         0.00000E+00
         0.00000E+00
         0.00000E+00
         0.00000E+00
         0.00000E+00
         0.00000E+00
         0.00000E+00
         0.00000E+00
         0.00000E+00
         0.00000E+00
         0.00000E+00
         0.00000E+00
         0.00000E+00
         0.00000E+00
         0.00000E+00
         0.00000E+00
         0.00000E+00
         0.00000E+00
         0.00000E+00
         0.00000E+00
         0.00000E+00
         0.00000E+00
         0.00000E+00
         0.00000E+00
         0.00000E+00
         0.00000E+00
         0.00000E+00
         0.00000E+00
         0.00000E+00
         0.00000E+00
         0.00000E+00
         0.00000E+00
         0.00000E+00
         0.00000E+00
         0.00000E+00
         0.00000E+00
         0.00000E+00
         0.00000E+00
         0.00000E+00
         0.00000E+00
         0.00000E+00
         0.00000E+00
         0.00000E+00
         0.00000E+00
         0.00000E+00
         0.00000E+00
         0.00000E+00
         0.00000E+00
         0.00000E+00
         0.00000E+00
         0.00000E+00
         0.00000E+00
         0.00000E+00
         0.00000E+00
         0.00000E+00
         0.00000E+00
         0.00000E+00
         0.00000E+00
         0.00000E+00
         0.00000E+00
         0.00000E+00
         0.00000E+00
         0.00000E+00
         0.00000E+00
         0.00000E+00
         0.00000E+00
         0.00000E+00
         0.00000E+00
         0.00000E+00
         0.00000E+00
         0.00000E+00
         0.00000E+00
         0.00000E+00
         0.00000E+00
         0.00000E+00
         0.00000E+00
         0.00000E+00
         0.00000E+00
         0.00000E+00
         0.00000E+00
         0.00000E+00
         0.00000E+00
         0.00000E+00
         0.00000E+00
         0.00000E+00
         0.00000E+00
         0.00000E+00
         0.00000E+00
         0.00000E+00
         0.00000E+00
         0.00000E+00
         0.00000E+00
         0.00000E+00
         0.00000E+00
         0.00000E+00
         0.00000E+00
         0.00000E+00
         0.00000E+00
         0.00000E+00
         0.00000E+00
         0.00000E+00
         0.00000E+00
         0.00000E+00
         0.00000E+00
         0.00000E+00
         0.00000E+00
         0.00000E+00
         0.00000E+00
         0.00000E+00
         0.00000E+00
         0.00000E+00
         0.00000E+00
         0.00000E+00
         0.00000E+00
         0.00000E+00
         0.00000E+00
         0.00000E+00
         0.00000E+00
         0.00000E+00
         0.00000E+00
         0.00000E+00
         0.00000E+00
         0.00000E+00
         0.00000E+00
         0.00000E+00
         0.00000E+00
         0.00000E+00
         0.00000E+00
         0.00000E+00
         0.00000E+00
         0.00000E+00
         0.00000E+00
         0.00000E+00
         0.00000E+00
         0.00000E+00
         0.00000E+00
         0.00000E+00
         0.00000E+00
         0.00000E+00
         0.00000E+00
         0.00000E+00
         0.00000E+00
         0.00000E+00
         0.00000E+00
         0.00000E+00
         0.00000E+00
         0.00000E+00
         0.00000E+00
         0.00000E+00
         0.00000E+00
         0.00000E+00
         0.00000E+00
         0.00000E+00
         0.00000E+00
         0.00000E+00
         0.00000E+00
         0.00000E+00
         0.00000E+00
         0.00000E+00
         0.00000E+00
         0.00000E+00
         0.00000E+00
         0.00000E+00
         0.00000E+00
         0.00000E+00
         0.00000E+00
         0.00000E+00
         0.00000E+00
         0.00000E+00
         0.00000E+00
         0.00000E+00
         0.00000E+00
         0.00000E+00
         0.00000E+00
         0.00000E+00
         0.00000E+00
         0.00000E+00
         0.00000E+00
         0.00000E+00
         0.00000E+00
         0.00000E+00
         0.00000E+00
         0.00000E+00
         0.00000E+00
         0.00000E+00
         0.00000E+00
         0.00000E+00
         0.00000E+00
         0.00000E+00
         0.00000E+00
         0.00000E+00
         0.00000E+00
         0.00000E+00
         0.00000E+00
         0.00000E+00
         0.00000E+00
         0.00000E+00
         0.00000E+00
         0.00000E+00
         0.00000E+00
         0.00000E+00
         0.00000E+00
         0.00000E+00
         0.00000E+00
         0.00000E+00
         0.00000E+00
         0.00000E+00
         0.00000E+00
         0.00000E+00
         0.00000E+00
         0.00000E+00
         0.00000E+00
         0.00000E+00
         0.00000E+00
         0.00000E+00
         0.00000E+00
         0.00000E+00
         0.00000E+00
         0.00000E+00
         0.00000E+00
         0.00000E+00
         0.00000E+00
         0.00000E+00
         0.00000E+00
         0.00000E+00
         0.00000E+00
         0.00000E+00
         0.00000E+00
         0.00000E+00
         0.00000E+00
         0.00000E+00
         0.00000E+00
         0.00000E+00
         0.00000E+00
         0.00000E+00
         0.00000E+00
         0.00000E+00
         0.00000E+00
         0.00000E+00
         0.00000E+00
         0.00000E+00
         0.00000E+00
         0.00000E+00
         0.00000E+00
         0.00000E+00
         0.00000E+00
         0.00000E+00
         0.00000E+00
         0.00000E+00
         0.00000E+00
         0.00000E+00
         0.00000E+00
         0.00000E+00
         0.00000E+00
         0.00000E+00
         0.00000E+00
         0.00000E+00
         0.00000E+00
         0.00000E+00
         0.00000E+00
         0.00000E+00
         0.00000E+00
         0.00000E+00
         0.00000E+00
         0.00000E+00
         0.00000E+00
         0.00000E+00
         0.00000E+00
         0.00000E+00
         0.00000E+00
         0.00000E+00
         0.00000E+00
         0.00000E+00
         0.00000E+00
         0.00000E+00
         0.00000E+00
         0.00000E+00
         0.00000E+00
         0.00000E+00
         0.00000E+00
         0.00000E+00
         0.00000E+00
         0.00000E+00
         0.00000E+00
         0.00000E+00
         0.00000E+00
         0.00000E+00
         0.00000E+00
         0.00000E+00
         0.00000E+00
         0.00000E+00
         0.00000E+00
         0.00000E+00
         0.00000E+00
         0.00000E+00
         0.00000E+00
         0.00000E+00
         0.00000E+00
         0.00000E+00
         0.00000E+00
         0.00000E+00
         0.00000E+00
         0.00000E+00
         0.00000E+00
         0.00000E+00
         0.00000E+00
         0.00000E+00
         0.00000E+00
         0.00000E+00
         0.00000E+00
         0.00000E+00
         0.00000E+00
         0.00000E+00
         0.00000E+00
         0.00000E+00
         0.00000E+00
         0.00000E+00
         0.00000E+00
         0.00000E+00
         0.00000E+00
         0.00000E+00
         0.00000E+00
         0.00000E+00
         0.00000E+00
         0.00000E+00
         0.00000E+00
         0.00000E+00
         0.00000E+00
         0.00000E+00
         0.00000E+00
         0.00000E+00
         0.00000E+00
         0.00000E+00
         0.00000E+00
         0.00000E+00
         0.00000E+00
         0.00000E+00
         0.00000E+00
         0.00000E+00
         0.00000E+00
         0.00000E+00
         0.00000E+00
         0.00000E+00
         0.00000E+00
         0.00000E+00
         0.00000E+00
         0.00000E+00
         0.00000E+00
         0.00000E+00
         0.00000E+00
         0.00000E+00
         0.00000E+00
         0.00000E+00
         0.00000E+00
         0.00000E+00
         0.00000E+00
         0.00000E+00
         0.00000E+00
         0.00000E+00
         0.00000E+00
         0.00000E+00
         0.00000E+00
         0.00000E+00
         0.00000E+00
         0.00000E+00
         0.00000E+00
         0.00000E+00
         0.00000E+00
         0.00000E+00
         0.00000E+00
         0.00000E+00
         0.00000E+00
         0.00000E+00
         0.00000E+00
         0.00000E+00
         0.00000E+00
         0.00000E+00
         0.00000E+00
         0.00000E+00
         0.00000E+00
         0.00000E+00
         0.00000E+00
         0.00000E+00
         0.00000E+00
         0.00000E+00
         0.00000E+00
         0.00000E+00
         0.00000E+00
         0.00000E+00
         0.00000E+00
         0.00000E+00
         0.00000E+00
         0.00000E+00
         0.00000E+00
         0.00000E+00
         0.00000E+00
         0.00000E+00
         0.00000E+00
         0.00000E+00
         0.00000E+00
         0.00000E+00
         0.00000E+00
         0.00000E+00
         0.00000E+00
         0.00000E+00
         0.00000E+00
         0.00000E+00
         0.00000E+00
         0.00000E+00
         0.00000E+00
         0.00000E+00
         0.00000E+00
         0.00000E+00
         0.00000E+00
         0.00000E+00
         0.00000E+00
         0.00000E+00
         0.00000E+00
         0.00000E+00
         0.00000E+00
         0.00000E+00
         0.00000E+00
         0.00000E+00
         0.00000E+00
         0.00000E+00
         0.00000E+00
         0.00000E+00
         0.00000E+00
         0.00000E+00
         0.00000E+00
         0.00000E+00
         0.00000E+00
         0.00000E+00
         0.00000E+00
         0.00000E+00
         0.00000E+00
         0.00000E+00
         0.00000E+00
         0.00000E+00
         0.00000E+00
         0.00000E+00
         0.00000E+00
         0.00000E+00
         0.00000E+00
         0.00000E+00
         0.00000E+00
         0.00000E+00
         0.00000E+00
         0.00000E+00
         0.00000E+00
         0.00000E+00
         0.00000E+00
         0.00000E+00
         0.00000E+00
         0.00000E+00
         0.00000E+00
         0.00000E+00
         0.00000E+00
         0.00000E+00
         0.00000E+00
         0.00000E+00
         0.00000E+00
         0.00000E+00
         0.00000E+00
         0.00000E+00
         0.00000E+00
         0.00000E+00
         0.00000E+00
         0.00000E+00
         0.00000E+00
         0.00000E+00
         0.00000E+00
         0.00000E+00
         0.00000E+00
         0.00000E+00
         0.00000E+00
         0.00000E+00
         0.00000E+00
         0.00000E+00
         0.00000E+00
         0.00000E+00
         0.00000E+00
         0.00000E+00
         0.00000E+00
         0.00000E+00
         0.00000E+00
         0.00000E+00
         0.00000E+00
         0.00000E+00
         0.00000E+00
         0.00000E+00
         0.00000E+00
         0.00000E+00
         0.00000E+00
         0.00000E+00
         0.00000E+00
         0.00000E+00
         0.00000E+00
         0.00000E+00
         0.00000E+00
         0.00000E+00
         0.00000E+00
         0.00000E+00
         0.00000E+00
         0.00000E+00
         0.00000E+00
         0.00000E+00
         0.00000E+00
         0.00000E+00
         0.00000E+00
         0.00000E+00
         0.00000E+00
         0.00000E+00
         0.00000E+00
         0.00000E+00
         0.00000E+00
         0.00000E+00
         0.00000E+00
         0.00000E+00
         0.00000E+00
         0.00000E+00
         0.00000E+00
         0.00000E+00
         0.00000E+00
         0.00000E+00
         0.00000E+00
         0.00000E+00
         0.00000E+00
         0.00000E+00
         0.00000E+00
         0.00000E+00
         0.00000E+00
         0.00000E+00
         0.00000E+00
         0.00000E+00
         0.00000E+00
         0.00000E+00
         0.00000E+00
         0.00000E+00
         0.00000E+00
         0.00000E+00
         0.00000E+00
         0.00000E+00
         0.00000E+00
         0.00000E+00
         0.00000E+00
         0.00000E+00
         0.00000E+00
         0.00000E+00
         0.00000E+00
         0.00000E+00
         0.00000E+00
         0.00000E+00
         0.00000E+00
         0.00000E+00
         0.00000E+00
         0.00000E+00
         0.00000E+00
         0.00000E+00
         0.00000E+00
         0.00000E+00
         0.00000E+00
         0.00000E+00
         0.00000E+00
         0.00000E+00
         0.00000E+00
         0.00000E+00
         0.00000E+00
         0.00000E+00
         0.00000E+00
         0.00000E+00
         0.00000E+00
         0.00000E+00
         0.00000E+00
         0.00000E+00
         0.00000E+00
         0.00000E+00
         0.00000E+00
         0.00000E+00
         0.00000E+00
         0.00000E+00
         0.00000E+00
         0.00000E+00
         0.00000E+00
         0.00000E+00
         0.00000E+00
         0.00000E+00
         0.00000E+00
         0.00000E+00
         0.00000E+00
         0.00000E+00
         0.00000E+00
         0.00000E+00
         0.00000E+00
         0.00000E+00
         0.00000E+00
         0.00000E+00
         0.00000E+00
         0.00000E+00
         0.00000E+00
         0.00000E+00
         0.00000E+00
         0.00000E+00
         0.00000E+00
         0.00000E+00
         0.00000E+00
         0.00000E+00
         0.00000E+00
         0.00000E+00
         0.00000E+00
         0.00000E+00
         0.00000E+00
         0.00000E+00
         0.00000E+00
         0.00000E+00
         0.00000E+00
         0.00000E+00
         0.00000E+00
         0.00000E+00
         0.00000E+00
         0.00000E+00
         0.00000E+00
         0.00000E+00
         0.00000E+00
         0.00000E+00
         0.00000E+00
         0.00000E+00
         0.00000E+00
         0.00000E+00
         0.00000E+00
         0.00000E+00
         0.00000E+00
         0.00000E+00
         0.00000E+00
         0.00000E+00
         0.00000E+00
         0.00000E+00
         0.00000E+00
         0.00000E+00
         0.00000E+00
         0.00000E+00
         0.00000E+00
         0.00000E+00
         0.00000E+00
         0.00000E+00
         0.00000E+00
         0.00000E+00
         0.00000E+00
         0.00000E+00
         0.00000E+00
         0.00000E+00
         0.00000E+00
         0.00000E+00
         0.00000E+00
         0.00000E+00
         0.00000E+00
         0.00000E+00
         0.00000E+00
         0.00000E+00
         0.00000E+00
         0.00000E+00
         0.00000E+00
         0.00000E+00
         0.00000E+00
         0.00000E+00
         0.00000E+00
         0.00000E+00
         0.00000E+00
         0.00000E+00
         0.00000E+00
         0.00000E+00
         0.00000E+00
         0.00000E+00
         0.00000E+00
         0.00000E+00
         0.00000E+00
         0.00000E+00
         0.00000E+00
         0.00000E+00
         0.00000E+00
         0.00000E+00
         0.00000E+00
         0.00000E+00
         0.00000E+00
         0.00000E+00
         0.00000E+00
         0.00000E+00
         0.00000E+00
         0.00000E+00
         0.00000E+00
         0.00000E+00
         0.00000E+00
         0.00000E+00
         0.00000E+00
         0.00000E+00
         0.00000E+00
         0.00000E+00
         0.00000E+00
         0.00000E+00
         0.00000E+00
         0.00000E+00
         0.00000E+00
         0.00000E+00
         0.00000E+00
         0.00000E+00
         0.00000E+00
         0.00000E+00
         0.00000E+00
         0.00000E+00
         0.00000E+00
         0.00000E+00
         0.00000E+00
         0.00000E+00
         0.00000E+00
         0.00000E+00
         0.00000E+00
         0.00000E+00
         0.00000E+00
         0.00000E+00
         0.00000E+00
         0.00000E+00
         0.00000E+00
         0.00000E+00
         0.00000E+00
         0.00000E+00
         0.00000E+00
         0.00000E+00
         0.00000E+00
         0.00000E+00
         0.00000E+00
         0.00000E+00
         0.00000E+00
         0.00000E+00
         0.00000E+00
         0.00000E+00
         0.00000E+00
         0.00000E+00
         0.00000E+00
         0.00000E+00
         0.00000E+00
         0.00000E+00
         0.00000E+00
         0.00000E+00
         0.00000E+00
         0.00000E+00
         0.00000E+00
         0.00000E+00
         0.00000E+00
         0.00000E+00
         0.00000E+00
         0.00000E+00
         0.00000E+00
         0.00000E+00
         0.00000E+00
         0.00000E+00
         0.00000E+00
         0.00000E+00
         0.00000E+00
         0.00000E+00
         0.00000E+00
         0.00000E+00
         0.00000E+00
         0.00000E+00
         0.00000E+00
         0.00000E+00
         0.00000E+00
         0.00000E+00
         0.00000E+00
         0.00000E+00
         0.00000E+00
         0.00000E+00
         0.00000E+00
         0.00000E+00
         0.00000E+00
         0.00000E+00
         0.00000E+00
         0.00000E+00
         0.00000E+00
         0.00000E+00
         0.00000E+00
         0.00000E+00
         0.00000E+00
         0.00000E+00
         0.00000E+00
         0.00000E+00
         0.00000E+00
         0.00000E+00
         0.00000E+00
         0.00000E+00
         0.00000E+00
         0.00000E+00
         0.00000E+00
         0.00000E+00
         0.00000E+00
         0.00000E+00
         0.00000E+00
         0.00000E+00
         0.00000E+00
         0.00000E+00
         0.00000E+00
         0.00000E+00
         0.00000E+00
         0.00000E+00
         0.00000E+00
         0.00000E+00
         0.00000E+00
         0.00000E+00
         0.00000E+00
         0.00000E+00
         0.00000E+00
         0.00000E+00
         0.00000E+00
         0.00000E+00
         0.00000E+00
         0.00000E+00
         0.00000E+00
         0.00000E+00
         0.00000E+00
         0.00000E+00
         0.00000E+00
         0.00000E+00
         0.00000E+00
         0.00000E+00
         0.00000E+00
         0.00000E+00
         0.00000E+00
         0.00000E+00
         0.00000E+00
         0.00000E+00
         0.00000E+00
         0.00000E+00
         0.00000E+00
         0.00000E+00
         0.00000E+00
         0.00000E+00
         0.00000E+00
         0.00000E+00
         0.00000E+00
         0.00000E+00
         0.00000E+00
         0.00000E+00
         0.00000E+00
         0.00000E+00
         0.00000E+00
         0.00000E+00
         0.00000E+00
         0.00000E+00
         0.00000E+00
         0.00000E+00
         0.00000E+00
         0.00000E+00
         0.00000E+00
         0.00000E+00
         0.00000E+00
         0.00000E+00
         0.00000E+00
         0.00000E+00
         0.00000E+00
         0.00000E+00
         0.00000E+00
         0.00000E+00
         0.00000E+00
         0.00000E+00
         0.00000E+00
         0.00000E+00
         0.00000E+00
         0.00000E+00
         0.00000E+00
         0.00000E+00
         0.00000E+00
         0.00000E+00
         0.00000E+00
         0.00000E+00
         0.00000E+00
         0.00000E+00
         0.00000E+00
         0.00000E+00
         0.00000E+00
         0.00000E+00
         0.00000E+00
         0.00000E+00
         0.00000E+00
         0.00000E+00
         0.00000E+00
         0.00000E+00
         0.00000E+00
         0.00000E+00
         0.00000E+00
         0.00000E+00
         0.00000E+00
         0.00000E+00
         0.00000E+00
         0.00000E+00
         0.00000E+00
         0.00000E+00
         0.00000E+00
         0.00000E+00
         0.00000E+00
         0.00000E+00
         0.00000E+00
         0.00000E+00
         0.00000E+00
         0.00000E+00
         0.00000E+00
         0.00000E+00
         0.00000E+00
         0.00000E+00
         0.00000E+00
         0.00000E+00
         0.00000E+00
         0.00000E+00
         0.00000E+00
         0.00000E+00
         0.00000E+00
         0.00000E+00
         0.00000E+00
         0.00000E+00
         0.00000E+00
         0.00000E+00
         0.00000E+00
         0.00000E+00
         0.00000E+00
         0.00000E+00
         0.00000E+00
         0.00000E+00
         0.00000E+00
         0.00000E+00
         0.00000E+00
         0.00000E+00
         0.00000E+00
         0.00000E+00
         0.00000E+00
         0.00000E+00
         0.00000E+00
         0.00000E+00
         0.00000E+00
         0.00000E+00
         0.00000E+00
         0.00000E+00
         0.00000E+00
         0.00000E+00
         0.00000E+00
         0.00000E+00
         0.00000E+00
         0.00000E+00
         0.00000E+00
         0.00000E+00
         0.00000E+00
         0.00000E+00
         0.00000E+00
         0.00000E+00
         0.00000E+00
         0.00000E+00
         0.00000E+00
         0.00000E+00
         0.00000E+00
         0.00000E+00
         0.00000E+00
         0.00000E+00
         0.00000E+00
         0.00000E+00
         0.00000E+00
         0.00000E+00
         0.00000E+00
         0.00000E+00
         0.00000E+00
         0.00000E+00
         0.00000E+00
         0.00000E+00
         0.00000E+00
         0.00000E+00
         0.00000E+00
         0.00000E+00
         0.00000E+00
         0.00000E+00
         0.00000E+00
         0.00000E+00
         0.00000E+00
         0.00000E+00
         0.00000E+00
         0.00000E+00
         0.00000E+00
         0.00000E+00
         0.00000E+00
         0.00000E+00
         0.00000E+00
         0.00000E+00
         0.00000E+00
         0.00000E+00
         0.00000E+00
         0.00000E+00
         0.00000E+00
         0.00000E+00
         0.00000E+00
         0.00000E+00
         0.00000E+00
         0.00000E+00
         0.00000E+00
         0.00000E+00
         0.00000E+00
         0.00000E+00
         0.00000E+00
         0.00000E+00
         0.00000E+00
         0.00000E+00
         0.00000E+00
         0.00000E+00
         0.00000E+00
         0.00000E+00
         0.00000E+00
         0.00000E+00
         0.00000E+00
         0.00000E+00
         0.00000E+00
         0.00000E+00
         0.00000E+00
         0.00000E+00
         0.00000E+00
         0.00000E+00
         0.00000E+00
         0.00000E+00
         0.00000E+00
         0.00000E+00
         0.00000E+00
         0.00000E+00
         0.00000E+00
         0.00000E+00
         0.00000E+00
         0.00000E+00
         0.00000E+00
         0.00000E+00
         0.00000E+00
         0.00000E+00
         0.00000E+00
         0.00000E+00
         0.00000E+00
         0.00000E+00
         0.00000E+00
         0.00000E+00
         0.00000E+00
         0.00000E+00
         0.00000E+00
         0.00000E+00
         0.00000E+00
         0.00000E+00
         0.00000E+00
         0.00000E+00
         0.00000E+00
         0.00000E+00
         0.00000E+00
         0.00000E+00
         0.00000E+00
         0.00000E+00
         0.00000E+00
         0.00000E+00
         0.00000E+00
         0.00000E+00
         0.00000E+00
         0.00000E+00
         0.00000E+00
         0.00000E+00
         0.00000E+00
         0.00000E+00
         0.00000E+00
         0.00000E+00
         0.00000E+00
         0.00000E+00
         0.00000E+00
         0.00000E+00
         0.00000E+00
         0.00000E+00
         0.00000E+00
         0.00000E+00
         0.00000E+00
         0.00000E+00
         0.00000E+00
         0.00000E+00
         0.00000E+00
         0.00000E+00
         0.00000E+00
         0.00000E+00
         0.00000E+00
         0.00000E+00
         0.00000E+00
         0.00000E+00
         0.00000E+00
         0.00000E+00
         0.00000E+00
         0.00000E+00
         0.00000E+00
         0.00000E+00
         0.00000E+00
         0.00000E+00
         0.00000E+00
         0.00000E+00
         0.00000E+00
         0.00000E+00
         0.00000E+00
         0.00000E+00
         0.00000E+00
         0.00000E+00
         0.00000E+00
         0.00000E+00
         0.00000E+00
         0.00000E+00
         0.00000E+00
         0.00000E+00
         0.00000E+00
         0.00000E+00
         0.00000E+00
         0.00000E+00
         0.00000E+00
         0.00000E+00
         0.00000E+00
         0.00000E+00
         0.00000E+00
         0.00000E+00
         0.00000E+00
         0.00000E+00
         0.00000E+00
         0.00000E+00
         0.00000E+00
         0.00000E+00
         0.00000E+00
         0.00000E+00
         0.00000E+00
         0.00000E+00
         0.00000E+00
         0.00000E+00
         0.00000E+00
         0.00000E+00
         0.00000E+00
         0.00000E+00
         0.00000E+00
         0.00000E+00
         0.00000E+00
         0.00000E+00
         0.00000E+00
         0.00000E+00
         0.00000E+00
         0.00000E+00
         0.00000E+00
         0.00000E+00
         0.00000E+00
         0.00000E+00
         0.00000E+00
         0.00000E+00
         0.00000E+00
         0.00000E+00
         0.00000E+00
         0.00000E+00
         0.00000E+00
         0.00000E+00
         0.00000E+00
         0.00000E+00
         0.00000E+00
         0.00000E+00
         0.00000E+00
         0.00000E+00
         0.00000E+00
         0.00000E+00
         0.00000E+00
         0.00000E+00
         0.00000E+00
         0.00000E+00
         0.00000E+00
         0.00000E+00
         0.00000E+00
         0.00000E+00
         0.00000E+00
         0.00000E+00
         0.00000E+00
         0.00000E+00
         0.00000E+00
         0.00000E+00
         0.00000E+00
         0.00000E+00
         0.00000E+00
         0.00000E+00
         0.00000E+00
         0.00000E+00
         0.00000E+00
         0.00000E+00
         0.00000E+00
         0.00000E+00
         0.00000E+00
         0.00000E+00
         0.00000E+00
         0.00000E+00
         0.00000E+00
         0.00000E+00
         0.00000E+00
         0.00000E+00
         0.00000E+00
         0.00000E+00
         0.00000E+00
         0.00000E+00
         0.00000E+00
         0.00000E+00
         0.00000E+00
         0.00000E+00
         0.00000E+00
         0.00000E+00
         0.00000E+00
         0.00000E+00
         0.00000E+00
         0.00000E+00
         0.00000E+00
         0.00000E+00
         0.00000E+00
         0.00000E+00
         0.00000E+00
         0.00000E+00
         0.00000E+00
         0.00000E+00
         0.00000E+00
         0.00000E+00
         0.00000E+00
         0.00000E+00
         0.00000E+00
         0.00000E+00
         0.00000E+00
         0.00000E+00
         0.00000E+00
         0.00000E+00
         0.00000E+00
         0.00000E+00
         0.00000E+00
         0.00000E+00
         0.00000E+00
         0.00000E+00
         0.00000E+00
         0.00000E+00
         0.00000E+00
         0.00000E+00
         0.00000E+00
         0.00000E+00
         0.00000E+00
         0.00000E+00
         0.00000E+00
         0.00000E+00
         0.00000E+00
         0.00000E+00
         0.00000E+00
         0.00000E+00
         0.00000E+00
         0.00000E+00
         0.00000E+00
         0.00000E+00
         0.00000E+00
         0.00000E+00
         0.00000E+00
         0.00000E+00
         0.00000E+00
         0.00000E+00
         0.00000E+00
         0.00000E+00
         0.00000E+00
         0.00000E+00
         0.00000E+00
         0.00000E+00
         0.00000E+00
         0.00000E+00
         0.00000E+00
         0.00000E+00
         0.00000E+00
         0.00000E+00
         0.00000E+00
         0.00000E+00
         0.00000E+00
         0.00000E+00
         0.00000E+00
         0.00000E+00
         0.00000E+00
         0.00000E+00
         0.00000E+00
         0.00000E+00
         0.00000E+00
         0.00000E+00
         0.00000E+00
         0.00000E+00
         0.00000E+00
         0.00000E+00
         0.00000E+00
         0.00000E+00
         0.00000E+00
         0.00000E+00
         0.00000E+00
         0.00000E+00
         0.00000E+00
         0.00000E+00
         0.00000E+00
         0.00000E+00
         0.00000E+00
         0.00000E+00
         0.00000E+00
         0.00000E+00
         0.00000E+00
         0.00000E+00
         0.00000E+00
         0.00000E+00
         0.00000E+00
         0.00000E+00
         0.00000E+00
         0.00000E+00
         0.00000E+00
         0.00000E+00
         0.00000E+00
         0.00000E+00
         0.00000E+00
         0.00000E+00
         0.00000E+00
         0.00000E+00
         0.00000E+00
         0.00000E+00
         0.00000E+00
         0.00000E+00
         0.00000E+00
         0.00000E+00
         0.00000E+00
         0.00000E+00
         0.00000E+00
         0.00000E+00
         0.00000E+00
         0.00000E+00
         0.00000E+00
         0.00000E+00
         0.00000E+00
         0.00000E+00
         0.00000E+00
         0.00000E+00
         0.00000E+00
         0.00000E+00
  
SCALARS                init_velocity_z  double 1
LOOKUP_TABLE default
        -0.37300E+03
        -0.37300E+03
        -0.37300E+03
        -0.37300E+03
        -0.37300E+03
        -0.37300E+03
        -0.37300E+03
        -0.37300E+03
        -0.37300E+03
        -0.37300E+03
        -0.37300E+03
        -0.37300E+03
        -0.37300E+03
        -0.37300E+03
        -0.37300E+03
        -0.37300E+03
        -0.37300E+03
        -0.37300E+03
        -0.37300E+03
        -0.37300E+03
        -0.37300E+03
        -0.37300E+03
        -0.37300E+03
        -0.37300E+03
        -0.37300E+03
        -0.37300E+03
        -0.37300E+03
        -0.37300E+03
        -0.37300E+03
        -0.37300E+03
        -0.37300E+03
        -0.37300E+03
        -0.37300E+03
        -0.37300E+03
        -0.37300E+03
        -0.37300E+03
        -0.37300E+03
        -0.37300E+03
        -0.37300E+03
        -0.37300E+03
        -0.37300E+03
        -0.37300E+03
        -0.37300E+03
        -0.37300E+03
        -0.37300E+03
        -0.37300E+03
        -0.37300E+03
        -0.37300E+03
        -0.37300E+03
        -0.37300E+03
        -0.37300E+03
        -0.37300E+03
        -0.37300E+03
        -0.37300E+03
        -0.37300E+03
        -0.37300E+03
        -0.37300E+03
        -0.37300E+03
        -0.37300E+03
        -0.37300E+03
        -0.37300E+03
        -0.37300E+03
        -0.37300E+03
        -0.37300E+03
        -0.37300E+03
        -0.37300E+03
        -0.37300E+03
        -0.37300E+03
        -0.37300E+03
        -0.37300E+03
        -0.37300E+03
        -0.37300E+03
        -0.37300E+03
        -0.37300E+03
        -0.37300E+03
        -0.37300E+03
        -0.37300E+03
        -0.37300E+03
        -0.37300E+03
        -0.37300E+03
        -0.37300E+03
        -0.37300E+03
        -0.37300E+03
        -0.37300E+03
        -0.37300E+03
        -0.37300E+03
        -0.37300E+03
        -0.37300E+03
        -0.37300E+03
        -0.37300E+03
        -0.37300E+03
        -0.37300E+03
        -0.37300E+03
        -0.37300E+03
        -0.37300E+03
        -0.37300E+03
        -0.37300E+03
        -0.37300E+03
        -0.37300E+03
        -0.37300E+03
        -0.37300E+03
        -0.37300E+03
        -0.37300E+03
        -0.37300E+03
        -0.37300E+03
        -0.37300E+03
        -0.37300E+03
        -0.37300E+03
        -0.37300E+03
        -0.37300E+03
        -0.37300E+03
        -0.37300E+03
        -0.37300E+03
        -0.37300E+03
        -0.37300E+03
        -0.37300E+03
        -0.37300E+03
        -0.37300E+03
        -0.37300E+03
        -0.37300E+03
        -0.37300E+03
        -0.37300E+03
        -0.37300E+03
        -0.37300E+03
        -0.37300E+03
        -0.37300E+03
        -0.37300E+03
        -0.37300E+03
        -0.37300E+03
        -0.37300E+03
        -0.37300E+03
        -0.37300E+03
        -0.37300E+03
        -0.37300E+03
        -0.37300E+03
        -0.37300E+03
        -0.37300E+03
        -0.37300E+03
        -0.37300E+03
        -0.37300E+03
        -0.37300E+03
        -0.37300E+03
        -0.37300E+03
        -0.37300E+03
        -0.37300E+03
        -0.37300E+03
        -0.37300E+03
        -0.37300E+03
        -0.37300E+03
        -0.37300E+03
        -0.37300E+03
        -0.37300E+03
        -0.37300E+03
        -0.37300E+03
        -0.37300E+03
        -0.37300E+03
        -0.37300E+03
        -0.37300E+03
        -0.37300E+03
        -0.37300E+03
        -0.37300E+03
        -0.37300E+03
        -0.37300E+03
        -0.37300E+03
        -0.37300E+03
        -0.37300E+03
        -0.37300E+03
        -0.37300E+03
        -0.37300E+03
        -0.37300E+03
        -0.37300E+03
        -0.37300E+03
        -0.37300E+03
        -0.37300E+03
        -0.37300E+03
        -0.37300E+03
        -0.37300E+03
        -0.37300E+03
        -0.37300E+03
        -0.37300E+03
        -0.37300E+03
        -0.37300E+03
        -0.37300E+03
        -0.37300E+03
        -0.37300E+03
        -0.37300E+03
        -0.37300E+03
        -0.37300E+03
        -0.37300E+03
        -0.37300E+03
        -0.37300E+03
        -0.37300E+03
        -0.37300E+03
        -0.37300E+03
        -0.37300E+03
        -0.37300E+03
        -0.37300E+03
        -0.37300E+03
        -0.37300E+03
        -0.37300E+03
        -0.37300E+03
        -0.37300E+03
        -0.37300E+03
        -0.37300E+03
        -0.37300E+03
        -0.37300E+03
        -0.37300E+03
        -0.37300E+03
        -0.37300E+03
        -0.37300E+03
        -0.37300E+03
        -0.37300E+03
        -0.37300E+03
        -0.37300E+03
        -0.37300E+03
        -0.37300E+03
        -0.37300E+03
        -0.37300E+03
        -0.37300E+03
        -0.37300E+03
        -0.37300E+03
        -0.37300E+03
        -0.37300E+03
        -0.37300E+03
        -0.37300E+03
        -0.37300E+03
        -0.37300E+03
        -0.37300E+03
        -0.37300E+03
        -0.37300E+03
        -0.37300E+03
        -0.37300E+03
        -0.37300E+03
        -0.37300E+03
        -0.37300E+03
        -0.37300E+03
        -0.37300E+03
        -0.37300E+03
        -0.37300E+03
        -0.37300E+03
        -0.37300E+03
        -0.37300E+03
        -0.37300E+03
        -0.37300E+03
        -0.37300E+03
        -0.37300E+03
        -0.37300E+03
        -0.37300E+03
        -0.37300E+03
        -0.37300E+03
        -0.37300E+03
        -0.37300E+03
        -0.37300E+03
        -0.37300E+03
        -0.37300E+03
        -0.37300E+03
        -0.37300E+03
        -0.37300E+03
        -0.37300E+03
        -0.37300E+03
        -0.37300E+03
        -0.37300E+03
        -0.37300E+03
        -0.37300E+03
        -0.37300E+03
        -0.37300E+03
        -0.37300E+03
        -0.37300E+03
        -0.37300E+03
        -0.37300E+03
        -0.37300E+03
        -0.37300E+03
        -0.37300E+03
        -0.37300E+03
        -0.37300E+03
        -0.37300E+03
        -0.37300E+03
        -0.37300E+03
        -0.37300E+03
        -0.37300E+03
        -0.37300E+03
        -0.37300E+03
        -0.37300E+03
        -0.37300E+03
        -0.37300E+03
        -0.37300E+03
        -0.37300E+03
        -0.37300E+03
        -0.37300E+03
        -0.37300E+03
        -0.37300E+03
        -0.37300E+03
        -0.37300E+03
        -0.37300E+03
        -0.37300E+03
        -0.37300E+03
        -0.37300E+03
        -0.37300E+03
        -0.37300E+03
        -0.37300E+03
        -0.37300E+03
        -0.37300E+03
        -0.37300E+03
        -0.37300E+03
        -0.37300E+03
        -0.37300E+03
        -0.37300E+03
        -0.37300E+03
        -0.37300E+03
        -0.37300E+03
        -0.37300E+03
        -0.37300E+03
        -0.37300E+03
        -0.37300E+03
        -0.37300E+03
        -0.37300E+03
        -0.37300E+03
        -0.37300E+03
        -0.37300E+03
        -0.37300E+03
        -0.37300E+03
        -0.37300E+03
        -0.37300E+03
        -0.37300E+03
        -0.37300E+03
        -0.37300E+03
        -0.37300E+03
        -0.37300E+03
        -0.37300E+03
        -0.37300E+03
        -0.37300E+03
        -0.37300E+03
        -0.37300E+03
        -0.37300E+03
        -0.37300E+03
        -0.37300E+03
        -0.37300E+03
        -0.37300E+03
        -0.37300E+03
        -0.37300E+03
        -0.37300E+03
        -0.37300E+03
        -0.37300E+03
        -0.37300E+03
        -0.37300E+03
        -0.37300E+03
        -0.37300E+03
        -0.37300E+03
        -0.37300E+03
        -0.37300E+03
        -0.37300E+03
        -0.37300E+03
        -0.37300E+03
        -0.37300E+03
        -0.37300E+03
        -0.37300E+03
        -0.37300E+03
        -0.37300E+03
        -0.37300E+03
        -0.37300E+03
        -0.37300E+03
        -0.37300E+03
        -0.37300E+03
        -0.37300E+03
        -0.37300E+03
        -0.37300E+03
        -0.37300E+03
        -0.37300E+03
        -0.37300E+03
        -0.37300E+03
        -0.37300E+03
        -0.37300E+03
        -0.37300E+03
        -0.37300E+03
        -0.37300E+03
        -0.37300E+03
        -0.37300E+03
        -0.37300E+03
        -0.37300E+03
        -0.37300E+03
        -0.37300E+03
        -0.37300E+03
        -0.37300E+03
        -0.37300E+03
        -0.37300E+03
        -0.37300E+03
        -0.37300E+03
        -0.37300E+03
        -0.37300E+03
        -0.37300E+03
        -0.37300E+03
        -0.37300E+03
        -0.37300E+03
        -0.37300E+03
        -0.37300E+03
        -0.37300E+03
        -0.37300E+03
        -0.37300E+03
        -0.37300E+03
        -0.37300E+03
        -0.37300E+03
        -0.37300E+03
        -0.37300E+03
        -0.37300E+03
        -0.37300E+03
        -0.37300E+03
        -0.37300E+03
        -0.37300E+03
        -0.37300E+03
        -0.37300E+03
        -0.37300E+03
        -0.37300E+03
        -0.37300E+03
        -0.37300E+03
        -0.37300E+03
        -0.37300E+03
        -0.37300E+03
        -0.37300E+03
        -0.37300E+03
        -0.37300E+03
        -0.37300E+03
        -0.37300E+03
        -0.37300E+03
        -0.37300E+03
        -0.37300E+03
        -0.37300E+03
        -0.37300E+03
        -0.37300E+03
        -0.37300E+03
        -0.37300E+03
        -0.37300E+03
        -0.37300E+03
        -0.37300E+03
        -0.37300E+03
        -0.37300E+03
        -0.37300E+03
        -0.37300E+03
        -0.37300E+03
        -0.37300E+03
        -0.37300E+03
        -0.37300E+03
        -0.37300E+03
        -0.37300E+03
        -0.37300E+03
        -0.37300E+03
        -0.37300E+03
        -0.37300E+03
        -0.37300E+03
        -0.37300E+03
        -0.37300E+03
        -0.37300E+03
        -0.37300E+03
        -0.37300E+03
        -0.37300E+03
        -0.37300E+03
        -0.37300E+03
        -0.37300E+03
        -0.37300E+03
        -0.37300E+03
        -0.37300E+03
        -0.37300E+03
        -0.37300E+03
        -0.37300E+03
        -0.37300E+03
        -0.37300E+03
        -0.37300E+03
        -0.37300E+03
        -0.37300E+03
        -0.37300E+03
        -0.37300E+03
        -0.37300E+03
        -0.37300E+03
        -0.37300E+03
        -0.37300E+03
        -0.37300E+03
        -0.37300E+03
        -0.37300E+03
        -0.37300E+03
        -0.37300E+03
        -0.37300E+03
        -0.37300E+03
        -0.37300E+03
        -0.37300E+03
        -0.37300E+03
        -0.37300E+03
        -0.37300E+03
        -0.37300E+03
        -0.37300E+03
        -0.37300E+03
        -0.37300E+03
        -0.37300E+03
        -0.37300E+03
        -0.37300E+03
        -0.37300E+03
        -0.37300E+03
        -0.37300E+03
        -0.37300E+03
        -0.37300E+03
        -0.37300E+03
        -0.37300E+03
        -0.37300E+03
        -0.37300E+03
        -0.37300E+03
        -0.37300E+03
        -0.37300E+03
        -0.37300E+03
        -0.37300E+03
        -0.37300E+03
        -0.37300E+03
        -0.37300E+03
        -0.37300E+03
        -0.37300E+03
        -0.37300E+03
        -0.37300E+03
        -0.37300E+03
        -0.37300E+03
        -0.37300E+03
        -0.37300E+03
        -0.37300E+03
        -0.37300E+03
        -0.37300E+03
        -0.37300E+03
        -0.37300E+03
        -0.37300E+03
        -0.37300E+03
        -0.37300E+03
        -0.37300E+03
        -0.37300E+03
        -0.37300E+03
        -0.37300E+03
        -0.37300E+03
        -0.37300E+03
        -0.37300E+03
        -0.37300E+03
        -0.37300E+03
        -0.37300E+03
        -0.37300E+03
        -0.37300E+03
        -0.37300E+03
        -0.37300E+03
        -0.37300E+03
        -0.37300E+03
        -0.37300E+03
        -0.37300E+03
        -0.37300E+03
        -0.37300E+03
        -0.37300E+03
        -0.37300E+03
        -0.37300E+03
        -0.37300E+03
        -0.37300E+03
        -0.37300E+03
        -0.37300E+03
        -0.37300E+03
        -0.37300E+03
        -0.37300E+03
        -0.37300E+03
        -0.37300E+03
        -0.37300E+03
        -0.37300E+03
        -0.37300E+03
        -0.37300E+03
        -0.37300E+03
        -0.37300E+03
        -0.37300E+03
        -0.37300E+03
        -0.37300E+03
        -0.37300E+03
        -0.37300E+03
        -0.37300E+03
        -0.37300E+03
        -0.37300E+03
        -0.37300E+03
        -0.37300E+03
        -0.37300E+03
        -0.37300E+03
        -0.37300E+03
        -0.37300E+03
        -0.37300E+03
        -0.37300E+03
        -0.37300E+03
        -0.37300E+03
        -0.37300E+03
        -0.37300E+03
        -0.37300E+03
        -0.37300E+03
        -0.37300E+03
        -0.37300E+03
        -0.37300E+03
        -0.37300E+03
        -0.37300E+03
        -0.37300E+03
        -0.37300E+03
        -0.37300E+03
        -0.37300E+03
        -0.37300E+03
        -0.37300E+03
        -0.37300E+03
        -0.37300E+03
        -0.37300E+03
        -0.37300E+03
        -0.37300E+03
        -0.37300E+03
        -0.37300E+03
        -0.37300E+03
        -0.37300E+03
        -0.37300E+03
        -0.37300E+03
        -0.37300E+03
        -0.37300E+03
        -0.37300E+03
        -0.37300E+03
        -0.37300E+03
        -0.37300E+03
        -0.37300E+03
        -0.37300E+03
        -0.37300E+03
        -0.37300E+03
        -0.37300E+03
        -0.37300E+03
        -0.37300E+03
        -0.37300E+03
        -0.37300E+03
        -0.37300E+03
        -0.37300E+03
        -0.37300E+03
        -0.37300E+03
        -0.37300E+03
        -0.37300E+03
        -0.37300E+03
        -0.37300E+03
        -0.37300E+03
        -0.37300E+03
        -0.37300E+03
        -0.37300E+03
        -0.37300E+03
        -0.37300E+03
        -0.37300E+03
        -0.37300E+03
        -0.37300E+03
        -0.37300E+03
        -0.37300E+03
        -0.37300E+03
        -0.37300E+03
        -0.37300E+03
        -0.37300E+03
        -0.37300E+03
        -0.37300E+03
        -0.37300E+03
        -0.37300E+03
        -0.37300E+03
        -0.37300E+03
        -0.37300E+03
        -0.37300E+03
        -0.37300E+03
        -0.37300E+03
        -0.37300E+03
        -0.37300E+03
        -0.37300E+03
        -0.37300E+03
        -0.37300E+03
        -0.37300E+03
        -0.37300E+03
        -0.37300E+03
        -0.37300E+03
        -0.37300E+03
        -0.37300E+03
        -0.37300E+03
        -0.37300E+03
        -0.37300E+03
        -0.37300E+03
        -0.37300E+03
        -0.37300E+03
        -0.37300E+03
        -0.37300E+03
        -0.37300E+03
        -0.37300E+03
        -0.37300E+03
        -0.37300E+03
        -0.37300E+03
        -0.37300E+03
        -0.37300E+03
        -0.37300E+03
        -0.37300E+03
        -0.37300E+03
        -0.37300E+03
        -0.37300E+03
        -0.37300E+03
        -0.37300E+03
        -0.37300E+03
        -0.37300E+03
        -0.37300E+03
        -0.37300E+03
        -0.37300E+03
        -0.37300E+03
        -0.37300E+03
        -0.37300E+03
        -0.37300E+03
        -0.37300E+03
        -0.37300E+03
        -0.37300E+03
        -0.37300E+03
        -0.37300E+03
        -0.37300E+03
        -0.37300E+03
        -0.37300E+03
        -0.37300E+03
        -0.37300E+03
        -0.37300E+03
        -0.37300E+03
        -0.37300E+03
        -0.37300E+03
        -0.37300E+03
        -0.37300E+03
        -0.37300E+03
        -0.37300E+03
        -0.37300E+03
        -0.37300E+03
        -0.37300E+03
        -0.37300E+03
        -0.37300E+03
        -0.37300E+03
        -0.37300E+03
        -0.37300E+03
        -0.37300E+03
        -0.37300E+03
        -0.37300E+03
        -0.37300E+03
        -0.37300E+03
        -0.37300E+03
        -0.37300E+03
        -0.37300E+03
        -0.37300E+03
        -0.37300E+03
        -0.37300E+03
        -0.37300E+03
        -0.37300E+03
        -0.37300E+03
        -0.37300E+03
        -0.37300E+03
        -0.37300E+03
        -0.37300E+03
        -0.37300E+03
        -0.37300E+03
        -0.37300E+03
        -0.37300E+03
        -0.37300E+03
        -0.37300E+03
        -0.37300E+03
        -0.37300E+03
        -0.37300E+03
        -0.37300E+03
        -0.37300E+03
        -0.37300E+03
        -0.37300E+03
        -0.37300E+03
        -0.37300E+03
        -0.37300E+03
        -0.37300E+03
        -0.37300E+03
        -0.37300E+03
        -0.37300E+03
        -0.37300E+03
        -0.37300E+03
        -0.37300E+03
        -0.37300E+03
        -0.37300E+03
        -0.37300E+03
        -0.37300E+03
        -0.37300E+03
        -0.37300E+03
        -0.37300E+03
        -0.37300E+03
        -0.37300E+03
        -0.37300E+03
        -0.37300E+03
        -0.37300E+03
        -0.37300E+03
        -0.37300E+03
        -0.37300E+03
        -0.37300E+03
        -0.37300E+03
        -0.37300E+03
        -0.37300E+03
        -0.37300E+03
        -0.37300E+03
        -0.37300E+03
        -0.37300E+03
        -0.37300E+03
        -0.37300E+03
        -0.37300E+03
        -0.37300E+03
        -0.37300E+03
        -0.37300E+03
        -0.37300E+03
        -0.37300E+03
        -0.37300E+03
        -0.37300E+03
        -0.37300E+03
        -0.37300E+03
        -0.37300E+03
        -0.37300E+03
        -0.37300E+03
        -0.37300E+03
        -0.37300E+03
        -0.37300E+03
        -0.37300E+03
        -0.37300E+03
        -0.37300E+03
        -0.37300E+03
        -0.37300E+03
        -0.37300E+03
        -0.37300E+03
        -0.37300E+03
        -0.37300E+03
        -0.37300E+03
        -0.37300E+03
        -0.37300E+03
        -0.37300E+03
        -0.37300E+03
        -0.37300E+03
        -0.37300E+03
        -0.37300E+03
        -0.37300E+03
        -0.37300E+03
        -0.37300E+03
        -0.37300E+03
        -0.37300E+03
        -0.37300E+03
        -0.37300E+03
        -0.37300E+03
        -0.37300E+03
        -0.37300E+03
        -0.37300E+03
        -0.37300E+03
        -0.37300E+03
        -0.37300E+03
        -0.37300E+03
        -0.37300E+03
        -0.37300E+03
        -0.37300E+03
        -0.37300E+03
        -0.37300E+03
        -0.37300E+03
        -0.37300E+03
        -0.37300E+03
        -0.37300E+03
        -0.37300E+03
        -0.37300E+03
        -0.37300E+03
        -0.37300E+03
        -0.37300E+03
        -0.37300E+03
        -0.37300E+03
        -0.37300E+03
        -0.37300E+03
        -0.37300E+03
        -0.37300E+03
        -0.37300E+03
        -0.37300E+03
        -0.37300E+03
        -0.37300E+03
        -0.37300E+03
        -0.37300E+03
        -0.37300E+03
        -0.37300E+03
        -0.37300E+03
        -0.37300E+03
        -0.37300E+03
        -0.37300E+03
        -0.37300E+03
        -0.37300E+03
        -0.37300E+03
        -0.37300E+03
        -0.37300E+03
        -0.37300E+03
        -0.37300E+03
        -0.37300E+03
        -0.37300E+03
        -0.37300E+03
        -0.37300E+03
        -0.37300E+03
        -0.37300E+03
        -0.37300E+03
        -0.37300E+03
        -0.37300E+03
        -0.37300E+03
        -0.37300E+03
        -0.37300E+03
        -0.37300E+03
        -0.37300E+03
        -0.37300E+03
        -0.37300E+03
        -0.37300E+03
        -0.37300E+03
        -0.37300E+03
        -0.37300E+03
        -0.37300E+03
        -0.37300E+03
        -0.37300E+03
        -0.37300E+03
        -0.37300E+03
        -0.37300E+03
        -0.37300E+03
        -0.37300E+03
        -0.37300E+03
        -0.37300E+03
        -0.37300E+03
        -0.37300E+03
        -0.37300E+03
        -0.37300E+03
        -0.37300E+03
        -0.37300E+03
        -0.37300E+03
        -0.37300E+03
        -0.37300E+03
        -0.37300E+03
        -0.37300E+03
        -0.37300E+03
        -0.37300E+03
        -0.37300E+03
        -0.37300E+03
        -0.37300E+03
        -0.37300E+03
        -0.37300E+03
        -0.37300E+03
        -0.37300E+03
        -0.37300E+03
        -0.37300E+03
        -0.37300E+03
        -0.37300E+03
        -0.37300E+03
        -0.37300E+03
        -0.37300E+03
        -0.37300E+03
        -0.37300E+03
        -0.37300E+03
        -0.37300E+03
        -0.37300E+03
        -0.37300E+03
        -0.37300E+03
        -0.37300E+03
        -0.37300E+03
        -0.37300E+03
        -0.37300E+03
        -0.37300E+03
        -0.37300E+03
        -0.37300E+03
        -0.37300E+03
        -0.37300E+03
        -0.37300E+03
        -0.37300E+03
        -0.37300E+03
        -0.37300E+03
        -0.37300E+03
        -0.37300E+03
        -0.37300E+03
        -0.37300E+03
        -0.37300E+03
        -0.37300E+03
        -0.37300E+03
        -0.37300E+03
        -0.37300E+03
        -0.37300E+03
        -0.37300E+03
        -0.37300E+03
        -0.37300E+03
        -0.37300E+03
        -0.37300E+03
        -0.37300E+03
        -0.37300E+03
        -0.37300E+03
        -0.37300E+03
        -0.37300E+03
        -0.37300E+03
        -0.37300E+03
        -0.37300E+03
        -0.37300E+03
        -0.37300E+03
        -0.37300E+03
        -0.37300E+03
        -0.37300E+03
        -0.37300E+03
        -0.37300E+03
        -0.37300E+03
        -0.37300E+03
        -0.37300E+03
        -0.37300E+03
        -0.37300E+03
        -0.37300E+03
        -0.37300E+03
        -0.37300E+03
        -0.37300E+03
        -0.37300E+03
        -0.37300E+03
        -0.37300E+03
        -0.37300E+03
        -0.37300E+03
        -0.37300E+03
        -0.37300E+03
        -0.37300E+03
        -0.37300E+03
        -0.37300E+03
        -0.37300E+03
        -0.37300E+03
        -0.37300E+03
        -0.37300E+03
        -0.37300E+03
        -0.37300E+03
        -0.37300E+03
        -0.37300E+03
        -0.37300E+03
        -0.37300E+03
        -0.37300E+03
        -0.37300E+03
        -0.37300E+03
        -0.37300E+03
        -0.37300E+03
        -0.37300E+03
        -0.37300E+03
        -0.37300E+03
        -0.37300E+03
        -0.37300E+03
        -0.37300E+03
        -0.37300E+03
        -0.37300E+03
        -0.37300E+03
        -0.37300E+03
        -0.37300E+03
        -0.37300E+03
        -0.37300E+03
        -0.37300E+03
        -0.37300E+03
        -0.37300E+03
        -0.37300E+03
        -0.37300E+03
        -0.37300E+03
        -0.37300E+03
        -0.37300E+03
        -0.37300E+03
        -0.37300E+03
        -0.37300E+03
        -0.37300E+03
        -0.37300E+03
        -0.37300E+03
        -0.37300E+03
        -0.37300E+03
        -0.37300E+03
        -0.37300E+03
        -0.37300E+03
        -0.37300E+03
        -0.37300E+03
        -0.37300E+03
        -0.37300E+03
        -0.37300E+03
        -0.37300E+03
        -0.37300E+03
        -0.37300E+03
        -0.37300E+03
        -0.37300E+03
        -0.37300E+03
        -0.37300E+03
        -0.37300E+03
        -0.37300E+03
        -0.37300E+03
        -0.37300E+03
        -0.37300E+03
        -0.37300E+03
        -0.37300E+03
        -0.37300E+03
        -0.37300E+03
        -0.37300E+03
        -0.37300E+03
        -0.37300E+03
        -0.37300E+03
        -0.37300E+03
        -0.37300E+03
        -0.37300E+03
        -0.37300E+03
        -0.37300E+03
        -0.37300E+03
        -0.37300E+03
        -0.37300E+03
        -0.37300E+03
        -0.37300E+03
        -0.37300E+03
        -0.37300E+03
        -0.37300E+03
        -0.37300E+03
        -0.37300E+03
        -0.37300E+03
        -0.37300E+03
        -0.37300E+03
        -0.37300E+03
        -0.37300E+03
        -0.37300E+03
        -0.37300E+03
        -0.37300E+03
        -0.37300E+03
        -0.37300E+03
        -0.37300E+03
        -0.37300E+03
        -0.37300E+03
        -0.37300E+03
        -0.37300E+03
        -0.37300E+03
        -0.37300E+03
        -0.37300E+03
        -0.37300E+03
        -0.37300E+03
        -0.37300E+03
        -0.37300E+03
        -0.37300E+03
        -0.37300E+03
        -0.37300E+03
        -0.37300E+03
        -0.37300E+03
        -0.37300E+03
        -0.37300E+03
        -0.37300E+03
        -0.37300E+03
        -0.37300E+03
        -0.37300E+03
        -0.37300E+03
        -0.37300E+03
        -0.37300E+03
        -0.37300E+03
        -0.37300E+03
        -0.37300E+03
        -0.37300E+03
        -0.37300E+03
        -0.37300E+03
        -0.37300E+03
        -0.37300E+03
        -0.37300E+03
        -0.37300E+03
        -0.37300E+03
        -0.37300E+03
        -0.37300E+03
        -0.37300E+03
        -0.37300E+03
        -0.37300E+03
        -0.37300E+03
        -0.37300E+03
        -0.37300E+03
        -0.37300E+03
        -0.37300E+03
        -0.37300E+03
        -0.37300E+03
        -0.37300E+03
        -0.37300E+03
        -0.37300E+03
        -0.37300E+03
        -0.37300E+03
        -0.37300E+03
        -0.37300E+03
        -0.37300E+03
        -0.37300E+03
        -0.37300E+03
        -0.37300E+03
        -0.37300E+03
        -0.37300E+03
        -0.37300E+03
        -0.37300E+03
        -0.37300E+03
        -0.37300E+03
        -0.37300E+03
        -0.37300E+03
        -0.37300E+03
        -0.37300E+03
        -0.37300E+03
        -0.37300E+03
        -0.37300E+03
        -0.37300E+03
        -0.37300E+03
        -0.37300E+03
        -0.37300E+03
        -0.37300E+03
        -0.37300E+03
        -0.37300E+03
        -0.37300E+03
        -0.37300E+03
        -0.37300E+03
        -0.37300E+03
        -0.37300E+03
        -0.37300E+03
        -0.37300E+03
        -0.37300E+03
        -0.37300E+03
        -0.37300E+03
        -0.37300E+03
        -0.37300E+03
        -0.37300E+03
        -0.37300E+03
        -0.37300E+03
        -0.37300E+03
        -0.37300E+03
        -0.37300E+03
        -0.37300E+03
        -0.37300E+03
        -0.37300E+03
        -0.37300E+03
        -0.37300E+03
        -0.37300E+03
        -0.37300E+03
        -0.37300E+03
        -0.37300E+03
        -0.37300E+03
        -0.37300E+03
        -0.37300E+03
        -0.37300E+03
        -0.37300E+03
        -0.37300E+03
        -0.37300E+03
        -0.37300E+03
        -0.37300E+03
        -0.37300E+03
        -0.37300E+03
        -0.37300E+03
        -0.37300E+03
        -0.37300E+03
        -0.37300E+03
        -0.37300E+03
        -0.37300E+03
        -0.37300E+03
        -0.37300E+03
        -0.37300E+03
        -0.37300E+03
        -0.37300E+03
        -0.37300E+03
        -0.37300E+03
        -0.37300E+03
        -0.37300E+03
        -0.37300E+03
        -0.37300E+03
        -0.37300E+03
        -0.37300E+03
        -0.37300E+03
        -0.37300E+03
        -0.37300E+03
        -0.37300E+03
        -0.37300E+03
        -0.37300E+03
        -0.37300E+03
        -0.37300E+03
        -0.37300E+03
        -0.37300E+03
        -0.37300E+03
        -0.37300E+03
        -0.37300E+03
        -0.37300E+03
        -0.37300E+03
        -0.37300E+03
        -0.37300E+03
        -0.37300E+03
        -0.37300E+03
        -0.37300E+03
        -0.37300E+03
        -0.37300E+03
        -0.37300E+03
        -0.37300E+03
        -0.37300E+03
        -0.37300E+03
        -0.37300E+03
        -0.37300E+03
        -0.37300E+03
        -0.37300E+03
        -0.37300E+03
        -0.37300E+03
        -0.37300E+03
        -0.37300E+03
        -0.37300E+03
        -0.37300E+03
        -0.37300E+03
        -0.37300E+03
        -0.37300E+03
        -0.37300E+03
        -0.37300E+03
        -0.37300E+03
        -0.37300E+03
        -0.37300E+03
        -0.37300E+03
        -0.37300E+03
        -0.37300E+03
        -0.37300E+03
        -0.37300E+03
        -0.37300E+03
        -0.37300E+03
        -0.37300E+03
        -0.37300E+03
        -0.37300E+03
        -0.37300E+03
        -0.37300E+03
        -0.37300E+03
        -0.37300E+03
        -0.37300E+03
        -0.37300E+03
        -0.37300E+03
        -0.37300E+03
        -0.37300E+03
        -0.37300E+03
        -0.37300E+03
        -0.37300E+03
        -0.37300E+03
        -0.37300E+03
        -0.37300E+03
        -0.37300E+03
        -0.37300E+03
        -0.37300E+03
        -0.37300E+03
        -0.37300E+03
        -0.37300E+03
        -0.37300E+03
        -0.37300E+03
        -0.37300E+03
        -0.37300E+03
        -0.37300E+03
        -0.37300E+03
        -0.37300E+03
        -0.37300E+03
        -0.37300E+03
        -0.37300E+03
        -0.37300E+03
        -0.37300E+03
        -0.37300E+03
        -0.37300E+03
        -0.37300E+03
        -0.37300E+03
        -0.37300E+03
        -0.37300E+03
        -0.37300E+03
        -0.37300E+03
        -0.37300E+03
        -0.37300E+03
        -0.37300E+03
        -0.37300E+03
        -0.37300E+03
        -0.37300E+03
        -0.37300E+03
        -0.37300E+03
        -0.37300E+03
        -0.37300E+03
        -0.37300E+03
        -0.37300E+03
        -0.37300E+03
        -0.37300E+03
        -0.37300E+03
        -0.37300E+03
        -0.37300E+03
        -0.37300E+03
        -0.37300E+03
        -0.37300E+03
        -0.37300E+03
        -0.37300E+03
        -0.37300E+03
        -0.37300E+03
        -0.37300E+03
        -0.37300E+03
        -0.37300E+03
        -0.37300E+03
        -0.37300E+03
        -0.37300E+03
        -0.37300E+03
        -0.37300E+03
        -0.37300E+03
        -0.37300E+03
        -0.37300E+03
        -0.37300E+03
        -0.37300E+03
        -0.37300E+03
        -0.37300E+03
        -0.37300E+03
        -0.37300E+03
        -0.37300E+03
        -0.37300E+03
        -0.37300E+03
        -0.37300E+03
        -0.37300E+03
        -0.37300E+03
        -0.37300E+03
        -0.37300E+03
        -0.37300E+03
        -0.37300E+03
        -0.37300E+03
        -0.37300E+03
        -0.37300E+03
        -0.37300E+03
        -0.37300E+03
        -0.37300E+03
        -0.37300E+03
        -0.37300E+03
        -0.37300E+03
        -0.37300E+03
        -0.37300E+03
        -0.37300E+03
        -0.37300E+03
        -0.37300E+03
        -0.37300E+03
        -0.37300E+03
        -0.37300E+03
        -0.37300E+03
        -0.37300E+03
        -0.37300E+03
        -0.37300E+03
        -0.37300E+03
        -0.37300E+03
        -0.37300E+03
        -0.37300E+03
        -0.37300E+03
        -0.37300E+03
        -0.37300E+03
        -0.37300E+03
        -0.37300E+03
        -0.37300E+03
        -0.37300E+03
        -0.37300E+03
        -0.37300E+03
        -0.37300E+03
        -0.37300E+03
        -0.37300E+03
        -0.37300E+03
        -0.37300E+03
        -0.37300E+03
        -0.37300E+03
        -0.37300E+03
        -0.37300E+03
        -0.37300E+03
        -0.37300E+03
        -0.37300E+03
        -0.37300E+03
        -0.37300E+03
        -0.37300E+03
        -0.37300E+03
        -0.37300E+03
        -0.37300E+03
        -0.37300E+03
        -0.37300E+03
        -0.37300E+03
        -0.37300E+03
        -0.37300E+03
        -0.37300E+03
        -0.37300E+03
        -0.37300E+03
        -0.37300E+03
        -0.37300E+03
        -0.37300E+03
        -0.37300E+03
        -0.37300E+03
        -0.37300E+03
        -0.37300E+03
        -0.37300E+03
        -0.37300E+03
        -0.37300E+03
        -0.37300E+03
        -0.37300E+03
        -0.37300E+03
        -0.37300E+03
        -0.37300E+03
        -0.37300E+03
        -0.37300E+03
        -0.37300E+03
        -0.37300E+03
        -0.37300E+03
        -0.37300E+03
        -0.37300E+03
        -0.37300E+03
        -0.37300E+03
        -0.37300E+03
        -0.37300E+03
        -0.37300E+03
        -0.37300E+03
        -0.37300E+03
        -0.37300E+03
        -0.37300E+03
        -0.37300E+03
        -0.37300E+03
        -0.37300E+03
        -0.37300E+03
        -0.37300E+03
        -0.37300E+03
        -0.37300E+03
        -0.37300E+03
        -0.37300E+03
        -0.37300E+03
        -0.37300E+03
        -0.37300E+03
        -0.37300E+03
        -0.37300E+03
        -0.37300E+03
        -0.37300E+03
        -0.37300E+03
        -0.37300E+03
        -0.37300E+03
        -0.37300E+03
        -0.37300E+03
        -0.37300E+03
        -0.37300E+03
        -0.37300E+03
        -0.37300E+03
        -0.37300E+03
        -0.37300E+03
        -0.37300E+03
        -0.37300E+03
        -0.37300E+03
        -0.37300E+03
        -0.37300E+03
        -0.37300E+03
        -0.37300E+03
        -0.37300E+03
        -0.37300E+03
        -0.37300E+03
        -0.37300E+03
        -0.37300E+03
        -0.37300E+03
        -0.37300E+03
        -0.37300E+03
        -0.37300E+03
        -0.37300E+03
        -0.37300E+03
        -0.37300E+03
        -0.37300E+03
        -0.37300E+03
        -0.37300E+03
        -0.37300E+03
        -0.37300E+03
        -0.37300E+03
        -0.37300E+03
        -0.37300E+03
        -0.37300E+03
        -0.37300E+03
        -0.37300E+03
        -0.37300E+03
        -0.37300E+03
        -0.37300E+03
        -0.37300E+03
        -0.37300E+03
        -0.37300E+03
        -0.37300E+03
        -0.37300E+03
        -0.37300E+03
        -0.37300E+03
        -0.37300E+03
        -0.37300E+03
        -0.37300E+03
        -0.37300E+03
        -0.37300E+03
        -0.37300E+03
        -0.37300E+03
        -0.37300E+03
        -0.37300E+03
        -0.37300E+03
        -0.37300E+03
        -0.37300E+03
        -0.37300E+03
        -0.37300E+03
        -0.37300E+03
        -0.37300E+03
        -0.37300E+03
        -0.37300E+03
        -0.37300E+03
        -0.37300E+03
        -0.37300E+03
        -0.37300E+03
        -0.37300E+03
        -0.37300E+03
        -0.37300E+03
        -0.37300E+03
        -0.37300E+03
        -0.37300E+03
        -0.37300E+03
        -0.37300E+03
        -0.37300E+03
        -0.37300E+03
        -0.37300E+03
        -0.37300E+03
        -0.37300E+03
        -0.37300E+03
        -0.37300E+03
        -0.37300E+03
        -0.37300E+03
        -0.37300E+03
        -0.37300E+03
        -0.37300E+03
        -0.37300E+03
        -0.37300E+03
        -0.37300E+03
        -0.37300E+03
        -0.37300E+03
        -0.37300E+03
        -0.37300E+03
        -0.37300E+03
        -0.37300E+03
        -0.37300E+03
        -0.37300E+03
        -0.37300E+03
        -0.37300E+03
        -0.37300E+03
        -0.37300E+03
        -0.37300E+03
        -0.37300E+03
        -0.37300E+03
        -0.37300E+03
        -0.37300E+03
        -0.37300E+03
        -0.37300E+03
        -0.37300E+03
        -0.37300E+03
        -0.37300E+03
        -0.37300E+03
        -0.37300E+03
        -0.37300E+03
        -0.37300E+03
        -0.37300E+03
        -0.37300E+03
        -0.37300E+03
        -0.37300E+03
        -0.37300E+03
        -0.37300E+03
        -0.37300E+03
        -0.37300E+03
        -0.37300E+03
        -0.37300E+03
        -0.37300E+03
        -0.37300E+03
        -0.37300E+03
        -0.37300E+03
        -0.37300E+03
        -0.37300E+03
        -0.37300E+03
        -0.37300E+03
        -0.37300E+03
        -0.37300E+03
        -0.37300E+03
        -0.37300E+03
        -0.37300E+03
        -0.37300E+03
        -0.37300E+03
        -0.37300E+03
        -0.37300E+03
        -0.37300E+03
        -0.37300E+03
        -0.37300E+03
        -0.37300E+03
        -0.37300E+03
        -0.37300E+03
        -0.37300E+03
        -0.37300E+03
        -0.37300E+03
        -0.37300E+03
        -0.37300E+03
        -0.37300E+03
        -0.37300E+03
        -0.37300E+03
        -0.37300E+03
        -0.37300E+03
        -0.37300E+03
        -0.37300E+03
        -0.37300E+03
        -0.37300E+03
        -0.37300E+03
        -0.37300E+03
        -0.37300E+03
        -0.37300E+03
        -0.37300E+03
        -0.37300E+03
        -0.37300E+03
        -0.37300E+03
        -0.37300E+03
        -0.37300E+03
        -0.37300E+03
        -0.37300E+03
        -0.37300E+03
        -0.37300E+03
        -0.37300E+03
        -0.37300E+03
        -0.37300E+03
        -0.37300E+03
        -0.37300E+03
        -0.37300E+03
        -0.37300E+03
        -0.37300E+03
        -0.37300E+03
        -0.37300E+03
        -0.37300E+03
        -0.37300E+03
        -0.37300E+03
        -0.37300E+03
        -0.37300E+03
        -0.37300E+03
        -0.37300E+03
        -0.37300E+03
        -0.37300E+03
        -0.37300E+03
        -0.37300E+03
        -0.37300E+03
        -0.37300E+03
        -0.37300E+03
        -0.37300E+03
        -0.37300E+03
        -0.37300E+03
        -0.37300E+03
        -0.37300E+03
        -0.37300E+03
        -0.37300E+03
        -0.37300E+03
        -0.37300E+03
        -0.37300E+03
        -0.37300E+03
        -0.37300E+03
        -0.37300E+03
        -0.37300E+03
        -0.37300E+03
        -0.37300E+03
        -0.37300E+03
        -0.37300E+03
        -0.37300E+03
        -0.37300E+03
        -0.37300E+03
        -0.37300E+03
        -0.37300E+03
        -0.37300E+03
        -0.37300E+03
        -0.37300E+03
        -0.37300E+03
        -0.37300E+03
        -0.37300E+03
        -0.37300E+03
        -0.37300E+03
        -0.37300E+03
        -0.37300E+03
        -0.37300E+03
        -0.37300E+03
        -0.37300E+03
        -0.37300E+03
        -0.37300E+03
        -0.37300E+03
        -0.37300E+03
        -0.37300E+03
        -0.37300E+03
        -0.37300E+03
        -0.37300E+03
        -0.37300E+03
        -0.37300E+03
        -0.37300E+03
        -0.37300E+03
        -0.37300E+03
        -0.37300E+03
        -0.37300E+03
        -0.37300E+03
        -0.37300E+03
        -0.37300E+03
        -0.37300E+03
        -0.37300E+03
        -0.37300E+03
        -0.37300E+03
        -0.37300E+03
        -0.37300E+03
        -0.37300E+03
        -0.37300E+03
        -0.37300E+03
        -0.37300E+03
        -0.37300E+03
        -0.37300E+03
        -0.37300E+03
        -0.37300E+03
        -0.37300E+03
        -0.37300E+03
        -0.37300E+03
        -0.37300E+03
        -0.37300E+03
        -0.37300E+03
        -0.37300E+03
        -0.37300E+03
        -0.37300E+03
        -0.37300E+03
        -0.37300E+03
        -0.37300E+03
        -0.37300E+03
        -0.37300E+03
        -0.37300E+03
        -0.37300E+03
        -0.37300E+03
        -0.37300E+03
        -0.37300E+03
        -0.37300E+03
        -0.37300E+03
        -0.37300E+03
        -0.37300E+03
        -0.37300E+03
        -0.37300E+03
        -0.37300E+03
        -0.37300E+03
        -0.37300E+03
        -0.37300E+03
        -0.37300E+03
        -0.37300E+03
        -0.37300E+03
        -0.37300E+03
        -0.37300E+03
        -0.37300E+03
        -0.37300E+03
        -0.37300E+03
        -0.37300E+03
        -0.37300E+03
        -0.37300E+03
        -0.37300E+03
        -0.37300E+03
        -0.37300E+03
        -0.37300E+03
        -0.37300E+03
        -0.37300E+03
        -0.37300E+03
        -0.37300E+03
        -0.37300E+03
        -0.37300E+03
        -0.37300E+03
        -0.37300E+03
        -0.37300E+03
        -0.37300E+03
        -0.37300E+03
        -0.37300E+03
        -0.37300E+03
        -0.37300E+03
        -0.37300E+03
        -0.37300E+03
        -0.37300E+03
        -0.37300E+03
        -0.37300E+03
        -0.37300E+03
        -0.37300E+03
        -0.37300E+03
        -0.37300E+03
        -0.37300E+03
        -0.37300E+03
        -0.37300E+03
        -0.37300E+03
        -0.37300E+03
        -0.37300E+03
        -0.37300E+03
        -0.37300E+03
        -0.37300E+03
        -0.37300E+03
        -0.37300E+03
        -0.37300E+03
        -0.37300E+03
        -0.37300E+03
        -0.37300E+03
        -0.37300E+03
        -0.37300E+03
        -0.37300E+03
        -0.37300E+03
        -0.37300E+03
        -0.37300E+03
        -0.37300E+03
        -0.37300E+03
        -0.37300E+03
        -0.37300E+03
        -0.37300E+03
        -0.37300E+03
        -0.37300E+03
        -0.37300E+03
        -0.37300E+03
        -0.37300E+03
        -0.37300E+03
        -0.37300E+03
        -0.37300E+03
        -0.37300E+03
        -0.37300E+03
        -0.37300E+03
        -0.37300E+03
        -0.37300E+03
        -0.37300E+03
        -0.37300E+03
        -0.37300E+03
        -0.37300E+03
        -0.37300E+03
        -0.37300E+03
        -0.37300E+03
        -0.37300E+03
        -0.37300E+03
        -0.37300E+03
        -0.37300E+03
        -0.37300E+03
        -0.37300E+03
        -0.37300E+03
        -0.37300E+03
        -0.37300E+03
        -0.37300E+03
        -0.37300E+03
        -0.37300E+03
        -0.37300E+03
        -0.37300E+03
        -0.37300E+03
        -0.37300E+03
        -0.37300E+03
        -0.37300E+03
        -0.37300E+03
        -0.37300E+03
        -0.37300E+03
        -0.37300E+03
        -0.37300E+03
        -0.37300E+03
        -0.37300E+03
        -0.37300E+03
        -0.37300E+03
        -0.37300E+03
        -0.37300E+03
        -0.37300E+03
        -0.37300E+03
        -0.37300E+03
        -0.37300E+03
        -0.37300E+03
        -0.37300E+03
        -0.37300E+03
        -0.37300E+03
        -0.37300E+03
        -0.37300E+03
        -0.37300E+03
        -0.37300E+03
        -0.37300E+03
        -0.37300E+03
        -0.37300E+03
        -0.37300E+03
        -0.37300E+03
        -0.37300E+03
        -0.37300E+03
        -0.37300E+03
        -0.37300E+03
        -0.37300E+03
        -0.37300E+03
        -0.37300E+03
        -0.37300E+03
        -0.37300E+03
        -0.37300E+03
        -0.37300E+03
        -0.37300E+03
        -0.37300E+03
        -0.37300E+03
        -0.37300E+03
        -0.37300E+03
        -0.37300E+03
        -0.37300E+03
        -0.37300E+03
        -0.37300E+03
        -0.37300E+03
        -0.37300E+03
        -0.37300E+03
        -0.37300E+03
        -0.37300E+03
        -0.37300E+03
  
SCALARS              normalized_window  double 1
LOOKUP_TABLE default
         0.27500E+01
         0.27500E+01
         0.27500E+01
         0.27500E+01
         0.27500E+01
         0.27500E+01
         0.27500E+01
         0.27500E+01
         0.27500E+01
         0.27500E+01
         0.27500E+01
         0.27500E+01
         0.27500E+01
         0.27500E+01
         0.27500E+01
         0.27500E+01
         0.27500E+01
         0.27500E+01
         0.27500E+01
         0.27500E+01
         0.27500E+01
         0.27500E+01
         0.27500E+01
         0.27500E+01
         0.27500E+01
         0.27500E+01
         0.27500E+01
         0.27500E+01
         0.27500E+01
         0.27500E+01
         0.27500E+01
         0.27500E+01
         0.27500E+01
         0.27500E+01
         0.27500E+01
         0.27500E+01
         0.27500E+01
         0.27500E+01
         0.27500E+01
         0.27500E+01
         0.27500E+01
         0.27500E+01
         0.27500E+01
         0.27500E+01
         0.27500E+01
         0.27500E+01
         0.27500E+01
         0.27500E+01
         0.27500E+01
         0.27500E+01
         0.27500E+01
         0.27500E+01
         0.27500E+01
         0.27500E+01
         0.27500E+01
         0.27500E+01
         0.27500E+01
         0.27500E+01
         0.27500E+01
         0.27500E+01
         0.27500E+01
         0.27500E+01
         0.27500E+01
         0.27500E+01
         0.27500E+01
         0.27500E+01
         0.27500E+01
         0.27500E+01
         0.27500E+01
         0.27500E+01
         0.27500E+01
         0.27500E+01
         0.27500E+01
         0.27500E+01
         0.27500E+01
         0.27500E+01
         0.27500E+01
         0.27500E+01
         0.27500E+01
         0.27500E+01
         0.27500E+01
         0.27500E+01
         0.27500E+01
         0.27500E+01
         0.27500E+01
         0.27500E+01
         0.27500E+01
         0.27500E+01
         0.27500E+01
         0.27500E+01
         0.27500E+01
         0.27500E+01
         0.27500E+01
         0.27500E+01
         0.27500E+01
         0.27500E+01
         0.27500E+01
         0.27500E+01
         0.27500E+01
         0.27500E+01
         0.27500E+01
         0.27500E+01
         0.27500E+01
         0.27500E+01
         0.27500E+01
         0.27500E+01
         0.27500E+01
         0.27500E+01
         0.27500E+01
         0.27500E+01
         0.27500E+01
         0.27500E+01
         0.27500E+01
         0.27500E+01
         0.27500E+01
         0.27500E+01
         0.27500E+01
         0.27500E+01
         0.27500E+01
         0.27500E+01
         0.27500E+01
         0.27500E+01
         0.27500E+01
         0.27500E+01
         0.27500E+01
         0.27500E+01
         0.27500E+01
         0.27500E+01
         0.27500E+01
         0.27500E+01
         0.27500E+01
         0.27500E+01
         0.27500E+01
         0.27500E+01
         0.27500E+01
         0.27500E+01
         0.27500E+01
         0.27500E+01
         0.27500E+01
         0.27500E+01
         0.27500E+01
         0.27500E+01
         0.27500E+01
         0.27500E+01
         0.27500E+01
         0.27500E+01
         0.27500E+01
         0.27500E+01
         0.27500E+01
         0.27500E+01
         0.27500E+01
         0.27500E+01
         0.27500E+01
         0.27500E+01
         0.27500E+01
         0.27500E+01
         0.27500E+01
         0.27500E+01
         0.27500E+01
         0.27500E+01
         0.27500E+01
         0.27500E+01
         0.27500E+01
         0.27500E+01
         0.27500E+01
         0.27500E+01
         0.27500E+01
         0.27500E+01
         0.27500E+01
         0.27500E+01
         0.27500E+01
         0.27500E+01
         0.27500E+01
         0.27500E+01
         0.27500E+01
         0.27500E+01
         0.27500E+01
         0.27500E+01
         0.27500E+01
         0.27500E+01
         0.27500E+01
         0.27500E+01
         0.27500E+01
         0.27500E+01
         0.27500E+01
         0.27500E+01
         0.27500E+01
         0.27500E+01
         0.27500E+01
         0.27500E+01
         0.27500E+01
         0.27500E+01
         0.27500E+01
         0.27500E+01
         0.27500E+01
         0.27500E+01
         0.27500E+01
         0.27500E+01
         0.27500E+01
         0.27500E+01
         0.27500E+01
         0.27500E+01
         0.27500E+01
         0.27500E+01
         0.27500E+01
         0.27500E+01
         0.27500E+01
         0.27500E+01
         0.27500E+01
         0.27500E+01
         0.27500E+01
         0.27500E+01
         0.27500E+01
         0.27500E+01
         0.27500E+01
         0.27500E+01
         0.27500E+01
         0.27500E+01
         0.27500E+01
         0.27500E+01
         0.27500E+01
         0.27500E+01
         0.27500E+01
         0.27500E+01
         0.27500E+01
         0.27500E+01
         0.27500E+01
         0.27500E+01
         0.27500E+01
         0.27500E+01
         0.27500E+01
         0.27500E+01
         0.27500E+01
         0.27500E+01
         0.27500E+01
         0.27500E+01
         0.27500E+01
         0.27500E+01
         0.27500E+01
         0.27500E+01
         0.27500E+01
         0.27500E+01
         0.27500E+01
         0.27500E+01
         0.27500E+01
         0.27500E+01
         0.27500E+01
         0.27500E+01
         0.27500E+01
         0.27500E+01
         0.27500E+01
         0.27500E+01
         0.27500E+01
         0.27500E+01
         0.27500E+01
         0.27500E+01
         0.27500E+01
         0.27500E+01
         0.27500E+01
         0.27500E+01
         0.27500E+01
         0.27500E+01
         0.27500E+01
         0.27500E+01
         0.27500E+01
         0.27500E+01
         0.27500E+01
         0.27500E+01
         0.27500E+01
         0.27500E+01
         0.27500E+01
         0.27500E+01
         0.27500E+01
         0.27500E+01
         0.27500E+01
         0.27500E+01
         0.27500E+01
         0.27500E+01
         0.27500E+01
         0.27500E+01
         0.27500E+01
         0.27500E+01
         0.27500E+01
         0.27500E+01
         0.27500E+01
         0.27500E+01
         0.27500E+01
         0.27500E+01
         0.27500E+01
         0.27500E+01
         0.27500E+01
         0.27500E+01
         0.27500E+01
         0.27500E+01
         0.27500E+01
         0.27500E+01
         0.27500E+01
         0.27500E+01
         0.27500E+01
         0.27500E+01
         0.27500E+01
         0.27500E+01
         0.27500E+01
         0.27500E+01
         0.27500E+01
         0.27500E+01
         0.27500E+01
         0.27500E+01
         0.27500E+01
         0.27500E+01
         0.27500E+01
         0.27500E+01
         0.27500E+01
         0.27500E+01
         0.27500E+01
         0.27500E+01
         0.27500E+01
         0.27500E+01
         0.27500E+01
         0.27500E+01
         0.27500E+01
         0.27500E+01
         0.27500E+01
         0.27500E+01
         0.27500E+01
         0.27500E+01
         0.27500E+01
         0.27500E+01
         0.27500E+01
         0.27500E+01
         0.27500E+01
         0.27500E+01
         0.27500E+01
         0.27500E+01
         0.27500E+01
         0.27500E+01
         0.27500E+01
         0.27500E+01
         0.27500E+01
         0.27500E+01
         0.27500E+01
         0.27500E+01
         0.27500E+01
         0.27500E+01
         0.27500E+01
         0.27500E+01
         0.27500E+01
         0.27500E+01
         0.27500E+01
         0.27500E+01
         0.27500E+01
         0.27500E+01
         0.27500E+01
         0.27500E+01
         0.27500E+01
         0.27500E+01
         0.27500E+01
         0.27500E+01
         0.27500E+01
         0.27500E+01
         0.27500E+01
         0.27500E+01
         0.27500E+01
         0.27500E+01
         0.27500E+01
         0.27500E+01
         0.27500E+01
         0.27500E+01
         0.27500E+01
         0.27500E+01
         0.27500E+01
         0.27500E+01
         0.27500E+01
         0.27500E+01
         0.27500E+01
         0.27500E+01
         0.27500E+01
         0.27500E+01
         0.27500E+01
         0.27500E+01
         0.27500E+01
         0.27500E+01
         0.27500E+01
         0.27500E+01
         0.27500E+01
         0.27500E+01
         0.27500E+01
         0.27500E+01
         0.27500E+01
         0.27500E+01
         0.27500E+01
         0.27500E+01
         0.27500E+01
         0.27500E+01
         0.27500E+01
         0.27500E+01
         0.27500E+01
         0.27500E+01
         0.27500E+01
         0.27500E+01
         0.27500E+01
         0.27500E+01
         0.27500E+01
         0.27500E+01
         0.27500E+01
         0.27500E+01
         0.27500E+01
         0.27500E+01
         0.27500E+01
         0.27500E+01
         0.27500E+01
         0.27500E+01
         0.27500E+01
         0.27500E+01
         0.27500E+01
         0.27500E+01
         0.27500E+01
         0.27500E+01
         0.27500E+01
         0.27500E+01
         0.27500E+01
         0.27500E+01
         0.27500E+01
         0.27500E+01
         0.27500E+01
         0.27500E+01
         0.27500E+01
         0.27500E+01
         0.27500E+01
         0.27500E+01
         0.27500E+01
         0.27500E+01
         0.27500E+01
         0.27500E+01
         0.27500E+01
         0.27500E+01
         0.27500E+01
         0.27500E+01
         0.27500E+01
         0.27500E+01
         0.27500E+01
         0.27500E+01
         0.27500E+01
         0.27500E+01
         0.27500E+01
         0.27500E+01
         0.27500E+01
         0.27500E+01
         0.27500E+01
         0.27500E+01
         0.27500E+01
         0.27500E+01
         0.27500E+01
         0.27500E+01
         0.27500E+01
         0.27500E+01
         0.27500E+01
         0.27500E+01
         0.27500E+01
         0.27500E+01
         0.27500E+01
         0.27500E+01
         0.27500E+01
         0.27500E+01
         0.27500E+01
         0.27500E+01
         0.27500E+01
         0.27500E+01
         0.27500E+01
         0.27500E+01
         0.27500E+01
         0.27500E+01
         0.27500E+01
         0.27500E+01
         0.27500E+01
         0.27500E+01
         0.27500E+01
         0.27500E+01
         0.27500E+01
         0.27500E+01
         0.27500E+01
         0.27500E+01
         0.27500E+01
         0.27500E+01
         0.27500E+01
         0.27500E+01
         0.27500E+01
         0.27500E+01
         0.27500E+01
         0.27500E+01
         0.27500E+01
         0.27500E+01
         0.27500E+01
         0.27500E+01
         0.27500E+01
         0.27500E+01
         0.27500E+01
         0.27500E+01
         0.27500E+01
         0.27500E+01
         0.27500E+01
         0.27500E+01
         0.27500E+01
         0.27500E+01
         0.27500E+01
         0.27500E+01
         0.27500E+01
         0.27500E+01
         0.27500E+01
         0.27500E+01
         0.27500E+01
         0.27500E+01
         0.27500E+01
         0.27500E+01
         0.27500E+01
         0.27500E+01
         0.27500E+01
         0.27500E+01
         0.27500E+01
         0.27500E+01
         0.27500E+01
         0.27500E+01
         0.27500E+01
         0.27500E+01
         0.27500E+01
         0.27500E+01
         0.27500E+01
         0.27500E+01
         0.27500E+01
         0.27500E+01
         0.27500E+01
         0.27500E+01
         0.27500E+01
         0.27500E+01
         0.27500E+01
         0.27500E+01
         0.27500E+01
         0.27500E+01
         0.27500E+01
         0.27500E+01
         0.27500E+01
         0.27500E+01
         0.27500E+01
         0.27500E+01
         0.27500E+01
         0.27500E+01
         0.27500E+01
         0.27500E+01
         0.27500E+01
         0.27500E+01
         0.27500E+01
         0.27500E+01
         0.27500E+01
         0.27500E+01
         0.27500E+01
         0.27500E+01
         0.27500E+01
         0.27500E+01
         0.27500E+01
         0.27500E+01
         0.27500E+01
         0.27500E+01
         0.27500E+01
         0.27500E+01
         0.27500E+01
         0.27500E+01
         0.27500E+01
         0.27500E+01
         0.27500E+01
         0.27500E+01
         0.27500E+01
         0.27500E+01
         0.27500E+01
         0.27500E+01
         0.27500E+01
         0.27500E+01
         0.27500E+01
         0.27500E+01
         0.27500E+01
         0.27500E+01
         0.27500E+01
         0.27500E+01
         0.27500E+01
         0.27500E+01
         0.27500E+01
         0.27500E+01
         0.27500E+01
         0.27500E+01
         0.27500E+01
         0.27500E+01
         0.27500E+01
         0.27500E+01
         0.27500E+01
         0.27500E+01
         0.27500E+01
         0.27500E+01
         0.27500E+01
         0.27500E+01
         0.27500E+01
         0.27500E+01
         0.27500E+01
         0.27500E+01
         0.27500E+01
         0.27500E+01
         0.27500E+01
         0.27500E+01
         0.27500E+01
         0.27500E+01
         0.27500E+01
         0.27500E+01
         0.27500E+01
         0.27500E+01
         0.27500E+01
         0.27500E+01
         0.27500E+01
         0.27500E+01
         0.27500E+01
         0.27500E+01
         0.27500E+01
         0.27500E+01
         0.27500E+01
         0.27500E+01
         0.27500E+01
         0.27500E+01
         0.27500E+01
         0.27500E+01
         0.27500E+01
         0.27500E+01
         0.27500E+01
         0.27500E+01
         0.27500E+01
         0.27500E+01
         0.27500E+01
         0.27500E+01
         0.27500E+01
         0.27500E+01
         0.27500E+01
         0.27500E+01
         0.27500E+01
         0.27500E+01
         0.27500E+01
         0.27500E+01
         0.27500E+01
         0.27500E+01
         0.27500E+01
         0.27500E+01
         0.27500E+01
         0.27500E+01
         0.27500E+01
         0.27500E+01
         0.27500E+01
         0.27500E+01
         0.27500E+01
         0.27500E+01
         0.27500E+01
         0.27500E+01
         0.27500E+01
         0.27500E+01
         0.27500E+01
         0.27500E+01
         0.27500E+01
         0.27500E+01
         0.27500E+01
         0.27500E+01
         0.27500E+01
         0.27500E+01
         0.27500E+01
         0.27500E+01
         0.27500E+01
         0.27500E+01
         0.27500E+01
         0.27500E+01
         0.27500E+01
         0.27500E+01
         0.27500E+01
         0.27500E+01
         0.27500E+01
         0.27500E+01
         0.27500E+01
         0.27500E+01
         0.27500E+01
         0.27500E+01
         0.27500E+01
         0.27500E+01
         0.27500E+01
         0.27500E+01
         0.27500E+01
         0.27500E+01
         0.27500E+01
         0.27500E+01
         0.27500E+01
         0.27500E+01
         0.27500E+01
         0.27500E+01
         0.27500E+01
         0.27500E+01
         0.27500E+01
         0.27500E+01
         0.27500E+01
         0.27500E+01
         0.27500E+01
         0.27500E+01
         0.27500E+01
         0.27500E+01
         0.27500E+01
         0.27500E+01
         0.27500E+01
         0.27500E+01
         0.27500E+01
         0.27500E+01
         0.27500E+01
         0.27500E+01
         0.27500E+01
         0.27500E+01
         0.27500E+01
         0.27500E+01
         0.27500E+01
         0.27500E+01
         0.27500E+01
         0.27500E+01
         0.27500E+01
         0.27500E+01
         0.27500E+01
         0.27500E+01
         0.27500E+01
         0.27500E+01
         0.27500E+01
         0.27500E+01
         0.27500E+01
         0.27500E+01
         0.27500E+01
         0.27500E+01
         0.27500E+01
         0.27500E+01
         0.27500E+01
         0.27500E+01
         0.27500E+01
         0.27500E+01
         0.27500E+01
         0.27500E+01
         0.27500E+01
         0.27500E+01
         0.27500E+01
         0.27500E+01
         0.27500E+01
         0.27500E+01
         0.27500E+01
         0.27500E+01
         0.27500E+01
         0.27500E+01
         0.27500E+01
         0.27500E+01
         0.27500E+01
         0.27500E+01
         0.27500E+01
         0.27500E+01
         0.27500E+01
         0.27500E+01
         0.27500E+01
         0.27500E+01
         0.27500E+01
         0.27500E+01
         0.27500E+01
         0.27500E+01
         0.27500E+01
         0.27500E+01
         0.27500E+01
         0.27500E+01
         0.27500E+01
         0.27500E+01
         0.27500E+01
         0.27500E+01
         0.27500E+01
         0.27500E+01
         0.27500E+01
         0.27500E+01
         0.27500E+01
         0.27500E+01
         0.27500E+01
         0.27500E+01
         0.27500E+01
         0.27500E+01
         0.27500E+01
         0.27500E+01
         0.27500E+01
         0.27500E+01
         0.27500E+01
         0.27500E+01
         0.27500E+01
         0.27500E+01
         0.27500E+01
         0.27500E+01
         0.27500E+01
         0.27500E+01
         0.27500E+01
         0.27500E+01
         0.27500E+01
         0.27500E+01
         0.27500E+01
         0.27500E+01
         0.27500E+01
         0.27500E+01
         0.27500E+01
         0.27500E+01
         0.27500E+01
         0.27500E+01
         0.27500E+01
         0.27500E+01
         0.27500E+01
         0.27500E+01
         0.27500E+01
         0.27500E+01
         0.27500E+01
         0.27500E+01
         0.27500E+01
         0.27500E+01
         0.27500E+01
         0.27500E+01
         0.27500E+01
         0.27500E+01
         0.27500E+01
         0.27500E+01
         0.27500E+01
         0.27500E+01
         0.27500E+01
         0.27500E+01
         0.27500E+01
         0.27500E+01
         0.27500E+01
         0.27500E+01
         0.27500E+01
         0.27500E+01
         0.27500E+01
         0.27500E+01
         0.27500E+01
         0.27500E+01
         0.27500E+01
         0.27500E+01
         0.27500E+01
         0.27500E+01
         0.27500E+01
         0.27500E+01
         0.27500E+01
         0.27500E+01
         0.27500E+01
         0.27500E+01
         0.27500E+01
         0.27500E+01
         0.27500E+01
         0.27500E+01
         0.27500E+01
         0.27500E+01
         0.27500E+01
         0.27500E+01
         0.27500E+01
         0.27500E+01
         0.27500E+01
         0.27500E+01
         0.27500E+01
         0.27500E+01
         0.27500E+01
         0.27500E+01
         0.27500E+01
         0.27500E+01
         0.27500E+01
         0.27500E+01
         0.27500E+01
         0.27500E+01
         0.27500E+01
         0.27500E+01
         0.27500E+01
         0.27500E+01
         0.27500E+01
         0.27500E+01
         0.27500E+01
         0.27500E+01
         0.27500E+01
         0.27500E+01
         0.27500E+01
         0.27500E+01
         0.27500E+01
         0.27500E+01
         0.27500E+01
         0.27500E+01
         0.27500E+01
         0.27500E+01
         0.27500E+01
         0.27500E+01
         0.27500E+01
         0.27500E+01
         0.27500E+01
         0.27500E+01
         0.27500E+01
         0.27500E+01
         0.27500E+01
         0.27500E+01
         0.27500E+01
         0.27500E+01
         0.27500E+01
         0.27500E+01
         0.27500E+01
         0.27500E+01
         0.27500E+01
         0.27500E+01
         0.27500E+01
         0.27500E+01
         0.27500E+01
         0.27500E+01
         0.27500E+01
         0.27500E+01
         0.27500E+01
         0.27500E+01
         0.27500E+01
         0.27500E+01
         0.27500E+01
         0.27500E+01
         0.27500E+01
         0.27500E+01
         0.27500E+01
         0.27500E+01
         0.27500E+01
         0.27500E+01
         0.27500E+01
         0.27500E+01
         0.27500E+01
         0.27500E+01
         0.27500E+01
         0.27500E+01
         0.27500E+01
         0.27500E+01
         0.27500E+01
         0.27500E+01
         0.27500E+01
         0.27500E+01
         0.27500E+01
         0.27500E+01
         0.27500E+01
         0.27500E+01
         0.27500E+01
         0.27500E+01
         0.27500E+01
         0.27500E+01
         0.27500E+01
         0.27500E+01
         0.27500E+01
         0.27500E+01
         0.27500E+01
         0.27500E+01
         0.27500E+01
         0.27500E+01
         0.27500E+01
         0.27500E+01
         0.27500E+01
         0.27500E+01
         0.27500E+01
         0.27500E+01
         0.27500E+01
         0.27500E+01
         0.27500E+01
         0.27500E+01
         0.27500E+01
         0.27500E+01
         0.27500E+01
         0.27500E+01
         0.27500E+01
         0.27500E+01
         0.27500E+01
         0.27500E+01
         0.27500E+01
         0.27500E+01
         0.27500E+01
         0.27500E+01
         0.27500E+01
         0.27500E+01
         0.27500E+01
         0.27500E+01
         0.27500E+01
         0.27500E+01
         0.27500E+01
         0.27500E+01
         0.27500E+01
         0.27500E+01
         0.27500E+01
         0.27500E+01
         0.27500E+01
         0.27500E+01
         0.27500E+01
         0.27500E+01
         0.27500E+01
         0.27500E+01
         0.27500E+01
         0.27500E+01
         0.27500E+01
         0.27500E+01
         0.27500E+01
         0.27500E+01
         0.27500E+01
         0.27500E+01
         0.27500E+01
         0.27500E+01
         0.27500E+01
         0.27500E+01
         0.27500E+01
         0.27500E+01
         0.27500E+01
         0.27500E+01
         0.27500E+01
         0.27500E+01
         0.27500E+01
         0.27500E+01
         0.27500E+01
         0.27500E+01
         0.27500E+01
         0.27500E+01
         0.27500E+01
         0.27500E+01
         0.27500E+01
         0.27500E+01
         0.27500E+01
         0.27500E+01
         0.27500E+01
         0.27500E+01
         0.27500E+01
         0.27500E+01
         0.27500E+01
         0.27500E+01
         0.27500E+01
         0.27500E+01
         0.27500E+01
         0.27500E+01
         0.27500E+01
         0.27500E+01
         0.27500E+01
         0.27500E+01
         0.27500E+01
         0.27500E+01
         0.27500E+01
         0.27500E+01
         0.27500E+01
         0.27500E+01
         0.27500E+01
         0.27500E+01
         0.27500E+01
         0.27500E+01
         0.27500E+01
         0.27500E+01
         0.27500E+01
         0.27500E+01
         0.27500E+01
         0.27500E+01
         0.27500E+01
         0.27500E+01
         0.27500E+01
         0.27500E+01
         0.27500E+01
         0.27500E+01
         0.27500E+01
         0.27500E+01
         0.27500E+01
         0.27500E+01
         0.27500E+01
         0.27500E+01
         0.27500E+01
         0.27500E+01
         0.27500E+01
         0.27500E+01
         0.27500E+01
         0.27500E+01
         0.27500E+01
         0.27500E+01
         0.27500E+01
         0.27500E+01
         0.27500E+01
         0.27500E+01
         0.27500E+01
         0.27500E+01
         0.27500E+01
         0.27500E+01
         0.27500E+01
         0.27500E+01
         0.27500E+01
         0.27500E+01
         0.27500E+01
         0.27500E+01
         0.27500E+01
         0.27500E+01
         0.27500E+01
         0.27500E+01
         0.27500E+01
         0.27500E+01
         0.27500E+01
         0.27500E+01
         0.27500E+01
         0.27500E+01
         0.27500E+01
         0.27500E+01
         0.27500E+01
         0.27500E+01
         0.27500E+01
         0.27500E+01
         0.27500E+01
         0.27500E+01
         0.27500E+01
         0.27500E+01
         0.27500E+01
         0.27500E+01
         0.27500E+01
         0.27500E+01
         0.27500E+01
         0.27500E+01
         0.27500E+01
         0.27500E+01
         0.27500E+01
         0.27500E+01
         0.27500E+01
         0.27500E+01
         0.27500E+01
         0.27500E+01
         0.27500E+01
         0.27500E+01
         0.27500E+01
         0.27500E+01
         0.27500E+01
         0.27500E+01
         0.27500E+01
         0.27500E+01
         0.27500E+01
         0.27500E+01
         0.27500E+01
         0.27500E+01
         0.27500E+01
         0.27500E+01
         0.27500E+01
         0.27500E+01
         0.27500E+01
         0.27500E+01
         0.27500E+01
         0.27500E+01
         0.27500E+01
         0.27500E+01
         0.27500E+01
         0.27500E+01
         0.27500E+01
         0.27500E+01
         0.27500E+01
         0.27500E+01
         0.27500E+01
         0.27500E+01
         0.27500E+01
         0.27500E+01
         0.27500E+01
         0.27500E+01
         0.27500E+01
         0.27500E+01
         0.27500E+01
         0.27500E+01
         0.27500E+01
         0.27500E+01
         0.27500E+01
         0.27500E+01
         0.27500E+01
         0.27500E+01
         0.27500E+01
         0.27500E+01
         0.27500E+01
         0.27500E+01
         0.27500E+01
         0.27500E+01
         0.27500E+01
         0.27500E+01
         0.27500E+01
         0.27500E+01
         0.27500E+01
         0.27500E+01
         0.27500E+01
         0.27500E+01
         0.27500E+01
         0.27500E+01
         0.27500E+01
         0.27500E+01
         0.27500E+01
         0.27500E+01
         0.27500E+01
         0.27500E+01
         0.27500E+01
         0.27500E+01
         0.27500E+01
         0.27500E+01
         0.27500E+01
         0.27500E+01
         0.27500E+01
         0.27500E+01
         0.27500E+01
         0.27500E+01
         0.27500E+01
         0.27500E+01
         0.27500E+01
         0.27500E+01
         0.27500E+01
         0.27500E+01
         0.27500E+01
         0.27500E+01
         0.27500E+01
         0.27500E+01
         0.27500E+01
         0.27500E+01
         0.27500E+01
         0.27500E+01
         0.27500E+01
         0.27500E+01
         0.27500E+01
         0.27500E+01
         0.27500E+01
         0.27500E+01
         0.27500E+01
         0.27500E+01
         0.27500E+01
         0.27500E+01
         0.27500E+01
         0.27500E+01
         0.27500E+01
         0.27500E+01
         0.27500E+01
         0.27500E+01
         0.27500E+01
         0.27500E+01
         0.27500E+01
         0.27500E+01
         0.27500E+01
         0.27500E+01
         0.27500E+01
         0.27500E+01
         0.27500E+01
         0.27500E+01
         0.27500E+01
         0.27500E+01
         0.27500E+01
         0.27500E+01
         0.27500E+01
         0.27500E+01
         0.27500E+01
         0.27500E+01
         0.27500E+01
         0.27500E+01
         0.27500E+01
         0.27500E+01
         0.27500E+01
         0.27500E+01
         0.27500E+01
         0.27500E+01
         0.27500E+01
         0.27500E+01
         0.27500E+01
         0.27500E+01
         0.27500E+01
         0.27500E+01
         0.27500E+01
         0.27500E+01
         0.27500E+01
         0.27500E+01
         0.27500E+01
         0.27500E+01
         0.27500E+01
         0.27500E+01
         0.27500E+01
         0.27500E+01
         0.27500E+01
         0.27500E+01
         0.27500E+01
         0.27500E+01
         0.27500E+01
         0.27500E+01
         0.27500E+01
         0.27500E+01
         0.27500E+01
         0.27500E+01
         0.27500E+01
         0.27500E+01
         0.27500E+01
         0.27500E+01
         0.27500E+01
         0.27500E+01
         0.27500E+01
         0.27500E+01
         0.27500E+01
         0.27500E+01
         0.27500E+01
         0.27500E+01
         0.27500E+01
         0.27500E+01
         0.27500E+01
         0.27500E+01
         0.27500E+01
         0.27500E+01
         0.27500E+01
         0.27500E+01
         0.27500E+01
         0.27500E+01
         0.27500E+01
         0.27500E+01
         0.27500E+01
         0.27500E+01
         0.27500E+01
         0.27500E+01
         0.27500E+01
         0.27500E+01
         0.27500E+01
         0.27500E+01
         0.27500E+01
         0.27500E+01
         0.27500E+01
         0.27500E+01
         0.27500E+01
         0.27500E+01
         0.27500E+01
         0.27500E+01
         0.27500E+01
         0.27500E+01
         0.27500E+01
         0.27500E+01
         0.27500E+01
         0.27500E+01
         0.27500E+01
         0.27500E+01
         0.27500E+01
         0.27500E+01
         0.27500E+01
         0.27500E+01
         0.27500E+01
         0.27500E+01
         0.27500E+01
         0.27500E+01
         0.27500E+01
         0.27500E+01
         0.27500E+01
         0.27500E+01
         0.27500E+01
         0.27500E+01
         0.27500E+01
         0.27500E+01
         0.27500E+01
         0.27500E+01
         0.27500E+01
         0.27500E+01
         0.27500E+01
         0.27500E+01
         0.27500E+01
         0.27500E+01
         0.27500E+01
         0.27500E+01
         0.27500E+01
         0.27500E+01
         0.27500E+01
         0.27500E+01
         0.27500E+01
         0.27500E+01
         0.27500E+01
         0.27500E+01
         0.27500E+01
         0.27500E+01
         0.27500E+01
         0.27500E+01
         0.27500E+01
         0.27500E+01
         0.27500E+01
         0.27500E+01
         0.27500E+01
         0.27500E+01
         0.27500E+01
         0.27500E+01
         0.27500E+01
         0.27500E+01
         0.27500E+01
         0.27500E+01
         0.27500E+01
         0.27500E+01
         0.27500E+01
         0.27500E+01
         0.27500E+01
         0.27500E+01
         0.27500E+01
         0.27500E+01
         0.27500E+01
         0.27500E+01
         0.27500E+01
         0.27500E+01
         0.27500E+01
         0.27500E+01
         0.27500E+01
         0.27500E+01
         0.27500E+01
         0.27500E+01
         0.27500E+01
         0.27500E+01
         0.27500E+01
         0.27500E+01
         0.27500E+01
         0.27500E+01
         0.27500E+01
         0.27500E+01
         0.27500E+01
         0.27500E+01
         0.27500E+01
         0.27500E+01
         0.27500E+01
         0.27500E+01
         0.27500E+01
         0.27500E+01
         0.27500E+01
         0.27500E+01
         0.27500E+01
         0.27500E+01
         0.27500E+01
         0.27500E+01
         0.27500E+01
         0.27500E+01
         0.27500E+01
         0.27500E+01
         0.27500E+01
         0.27500E+01
         0.27500E+01
         0.27500E+01
         0.27500E+01
         0.27500E+01
         0.27500E+01
         0.27500E+01
         0.27500E+01
         0.27500E+01
         0.27500E+01
         0.27500E+01
         0.27500E+01
         0.27500E+01
         0.27500E+01
         0.27500E+01
         0.27500E+01
         0.27500E+01
         0.27500E+01
         0.27500E+01
         0.27500E+01
         0.27500E+01
         0.27500E+01
         0.27500E+01
         0.27500E+01
         0.27500E+01
         0.27500E+01
         0.27500E+01
         0.27500E+01
         0.27500E+01
         0.27500E+01
         0.27500E+01
         0.27500E+01
         0.27500E+01
         0.27500E+01
         0.27500E+01
         0.27500E+01
         0.27500E+01
         0.27500E+01
         0.27500E+01
         0.27500E+01
         0.27500E+01
         0.27500E+01
         0.27500E+01
         0.27500E+01
         0.27500E+01
         0.27500E+01
         0.27500E+01
         0.27500E+01
         0.27500E+01
         0.27500E+01
         0.27500E+01
         0.27500E+01
         0.27500E+01
         0.27500E+01
         0.27500E+01
         0.27500E+01
         0.27500E+01
         0.27500E+01
         0.27500E+01
         0.27500E+01
         0.27500E+01
         0.27500E+01
         0.27500E+01
         0.27500E+01
         0.27500E+01
         0.27500E+01
         0.27500E+01
         0.27500E+01
         0.27500E+01
         0.27500E+01
         0.27500E+01
         0.27500E+01
         0.27500E+01
         0.27500E+01
         0.27500E+01
         0.27500E+01
         0.27500E+01
         0.27500E+01
         0.27500E+01
         0.27500E+01
         0.27500E+01
         0.27500E+01
         0.27500E+01
         0.27500E+01
         0.27500E+01
         0.27500E+01
         0.27500E+01
         0.27500E+01
         0.27500E+01
         0.27500E+01
         0.27500E+01
         0.27500E+01
         0.27500E+01
         0.27500E+01
         0.27500E+01
         0.27500E+01
         0.27500E+01
         0.27500E+01
         0.27500E+01
         0.27500E+01
         0.27500E+01
         0.27500E+01
         0.27500E+01
         0.27500E+01
         0.27500E+01
         0.27500E+01
         0.27500E+01
         0.27500E+01
         0.27500E+01
         0.27500E+01
         0.27500E+01
         0.27500E+01
         0.27500E+01
         0.27500E+01
         0.27500E+01
         0.27500E+01
         0.27500E+01
         0.27500E+01
         0.27500E+01
         0.27500E+01
         0.27500E+01
         0.27500E+01
         0.27500E+01
         0.27500E+01
         0.27500E+01
         0.27500E+01
         0.27500E+01
         0.27500E+01
         0.27500E+01
         0.27500E+01
         0.27500E+01
         0.27500E+01
         0.27500E+01
         0.27500E+01
         0.27500E+01
         0.27500E+01
         0.27500E+01
         0.27500E+01
         0.27500E+01
         0.27500E+01
         0.27500E+01
         0.27500E+01
         0.27500E+01
         0.27500E+01
         0.27500E+01
         0.27500E+01
         0.27500E+01
         0.27500E+01
         0.27500E+01
         0.27500E+01
         0.27500E+01
         0.27500E+01
         0.27500E+01
         0.27500E+01
         0.27500E+01
         0.27500E+01
         0.27500E+01
         0.27500E+01
         0.27500E+01
         0.27500E+01
         0.27500E+01
         0.27500E+01
         0.27500E+01
         0.27500E+01
         0.27500E+01
         0.27500E+01
         0.27500E+01
         0.27500E+01
         0.27500E+01
         0.27500E+01
         0.27500E+01
         0.27500E+01
         0.27500E+01
         0.27500E+01
         0.27500E+01
         0.27500E+01
         0.27500E+01
         0.27500E+01
         0.27500E+01
         0.27500E+01
         0.27500E+01
         0.27500E+01
         0.27500E+01
         0.27500E+01
         0.27500E+01
         0.27500E+01
         0.27500E+01
         0.27500E+01
         0.27500E+01
         0.27500E+01
         0.27500E+01
         0.27500E+01
         0.27500E+01
         0.27500E+01
         0.27500E+01
         0.27500E+01
         0.27500E+01
         0.27500E+01
         0.27500E+01
         0.27500E+01
         0.27500E+01
         0.27500E+01
         0.27500E+01
         0.27500E+01
         0.27500E+01
         0.27500E+01
         0.27500E+01
         0.27500E+01
         0.27500E+01
         0.27500E+01
         0.27500E+01
         0.27500E+01
         0.27500E+01
         0.27500E+01
         0.27500E+01
         0.27500E+01
         0.27500E+01
         0.27500E+01
         0.27500E+01
         0.27500E+01
         0.27500E+01
         0.27500E+01
         0.27500E+01
         0.27500E+01
         0.27500E+01
         0.27500E+01
         0.27500E+01
         0.27500E+01
         0.27500E+01
         0.27500E+01
         0.27500E+01
         0.27500E+01
         0.27500E+01
         0.27500E+01
         0.27500E+01
         0.27500E+01
         0.27500E+01
         0.27500E+01
         0.27500E+01
         0.27500E+01
         0.27500E+01
         0.27500E+01
         0.27500E+01
         0.27500E+01
         0.27500E+01
         0.27500E+01
         0.27500E+01
         0.27500E+01
         0.27500E+01
         0.27500E+01
         0.27500E+01
         0.27500E+01
         0.27500E+01
         0.27500E+01
         0.27500E+01
         0.27500E+01
         0.27500E+01
         0.27500E+01
         0.27500E+01
         0.27500E+01
         0.27500E+01
         0.27500E+01
         0.27500E+01
         0.27500E+01
         0.27500E+01
         0.27500E+01
         0.27500E+01
         0.27500E+01
         0.27500E+01
         0.27500E+01
         0.27500E+01
         0.27500E+01
         0.27500E+01
         0.27500E+01
         0.27500E+01
         0.27500E+01
         0.27500E+01
         0.27500E+01
         0.27500E+01
         0.27500E+01
         0.27500E+01
         0.27500E+01
         0.27500E+01
         0.27500E+01
         0.27500E+01
         0.27500E+01
         0.27500E+01
         0.27500E+01
         0.27500E+01
         0.27500E+01
         0.27500E+01
         0.27500E+01
         0.27500E+01
         0.27500E+01
         0.27500E+01
         0.27500E+01
         0.27500E+01
         0.27500E+01
         0.27500E+01
         0.27500E+01
         0.27500E+01
         0.27500E+01
         0.27500E+01
         0.27500E+01
         0.27500E+01
         0.27500E+01
         0.27500E+01
         0.27500E+01
         0.27500E+01
         0.27500E+01
         0.27500E+01
         0.27500E+01
         0.27500E+01
         0.27500E+01
         0.27500E+01
         0.27500E+01
         0.27500E+01
         0.27500E+01
         0.27500E+01
         0.27500E+01
         0.27500E+01
         0.27500E+01
         0.27500E+01
         0.27500E+01
         0.27500E+01
         0.27500E+01
         0.27500E+01
         0.27500E+01
         0.27500E+01
         0.27500E+01
         0.27500E+01
         0.27500E+01
         0.27500E+01
         0.27500E+01
         0.27500E+01
         0.27500E+01
         0.27500E+01
         0.27500E+01
         0.27500E+01
         0.27500E+01
         0.27500E+01
         0.27500E+01
         0.27500E+01
         0.27500E+01
         0.27500E+01
         0.27500E+01
         0.27500E+01
         0.27500E+01
         0.27500E+01
         0.27500E+01
         0.27500E+01
         0.27500E+01
         0.27500E+01
         0.27500E+01
         0.27500E+01
         0.27500E+01
         0.27500E+01
         0.27500E+01
         0.27500E+01
         0.27500E+01
         0.27500E+01
         0.27500E+01
         0.27500E+01
         0.27500E+01
         0.27500E+01
         0.27500E+01
         0.27500E+01
         0.27500E+01
         0.27500E+01
         0.27500E+01
         0.27500E+01
         0.27500E+01
         0.27500E+01
         0.27500E+01
         0.27500E+01
         0.27500E+01
         0.27500E+01
         0.27500E+01
         0.27500E+01
         0.27500E+01
         0.27500E+01
         0.27500E+01
         0.27500E+01
         0.27500E+01
         0.27500E+01
         0.27500E+01
         0.27500E+01
         0.27500E+01
         0.27500E+01
         0.27500E+01
         0.27500E+01
         0.27500E+01
         0.27500E+01
         0.27500E+01
         0.27500E+01
         0.27500E+01
         0.27500E+01
         0.27500E+01
         0.27500E+01
         0.27500E+01
         0.27500E+01
         0.27500E+01
         0.27500E+01
         0.27500E+01
         0.27500E+01
         0.27500E+01
         0.27500E+01
         0.27500E+01
         0.27500E+01
         0.27500E+01
         0.27500E+01
         0.27500E+01
         0.27500E+01
         0.27500E+01
         0.27500E+01
         0.27500E+01
         0.27500E+01
         0.27500E+01
         0.27500E+01
         0.27500E+01
         0.27500E+01
         0.27500E+01
         0.27500E+01
         0.27500E+01
         0.27500E+01
         0.27500E+01
         0.27500E+01
         0.27500E+01
         0.27500E+01
         0.27500E+01
         0.27500E+01
         0.27500E+01
         0.27500E+01
         0.27500E+01
         0.27500E+01
         0.27500E+01
         0.27500E+01
         0.27500E+01
         0.27500E+01
         0.27500E+01
         0.27500E+01
         0.27500E+01
         0.27500E+01
         0.27500E+01
         0.27500E+01
         0.27500E+01
         0.27500E+01
         0.27500E+01
         0.27500E+01
         0.27500E+01
         0.27500E+01
         0.27500E+01
         0.27500E+01
         0.27500E+01
         0.27500E+01
         0.27500E+01
         0.27500E+01
         0.27500E+01
         0.27500E+01
         0.27500E+01
         0.27500E+01
         0.27500E+01
         0.27500E+01
         0.27500E+01
         0.27500E+01
         0.27500E+01
         0.27500E+01
         0.27500E+01
         0.27500E+01
         0.27500E+01
         0.27500E+01
         0.27500E+01
         0.27500E+01
         0.27500E+01
         0.27500E+01
         0.27500E+01
         0.27500E+01
         0.27500E+01
         0.27500E+01
         0.27500E+01
         0.27500E+01
         0.27500E+01
         0.27500E+01
         0.27500E+01
         0.27500E+01
         0.27500E+01
         0.27500E+01
         0.27500E+01
         0.27500E+01
         0.27500E+01
         0.27500E+01
         0.27500E+01
         0.27500E+01
         0.27500E+01
         0.27500E+01
         0.27500E+01
         0.27500E+01
         0.27500E+01
         0.27500E+01
         0.27500E+01
         0.27500E+01
         0.27500E+01
         0.27500E+01
         0.27500E+01
         0.27500E+01
         0.27500E+01
         0.27500E+01
         0.27500E+01
         0.27500E+01
         0.27500E+01
         0.27500E+01
         0.27500E+01
         0.27500E+01
         0.27500E+01
         0.27500E+01
         0.27500E+01
         0.27500E+01
         0.27500E+01
         0.27500E+01
         0.27500E+01
         0.27500E+01
         0.27500E+01
         0.27500E+01
         0.27500E+01
         0.27500E+01
         0.27500E+01
         0.27500E+01
         0.27500E+01
         0.27500E+01
         0.27500E+01
         0.27500E+01
  
SCALARS              physical_window_x  double 1
LOOKUP_TABLE default
         0.42419E-02
         0.35201E-02
         0.37624E-02
         0.42419E-02
         0.42417E-02
         0.35201E-02
         0.37618E-02
         0.42417E-02
         0.37624E-02
         0.37624E-02
         0.37618E-02
         0.37618E-02
         0.30086E-02
         0.32069E-02
         0.30084E-02
         0.32067E-02
         0.42419E-02
         0.32069E-02
         0.42417E-02
         0.32067E-02
         0.24180E-02
         0.29942E-02
         0.32396E-02
         0.24180E-02
         0.29933E-02
         0.32385E-02
         0.26608E-02
         0.27190E-02
         0.26608E-02
         0.27190E-02
         0.42687E-02
         0.36511E-02
         0.42687E-02
         0.42687E-02
         0.36511E-02
         0.42687E-02
         0.32069E-02
         0.29739E-02
         0.32066E-02
         0.29739E-02
         0.34652E-02
         0.32621E-02
         0.34652E-02
         0.32621E-02
         0.37123E-02
         0.32069E-02
         0.37123E-02
         0.32066E-02
         0.30844E-02
         0.30844E-02
         0.35191E-02
         0.35189E-02
         0.26925E-02
         0.26925E-02
         0.26925E-02
         0.26925E-02
         0.24643E-02
         0.27651E-02
         0.24643E-02
         0.27651E-02
         0.42687E-02
         0.35191E-02
         0.42687E-02
         0.35189E-02
         0.42687E-02
         0.42687E-02
         0.34658E-02
         0.34648E-02
         0.27274E-02
         0.31799E-02
         0.27273E-02
         0.31796E-02
         0.32396E-02
         0.32385E-02
         0.26964E-02
         0.26960E-02
         0.27828E-02
         0.27828E-02
         0.27828E-02
         0.27828E-02
         0.27004E-02
         0.31883E-02
         0.27003E-02
         0.31880E-02
         0.31883E-02
         0.31880E-02
         0.37123E-02
         0.37123E-02
         0.36245E-02
         0.36245E-02
         0.28253E-02
         0.31642E-02
         0.28253E-02
         0.31636E-02
         0.33485E-02
         0.33485E-02
         0.33485E-02
         0.33485E-02
         0.31978E-02
         0.31969E-02
         0.29849E-02
         0.32843E-02
         0.29849E-02
         0.32843E-02
         0.27274E-02
         0.31109E-02
         0.27273E-02
         0.31109E-02
         0.31799E-02
         0.31796E-02
         0.32396E-02
         0.32385E-02
         0.32396E-02
         0.32385E-02
         0.29942E-02
         0.29933E-02
         0.27190E-02
         0.27190E-02
         0.26964E-02
         0.26960E-02
         0.27828E-02
         0.27828E-02
         0.27828E-02
         0.27828E-02
         0.27004E-02
         0.27003E-02
         0.31883E-02
         0.31880E-02
         0.31883E-02
         0.31880E-02
         0.32621E-02
         0.32621E-02
         0.34652E-02
         0.34652E-02
         0.37123E-02
         0.37123E-02
         0.37123E-02
         0.37123E-02
         0.36245E-02
         0.36245E-02
         0.28253E-02
         0.28253E-02
         0.29097E-02
         0.29087E-02
         0.32389E-02
         0.32378E-02
         0.32389E-02
         0.32378E-02
         0.31978E-02
         0.31969E-02
         0.29849E-02
         0.29849E-02
         0.32843E-02
         0.32843E-02
         0.32843E-02
         0.32843E-02
         0.42420E-02
         0.35201E-02
         0.37629E-02
         0.42420E-02
         0.37629E-02
         0.37629E-02
         0.30087E-02
         0.32071E-02
         0.42420E-02
         0.32071E-02
         0.24178E-02
         0.29952E-02
         0.32407E-02
         0.26596E-02
         0.27191E-02
         0.42679E-02
         0.36502E-02
         0.42679E-02
         0.32071E-02
         0.29727E-02
         0.34648E-02
         0.32622E-02
         0.37119E-02
         0.32071E-02
         0.30833E-02
         0.35193E-02
         0.26910E-02
         0.26910E-02
         0.24638E-02
         0.27644E-02
         0.42679E-02
         0.35193E-02
         0.42679E-02
         0.34670E-02
         0.27274E-02
         0.31802E-02
         0.32407E-02
         0.26968E-02
         0.27828E-02
         0.27828E-02
         0.27005E-02
         0.31885E-02
         0.31885E-02
         0.37119E-02
         0.36244E-02
         0.28250E-02
         0.31647E-02
         0.33484E-02
         0.33484E-02
         0.31986E-02
         0.29848E-02
         0.32841E-02
         0.27274E-02
         0.31099E-02
         0.31802E-02
         0.32407E-02
         0.32407E-02
         0.29952E-02
         0.27191E-02
         0.26968E-02
         0.27828E-02
         0.27828E-02
         0.27005E-02
         0.31885E-02
         0.31885E-02
         0.32622E-02
         0.34648E-02
         0.37119E-02
         0.37119E-02
         0.36244E-02
         0.28250E-02
         0.29106E-02
         0.32401E-02
         0.32401E-02
         0.31986E-02
         0.29848E-02
         0.32841E-02
         0.32841E-02
         0.42421E-02
         0.35201E-02
         0.37634E-02
         0.42421E-02
         0.37634E-02
         0.37634E-02
         0.30089E-02
         0.32073E-02
         0.42421E-02
         0.32073E-02
         0.24177E-02
         0.29961E-02
         0.32418E-02
         0.26584E-02
         0.27191E-02
         0.42670E-02
         0.36493E-02
         0.42670E-02
         0.32073E-02
         0.29714E-02
         0.34644E-02
         0.32623E-02
         0.37115E-02
         0.32073E-02
         0.30822E-02
         0.35195E-02
         0.26896E-02
         0.26896E-02
         0.24633E-02
         0.27638E-02
         0.42670E-02
         0.35195E-02
         0.42670E-02
         0.34681E-02
         0.27275E-02
         0.31805E-02
         0.32418E-02
         0.26972E-02
         0.27828E-02
         0.27828E-02
         0.27006E-02
         0.31888E-02
         0.31888E-02
         0.37115E-02
         0.36243E-02
         0.28247E-02
         0.31652E-02
         0.33483E-02
         0.33483E-02
         0.31995E-02
         0.29847E-02
         0.32839E-02
         0.27275E-02
         0.31090E-02
         0.31805E-02
         0.32418E-02
         0.32418E-02
         0.29961E-02
         0.27191E-02
         0.26972E-02
         0.27828E-02
         0.27828E-02
         0.27006E-02
         0.31888E-02
         0.31888E-02
         0.32623E-02
         0.34644E-02
         0.37115E-02
         0.37115E-02
         0.36243E-02
         0.28247E-02
         0.29116E-02
         0.32412E-02
         0.32412E-02
         0.31995E-02
         0.29847E-02
         0.32839E-02
         0.32839E-02
         0.42423E-02
         0.35200E-02
         0.37639E-02
         0.42423E-02
         0.37639E-02
         0.37639E-02
         0.30091E-02
         0.32075E-02
         0.42423E-02
         0.32075E-02
         0.24176E-02
         0.29970E-02
         0.32428E-02
         0.26572E-02
         0.27192E-02
         0.42662E-02
         0.36483E-02
         0.42662E-02
         0.32075E-02
         0.29702E-02
         0.34639E-02
         0.32624E-02
         0.37111E-02
         0.32075E-02
         0.30811E-02
         0.35197E-02
         0.26881E-02
         0.26881E-02
         0.24628E-02
         0.27631E-02
         0.42662E-02
         0.35197E-02
         0.42662E-02
         0.34692E-02
         0.27276E-02
         0.31808E-02
         0.32428E-02
         0.26975E-02
         0.27828E-02
         0.27828E-02
         0.27007E-02
         0.31890E-02
         0.31890E-02
         0.37111E-02
         0.36242E-02
         0.28243E-02
         0.31658E-02
         0.33482E-02
         0.33482E-02
         0.32003E-02
         0.29846E-02
         0.32837E-02
         0.27276E-02
         0.31081E-02
         0.31808E-02
         0.32428E-02
         0.32428E-02
         0.29970E-02
         0.27192E-02
         0.26975E-02
         0.27828E-02
         0.27828E-02
         0.27007E-02
         0.31890E-02
         0.31890E-02
         0.32624E-02
         0.34639E-02
         0.37111E-02
         0.37111E-02
         0.36242E-02
         0.28243E-02
         0.29125E-02
         0.32423E-02
         0.32423E-02
         0.32003E-02
         0.29846E-02
         0.32837E-02
         0.32837E-02
         0.42424E-02
         0.35200E-02
         0.37644E-02
         0.42424E-02
         0.37644E-02
         0.37644E-02
         0.30093E-02
         0.32077E-02
         0.42424E-02
         0.32077E-02
         0.24174E-02
         0.29979E-02
         0.32439E-02
         0.26559E-02
         0.27192E-02
         0.42653E-02
         0.36474E-02
         0.42653E-02
         0.32077E-02
         0.29690E-02
         0.34635E-02
         0.32624E-02
         0.37108E-02
         0.32077E-02
         0.30799E-02
         0.35199E-02
         0.26867E-02
         0.26867E-02
         0.24623E-02
         0.27625E-02
         0.42653E-02
         0.35199E-02
         0.42653E-02
         0.34703E-02
         0.27276E-02
         0.31812E-02
         0.32439E-02
         0.26979E-02
         0.27828E-02
         0.27828E-02
         0.27008E-02
         0.31893E-02
         0.31893E-02
         0.37108E-02
         0.36241E-02
         0.28240E-02
         0.31663E-02
         0.33481E-02
         0.33481E-02
         0.32012E-02
         0.29844E-02
         0.32835E-02
         0.27276E-02
         0.31071E-02
         0.31812E-02
         0.32439E-02
         0.32439E-02
         0.29979E-02
         0.27192E-02
         0.26979E-02
         0.27828E-02
         0.27828E-02
         0.27008E-02
         0.31893E-02
         0.31893E-02
         0.32624E-02
         0.34635E-02
         0.37108E-02
         0.37108E-02
         0.36241E-02
         0.28240E-02
         0.29135E-02
         0.32434E-02
         0.32434E-02
         0.32012E-02
         0.29844E-02
         0.32835E-02
         0.32835E-02
         0.42425E-02
         0.35200E-02
         0.37649E-02
         0.42425E-02
         0.37649E-02
         0.37649E-02
         0.30095E-02
         0.32079E-02
         0.42425E-02
         0.32079E-02
         0.24173E-02
         0.29989E-02
         0.32450E-02
         0.26547E-02
         0.27193E-02
         0.42645E-02
         0.36465E-02
         0.42645E-02
         0.32079E-02
         0.29677E-02
         0.34631E-02
         0.32625E-02
         0.37104E-02
         0.32079E-02
         0.30788E-02
         0.35201E-02
         0.26852E-02
         0.26852E-02
         0.24618E-02
         0.27618E-02
         0.42645E-02
         0.35201E-02
         0.42645E-02
         0.34715E-02
         0.27277E-02
         0.31815E-02
         0.32450E-02
         0.26983E-02
         0.27828E-02
         0.27828E-02
         0.27009E-02
         0.31895E-02
         0.31895E-02
         0.37104E-02
         0.36239E-02
         0.28237E-02
         0.31668E-02
         0.33480E-02
         0.33480E-02
         0.32020E-02
         0.29843E-02
         0.32833E-02
         0.27277E-02
         0.31062E-02
         0.31815E-02
         0.32450E-02
         0.32450E-02
         0.29989E-02
         0.27193E-02
         0.26983E-02
         0.27828E-02
         0.27828E-02
         0.27009E-02
         0.31895E-02
         0.31895E-02
         0.32625E-02
         0.34631E-02
         0.37104E-02
         0.37104E-02
         0.36239E-02
         0.28237E-02
         0.29145E-02
         0.32445E-02
         0.32445E-02
         0.32020E-02
         0.29843E-02
         0.32833E-02
         0.32833E-02
         0.42427E-02
         0.35200E-02
         0.37654E-02
         0.42427E-02
         0.37654E-02
         0.37654E-02
         0.30097E-02
         0.32081E-02
         0.42427E-02
         0.32081E-02
         0.24171E-02
         0.29998E-02
         0.32461E-02
         0.26535E-02
         0.27193E-02
         0.42636E-02
         0.36455E-02
         0.42636E-02
         0.32081E-02
         0.29665E-02
         0.34626E-02
         0.32626E-02
         0.37100E-02
         0.32081E-02
         0.30777E-02
         0.35203E-02
         0.26838E-02
         0.26838E-02
         0.24613E-02
         0.27611E-02
         0.42636E-02
         0.35203E-02
         0.42636E-02
         0.34726E-02
         0.27278E-02
         0.31818E-02
         0.32461E-02
         0.26987E-02
         0.27827E-02
         0.27827E-02
         0.27010E-02
         0.31898E-02
         0.31898E-02
         0.37100E-02
         0.36238E-02
         0.28234E-02
         0.31673E-02
         0.33479E-02
         0.33479E-02
         0.32029E-02
         0.29842E-02
         0.32831E-02
         0.27278E-02
         0.31052E-02
         0.31818E-02
         0.32461E-02
         0.32461E-02
         0.29998E-02
         0.27193E-02
         0.26987E-02
         0.27827E-02
         0.27827E-02
         0.27010E-02
         0.31898E-02
         0.31898E-02
         0.32626E-02
         0.34626E-02
         0.37100E-02
         0.37100E-02
         0.36238E-02
         0.28234E-02
         0.29154E-02
         0.32457E-02
         0.32457E-02
         0.32029E-02
         0.29842E-02
         0.32831E-02
         0.32831E-02
         0.42428E-02
         0.35199E-02
         0.37660E-02
         0.42428E-02
         0.37660E-02
         0.37660E-02
         0.30099E-02
         0.32083E-02
         0.42428E-02
         0.32083E-02
         0.24170E-02
         0.30007E-02
         0.32471E-02
         0.26523E-02
         0.27194E-02
         0.42628E-02
         0.36446E-02
         0.42628E-02
         0.32083E-02
         0.29652E-02
         0.34622E-02
         0.32627E-02
         0.37096E-02
         0.32083E-02
         0.30766E-02
         0.35205E-02
         0.26823E-02
         0.26823E-02
         0.24608E-02
         0.27605E-02
         0.42628E-02
         0.35205E-02
         0.42628E-02
         0.34737E-02
         0.27279E-02
         0.31821E-02
         0.32471E-02
         0.26991E-02
         0.27827E-02
         0.27827E-02
         0.27011E-02
         0.31900E-02
         0.31900E-02
         0.37096E-02
         0.36237E-02
         0.28231E-02
         0.31679E-02
         0.33478E-02
         0.33478E-02
         0.32038E-02
         0.29841E-02
         0.32829E-02
         0.27279E-02
         0.31043E-02
         0.31821E-02
         0.32471E-02
         0.32471E-02
         0.30007E-02
         0.27194E-02
         0.26991E-02
         0.27827E-02
         0.27827E-02
         0.27011E-02
         0.31900E-02
         0.31900E-02
         0.32627E-02
         0.34622E-02
         0.37096E-02
         0.37096E-02
         0.36237E-02
         0.28231E-02
         0.29164E-02
         0.32468E-02
         0.32468E-02
         0.32038E-02
         0.29841E-02
         0.32829E-02
         0.32829E-02
         0.42429E-02
         0.35199E-02
         0.37665E-02
         0.42429E-02
         0.37665E-02
         0.37665E-02
         0.30101E-02
         0.32085E-02
         0.42429E-02
         0.32085E-02
         0.24168E-02
         0.30017E-02
         0.32482E-02
         0.26510E-02
         0.27194E-02
         0.42619E-02
         0.36437E-02
         0.42619E-02
         0.32085E-02
         0.29640E-02
         0.34618E-02
         0.32627E-02
         0.37092E-02
         0.32085E-02
         0.30755E-02
         0.35207E-02
         0.26808E-02
         0.26808E-02
         0.24603E-02
         0.27599E-02
         0.42619E-02
         0.35207E-02
         0.42619E-02
         0.34748E-02
         0.27279E-02
         0.31824E-02
         0.32482E-02
         0.26994E-02
         0.27827E-02
         0.27827E-02
         0.27012E-02
         0.31902E-02
         0.31902E-02
         0.37092E-02
         0.36236E-02
         0.28227E-02
         0.31684E-02
         0.33477E-02
         0.33477E-02
         0.32046E-02
         0.29840E-02
         0.32827E-02
         0.27279E-02
         0.31034E-02
         0.31824E-02
         0.32482E-02
         0.32482E-02
         0.30017E-02
         0.27194E-02
         0.26994E-02
         0.27827E-02
         0.27827E-02
         0.27012E-02
         0.31902E-02
         0.31902E-02
         0.32627E-02
         0.34618E-02
         0.37092E-02
         0.37092E-02
         0.36236E-02
         0.28227E-02
         0.29173E-02
         0.32479E-02
         0.32479E-02
         0.32046E-02
         0.29840E-02
         0.32827E-02
         0.32827E-02
         0.42431E-02
         0.35199E-02
         0.37670E-02
         0.42431E-02
         0.37670E-02
         0.37670E-02
         0.30102E-02
         0.32087E-02
         0.42431E-02
         0.32087E-02
         0.24167E-02
         0.30026E-02
         0.32493E-02
         0.26498E-02
         0.27194E-02
         0.42611E-02
         0.36427E-02
         0.42611E-02
         0.32087E-02
         0.29628E-02
         0.34613E-02
         0.32628E-02
         0.37089E-02
         0.32087E-02
         0.30744E-02
         0.35209E-02
         0.26794E-02
         0.26794E-02
         0.24598E-02
         0.27592E-02
         0.42611E-02
         0.35209E-02
         0.42611E-02
         0.34759E-02
         0.27280E-02
         0.31827E-02
         0.32493E-02
         0.26998E-02
         0.27827E-02
         0.27827E-02
         0.27013E-02
         0.31905E-02
         0.31905E-02
         0.37089E-02
         0.36235E-02
         0.28224E-02
         0.31689E-02
         0.33476E-02
         0.33476E-02
         0.32055E-02
         0.29839E-02
         0.32825E-02
         0.27280E-02
         0.31024E-02
         0.31827E-02
         0.32493E-02
         0.32493E-02
         0.30026E-02
         0.27194E-02
         0.26998E-02
         0.27827E-02
         0.27827E-02
         0.27013E-02
         0.31905E-02
         0.31905E-02
         0.32628E-02
         0.34613E-02
         0.37089E-02
         0.37089E-02
         0.36235E-02
         0.28224E-02
         0.29183E-02
         0.32490E-02
         0.32490E-02
         0.32055E-02
         0.29839E-02
         0.32825E-02
         0.32825E-02
         0.42432E-02
         0.35199E-02
         0.37675E-02
         0.42432E-02
         0.37675E-02
         0.37675E-02
         0.30104E-02
         0.32089E-02
         0.42432E-02
         0.32089E-02
         0.24166E-02
         0.30035E-02
         0.32504E-02
         0.26486E-02
         0.27195E-02
         0.42603E-02
         0.36418E-02
         0.42603E-02
         0.32089E-02
         0.29615E-02
         0.34609E-02
         0.32629E-02
         0.37085E-02
         0.32089E-02
         0.30732E-02
         0.35211E-02
         0.26779E-02
         0.26779E-02
         0.24593E-02
         0.27585E-02
         0.42603E-02
         0.35211E-02
         0.42603E-02
         0.34771E-02
         0.27281E-02
         0.31830E-02
         0.32504E-02
         0.27002E-02
         0.27827E-02
         0.27827E-02
         0.27014E-02
         0.31907E-02
         0.31907E-02
         0.37085E-02
         0.36233E-02
         0.28221E-02
         0.31694E-02
         0.33475E-02
         0.33475E-02
         0.32063E-02
         0.29838E-02
         0.32823E-02
         0.27281E-02
         0.31015E-02
         0.31830E-02
         0.32504E-02
         0.32504E-02
         0.30035E-02
         0.27195E-02
         0.27002E-02
         0.27827E-02
         0.27827E-02
         0.27014E-02
         0.31907E-02
         0.31907E-02
         0.32629E-02
         0.34609E-02
         0.37085E-02
         0.37085E-02
         0.36233E-02
         0.28221E-02
         0.29193E-02
         0.32501E-02
         0.32501E-02
         0.32063E-02
         0.29838E-02
         0.32823E-02
         0.32823E-02
         0.42433E-02
         0.35199E-02
         0.37680E-02
         0.42433E-02
         0.37680E-02
         0.37680E-02
         0.30106E-02
         0.32091E-02
         0.42433E-02
         0.32091E-02
         0.24164E-02
         0.30045E-02
         0.32514E-02
         0.26474E-02
         0.27195E-02
         0.42594E-02
         0.36409E-02
         0.42594E-02
         0.32091E-02
         0.29603E-02
         0.34605E-02
         0.32630E-02
         0.37081E-02
         0.32091E-02
         0.30721E-02
         0.35213E-02
         0.26765E-02
         0.26765E-02
         0.24588E-02
         0.27579E-02
         0.42594E-02
         0.35213E-02
         0.42594E-02
         0.34782E-02
         0.27281E-02
         0.31833E-02
         0.32514E-02
         0.27006E-02
         0.27826E-02
         0.27826E-02
         0.27015E-02
         0.31910E-02
         0.31910E-02
         0.37081E-02
         0.36232E-02
         0.28218E-02
         0.31700E-02
         0.33474E-02
         0.33474E-02
         0.32072E-02
         0.29836E-02
         0.32821E-02
         0.27281E-02
         0.31005E-02
         0.31833E-02
         0.32514E-02
         0.32514E-02
         0.30045E-02
         0.27195E-02
         0.27006E-02
         0.27826E-02
         0.27826E-02
         0.27015E-02
         0.31910E-02
         0.31910E-02
         0.32630E-02
         0.34605E-02
         0.37081E-02
         0.37081E-02
         0.36232E-02
         0.28218E-02
         0.29202E-02
         0.32512E-02
         0.32512E-02
         0.32072E-02
         0.29836E-02
         0.32821E-02
         0.32821E-02
         0.42435E-02
         0.35199E-02
         0.37685E-02
         0.42435E-02
         0.37685E-02
         0.37685E-02
         0.30108E-02
         0.32093E-02
         0.42435E-02
         0.32093E-02
         0.24163E-02
         0.30054E-02
         0.32525E-02
         0.26461E-02
         0.27196E-02
         0.42586E-02
         0.36399E-02
         0.42586E-02
         0.32093E-02
         0.29591E-02
         0.34601E-02
         0.32630E-02
         0.37077E-02
         0.32093E-02
         0.30710E-02
         0.35215E-02
         0.26750E-02
         0.26750E-02
         0.24583E-02
         0.27572E-02
         0.42586E-02
         0.35215E-02
         0.42586E-02
         0.34793E-02
         0.27282E-02
         0.31836E-02
         0.32525E-02
         0.27010E-02
         0.27826E-02
         0.27826E-02
         0.27016E-02
         0.31912E-02
         0.31912E-02
         0.37077E-02
         0.36231E-02
         0.28215E-02
         0.31705E-02
         0.33473E-02
         0.33473E-02
         0.32080E-02
         0.29835E-02
         0.32819E-02
         0.27282E-02
         0.30996E-02
         0.31836E-02
         0.32525E-02
         0.32525E-02
         0.30054E-02
         0.27196E-02
         0.27010E-02
         0.27826E-02
         0.27826E-02
         0.27016E-02
         0.31912E-02
         0.31912E-02
         0.32630E-02
         0.34601E-02
         0.37077E-02
         0.37077E-02
         0.36231E-02
         0.28215E-02
         0.29212E-02
         0.32524E-02
         0.32524E-02
         0.32080E-02
         0.29835E-02
         0.32819E-02
         0.32819E-02
         0.42436E-02
         0.35198E-02
         0.37690E-02
         0.42436E-02
         0.37690E-02
         0.37690E-02
         0.30110E-02
         0.32095E-02
         0.42436E-02
         0.32095E-02
         0.24162E-02
         0.30064E-02
         0.32536E-02
         0.26449E-02
         0.27196E-02
         0.42577E-02
         0.36390E-02
         0.42577E-02
         0.32096E-02
         0.29578E-02
         0.34596E-02
         0.32631E-02
         0.37074E-02
         0.32096E-02
         0.30699E-02
         0.35217E-02
         0.26735E-02
         0.26735E-02
         0.24578E-02
         0.27566E-02
         0.42577E-02
         0.35217E-02
         0.42577E-02
         0.34804E-02
         0.27283E-02
         0.31839E-02
         0.32536E-02
         0.27013E-02
         0.27826E-02
         0.27826E-02
         0.27017E-02
         0.31915E-02
         0.31915E-02
         0.37074E-02
         0.36230E-02
         0.28211E-02
         0.31710E-02
         0.33472E-02
         0.33472E-02
         0.32089E-02
         0.29834E-02
         0.32817E-02
         0.27283E-02
         0.30986E-02
         0.31839E-02
         0.32536E-02
         0.32536E-02
         0.30064E-02
         0.27196E-02
         0.27013E-02
         0.27826E-02
         0.27826E-02
         0.27017E-02
         0.31915E-02
         0.31915E-02
         0.32631E-02
         0.34596E-02
         0.37074E-02
         0.37074E-02
         0.36230E-02
         0.28211E-02
         0.29221E-02
         0.32535E-02
         0.32535E-02
         0.32089E-02
         0.29834E-02
         0.32817E-02
         0.32817E-02
         0.42437E-02
         0.35198E-02
         0.37695E-02
         0.42437E-02
         0.37695E-02
         0.37695E-02
         0.30112E-02
         0.32097E-02
         0.42437E-02
         0.32097E-02
         0.24160E-02
         0.30073E-02
         0.32547E-02
         0.26437E-02
         0.27197E-02
         0.42569E-02
         0.36381E-02
         0.42569E-02
         0.32098E-02
         0.29566E-02
         0.34592E-02
         0.32632E-02
         0.37070E-02
         0.32098E-02
         0.30688E-02
         0.35219E-02
         0.26721E-02
         0.26721E-02
         0.24573E-02
         0.27560E-02
         0.42569E-02
         0.35219E-02
         0.42569E-02
         0.34815E-02
         0.27284E-02
         0.31843E-02
         0.32547E-02
         0.27017E-02
         0.27826E-02
         0.27826E-02
         0.27018E-02
         0.31917E-02
         0.31917E-02
         0.37070E-02
         0.36229E-02
         0.28208E-02
         0.31716E-02
         0.33471E-02
         0.33471E-02
         0.32097E-02
         0.29833E-02
         0.32815E-02
         0.27284E-02
         0.30977E-02
         0.31843E-02
         0.32547E-02
         0.32547E-02
         0.30073E-02
         0.27197E-02
         0.27017E-02
         0.27826E-02
         0.27826E-02
         0.27018E-02
         0.31917E-02
         0.31917E-02
         0.32632E-02
         0.34592E-02
         0.37070E-02
         0.37070E-02
         0.36229E-02
         0.28208E-02
         0.29231E-02
         0.32546E-02
         0.32546E-02
         0.32097E-02
         0.29833E-02
         0.32815E-02
         0.32815E-02
         0.42439E-02
         0.35198E-02
         0.37701E-02
         0.42439E-02
         0.37701E-02
         0.37701E-02
         0.30113E-02
         0.32099E-02
         0.42439E-02
         0.32099E-02
         0.24159E-02
         0.30082E-02
         0.32558E-02
         0.26425E-02
         0.27197E-02
         0.42560E-02
         0.36371E-02
         0.42560E-02
         0.32100E-02
         0.29554E-02
         0.34588E-02
         0.32633E-02
         0.37066E-02
         0.32100E-02
         0.30677E-02
         0.35221E-02
         0.26706E-02
         0.26706E-02
         0.24568E-02
         0.27553E-02
         0.42560E-02
         0.35221E-02
         0.42560E-02
         0.34827E-02
         0.27284E-02
         0.31846E-02
         0.32558E-02
         0.27021E-02
         0.27826E-02
         0.27826E-02
         0.27019E-02
         0.31920E-02
         0.31920E-02
         0.37066E-02
         0.36227E-02
         0.28205E-02
         0.31721E-02
         0.33470E-02
         0.33470E-02
         0.32106E-02
         0.29831E-02
         0.32813E-02
         0.27284E-02
         0.30968E-02
         0.31846E-02
         0.32558E-02
         0.32558E-02
         0.30082E-02
         0.27197E-02
         0.27021E-02
         0.27826E-02
         0.27826E-02
         0.27019E-02
         0.31920E-02
         0.31920E-02
         0.32633E-02
         0.34588E-02
         0.37066E-02
         0.37066E-02
         0.36227E-02
         0.28205E-02
         0.29241E-02
         0.32557E-02
         0.32557E-02
         0.32106E-02
         0.29831E-02
         0.32813E-02
         0.32813E-02
         0.42440E-02
         0.35198E-02
         0.37706E-02
         0.42440E-02
         0.37706E-02
         0.37706E-02
         0.30115E-02
         0.32101E-02
         0.42440E-02
         0.32101E-02
         0.24158E-02
         0.30091E-02
         0.32568E-02
         0.26412E-02
         0.27198E-02
         0.42552E-02
         0.36362E-02
         0.42552E-02
         0.32102E-02
         0.29541E-02
         0.34583E-02
         0.32633E-02
         0.37062E-02
         0.32102E-02
         0.30665E-02
         0.35223E-02
         0.26692E-02
         0.26692E-02
         0.24563E-02
         0.27546E-02
         0.42552E-02
         0.35223E-02
         0.42552E-02
         0.34838E-02
         0.27285E-02
         0.31849E-02
         0.32568E-02
         0.27025E-02
         0.27826E-02
         0.27826E-02
         0.27020E-02
         0.31922E-02
         0.31922E-02
         0.37062E-02
         0.36226E-02
         0.28202E-02
         0.31726E-02
         0.33469E-02
         0.33469E-02
         0.32114E-02
         0.29830E-02
         0.32811E-02
         0.27285E-02
         0.30958E-02
         0.31849E-02
         0.32568E-02
         0.32568E-02
         0.30091E-02
         0.27198E-02
         0.27025E-02
         0.27826E-02
         0.27826E-02
         0.27020E-02
         0.31922E-02
         0.31922E-02
         0.32633E-02
         0.34583E-02
         0.37062E-02
         0.37062E-02
         0.36226E-02
         0.28202E-02
         0.29250E-02
         0.32568E-02
         0.32568E-02
         0.32114E-02
         0.29830E-02
         0.32811E-02
         0.32811E-02
         0.42441E-02
         0.35198E-02
         0.37711E-02
         0.42441E-02
         0.37711E-02
         0.37711E-02
         0.30117E-02
         0.32103E-02
         0.42441E-02
         0.32103E-02
         0.24156E-02
         0.30101E-02
         0.32579E-02
         0.26400E-02
         0.27198E-02
         0.42543E-02
         0.36353E-02
         0.42543E-02
         0.32104E-02
         0.29529E-02
         0.34579E-02
         0.32634E-02
         0.37058E-02
         0.32104E-02
         0.30654E-02
         0.35225E-02
         0.26677E-02
         0.26677E-02
         0.24558E-02
         0.27540E-02
         0.42543E-02
         0.35225E-02
         0.42543E-02
         0.34849E-02
         0.27286E-02
         0.31852E-02
         0.32579E-02
         0.27029E-02
         0.27826E-02
         0.27826E-02
         0.27021E-02
         0.31924E-02
         0.31924E-02
         0.37058E-02
         0.36225E-02
         0.28198E-02
         0.31731E-02
         0.33468E-02
         0.33468E-02
         0.32123E-02
         0.29829E-02
         0.32809E-02
         0.27286E-02
         0.30949E-02
         0.31852E-02
         0.32579E-02
         0.32579E-02
         0.30101E-02
         0.27198E-02
         0.27029E-02
         0.27826E-02
         0.27826E-02
         0.27021E-02
         0.31924E-02
         0.31924E-02
         0.32634E-02
         0.34579E-02
         0.37058E-02
         0.37058E-02
         0.36225E-02
         0.28198E-02
         0.29260E-02
         0.32579E-02
         0.32579E-02
         0.32123E-02
         0.29829E-02
         0.32809E-02
         0.32809E-02
         0.42443E-02
         0.35197E-02
         0.37716E-02
         0.42443E-02
         0.37716E-02
         0.37716E-02
         0.30119E-02
         0.32105E-02
         0.42443E-02
         0.32105E-02
         0.24155E-02
         0.30110E-02
         0.32590E-02
         0.26388E-02
         0.27199E-02
         0.42535E-02
         0.36343E-02
         0.42535E-02
         0.32106E-02
         0.29517E-02
         0.34575E-02
         0.32635E-02
         0.37055E-02
         0.32106E-02
         0.30643E-02
         0.35227E-02
         0.26663E-02
         0.26663E-02
         0.24553E-02
         0.27533E-02
         0.42535E-02
         0.35227E-02
         0.42535E-02
         0.34860E-02
         0.27286E-02
         0.31855E-02
         0.32590E-02
         0.27032E-02
         0.27826E-02
         0.27826E-02
         0.27022E-02
         0.31927E-02
         0.31927E-02
         0.37055E-02
         0.36224E-02
         0.28195E-02
         0.31737E-02
         0.33467E-02
         0.33467E-02
         0.32132E-02
         0.29828E-02
         0.32807E-02
         0.27286E-02
         0.30939E-02
         0.31855E-02
         0.32590E-02
         0.32590E-02
         0.30110E-02
         0.27199E-02
         0.27032E-02
         0.27826E-02
         0.27826E-02
         0.27022E-02
         0.31927E-02
         0.31927E-02
         0.32635E-02
         0.34575E-02
         0.37055E-02
         0.37055E-02
         0.36224E-02
         0.28195E-02
         0.29269E-02
         0.32591E-02
         0.32591E-02
         0.32132E-02
         0.29828E-02
         0.32807E-02
         0.32807E-02
         0.42444E-02
         0.35197E-02
         0.37721E-02
         0.42444E-02
         0.37721E-02
         0.37721E-02
         0.30121E-02
         0.32107E-02
         0.42444E-02
         0.32107E-02
         0.24154E-02
         0.30119E-02
         0.32601E-02
         0.26376E-02
         0.27199E-02
         0.42527E-02
         0.36334E-02
         0.42527E-02
         0.32108E-02
         0.29504E-02
         0.34571E-02
         0.32636E-02
         0.37051E-02
         0.32108E-02
         0.30632E-02
         0.35229E-02
         0.26648E-02
         0.26648E-02
         0.24552E-02
         0.27527E-02
         0.42527E-02
         0.35229E-02
         0.42527E-02
         0.34871E-02
         0.27287E-02
         0.31858E-02
         0.32601E-02
         0.27036E-02
         0.27825E-02
         0.27825E-02
         0.27023E-02
         0.31929E-02
         0.31929E-02
         0.37051E-02
         0.36223E-02
         0.28192E-02
         0.31742E-02
         0.33466E-02
         0.33466E-02
         0.32140E-02
         0.29827E-02
         0.32805E-02
         0.27287E-02
         0.30930E-02
         0.31858E-02
         0.32601E-02
         0.32601E-02
         0.30119E-02
         0.27199E-02
         0.27036E-02
         0.27825E-02
         0.27825E-02
         0.27023E-02
         0.31929E-02
         0.31929E-02
         0.32636E-02
         0.34571E-02
         0.37051E-02
         0.37051E-02
         0.36223E-02
         0.28192E-02
         0.29279E-02
         0.32602E-02
         0.32602E-02
         0.32140E-02
         0.29827E-02
         0.32805E-02
         0.32805E-02
         0.42445E-02
         0.35197E-02
         0.37726E-02
         0.42445E-02
         0.37726E-02
         0.37726E-02
         0.30123E-02
         0.32108E-02
         0.42445E-02
         0.32108E-02
         0.24152E-02
         0.30129E-02
         0.32611E-02
         0.26363E-02
         0.27200E-02
         0.42518E-02
         0.36325E-02
         0.42518E-02
         0.32110E-02
         0.29492E-02
         0.34566E-02
         0.32636E-02
         0.37047E-02
         0.32110E-02
         0.30621E-02
         0.35231E-02
         0.26633E-02
         0.26633E-02
         0.24554E-02
         0.27520E-02
         0.42518E-02
         0.35231E-02
         0.42518E-02
         0.34882E-02
         0.27288E-02
         0.31861E-02
         0.32611E-02
         0.27040E-02
         0.27825E-02
         0.27825E-02
         0.27024E-02
         0.31932E-02
         0.31932E-02
         0.37047E-02
         0.36222E-02
         0.28189E-02
         0.31747E-02
         0.33465E-02
         0.33465E-02
         0.32149E-02
         0.29826E-02
         0.32803E-02
         0.27288E-02
         0.30921E-02
         0.31861E-02
         0.32611E-02
         0.32611E-02
         0.30129E-02
         0.27200E-02
         0.27040E-02
         0.27825E-02
         0.27825E-02
         0.27024E-02
         0.31932E-02
         0.31932E-02
         0.32636E-02
         0.34566E-02
         0.37047E-02
         0.37047E-02
         0.36222E-02
         0.28189E-02
         0.29289E-02
         0.32613E-02
         0.32613E-02
         0.32149E-02
         0.29826E-02
         0.32803E-02
         0.32803E-02
         0.42447E-02
         0.35196E-02
         0.37732E-02
         0.42447E-02
         0.37732E-02
         0.37732E-02
         0.30125E-02
         0.32111E-02
         0.42447E-02
         0.32111E-02
         0.24151E-02
         0.30138E-02
         0.32622E-02
         0.26351E-02
         0.27200E-02
         0.42510E-02
         0.36315E-02
         0.42510E-02
         0.32112E-02
         0.29480E-02
         0.34562E-02
         0.32637E-02
         0.37043E-02
         0.32112E-02
         0.30610E-02
         0.35233E-02
         0.26619E-02
         0.26619E-02
         0.24557E-02
         0.27514E-02
         0.42510E-02
         0.35233E-02
         0.42510E-02
         0.34894E-02
         0.27289E-02
         0.31864E-02
         0.32622E-02
         0.27044E-02
         0.27825E-02
         0.27825E-02
         0.27025E-02
         0.31934E-02
         0.31934E-02
         0.37043E-02
         0.36220E-02
         0.28186E-02
         0.31753E-02
         0.33464E-02
         0.33464E-02
         0.32157E-02
         0.29824E-02
         0.32801E-02
         0.27289E-02
         0.30911E-02
         0.31864E-02
         0.32622E-02
         0.32622E-02
         0.30138E-02
         0.27200E-02
         0.27044E-02
         0.27825E-02
         0.27825E-02
         0.27025E-02
         0.31934E-02
         0.31934E-02
         0.32637E-02
         0.34562E-02
         0.37043E-02
         0.37043E-02
         0.36220E-02
         0.28186E-02
         0.29298E-02
         0.32624E-02
         0.32624E-02
         0.32157E-02
         0.29824E-02
         0.32801E-02
         0.32801E-02
         0.42448E-02
         0.35196E-02
         0.37737E-02
         0.42448E-02
         0.37737E-02
         0.37737E-02
         0.30126E-02
         0.32112E-02
         0.42448E-02
         0.32112E-02
         0.24150E-02
         0.30147E-02
         0.32633E-02
         0.26339E-02
         0.27200E-02
         0.42501E-02
         0.36306E-02
         0.42501E-02
         0.32114E-02
         0.29467E-02
         0.34558E-02
         0.32638E-02
         0.37039E-02
         0.32114E-02
         0.30598E-02
         0.35235E-02
         0.26604E-02
         0.26604E-02
         0.24559E-02
         0.27507E-02
         0.42501E-02
         0.35235E-02
         0.42501E-02
         0.34905E-02
         0.27289E-02
         0.31867E-02
         0.32633E-02
         0.27048E-02
         0.27825E-02
         0.27825E-02
         0.27026E-02
         0.31937E-02
         0.31937E-02
         0.37039E-02
         0.36219E-02
         0.28183E-02
         0.31758E-02
         0.33463E-02
         0.33463E-02
         0.32166E-02
         0.29823E-02
         0.32799E-02
         0.27289E-02
         0.30902E-02
         0.31867E-02
         0.32633E-02
         0.32633E-02
         0.30147E-02
         0.27200E-02
         0.27048E-02
         0.27825E-02
         0.27825E-02
         0.27026E-02
         0.31937E-02
         0.31937E-02
         0.32638E-02
         0.34558E-02
         0.37039E-02
         0.37039E-02
         0.36219E-02
         0.28183E-02
         0.29308E-02
         0.32635E-02
         0.32635E-02
         0.32166E-02
         0.29823E-02
         0.32799E-02
         0.32799E-02
         0.42448E-02
         0.35196E-02
         0.37737E-02
         0.42448E-02
         0.37737E-02
         0.37737E-02
         0.30126E-02
         0.32112E-02
         0.42448E-02
         0.32112E-02
         0.24148E-02
         0.30147E-02
         0.32633E-02
         0.26327E-02
         0.27200E-02
         0.42493E-02
         0.36297E-02
         0.42493E-02
         0.32114E-02
         0.29455E-02
         0.34553E-02
         0.32638E-02
         0.37036E-02
         0.32114E-02
         0.30587E-02
         0.35235E-02
         0.26590E-02
         0.26590E-02
         0.24559E-02
         0.27501E-02
         0.42493E-02
         0.35235E-02
         0.42493E-02
         0.34905E-02
         0.27289E-02
         0.31867E-02
         0.32633E-02
         0.27048E-02
         0.27825E-02
         0.27825E-02
         0.27026E-02
         0.31937E-02
         0.31937E-02
         0.37036E-02
         0.36218E-02
         0.28180E-02
         0.31758E-02
         0.33462E-02
         0.33462E-02
         0.32166E-02
         0.29822E-02
         0.32797E-02
         0.27289E-02
         0.30892E-02
         0.31867E-02
         0.32633E-02
         0.32633E-02
         0.30147E-02
         0.27200E-02
         0.27048E-02
         0.27825E-02
         0.27825E-02
         0.27026E-02
         0.31937E-02
         0.31937E-02
         0.32638E-02
         0.34553E-02
         0.37036E-02
         0.37036E-02
         0.36218E-02
         0.28180E-02
         0.29308E-02
         0.32635E-02
         0.32635E-02
         0.32166E-02
         0.29822E-02
         0.32797E-02
         0.32797E-02
  
SCALARS              physical_window_y  double 1
LOOKUP_TABLE default
         0.43155E-02
         0.43155E-02
         0.43155E-02
         0.43155E-02
         0.43155E-02
         0.43155E-02
         0.43155E-02
         0.43155E-02
         0.34883E-02
         0.34883E-02
         0.34882E-02
         0.34882E-02
         0.32826E-02
         0.32142E-02
         0.32826E-02
         0.32142E-02
         0.37863E-02
         0.31884E-02
         0.37863E-02
         0.31884E-02
         0.27172E-02
         0.33887E-02
         0.37164E-02
         0.27172E-02
         0.33887E-02
         0.37164E-02
         0.27582E-02
         0.28966E-02
         0.27582E-02
         0.28954E-02
         0.37007E-02
         0.35859E-02
         0.37863E-02
         0.37007E-02
         0.35824E-02
         0.37863E-02
         0.29875E-02
         0.29875E-02
         0.29867E-02
         0.29867E-02
         0.28561E-02
         0.26860E-02
         0.28556E-02
         0.26852E-02
         0.29518E-02
         0.28068E-02
         0.29517E-02
         0.28066E-02
         0.29975E-02
         0.29949E-02
         0.37007E-02
         0.37007E-02
         0.28693E-02
         0.28693E-02
         0.28693E-02
         0.28693E-02
         0.27602E-02
         0.26193E-02
         0.27602E-02
         0.26193E-02
         0.37007E-02
         0.37007E-02
         0.37007E-02
         0.37007E-02
         0.37685E-02
         0.37665E-02
         0.37685E-02
         0.37665E-02
         0.30230E-02
         0.37003E-02
         0.30229E-02
         0.37003E-02
         0.37164E-02
         0.37164E-02
         0.31934E-02
         0.31921E-02
         0.32777E-02
         0.32771E-02
         0.32777E-02
         0.32771E-02
         0.27006E-02
         0.25920E-02
         0.27006E-02
         0.25920E-02
         0.25916E-02
         0.25916E-02
         0.29715E-02
         0.29715E-02
         0.29715E-02
         0.29715E-02
         0.26477E-02
         0.29102E-02
         0.26477E-02
         0.29102E-02
         0.34085E-02
         0.34085E-02
         0.35350E-02
         0.35350E-02
         0.35350E-02
         0.35350E-02
         0.29766E-02
         0.32272E-02
         0.29763E-02
         0.32254E-02
         0.29087E-02
         0.29835E-02
         0.29087E-02
         0.29825E-02
         0.37003E-02
         0.37003E-02
         0.37164E-02
         0.37164E-02
         0.37164E-02
         0.37164E-02
         0.33887E-02
         0.33887E-02
         0.28966E-02
         0.28954E-02
         0.31934E-02
         0.31921E-02
         0.32777E-02
         0.32771E-02
         0.32777E-02
         0.32771E-02
         0.27006E-02
         0.27006E-02
         0.25920E-02
         0.25920E-02
         0.25916E-02
         0.25916E-02
         0.26860E-02
         0.26852E-02
         0.28561E-02
         0.28556E-02
         0.29518E-02
         0.29517E-02
         0.29715E-02
         0.29715E-02
         0.29715E-02
         0.29715E-02
         0.26477E-02
         0.26477E-02
         0.27685E-02
         0.27685E-02
         0.34085E-02
         0.34085E-02
         0.35350E-02
         0.35350E-02
         0.35350E-02
         0.35350E-02
         0.29766E-02
         0.29763E-02
         0.31381E-02
         0.31368E-02
         0.31381E-02
         0.31368E-02
         0.43153E-02
         0.43153E-02
         0.43153E-02
         0.43153E-02
         0.34883E-02
         0.34883E-02
         0.32812E-02
         0.32132E-02
         0.37858E-02
         0.31880E-02
         0.27155E-02
         0.33883E-02
         0.37163E-02
         0.27535E-02
         0.28978E-02
         0.37004E-02
         0.35894E-02
         0.37858E-02
         0.29882E-02
         0.29882E-02
         0.28566E-02
         0.26867E-02
         0.29519E-02
         0.28071E-02
         0.30001E-02
         0.37004E-02
         0.28667E-02
         0.28667E-02
         0.27589E-02
         0.26183E-02
         0.37004E-02
         0.37004E-02
         0.37706E-02
         0.37706E-02
         0.30232E-02
         0.36991E-02
         0.37163E-02
         0.31947E-02
         0.32784E-02
         0.32784E-02
         0.27006E-02
         0.25920E-02
         0.25909E-02
         0.29715E-02
         0.29715E-02
         0.26476E-02
         0.29101E-02
         0.34078E-02
         0.35344E-02
         0.35344E-02
         0.29769E-02
         0.32290E-02
         0.29059E-02
         0.29845E-02
         0.36991E-02
         0.37163E-02
         0.37163E-02
         0.33883E-02
         0.28978E-02
         0.31947E-02
         0.32784E-02
         0.32784E-02
         0.27006E-02
         0.25920E-02
         0.25909E-02
         0.26867E-02
         0.28566E-02
         0.29519E-02
         0.29715E-02
         0.29715E-02
         0.26476E-02
         0.27685E-02
         0.34078E-02
         0.35344E-02
         0.35344E-02
         0.29769E-02
         0.31395E-02
         0.31395E-02
         0.43150E-02
         0.43150E-02
         0.43150E-02
         0.43150E-02
         0.34884E-02
         0.34884E-02
         0.32798E-02
         0.32122E-02
         0.37853E-02
         0.31876E-02
         0.27137E-02
         0.33879E-02
         0.37162E-02
         0.27488E-02
         0.28990E-02
         0.37001E-02
         0.35930E-02
         0.37853E-02
         0.29889E-02
         0.29889E-02
         0.28571E-02
         0.26875E-02
         0.29521E-02
         0.28074E-02
         0.30027E-02
         0.37001E-02
         0.28641E-02
         0.28641E-02
         0.27576E-02
         0.26173E-02
         0.37001E-02
         0.37001E-02
         0.37727E-02
         0.37727E-02
         0.30234E-02
         0.36979E-02
         0.37162E-02
         0.31960E-02
         0.32790E-02
         0.32790E-02
         0.27006E-02
         0.25920E-02
         0.25902E-02
         0.29715E-02
         0.29715E-02
         0.26476E-02
         0.29100E-02
         0.34071E-02
         0.35339E-02
         0.35339E-02
         0.29772E-02
         0.32307E-02
         0.29032E-02
         0.29855E-02
         0.36979E-02
         0.37162E-02
         0.37162E-02
         0.33879E-02
         0.28990E-02
         0.31960E-02
         0.32790E-02
         0.32790E-02
         0.27006E-02
         0.25920E-02
         0.25902E-02
         0.26875E-02
         0.28571E-02
         0.29521E-02
         0.29715E-02
         0.29715E-02
         0.26476E-02
         0.27684E-02
         0.34071E-02
         0.35339E-02
         0.35339E-02
         0.29772E-02
         0.31408E-02
         0.31408E-02
         0.43148E-02
         0.43148E-02
         0.43148E-02
         0.43148E-02
         0.34885E-02
         0.34885E-02
         0.32783E-02
         0.32112E-02
         0.37849E-02
         0.31872E-02
         0.27120E-02
         0.33875E-02
         0.37161E-02
         0.27441E-02
         0.29003E-02
         0.36998E-02
         0.35965E-02
         0.37849E-02
         0.29896E-02
         0.29896E-02
         0.28575E-02
         0.26882E-02
         0.29522E-02
         0.28077E-02
         0.30053E-02
         0.36998E-02
         0.28615E-02
         0.28615E-02
         0.27563E-02
         0.26163E-02
         0.36998E-02
         0.36998E-02
         0.37747E-02
         0.37747E-02
         0.30236E-02
         0.36967E-02
         0.37161E-02
         0.31973E-02
         0.32796E-02
         0.32796E-02
         0.27006E-02
         0.25920E-02
         0.25895E-02
         0.29714E-02
         0.29714E-02
         0.26475E-02
         0.29099E-02
         0.34063E-02
         0.35333E-02
         0.35333E-02
         0.29775E-02
         0.32325E-02
         0.29004E-02
         0.29865E-02
         0.36967E-02
         0.37161E-02
         0.37161E-02
         0.33875E-02
         0.29003E-02
         0.31973E-02
         0.32796E-02
         0.32796E-02
         0.27006E-02
         0.25920E-02
         0.25895E-02
         0.26882E-02
         0.28575E-02
         0.29522E-02
         0.29714E-02
         0.29714E-02
         0.26475E-02
         0.27684E-02
         0.34063E-02
         0.35333E-02
         0.35333E-02
         0.29775E-02
         0.31422E-02
         0.31422E-02
         0.43145E-02
         0.43145E-02
         0.43145E-02
         0.43145E-02
         0.34886E-02
         0.34886E-02
         0.32769E-02
         0.32102E-02
         0.37844E-02
         0.31868E-02
         0.27103E-02
         0.33871E-02
         0.37160E-02
         0.27394E-02
         0.29015E-02
         0.36995E-02
         0.36000E-02
         0.37844E-02
         0.29903E-02
         0.29903E-02
         0.28580E-02
         0.26890E-02
         0.29523E-02
         0.28079E-02
         0.30079E-02
         0.36995E-02
         0.28589E-02
         0.28589E-02
         0.27550E-02
         0.26152E-02
         0.36995E-02
         0.36995E-02
         0.37768E-02
         0.37768E-02
         0.30238E-02
         0.36956E-02
         0.37160E-02
         0.31986E-02
         0.32802E-02
         0.32802E-02
         0.27006E-02
         0.25920E-02
         0.25887E-02
         0.29714E-02
         0.29714E-02
         0.26475E-02
         0.29098E-02
         0.34056E-02
         0.35327E-02
         0.35327E-02
         0.29778E-02
         0.32342E-02
         0.28977E-02
         0.29875E-02
         0.36956E-02
         0.37160E-02
         0.37160E-02
         0.33871E-02
         0.29015E-02
         0.31986E-02
         0.32802E-02
         0.32802E-02
         0.27006E-02
         0.25920E-02
         0.25887E-02
         0.26890E-02
         0.28580E-02
         0.29523E-02
         0.29714E-02
         0.29714E-02
         0.26475E-02
         0.27683E-02
         0.34056E-02
         0.35327E-02
         0.35327E-02
         0.29778E-02
         0.31435E-02
         0.31435E-02
         0.43143E-02
         0.43143E-02
         0.43143E-02
         0.43143E-02
         0.34887E-02
         0.34887E-02
         0.32755E-02
         0.32091E-02
         0.37839E-02
         0.31864E-02
         0.27086E-02
         0.33867E-02
         0.37159E-02
         0.27347E-02
         0.29027E-02
         0.36991E-02
         0.36036E-02
         0.37839E-02
         0.29920E-02
         0.29920E-02
         0.28585E-02
         0.26897E-02
         0.29525E-02
         0.28082E-02
         0.30105E-02
         0.36991E-02
         0.28563E-02
         0.28563E-02
         0.27537E-02
         0.26142E-02
         0.36991E-02
         0.36991E-02
         0.37789E-02
         0.37789E-02
         0.30240E-02
         0.36944E-02
         0.37159E-02
         0.31999E-02
         0.32808E-02
         0.32808E-02
         0.27006E-02
         0.25920E-02
         0.25880E-02
         0.29714E-02
         0.29714E-02
         0.26474E-02
         0.29097E-02
         0.34049E-02
         0.35322E-02
         0.35322E-02
         0.29781E-02
         0.32360E-02
         0.28949E-02
         0.29885E-02
         0.36944E-02
         0.37159E-02
         0.37159E-02
         0.33867E-02
         0.29027E-02
         0.31999E-02
         0.32808E-02
         0.32808E-02
         0.27006E-02
         0.25920E-02
         0.25880E-02
         0.26897E-02
         0.28585E-02
         0.29525E-02
         0.29714E-02
         0.29714E-02
         0.26474E-02
         0.27683E-02
         0.34049E-02
         0.35322E-02
         0.35322E-02
         0.29781E-02
         0.31449E-02
         0.31449E-02
         0.43140E-02
         0.43140E-02
         0.43140E-02
         0.43140E-02
         0.34888E-02
         0.34888E-02
         0.32740E-02
         0.32081E-02
         0.37834E-02
         0.31860E-02
         0.27069E-02
         0.33863E-02
         0.37158E-02
         0.27299E-02
         0.29039E-02
         0.36988E-02
         0.36071E-02
         0.37834E-02
         0.29946E-02
         0.29946E-02
         0.28589E-02
         0.26905E-02
         0.29526E-02
         0.28085E-02
         0.30131E-02
         0.36988E-02
         0.28538E-02
         0.28538E-02
         0.27524E-02
         0.26132E-02
         0.36988E-02
         0.36988E-02
         0.37809E-02
         0.37809E-02
         0.30241E-02
         0.36932E-02
         0.37158E-02
         0.32012E-02
         0.32814E-02
         0.32814E-02
         0.27006E-02
         0.25920E-02
         0.25873E-02
         0.29714E-02
         0.29714E-02
         0.26473E-02
         0.29097E-02
         0.34041E-02
         0.35316E-02
         0.35316E-02
         0.29784E-02
         0.32378E-02
         0.28921E-02
         0.29895E-02
         0.36932E-02
         0.37158E-02
         0.37158E-02
         0.33863E-02
         0.29039E-02
         0.32012E-02
         0.32814E-02
         0.32814E-02
         0.27006E-02
         0.25920E-02
         0.25873E-02
         0.26905E-02
         0.28589E-02
         0.29526E-02
         0.29714E-02
         0.29714E-02
         0.26473E-02
         0.27683E-02
         0.34041E-02
         0.35316E-02
         0.35316E-02
         0.29784E-02
         0.31463E-02
         0.31463E-02
         0.43138E-02
         0.43138E-02
         0.43138E-02
         0.43138E-02
         0.34888E-02
         0.34888E-02
         0.32726E-02
         0.32071E-02
         0.37830E-02
         0.31856E-02
         0.27051E-02
         0.33859E-02
         0.37157E-02
         0.27252E-02
         0.29051E-02
         0.36985E-02
         0.36106E-02
         0.37830E-02
         0.29972E-02
         0.29972E-02
         0.28594E-02
         0.26912E-02
         0.29528E-02
         0.28087E-02
         0.30156E-02
         0.36985E-02
         0.28512E-02
         0.28512E-02
         0.27512E-02
         0.26122E-02
         0.36985E-02
         0.36985E-02
         0.37830E-02
         0.37830E-02
         0.30243E-02
         0.36920E-02
         0.37157E-02
         0.32025E-02
         0.32821E-02
         0.32821E-02
         0.27006E-02
         0.25920E-02
         0.25866E-02
         0.29714E-02
         0.29714E-02
         0.26473E-02
         0.29096E-02
         0.34034E-02
         0.35310E-02
         0.35310E-02
         0.29787E-02
         0.32396E-02
         0.28894E-02
         0.29905E-02
         0.36920E-02
         0.37157E-02
         0.37157E-02
         0.33859E-02
         0.29051E-02
         0.32025E-02
         0.32821E-02
         0.32821E-02
         0.27006E-02
         0.25920E-02
         0.25866E-02
         0.26912E-02
         0.28594E-02
         0.29528E-02
         0.29714E-02
         0.29714E-02
         0.26473E-02
         0.27682E-02
         0.34034E-02
         0.35310E-02
         0.35310E-02
         0.29787E-02
         0.31476E-02
         0.31476E-02
         0.43135E-02
         0.43135E-02
         0.43135E-02
         0.43135E-02
         0.34889E-02
         0.34889E-02
         0.32712E-02
         0.32061E-02
         0.37825E-02
         0.31852E-02
         0.27034E-02
         0.33856E-02
         0.37156E-02
         0.27205E-02
         0.29063E-02
         0.36982E-02
         0.36142E-02
         0.37851E-02
         0.29998E-02
         0.29998E-02
         0.28599E-02
         0.26920E-02
         0.29529E-02
         0.28090E-02
         0.30182E-02
         0.36982E-02
         0.28486E-02
         0.28486E-02
         0.27499E-02
         0.26112E-02
         0.36982E-02
         0.36982E-02
         0.37851E-02
         0.37851E-02
         0.30245E-02
         0.36908E-02
         0.37156E-02
         0.32038E-02
         0.32827E-02
         0.32827E-02
         0.27006E-02
         0.25920E-02
         0.25859E-02
         0.29714E-02
         0.29714E-02
         0.26472E-02
         0.29095E-02
         0.34027E-02
         0.35304E-02
         0.35304E-02
         0.29790E-02
         0.32413E-02
         0.28866E-02
         0.29915E-02
         0.36908E-02
         0.37156E-02
         0.37156E-02
         0.33856E-02
         0.29063E-02
         0.32038E-02
         0.32827E-02
         0.32827E-02
         0.27006E-02
         0.25920E-02
         0.25859E-02
         0.26920E-02
         0.28599E-02
         0.29529E-02
         0.29714E-02
         0.29714E-02
         0.26472E-02
         0.27682E-02
         0.34027E-02
         0.35304E-02
         0.35304E-02
         0.29790E-02
         0.31490E-02
         0.31490E-02
         0.43133E-02
         0.43133E-02
         0.43133E-02
         0.43133E-02
         0.34890E-02
         0.34890E-02
         0.32698E-02
         0.32051E-02
         0.37820E-02
         0.31848E-02
         0.27017E-02
         0.33851E-02
         0.37155E-02
         0.27158E-02
         0.29075E-02
         0.36979E-02
         0.36177E-02
         0.37871E-02
         0.30024E-02
         0.30024E-02
         0.28603E-02
         0.26927E-02
         0.29530E-02
         0.28093E-02
         0.30208E-02
         0.36979E-02
         0.28460E-02
         0.28460E-02
         0.27486E-02
         0.26101E-02
         0.36979E-02
         0.36979E-02
         0.37871E-02
         0.37871E-02
         0.30247E-02
         0.36896E-02
         0.37155E-02
         0.32051E-02
         0.32833E-02
         0.32833E-02
         0.27006E-02
         0.25920E-02
         0.25851E-02
         0.29714E-02
         0.29714E-02
         0.26472E-02
         0.29094E-02
         0.34019E-02
         0.35299E-02
         0.35299E-02
         0.29793E-02
         0.32431E-02
         0.28838E-02
         0.29925E-02
         0.36896E-02
         0.37155E-02
         0.37155E-02
         0.33851E-02
         0.29075E-02
         0.32051E-02
         0.32833E-02
         0.32833E-02
         0.27006E-02
         0.25920E-02
         0.25851E-02
         0.26927E-02
         0.28603E-02
         0.29530E-02
         0.29714E-02
         0.29714E-02
         0.26472E-02
         0.27681E-02
         0.34019E-02
         0.35299E-02
         0.35299E-02
         0.29793E-02
         0.31503E-02
         0.31503E-02
         0.43130E-02
         0.43130E-02
         0.43130E-02
         0.43130E-02
         0.34891E-02
         0.34891E-02
         0.32683E-02
         0.32041E-02
         0.37816E-02
         0.31844E-02
         0.27000E-02
         0.33848E-02
         0.37154E-02
         0.27111E-02
         0.29087E-02
         0.36976E-02
         0.36213E-02
         0.37892E-02
         0.30050E-02
         0.30050E-02
         0.28608E-02
         0.26935E-02
         0.29532E-02
         0.28096E-02
         0.30234E-02
         0.36976E-02
         0.28434E-02
         0.28434E-02
         0.27472E-02
         0.26091E-02
         0.36976E-02
         0.36976E-02
         0.37892E-02
         0.37892E-02
         0.30249E-02
         0.36885E-02
         0.37154E-02
         0.32064E-02
         0.32839E-02
         0.32839E-02
         0.27006E-02
         0.25920E-02
         0.25844E-02
         0.29714E-02
         0.29714E-02
         0.26471E-02
         0.29094E-02
         0.34012E-02
         0.35293E-02
         0.35293E-02
         0.29797E-02
         0.32449E-02
         0.28811E-02
         0.29935E-02
         0.36885E-02
         0.37154E-02
         0.37154E-02
         0.33848E-02
         0.29087E-02
         0.32064E-02
         0.32839E-02
         0.32839E-02
         0.27006E-02
         0.25920E-02
         0.25844E-02
         0.26935E-02
         0.28608E-02
         0.29532E-02
         0.29714E-02
         0.29714E-02
         0.26471E-02
         0.27681E-02
         0.34012E-02
         0.35293E-02
         0.35293E-02
         0.29797E-02
         0.31517E-02
         0.31517E-02
         0.43128E-02
         0.43128E-02
         0.43128E-02
         0.43128E-02
         0.34892E-02
         0.34892E-02
         0.32669E-02
         0.32031E-02
         0.37811E-02
         0.31840E-02
         0.26982E-02
         0.33844E-02
         0.37152E-02
         0.27063E-02
         0.29099E-02
         0.36973E-02
         0.36248E-02
         0.37913E-02
         0.30076E-02
         0.30076E-02
         0.28613E-02
         0.26942E-02
         0.29533E-02
         0.28099E-02
         0.30260E-02
         0.36973E-02
         0.28408E-02
         0.28408E-02
         0.27460E-02
         0.26081E-02
         0.36973E-02
         0.36973E-02
         0.37913E-02
         0.37913E-02
         0.30250E-02
         0.36873E-02
         0.37152E-02
         0.32077E-02
         0.32845E-02
         0.32845E-02
         0.27006E-02
         0.25920E-02
         0.25837E-02
         0.29714E-02
         0.29714E-02
         0.26471E-02
         0.29093E-02
         0.34005E-02
         0.35287E-02
         0.35287E-02
         0.29800E-02
         0.32467E-02
         0.28783E-02
         0.29945E-02
         0.36873E-02
         0.37152E-02
         0.37152E-02
         0.33844E-02
         0.29099E-02
         0.32077E-02
         0.32845E-02
         0.32845E-02
         0.27006E-02
         0.25920E-02
         0.25837E-02
         0.26942E-02
         0.28613E-02
         0.29533E-02
         0.29714E-02
         0.29714E-02
         0.26471E-02
         0.27681E-02
         0.34005E-02
         0.35287E-02
         0.35287E-02
         0.29800E-02
         0.31530E-02
         0.31530E-02
         0.43125E-02
         0.43125E-02
         0.43125E-02
         0.43125E-02
         0.34893E-02
         0.34893E-02
         0.32655E-02
         0.32021E-02
         0.37806E-02
         0.31836E-02
         0.26965E-02
         0.33840E-02
         0.37151E-02
         0.27016E-02
         0.29111E-02
         0.36969E-02
         0.36283E-02
         0.37933E-02
         0.30102E-02
         0.30102E-02
         0.28617E-02
         0.26950E-02
         0.29535E-02
         0.28101E-02
         0.30286E-02
         0.36969E-02
         0.28382E-02
         0.28382E-02
         0.27447E-02
         0.26071E-02
         0.36969E-02
         0.36969E-02
         0.37933E-02
         0.37933E-02
         0.30252E-02
         0.36861E-02
         0.37151E-02
         0.32090E-02
         0.32852E-02
         0.32852E-02
         0.27006E-02
         0.25920E-02
         0.25830E-02
         0.29714E-02
         0.29714E-02
         0.26470E-02
         0.29092E-02
         0.33997E-02
         0.35282E-02
         0.35282E-02
         0.29803E-02
         0.32484E-02
         0.28755E-02
         0.29955E-02
         0.36861E-02
         0.37151E-02
         0.37151E-02
         0.33840E-02
         0.29111E-02
         0.32090E-02
         0.32852E-02
         0.32852E-02
         0.27006E-02
         0.25920E-02
         0.25830E-02
         0.26950E-02
         0.28617E-02
         0.29535E-02
         0.29714E-02
         0.29714E-02
         0.26470E-02
         0.27680E-02
         0.33997E-02
         0.35282E-02
         0.35282E-02
         0.29803E-02
         0.31544E-02
         0.31544E-02
         0.43123E-02
         0.43123E-02
         0.43123E-02
         0.43123E-02
         0.34893E-02
         0.34893E-02
         0.32640E-02
         0.32011E-02
         0.37801E-02
         0.31832E-02
         0.26948E-02
         0.33836E-02
         0.37150E-02
         0.26969E-02
         0.29123E-02
         0.36966E-02
         0.36319E-02
         0.37954E-02
         0.30128E-02
         0.30128E-02
         0.28622E-02
         0.26957E-02
         0.29536E-02
         0.28104E-02
         0.30312E-02
         0.36966E-02
         0.28357E-02
         0.28357E-02
         0.27434E-02
         0.26061E-02
         0.36966E-02
         0.36966E-02
         0.37954E-02
         0.37954E-02
         0.30254E-02
         0.36849E-02
         0.37150E-02
         0.32103E-02
         0.32858E-02
         0.32858E-02
         0.27006E-02
         0.25920E-02
         0.25823E-02
         0.29714E-02
         0.29714E-02
         0.26470E-02
         0.29091E-02
         0.33990E-02
         0.35276E-02
         0.35276E-02
         0.29806E-02
         0.32502E-02
         0.28728E-02
         0.29965E-02
         0.36849E-02
         0.37150E-02
         0.37150E-02
         0.33836E-02
         0.29123E-02
         0.32103E-02
         0.32858E-02
         0.32858E-02
         0.27006E-02
         0.25920E-02
         0.25823E-02
         0.26957E-02
         0.28622E-02
         0.29536E-02
         0.29714E-02
         0.29714E-02
         0.26470E-02
         0.27680E-02
         0.33990E-02
         0.35276E-02
         0.35276E-02
         0.29806E-02
         0.31557E-02
         0.31557E-02
         0.43120E-02
         0.43120E-02
         0.43120E-02
         0.43120E-02
         0.34894E-02
         0.34894E-02
         0.32626E-02
         0.32001E-02
         0.37797E-02
         0.31828E-02
         0.26931E-02
         0.33832E-02
         0.37149E-02
         0.26922E-02
         0.29135E-02
         0.36963E-02
         0.36354E-02
         0.37975E-02
         0.30154E-02
         0.30154E-02
         0.28627E-02
         0.26965E-02
         0.29537E-02
         0.28107E-02
         0.30338E-02
         0.36963E-02
         0.28331E-02
         0.28331E-02
         0.27421E-02
         0.26051E-02
         0.36963E-02
         0.36963E-02
         0.37975E-02
         0.37975E-02
         0.30256E-02
         0.36838E-02
         0.37149E-02
         0.32116E-02
         0.32864E-02
         0.32864E-02
         0.27006E-02
         0.25920E-02
         0.25815E-02
         0.29714E-02
         0.29714E-02
         0.26469E-02
         0.29090E-02
         0.33983E-02
         0.35270E-02
         0.35270E-02
         0.29809E-02
         0.32519E-02
         0.28700E-02
         0.29975E-02
         0.36838E-02
         0.37149E-02
         0.37149E-02
         0.33832E-02
         0.29135E-02
         0.32116E-02
         0.32864E-02
         0.32864E-02
         0.27006E-02
         0.25920E-02
         0.25815E-02
         0.26965E-02
         0.28627E-02
         0.29537E-02
         0.29714E-02
         0.29714E-02
         0.26469E-02
         0.27680E-02
         0.33983E-02
         0.35270E-02
         0.35270E-02
         0.29809E-02
         0.31571E-02
         0.31571E-02
         0.43118E-02
         0.43118E-02
         0.43118E-02
         0.43118E-02
         0.34895E-02
         0.34895E-02
         0.32612E-02
         0.31990E-02
         0.37792E-02
         0.31824E-02
         0.26913E-02
         0.33828E-02
         0.37148E-02
         0.26875E-02
         0.29148E-02
         0.36960E-02
         0.36390E-02
         0.37995E-02
         0.30180E-02
         0.30180E-02
         0.28631E-02
         0.26972E-02
         0.29539E-02
         0.28110E-02
         0.30364E-02
         0.36960E-02
         0.28305E-02
         0.28305E-02
         0.27408E-02
         0.26040E-02
         0.36960E-02
         0.36960E-02
         0.37995E-02
         0.37995E-02
         0.30258E-02
         0.36826E-02
         0.37148E-02
         0.32129E-02
         0.32870E-02
         0.32870E-02
         0.27006E-02
         0.25920E-02
         0.25808E-02
         0.29713E-02
         0.29713E-02
         0.26468E-02
         0.29089E-02
         0.33975E-02
         0.35264E-02
         0.35264E-02
         0.29812E-02
         0.32537E-02
         0.28672E-02
         0.29985E-02
         0.36826E-02
         0.37148E-02
         0.37148E-02
         0.33828E-02
         0.29148E-02
         0.32129E-02
         0.32870E-02
         0.32870E-02
         0.27006E-02
         0.25920E-02
         0.25808E-02
         0.26972E-02
         0.28631E-02
         0.29539E-02
         0.29713E-02
         0.29713E-02
         0.26468E-02
         0.27679E-02
         0.33975E-02
         0.35264E-02
         0.35264E-02
         0.29812E-02
         0.31585E-02
         0.31585E-02
         0.43115E-02
         0.43115E-02
         0.43115E-02
         0.43115E-02
         0.34896E-02
         0.34896E-02
         0.32597E-02
         0.31980E-02
         0.37787E-02
         0.31820E-02
         0.26896E-02
         0.33824E-02
         0.37147E-02
         0.26827E-02
         0.29160E-02
         0.36957E-02
         0.36425E-02
         0.38016E-02
         0.30206E-02
         0.30206E-02
         0.28636E-02
         0.26980E-02
         0.29540E-02
         0.28112E-02
         0.30390E-02
         0.36957E-02
         0.28279E-02
         0.28279E-02
         0.27395E-02
         0.26030E-02
         0.36957E-02
         0.36957E-02
         0.38016E-02
         0.38016E-02
         0.30260E-02
         0.36814E-02
         0.37147E-02
         0.32141E-02
         0.32876E-02
         0.32876E-02
         0.27006E-02
         0.25920E-02
         0.25801E-02
         0.29713E-02
         0.29713E-02
         0.26468E-02
         0.29089E-02
         0.33968E-02
         0.35259E-02
         0.35259E-02
         0.29815E-02
         0.32555E-02
         0.28645E-02
         0.29995E-02
         0.36814E-02
         0.37147E-02
         0.37147E-02
         0.33824E-02
         0.29160E-02
         0.32141E-02
         0.32876E-02
         0.32876E-02
         0.27006E-02
         0.25920E-02
         0.25801E-02
         0.26980E-02
         0.28636E-02
         0.29540E-02
         0.29713E-02
         0.29713E-02
         0.26468E-02
         0.27679E-02
         0.33968E-02
         0.35259E-02
         0.35259E-02
         0.29815E-02
         0.31598E-02
         0.31598E-02
         0.43113E-02
         0.43113E-02
         0.43113E-02
         0.43113E-02
         0.34897E-02
         0.34897E-02
         0.32583E-02
         0.31970E-02
         0.37783E-02
         0.31816E-02
         0.26879E-02
         0.33820E-02
         0.37146E-02
         0.26780E-02
         0.29172E-02
         0.36954E-02
         0.36460E-02
         0.38037E-02
         0.30232E-02
         0.30232E-02
         0.28641E-02
         0.26987E-02
         0.29542E-02
         0.28115E-02
         0.30416E-02
         0.36954E-02
         0.28253E-02
         0.28253E-02
         0.27382E-02
         0.26020E-02
         0.36954E-02
         0.36954E-02
         0.38037E-02
         0.38037E-02
         0.30261E-02
         0.36802E-02
         0.37146E-02
         0.32154E-02
         0.32882E-02
         0.32882E-02
         0.27006E-02
         0.25921E-02
         0.25794E-02
         0.29713E-02
         0.29713E-02
         0.26467E-02
         0.29088E-02
         0.33961E-02
         0.35253E-02
         0.35253E-02
         0.29818E-02
         0.32573E-02
         0.28617E-02
         0.30005E-02
         0.36802E-02
         0.37146E-02
         0.37146E-02
         0.33820E-02
         0.29172E-02
         0.32154E-02
         0.32882E-02
         0.32882E-02
         0.27006E-02
         0.25921E-02
         0.25794E-02
         0.26987E-02
         0.28641E-02
         0.29542E-02
         0.29713E-02
         0.29713E-02
         0.26467E-02
         0.27678E-02
         0.33961E-02
         0.35253E-02
         0.35253E-02
         0.29818E-02
         0.31612E-02
         0.31612E-02
         0.43110E-02
         0.43110E-02
         0.43110E-02
         0.43110E-02
         0.34898E-02
         0.34898E-02
         0.32569E-02
         0.31960E-02
         0.37778E-02
         0.31812E-02
         0.26862E-02
         0.33816E-02
         0.37145E-02
         0.26733E-02
         0.29184E-02
         0.36950E-02
         0.36495E-02
         0.38057E-02
         0.30258E-02
         0.30258E-02
         0.28645E-02
         0.26995E-02
         0.29543E-02
         0.28118E-02
         0.30442E-02
         0.36950E-02
         0.28227E-02
         0.28227E-02
         0.27369E-02
         0.26010E-02
         0.36950E-02
         0.36950E-02
         0.38057E-02
         0.38057E-02
         0.30263E-02
         0.36790E-02
         0.37145E-02
         0.32167E-02
         0.32889E-02
         0.32889E-02
         0.27006E-02
         0.25921E-02
         0.25787E-02
         0.29713E-02
         0.29713E-02
         0.26467E-02
         0.29087E-02
         0.33953E-02
         0.35247E-02
         0.35247E-02
         0.29821E-02
         0.32590E-02
         0.28589E-02
         0.30015E-02
         0.36790E-02
         0.37145E-02
         0.37145E-02
         0.33816E-02
         0.29184E-02
         0.32167E-02
         0.32889E-02
         0.32889E-02
         0.27006E-02
         0.25921E-02
         0.25787E-02
         0.26995E-02
         0.28645E-02
         0.29543E-02
         0.29713E-02
         0.29713E-02
         0.26467E-02
         0.27678E-02
         0.33953E-02
         0.35247E-02
         0.35247E-02
         0.29821E-02
         0.31625E-02
         0.31625E-02
         0.43108E-02
         0.43108E-02
         0.43108E-02
         0.43108E-02
         0.34898E-02
         0.34898E-02
         0.32555E-02
         0.31950E-02
         0.37773E-02
         0.31808E-02
         0.26845E-02
         0.33812E-02
         0.37144E-02
         0.26686E-02
         0.29196E-02
         0.36948E-02
         0.36531E-02
         0.38078E-02
         0.30285E-02
         0.30285E-02
         0.28650E-02
         0.27002E-02
         0.29544E-02
         0.28120E-02
         0.30467E-02
         0.36948E-02
         0.28201E-02
         0.28201E-02
         0.27356E-02
         0.26000E-02
         0.36948E-02
         0.36948E-02
         0.38078E-02
         0.38078E-02
         0.30265E-02
         0.36779E-02
         0.37144E-02
         0.32181E-02
         0.32895E-02
         0.32895E-02
         0.27006E-02
         0.25921E-02
         0.25779E-02
         0.29713E-02
         0.29713E-02
         0.26466E-02
         0.29086E-02
         0.33946E-02
         0.35242E-02
         0.35242E-02
         0.29824E-02
         0.32608E-02
         0.28562E-02
         0.30025E-02
         0.36779E-02
         0.37144E-02
         0.37144E-02
         0.33812E-02
         0.29196E-02
         0.32181E-02
         0.32895E-02
         0.32895E-02
         0.27006E-02
         0.25921E-02
         0.25779E-02
         0.27002E-02
         0.28650E-02
         0.29544E-02
         0.29713E-02
         0.29713E-02
         0.26466E-02
         0.27678E-02
         0.33946E-02
         0.35242E-02
         0.35242E-02
         0.29824E-02
         0.31639E-02
         0.31639E-02
         0.43105E-02
         0.43105E-02
         0.43105E-02
         0.43105E-02
         0.34899E-02
         0.34899E-02
         0.32540E-02
         0.31940E-02
         0.37768E-02
         0.31804E-02
         0.26827E-02
         0.33808E-02
         0.37143E-02
         0.26639E-02
         0.29208E-02
         0.36944E-02
         0.36566E-02
         0.38099E-02
         0.30311E-02
         0.30311E-02
         0.28655E-02
         0.27010E-02
         0.29546E-02
         0.28123E-02
         0.30493E-02
         0.36944E-02
         0.28175E-02
         0.28175E-02
         0.27343E-02
         0.25990E-02
         0.36944E-02
         0.36944E-02
         0.38099E-02
         0.38099E-02
         0.30267E-02
         0.36767E-02
         0.37143E-02
         0.32193E-02
         0.32901E-02
         0.32901E-02
         0.27006E-02
         0.25921E-02
         0.25772E-02
         0.29713E-02
         0.29713E-02
         0.26466E-02
         0.29085E-02
         0.33939E-02
         0.35236E-02
         0.35236E-02
         0.29827E-02
         0.32626E-02
         0.28534E-02
         0.30035E-02
         0.36767E-02
         0.37143E-02
         0.37143E-02
         0.33808E-02
         0.29208E-02
         0.32193E-02
         0.32901E-02
         0.32901E-02
         0.27006E-02
         0.25921E-02
         0.25772E-02
         0.27010E-02
         0.28655E-02
         0.29546E-02
         0.29713E-02
         0.29713E-02
         0.26466E-02
         0.27677E-02
         0.33939E-02
         0.35236E-02
         0.35236E-02
         0.29827E-02
         0.31652E-02
         0.31652E-02
         0.43103E-02
         0.43103E-02
         0.43103E-02
         0.43103E-02
         0.34900E-02
         0.34900E-02
         0.32526E-02
         0.31930E-02
         0.37764E-02
         0.31800E-02
         0.26810E-02
         0.33804E-02
         0.37142E-02
         0.26591E-02
         0.29220E-02
         0.36941E-02
         0.36602E-02
         0.38119E-02
         0.30337E-02
         0.30337E-02
         0.28660E-02
         0.27017E-02
         0.29547E-02
         0.28126E-02
         0.30519E-02
         0.36941E-02
         0.28150E-02
         0.28150E-02
         0.27330E-02
         0.25979E-02
         0.36941E-02
         0.36941E-02
         0.38119E-02
         0.38119E-02
         0.30269E-02
         0.36755E-02
         0.37142E-02
         0.32206E-02
         0.32907E-02
         0.32907E-02
         0.27006E-02
         0.25921E-02
         0.25765E-02
         0.29713E-02
         0.29713E-02
         0.26465E-02
         0.29085E-02
         0.33931E-02
         0.35230E-02
         0.35230E-02
         0.29830E-02
         0.32643E-02
         0.28507E-02
         0.30045E-02
         0.36755E-02
         0.37142E-02
         0.37142E-02
         0.33804E-02
         0.29220E-02
         0.32206E-02
         0.32907E-02
         0.32907E-02
         0.27006E-02
         0.25921E-02
         0.25765E-02
         0.27017E-02
         0.28660E-02
         0.29547E-02
         0.29713E-02
         0.29713E-02
         0.26465E-02
         0.27677E-02
         0.33931E-02
         0.35230E-02
         0.35230E-02
         0.29830E-02
         0.31666E-02
         0.31666E-02
         0.43100E-02
         0.43100E-02
         0.43100E-02
         0.43100E-02
         0.34901E-02
         0.34901E-02
         0.32512E-02
         0.31920E-02
         0.37759E-02
         0.31796E-02
         0.26793E-02
         0.33800E-02
         0.37141E-02
         0.26544E-02
         0.29232E-02
         0.36938E-02
         0.36637E-02
         0.38140E-02
         0.30363E-02
         0.30363E-02
         0.28664E-02
         0.27025E-02
         0.29548E-02
         0.28129E-02
         0.30545E-02
         0.36938E-02
         0.28124E-02
         0.28124E-02
         0.27317E-02
         0.25969E-02
         0.36938E-02
         0.36938E-02
         0.38140E-02
         0.38140E-02
         0.30271E-02
         0.36743E-02
         0.37141E-02
         0.32219E-02
         0.32913E-02
         0.32913E-02
         0.27006E-02
         0.25921E-02
         0.25758E-02
         0.29713E-02
         0.29713E-02
         0.26465E-02
         0.29084E-02
         0.33924E-02
         0.35224E-02
         0.35224E-02
         0.29833E-02
         0.32661E-02
         0.28479E-02
         0.30055E-02
         0.36743E-02
         0.37141E-02
         0.37141E-02
         0.33800E-02
         0.29232E-02
         0.32219E-02
         0.32913E-02
         0.32913E-02
         0.27006E-02
         0.25921E-02
         0.25758E-02
         0.27025E-02
         0.28664E-02
         0.29548E-02
         0.29713E-02
         0.29713E-02
         0.26465E-02
         0.27677E-02
         0.33924E-02
         0.35224E-02
         0.35224E-02
         0.29833E-02
         0.31680E-02
         0.31680E-02
         0.43098E-02
         0.43098E-02
         0.43098E-02
         0.43098E-02
         0.34901E-02
         0.34901E-02
         0.32498E-02
         0.31910E-02
         0.37754E-02
         0.31792E-02
         0.26776E-02
         0.33796E-02
         0.37140E-02
         0.26497E-02
         0.29232E-02
         0.36935E-02
         0.36637E-02
         0.38140E-02
         0.30363E-02
         0.30363E-02
         0.28664E-02
         0.27025E-02
         0.29548E-02
         0.28129E-02
         0.30545E-02
         0.36935E-02
         0.28098E-02
         0.28098E-02
         0.27304E-02
         0.25959E-02
         0.36935E-02
         0.36935E-02
         0.38140E-02
         0.38140E-02
         0.30271E-02
         0.36731E-02
         0.37140E-02
         0.32219E-02
         0.32913E-02
         0.32913E-02
         0.27006E-02
         0.25921E-02
         0.25751E-02
         0.29713E-02
         0.29713E-02
         0.26464E-02
         0.29083E-02
         0.33916E-02
         0.35219E-02
         0.35219E-02
         0.29833E-02
         0.32661E-02
         0.28451E-02
         0.30055E-02
         0.36731E-02
         0.37140E-02
         0.37140E-02
         0.33796E-02
         0.29232E-02
         0.32219E-02
         0.32913E-02
         0.32913E-02
         0.27006E-02
         0.25921E-02
         0.25751E-02
         0.27025E-02
         0.28664E-02
         0.29548E-02
         0.29713E-02
         0.29713E-02
         0.26464E-02
         0.27676E-02
         0.33916E-02
         0.35219E-02
         0.35219E-02
         0.29833E-02
         0.31680E-02
         0.31680E-02
  
SCALARS              physical_window_z  double 1
LOOKUP_TABLE default
         0.26928E-02
         0.26928E-02
         0.26928E-02
         0.26928E-02
         0.26928E-02
         0.26928E-02
         0.26928E-02
         0.26928E-02
         0.26928E-02
         0.26928E-02
         0.26928E-02
         0.26928E-02
         0.26928E-02
         0.26928E-02
         0.26928E-02
         0.26928E-02
         0.26928E-02
         0.26928E-02
         0.26928E-02
         0.26928E-02
         0.26928E-02
         0.26928E-02
         0.26928E-02
         0.26928E-02
         0.26928E-02
         0.26928E-02
         0.26928E-02
         0.26928E-02
         0.26928E-02
         0.26928E-02
         0.26928E-02
         0.26928E-02
         0.26928E-02
         0.26928E-02
         0.26928E-02
         0.26928E-02
         0.26928E-02
         0.26928E-02
         0.26928E-02
         0.26928E-02
         0.26928E-02
         0.26928E-02
         0.26928E-02
         0.26928E-02
         0.26928E-02
         0.26928E-02
         0.26928E-02
         0.26928E-02
         0.26928E-02
         0.26928E-02
         0.26928E-02
         0.26928E-02
         0.26928E-02
         0.26928E-02
         0.26928E-02
         0.26928E-02
         0.26928E-02
         0.26928E-02
         0.26928E-02
         0.26928E-02
         0.26928E-02
         0.26928E-02
         0.26928E-02
         0.26928E-02
         0.26928E-02
         0.26928E-02
         0.26928E-02
         0.26928E-02
         0.26928E-02
         0.26928E-02
         0.26928E-02
         0.26928E-02
         0.26928E-02
         0.26928E-02
         0.26928E-02
         0.26928E-02
         0.26928E-02
         0.26928E-02
         0.26928E-02
         0.26928E-02
         0.26928E-02
         0.26928E-02
         0.26928E-02
         0.26928E-02
         0.26928E-02
         0.26928E-02
         0.26928E-02
         0.26928E-02
         0.26928E-02
         0.26928E-02
         0.26928E-02
         0.26928E-02
         0.26928E-02
         0.26928E-02
         0.26928E-02
         0.26928E-02
         0.26928E-02
         0.26928E-02
         0.26928E-02
         0.26928E-02
         0.26928E-02
         0.26928E-02
         0.26928E-02
         0.26928E-02
         0.26928E-02
         0.26928E-02
         0.26928E-02
         0.26928E-02
         0.26928E-02
         0.26928E-02
         0.26928E-02
         0.26928E-02
         0.26928E-02
         0.26928E-02
         0.26928E-02
         0.26928E-02
         0.26928E-02
         0.26928E-02
         0.26928E-02
         0.26928E-02
         0.26928E-02
         0.26928E-02
         0.26928E-02
         0.26928E-02
         0.26928E-02
         0.26928E-02
         0.26928E-02
         0.26928E-02
         0.26928E-02
         0.26928E-02
         0.26928E-02
         0.26928E-02
         0.26928E-02
         0.26928E-02
         0.26928E-02
         0.26928E-02
         0.26928E-02
         0.26928E-02
         0.26928E-02
         0.26928E-02
         0.26928E-02
         0.26928E-02
         0.26928E-02
         0.26928E-02
         0.26928E-02
         0.26928E-02
         0.26928E-02
         0.26928E-02
         0.26928E-02
         0.26928E-02
         0.26928E-02
         0.26928E-02
         0.26928E-02
         0.26928E-02
         0.26928E-02
         0.26928E-02
         0.26927E-02
         0.26927E-02
         0.26927E-02
         0.26927E-02
         0.26927E-02
         0.26927E-02
         0.26927E-02
         0.26927E-02
         0.26927E-02
         0.26927E-02
         0.26927E-02
         0.26927E-02
         0.26927E-02
         0.26927E-02
         0.26927E-02
         0.26927E-02
         0.26927E-02
         0.26927E-02
         0.26927E-02
         0.26927E-02
         0.26927E-02
         0.26927E-02
         0.26927E-02
         0.26927E-02
         0.26927E-02
         0.26927E-02
         0.26927E-02
         0.26927E-02
         0.26927E-02
         0.26927E-02
         0.26927E-02
         0.26927E-02
         0.26927E-02
         0.26927E-02
         0.26927E-02
         0.26927E-02
         0.26927E-02
         0.26927E-02
         0.26927E-02
         0.26927E-02
         0.26927E-02
         0.26927E-02
         0.26927E-02
         0.26927E-02
         0.26927E-02
         0.26927E-02
         0.26927E-02
         0.26927E-02
         0.26927E-02
         0.26927E-02
         0.26927E-02
         0.26927E-02
         0.26927E-02
         0.26927E-02
         0.26927E-02
         0.26927E-02
         0.26927E-02
         0.26927E-02
         0.26927E-02
         0.26927E-02
         0.26927E-02
         0.26927E-02
         0.26927E-02
         0.26927E-02
         0.26927E-02
         0.26927E-02
         0.26927E-02
         0.26927E-02
         0.26927E-02
         0.26927E-02
         0.26927E-02
         0.26927E-02
         0.26927E-02
         0.26927E-02
         0.26927E-02
         0.26927E-02
         0.26927E-02
         0.26927E-02
         0.26927E-02
         0.26927E-02
         0.26927E-02
         0.26927E-02
         0.26927E-02
         0.26927E-02
         0.26927E-02
         0.26927E-02
         0.26927E-02
         0.26927E-02
         0.26927E-02
         0.26927E-02
         0.26927E-02
         0.26927E-02
         0.26927E-02
         0.26927E-02
         0.26927E-02
         0.26927E-02
         0.26927E-02
         0.26927E-02
         0.26927E-02
         0.26927E-02
         0.26927E-02
         0.26927E-02
         0.26927E-02
         0.26927E-02
         0.26927E-02
         0.26927E-02
         0.26927E-02
         0.26927E-02
         0.26927E-02
         0.26927E-02
         0.26927E-02
         0.26927E-02
         0.26927E-02
         0.26927E-02
         0.26927E-02
         0.26927E-02
         0.26927E-02
         0.26927E-02
         0.26927E-02
         0.26927E-02
         0.26927E-02
         0.26927E-02
         0.26927E-02
         0.26927E-02
         0.26927E-02
         0.26927E-02
         0.26927E-02
         0.26927E-02
         0.26927E-02
         0.26927E-02
         0.26927E-02
         0.26927E-02
         0.26927E-02
         0.26927E-02
         0.26927E-02
         0.26927E-02
         0.26927E-02
         0.26927E-02
         0.26927E-02
         0.26927E-02
         0.26927E-02
         0.26927E-02
         0.26927E-02
         0.26927E-02
         0.26927E-02
         0.26927E-02
         0.26927E-02
         0.26927E-02
         0.26927E-02
         0.26927E-02
         0.26927E-02
         0.26927E-02
         0.26927E-02
         0.26927E-02
         0.26927E-02
         0.26927E-02
         0.26927E-02
         0.26927E-02
         0.26927E-02
         0.26927E-02
         0.26927E-02
         0.26927E-02
         0.26927E-02
         0.26927E-02
         0.26927E-02
         0.26927E-02
         0.26927E-02
         0.26927E-02
         0.26927E-02
         0.26927E-02
         0.26927E-02
         0.26927E-02
         0.26927E-02
         0.26927E-02
         0.26927E-02
         0.26927E-02
         0.26927E-02
         0.26927E-02
         0.26927E-02
         0.26927E-02
         0.26927E-02
         0.26927E-02
         0.26927E-02
         0.26927E-02
         0.26927E-02
         0.26927E-02
         0.26927E-02
         0.26927E-02
         0.26927E-02
         0.26927E-02
         0.26927E-02
         0.26927E-02
         0.26927E-02
         0.26927E-02
         0.26927E-02
         0.26927E-02
         0.26927E-02
         0.26927E-02
         0.26927E-02
         0.26927E-02
         0.26927E-02
         0.26927E-02
         0.26927E-02
         0.26927E-02
         0.26927E-02
         0.26927E-02
         0.26927E-02
         0.26927E-02
         0.26927E-02
         0.26927E-02
         0.26927E-02
         0.26927E-02
         0.26927E-02
         0.26927E-02
         0.26927E-02
         0.26927E-02
         0.26927E-02
         0.26927E-02
         0.26927E-02
         0.26927E-02
         0.26927E-02
         0.26927E-02
         0.26927E-02
         0.26927E-02
         0.26927E-02
         0.26927E-02
         0.26927E-02
         0.26927E-02
         0.26927E-02
         0.26927E-02
         0.26927E-02
         0.26927E-02
         0.26927E-02
         0.26927E-02
         0.26927E-02
         0.26927E-02
         0.26927E-02
         0.26927E-02
         0.26927E-02
         0.26927E-02
         0.26927E-02
         0.26927E-02
         0.26927E-02
         0.26927E-02
         0.26927E-02
         0.26927E-02
         0.26927E-02
         0.26927E-02
         0.26927E-02
         0.26927E-02
         0.26927E-02
         0.26927E-02
         0.26927E-02
         0.26927E-02
         0.26927E-02
         0.26927E-02
         0.26927E-02
         0.26927E-02
         0.26927E-02
         0.26927E-02
         0.26927E-02
         0.26927E-02
         0.26927E-02
         0.26927E-02
         0.26927E-02
         0.26927E-02
         0.26927E-02
         0.26927E-02
         0.26927E-02
         0.26927E-02
         0.26927E-02
         0.26927E-02
         0.26927E-02
         0.26927E-02
         0.26927E-02
         0.26927E-02
         0.26927E-02
         0.26927E-02
         0.26927E-02
         0.26927E-02
         0.26927E-02
         0.26927E-02
         0.26927E-02
         0.26927E-02
         0.26927E-02
         0.26927E-02
         0.26927E-02
         0.26927E-02
         0.26927E-02
         0.26927E-02
         0.26927E-02
         0.26927E-02
         0.26927E-02
         0.26927E-02
         0.26927E-02
         0.26927E-02
         0.26927E-02
         0.26927E-02
         0.26927E-02
         0.26927E-02
         0.26927E-02
         0.26927E-02
         0.26927E-02
         0.26927E-02
         0.26927E-02
         0.26927E-02
         0.26927E-02
         0.26927E-02
         0.26927E-02
         0.26927E-02
         0.26927E-02
         0.26927E-02
         0.26927E-02
         0.26927E-02
         0.26927E-02
         0.26927E-02
         0.26927E-02
         0.26927E-02
         0.26927E-02
         0.26927E-02
         0.26927E-02
         0.26927E-02
         0.26927E-02
         0.26927E-02
         0.26927E-02
         0.26927E-02
         0.26927E-02
         0.26927E-02
         0.26927E-02
         0.26927E-02
         0.26927E-02
         0.26927E-02
         0.26927E-02
         0.26927E-02
         0.26927E-02
         0.26927E-02
         0.26927E-02
         0.26927E-02
         0.26927E-02
         0.26927E-02
         0.26927E-02
         0.26927E-02
         0.26927E-02
         0.26927E-02
         0.26927E-02
         0.26927E-02
         0.26927E-02
         0.26927E-02
         0.26927E-02
         0.26927E-02
         0.26927E-02
         0.26927E-02
         0.26927E-02
         0.26927E-02
         0.26927E-02
         0.26927E-02
         0.26927E-02
         0.26927E-02
         0.26927E-02
         0.26927E-02
         0.26927E-02
         0.26927E-02
         0.26927E-02
         0.26927E-02
         0.26927E-02
         0.26927E-02
         0.26927E-02
         0.26927E-02
         0.26927E-02
         0.26927E-02
         0.26927E-02
         0.26927E-02
         0.26927E-02
         0.26927E-02
         0.26927E-02
         0.26927E-02
         0.26927E-02
         0.26927E-02
         0.26927E-02
         0.26927E-02
         0.26927E-02
         0.26927E-02
         0.26927E-02
         0.26927E-02
         0.26927E-02
         0.26927E-02
         0.26927E-02
         0.26927E-02
         0.26927E-02
         0.26927E-02
         0.26927E-02
         0.26927E-02
         0.26927E-02
         0.26927E-02
         0.26927E-02
         0.26927E-02
         0.26927E-02
         0.26927E-02
         0.26927E-02
         0.26927E-02
         0.26927E-02
         0.26927E-02
         0.26927E-02
         0.26927E-02
         0.26927E-02
         0.26927E-02
         0.26927E-02
         0.26927E-02
         0.26927E-02
         0.26927E-02
         0.26927E-02
         0.26927E-02
         0.26927E-02
         0.26927E-02
         0.26927E-02
         0.26927E-02
         0.26927E-02
         0.26927E-02
         0.26927E-02
         0.26927E-02
         0.26927E-02
         0.26927E-02
         0.26927E-02
         0.26927E-02
         0.26927E-02
         0.26927E-02
         0.26927E-02
         0.26927E-02
         0.26927E-02
         0.26927E-02
         0.26927E-02
         0.26927E-02
         0.26927E-02
         0.26927E-02
         0.26927E-02
         0.26927E-02
         0.26927E-02
         0.26927E-02
         0.26927E-02
         0.26927E-02
         0.26927E-02
         0.26927E-02
         0.26927E-02
         0.26927E-02
         0.26927E-02
         0.26927E-02
         0.26927E-02
         0.26927E-02
         0.26927E-02
         0.26927E-02
         0.26927E-02
         0.26927E-02
         0.26927E-02
         0.26927E-02
         0.26927E-02
         0.26927E-02
         0.26927E-02
         0.26927E-02
         0.26927E-02
         0.26927E-02
         0.26927E-02
         0.26927E-02
         0.26927E-02
         0.26927E-02
         0.26927E-02
         0.26927E-02
         0.26927E-02
         0.26927E-02
         0.26927E-02
         0.26927E-02
         0.26927E-02
         0.26927E-02
         0.26927E-02
         0.26927E-02
         0.26927E-02
         0.26927E-02
         0.26927E-02
         0.26927E-02
         0.26927E-02
         0.26927E-02
         0.26927E-02
         0.26927E-02
         0.26927E-02
         0.26927E-02
         0.26927E-02
         0.26927E-02
         0.26927E-02
         0.26927E-02
         0.26927E-02
         0.26927E-02
         0.26927E-02
         0.26927E-02
         0.26927E-02
         0.26927E-02
         0.26927E-02
         0.26927E-02
         0.26927E-02
         0.26927E-02
         0.26927E-02
         0.26927E-02
         0.26927E-02
         0.26927E-02
         0.26927E-02
         0.26927E-02
         0.26927E-02
         0.26927E-02
         0.26927E-02
         0.26927E-02
         0.26927E-02
         0.26927E-02
         0.26927E-02
         0.26927E-02
         0.26927E-02
         0.26927E-02
         0.26927E-02
         0.26927E-02
         0.26927E-02
         0.26927E-02
         0.26927E-02
         0.26927E-02
         0.26927E-02
         0.26927E-02
         0.26927E-02
         0.26927E-02
         0.26927E-02
         0.26927E-02
         0.26927E-02
         0.26927E-02
         0.26927E-02
         0.26927E-02
         0.26927E-02
         0.26927E-02
         0.26927E-02
         0.26927E-02
         0.26927E-02
         0.26927E-02
         0.26927E-02
         0.26927E-02
         0.26927E-02
         0.26927E-02
         0.26927E-02
         0.26927E-02
         0.26927E-02
         0.26927E-02
         0.26927E-02
         0.26927E-02
         0.26927E-02
         0.26927E-02
         0.26927E-02
         0.26927E-02
         0.26927E-02
         0.26927E-02
         0.26927E-02
         0.26927E-02
         0.26927E-02
         0.26927E-02
         0.26927E-02
         0.26927E-02
         0.26927E-02
         0.26927E-02
         0.26927E-02
         0.26927E-02
         0.26927E-02
         0.26927E-02
         0.26927E-02
         0.26927E-02
         0.26927E-02
         0.26927E-02
         0.26927E-02
         0.26927E-02
         0.26927E-02
         0.26927E-02
         0.26927E-02
         0.26927E-02
         0.26927E-02
         0.26927E-02
         0.26927E-02
         0.26927E-02
         0.26927E-02
         0.26927E-02
         0.26927E-02
         0.26927E-02
         0.26927E-02
         0.26927E-02
         0.26927E-02
         0.26927E-02
         0.26927E-02
         0.26927E-02
         0.26927E-02
         0.26927E-02
         0.26927E-02
         0.26927E-02
         0.26927E-02
         0.26927E-02
         0.26927E-02
         0.26927E-02
         0.26927E-02
         0.26927E-02
         0.26927E-02
         0.26927E-02
         0.26927E-02
         0.26927E-02
         0.26927E-02
         0.26927E-02
         0.26927E-02
         0.26927E-02
         0.26927E-02
         0.26927E-02
         0.26927E-02
         0.26927E-02
         0.26927E-02
         0.26927E-02
         0.26927E-02
         0.26927E-02
         0.26927E-02
         0.26927E-02
         0.26927E-02
         0.26927E-02
         0.26927E-02
         0.26927E-02
         0.26927E-02
         0.26927E-02
         0.26927E-02
         0.26927E-02
         0.26927E-02
         0.26927E-02
         0.26927E-02
         0.26927E-02
         0.26927E-02
         0.26927E-02
         0.26927E-02
         0.26927E-02
         0.26927E-02
         0.26927E-02
         0.26927E-02
         0.26927E-02
         0.26927E-02
         0.26927E-02
         0.26927E-02
         0.26927E-02
         0.26927E-02
         0.26927E-02
         0.26927E-02
         0.26927E-02
         0.26927E-02
         0.26927E-02
         0.26927E-02
         0.26927E-02
         0.26927E-02
         0.26927E-02
         0.26927E-02
         0.26927E-02
         0.26927E-02
         0.26927E-02
         0.26927E-02
         0.26927E-02
         0.26927E-02
         0.26927E-02
         0.26927E-02
         0.26927E-02
         0.26927E-02
         0.26927E-02
         0.26927E-02
         0.26927E-02
         0.26927E-02
         0.26927E-02
         0.26927E-02
         0.26927E-02
         0.26927E-02
         0.26927E-02
         0.26927E-02
         0.26927E-02
         0.26927E-02
         0.26927E-02
         0.26927E-02
         0.26927E-02
         0.26927E-02
         0.26927E-02
         0.26927E-02
         0.26927E-02
         0.26927E-02
         0.26927E-02
         0.26927E-02
         0.26927E-02
         0.26927E-02
         0.26927E-02
         0.26927E-02
         0.26927E-02
         0.26927E-02
         0.26927E-02
         0.26927E-02
         0.26927E-02
         0.26927E-02
         0.26927E-02
         0.26927E-02
         0.26927E-02
         0.26927E-02
         0.26927E-02
         0.26927E-02
         0.26927E-02
         0.26927E-02
         0.26927E-02
         0.26927E-02
         0.26927E-02
         0.26927E-02
         0.26927E-02
         0.26927E-02
         0.26927E-02
         0.26927E-02
         0.26927E-02
         0.26927E-02
         0.26927E-02
         0.26927E-02
         0.26927E-02
         0.26927E-02
         0.26927E-02
         0.26927E-02
         0.26927E-02
         0.26927E-02
         0.26927E-02
         0.26927E-02
         0.26927E-02
         0.26927E-02
         0.26927E-02
         0.26927E-02
         0.26927E-02
         0.26927E-02
         0.26927E-02
         0.26927E-02
         0.26927E-02
         0.26927E-02
         0.26927E-02
         0.26927E-02
         0.26927E-02
         0.26927E-02
         0.26927E-02
         0.26927E-02
         0.26927E-02
         0.26927E-02
         0.26927E-02
         0.26927E-02
         0.26927E-02
         0.26927E-02
         0.26927E-02
         0.26927E-02
         0.26927E-02
         0.26927E-02
         0.26927E-02
         0.26927E-02
         0.26927E-02
         0.26927E-02
         0.26927E-02
         0.26927E-02
         0.26927E-02
         0.26927E-02
         0.26927E-02
         0.26927E-02
         0.26927E-02
         0.26927E-02
         0.26927E-02
         0.26927E-02
         0.26927E-02
         0.26927E-02
         0.26927E-02
         0.26927E-02
         0.26927E-02
         0.26927E-02
         0.26927E-02
         0.26927E-02
         0.26927E-02
         0.26927E-02
         0.26927E-02
         0.26927E-02
         0.26927E-02
         0.26927E-02
         0.26927E-02
         0.26927E-02
         0.26927E-02
         0.26927E-02
         0.26927E-02
         0.26927E-02
         0.26927E-02
         0.26927E-02
         0.26927E-02
         0.26927E-02
         0.26927E-02
         0.26927E-02
         0.26927E-02
         0.26927E-02
         0.26927E-02
         0.26927E-02
         0.26927E-02
         0.26927E-02
         0.26927E-02
         0.26927E-02
         0.26927E-02
         0.26927E-02
         0.26927E-02
         0.26927E-02
         0.26927E-02
         0.26927E-02
         0.26927E-02
         0.26927E-02
         0.26927E-02
         0.26927E-02
         0.26927E-02
         0.26927E-02
         0.26927E-02
         0.26927E-02
         0.26927E-02
         0.26927E-02
         0.26927E-02
         0.26927E-02
         0.26927E-02
         0.26927E-02
         0.26927E-02
         0.26927E-02
         0.26927E-02
         0.26927E-02
         0.26927E-02
         0.26927E-02
         0.26927E-02
         0.26927E-02
         0.26927E-02
         0.26927E-02
         0.26927E-02
         0.26927E-02
         0.26927E-02
         0.26927E-02
         0.26927E-02
         0.26927E-02
         0.26927E-02
         0.26927E-02
         0.26927E-02
         0.26927E-02
         0.26927E-02
         0.26927E-02
         0.26927E-02
         0.26927E-02
         0.26927E-02
         0.26927E-02
         0.26927E-02
         0.26927E-02
         0.26927E-02
         0.26927E-02
         0.26927E-02
         0.26927E-02
         0.26927E-02
         0.26927E-02
         0.26927E-02
         0.26927E-02
         0.26927E-02
         0.26927E-02
         0.26927E-02
         0.26927E-02
         0.26927E-02
         0.26927E-02
         0.26927E-02
         0.26927E-02
         0.26927E-02
         0.26927E-02
         0.26927E-02
         0.26927E-02
         0.26927E-02
         0.26927E-02
         0.26927E-02
         0.26927E-02
         0.26927E-02
         0.26927E-02
         0.26927E-02
         0.26927E-02
         0.26927E-02
         0.26927E-02
         0.26927E-02
         0.26927E-02
         0.26927E-02
         0.26927E-02
         0.26927E-02
         0.26927E-02
         0.26927E-02
         0.26927E-02
         0.26927E-02
         0.26927E-02
         0.26927E-02
         0.26927E-02
         0.26927E-02
         0.26927E-02
         0.26927E-02
         0.26927E-02
         0.26927E-02
         0.26927E-02
         0.26927E-02
         0.26927E-02
         0.26927E-02
         0.26927E-02
         0.26927E-02
         0.26927E-02
         0.26927E-02
         0.26927E-02
         0.26927E-02
         0.26927E-02
         0.26927E-02
         0.26927E-02
         0.26927E-02
         0.26927E-02
         0.26927E-02
         0.26927E-02
         0.26927E-02
         0.26927E-02
         0.26927E-02
         0.26927E-02
         0.26927E-02
         0.26927E-02
         0.26927E-02
         0.26927E-02
         0.26927E-02
         0.26927E-02
         0.26927E-02
         0.26927E-02
         0.26927E-02
         0.26927E-02
         0.26927E-02
         0.26927E-02
         0.26927E-02
         0.26927E-02
         0.26927E-02
         0.26927E-02
         0.26927E-02
         0.26927E-02
         0.26927E-02
         0.26927E-02
         0.26927E-02
         0.26927E-02
         0.26927E-02
         0.26927E-02
         0.26927E-02
         0.26927E-02
         0.26927E-02
         0.26927E-02
         0.26927E-02
         0.26927E-02
         0.26927E-02
         0.26927E-02
         0.26927E-02
         0.26927E-02
         0.26927E-02
         0.26927E-02
         0.26927E-02
         0.26927E-02
         0.26927E-02
         0.26927E-02
         0.26927E-02
         0.26927E-02
         0.26927E-02
         0.26927E-02
         0.26927E-02
         0.26927E-02
         0.26927E-02
         0.26927E-02
         0.26927E-02
         0.26927E-02
         0.26927E-02
         0.26927E-02
         0.26927E-02
         0.26927E-02
         0.26927E-02
         0.26927E-02
         0.26927E-02
         0.26927E-02
         0.26927E-02
         0.26927E-02
         0.26927E-02
         0.26927E-02
         0.26927E-02
         0.26927E-02
         0.26927E-02
         0.26927E-02
         0.26927E-02
         0.26927E-02
         0.26927E-02
         0.26927E-02
         0.26927E-02
         0.26927E-02
         0.26927E-02
         0.26927E-02
         0.26927E-02
         0.26927E-02
         0.26927E-02
         0.26927E-02
         0.26927E-02
         0.26927E-02
         0.26927E-02
         0.26927E-02
         0.26927E-02
         0.26927E-02
         0.26927E-02
         0.26927E-02
         0.26927E-02
         0.26927E-02
         0.26927E-02
         0.26927E-02
         0.26927E-02
         0.26927E-02
         0.26927E-02
         0.26927E-02
         0.26927E-02
         0.26927E-02
         0.26927E-02
         0.26927E-02
         0.26927E-02
         0.26927E-02
         0.26927E-02
         0.26927E-02
         0.26927E-02
         0.26927E-02
         0.26927E-02
         0.26927E-02
         0.26927E-02
         0.26927E-02
         0.26927E-02
         0.26927E-02
         0.26927E-02
         0.26927E-02
         0.26927E-02
         0.26927E-02
         0.26927E-02
         0.26927E-02
         0.26927E-02
         0.26927E-02
         0.26927E-02
         0.26927E-02
         0.26927E-02
         0.26927E-02
         0.26927E-02
         0.26927E-02
         0.26927E-02
         0.26927E-02
         0.26927E-02
         0.26927E-02
         0.26927E-02
         0.26927E-02
         0.26927E-02
         0.26927E-02
         0.26927E-02
         0.26927E-02
         0.26927E-02
         0.26927E-02
         0.26927E-02
         0.26927E-02
         0.26927E-02
         0.26927E-02
         0.26927E-02
         0.26927E-02
         0.26927E-02
         0.26927E-02
         0.26927E-02
         0.26927E-02
         0.26927E-02
         0.26927E-02
         0.26927E-02
         0.26927E-02
         0.26927E-02
         0.26927E-02
         0.26927E-02
         0.26927E-02
         0.26927E-02
         0.26927E-02
         0.26927E-02
         0.26927E-02
         0.26927E-02
         0.26927E-02
         0.26927E-02
         0.26927E-02
         0.26927E-02
         0.26927E-02
         0.26927E-02
         0.26927E-02
         0.26927E-02
         0.26927E-02
         0.26927E-02
         0.26927E-02
         0.26927E-02
         0.26927E-02
         0.26927E-02
         0.26927E-02
         0.26927E-02
         0.26927E-02
         0.26927E-02
         0.26927E-02
         0.26927E-02
         0.26927E-02
         0.26927E-02
         0.26927E-02
         0.26927E-02
         0.26927E-02
         0.26927E-02
         0.26927E-02
         0.26927E-02
         0.26927E-02
         0.26927E-02
         0.26927E-02
         0.26927E-02
         0.26927E-02
         0.26927E-02
         0.26927E-02
         0.26927E-02
         0.26927E-02
         0.26927E-02
         0.26927E-02
         0.26927E-02
         0.26927E-02
         0.26927E-02
         0.26927E-02
         0.26927E-02
         0.26927E-02
         0.26927E-02
         0.26927E-02
         0.26927E-02
         0.26927E-02
         0.26927E-02
         0.26927E-02
         0.26927E-02
         0.26927E-02
         0.26927E-02
         0.26927E-02
         0.26927E-02
         0.26927E-02
         0.26927E-02
         0.26927E-02
         0.26927E-02
         0.26927E-02
         0.26927E-02
         0.26927E-02
         0.26927E-02
         0.26927E-02
         0.26927E-02
         0.26927E-02
         0.26927E-02
         0.26927E-02
         0.26927E-02
         0.26927E-02
         0.26927E-02
         0.26927E-02
         0.26927E-02
         0.26927E-02
         0.26927E-02
         0.26927E-02
         0.26927E-02
         0.26927E-02
         0.26927E-02
         0.26927E-02
         0.26927E-02
         0.26927E-02
         0.26927E-02
         0.26927E-02
         0.26927E-02
         0.26927E-02
         0.26927E-02
         0.26927E-02
         0.26927E-02
         0.26927E-02
         0.26927E-02
         0.26927E-02
         0.26927E-02
         0.26927E-02
         0.26927E-02
         0.26927E-02
         0.26927E-02
         0.26927E-02
         0.26927E-02
         0.26927E-02
         0.26927E-02
         0.26927E-02
         0.26927E-02
         0.26927E-02
         0.26927E-02
         0.26927E-02
         0.26927E-02
         0.26927E-02
         0.26927E-02
         0.26927E-02
         0.26927E-02
         0.26927E-02
         0.26927E-02
         0.26927E-02
         0.26927E-02
         0.26927E-02
         0.26927E-02
         0.26927E-02
         0.26927E-02
         0.26927E-02
         0.26927E-02
         0.26927E-02
         0.26927E-02
         0.26927E-02
         0.26927E-02
         0.26927E-02
         0.26927E-02
         0.26927E-02
         0.26927E-02
         0.26927E-02
         0.26927E-02
         0.26927E-02
         0.26927E-02
         0.26927E-02
         0.26927E-02
         0.26927E-02
         0.26927E-02
         0.26927E-02
         0.26927E-02
         0.26927E-02
         0.26927E-02
         0.26927E-02
         0.26927E-02
         0.26927E-02
         0.26927E-02
         0.26927E-02
         0.26927E-02
         0.26927E-02
         0.26927E-02
         0.26927E-02
         0.26927E-02
         0.26927E-02
         0.26927E-02
         0.26927E-02
         0.26927E-02
         0.26927E-02
         0.26927E-02
         0.26927E-02
         0.26927E-02
         0.26927E-02
         0.26927E-02
         0.26927E-02
         0.26927E-02
         0.26927E-02
         0.26927E-02
         0.26927E-02
         0.26927E-02
         0.26927E-02
         0.26927E-02
         0.26927E-02
         0.26927E-02
         0.26927E-02
         0.26927E-02
         0.26927E-02
         0.26927E-02
         0.26927E-02
         0.26927E-02
         0.26927E-02
         0.26927E-02
         0.26927E-02
         0.26927E-02
         0.26927E-02
         0.26927E-02
         0.26927E-02
         0.26927E-02
         0.26927E-02
         0.26927E-02
         0.26927E-02
         0.26927E-02
         0.26927E-02
         0.26927E-02
         0.26927E-02
         0.26927E-02
         0.26927E-02
         0.26927E-02
         0.26927E-02
         0.26927E-02
         0.26927E-02
         0.26927E-02
         0.26927E-02
         0.26927E-02
         0.26927E-02
         0.26927E-02
         0.26927E-02
         0.26927E-02
         0.26927E-02
         0.26927E-02
         0.26927E-02
         0.26927E-02
         0.26927E-02
         0.26927E-02
         0.26927E-02
         0.26927E-02
         0.26927E-02
         0.26927E-02
         0.26927E-02
         0.26927E-02
         0.26927E-02
         0.26927E-02
         0.26927E-02
         0.26927E-02
         0.26927E-02
         0.26927E-02
         0.26927E-02
         0.26927E-02
         0.26927E-02
         0.26927E-02
         0.26927E-02
         0.26927E-02
         0.26927E-02
         0.26927E-02
         0.26927E-02
         0.26927E-02
         0.26927E-02
         0.26927E-02
         0.26927E-02
         0.26927E-02
         0.26927E-02
         0.26927E-02
         0.26927E-02
         0.26927E-02
         0.26927E-02
         0.26927E-02
         0.26927E-02
         0.26927E-02
         0.26927E-02
         0.26927E-02
         0.26927E-02
         0.26927E-02
         0.26927E-02
         0.26927E-02
         0.26927E-02
         0.26927E-02
         0.26927E-02
         0.26927E-02
         0.26927E-02
         0.26927E-02
         0.26927E-02
         0.26927E-02
         0.26927E-02
         0.26927E-02
         0.26927E-02
         0.26927E-02
         0.26927E-02
         0.26927E-02
         0.26927E-02
         0.26927E-02
         0.26927E-02
         0.26927E-02
         0.26927E-02
         0.26927E-02
         0.26927E-02
         0.26927E-02
         0.26927E-02
         0.26927E-02
         0.26927E-02
         0.26927E-02
         0.26927E-02
         0.26927E-02
         0.26927E-02
         0.26927E-02
         0.26927E-02
         0.26927E-02
         0.26927E-02
         0.26927E-02
         0.26927E-02
         0.26927E-02
         0.26927E-02
         0.26927E-02
         0.26927E-02
         0.26927E-02
         0.26927E-02
         0.26927E-02
         0.26927E-02
         0.26927E-02
         0.26927E-02
         0.26927E-02
         0.26927E-02
         0.26927E-02
         0.26927E-02
         0.26927E-02
         0.26927E-02
         0.26927E-02
         0.26927E-02
         0.26927E-02
         0.26927E-02
         0.26927E-02
         0.26927E-02
         0.26927E-02
         0.26927E-02
         0.26927E-02
         0.26927E-02
         0.26927E-02
         0.26927E-02
         0.26927E-02
         0.26927E-02
         0.26927E-02
         0.26927E-02
         0.26927E-02
         0.26927E-02
         0.26927E-02
         0.26927E-02
         0.26927E-02
         0.26927E-02
         0.26927E-02
         0.26927E-02
         0.26927E-02
         0.26927E-02
         0.26927E-02
         0.26927E-02
         0.26927E-02
         0.26927E-02
         0.26927E-02
         0.26927E-02
         0.26927E-02
         0.26927E-02
         0.26927E-02
         0.26927E-02
         0.26927E-02
         0.26927E-02
         0.26927E-02
         0.26927E-02
         0.26927E-02
         0.26927E-02
         0.26927E-02
         0.26927E-02
         0.26927E-02
         0.26927E-02
         0.26927E-02
         0.26927E-02
         0.26927E-02
         0.26927E-02
         0.26927E-02
         0.26927E-02
         0.26927E-02
         0.26927E-02
         0.26927E-02
         0.26927E-02
         0.26927E-02
         0.26927E-02
         0.26927E-02
         0.26927E-02
         0.26927E-02
         0.26927E-02
         0.26927E-02
         0.26927E-02
         0.26927E-02
         0.26927E-02
         0.26927E-02
         0.26927E-02
         0.26927E-02
         0.26927E-02
         0.26927E-02
         0.26927E-02
         0.26927E-02
         0.26927E-02
         0.26927E-02
         0.26927E-02
         0.26927E-02
         0.26927E-02
         0.26927E-02
         0.26927E-02
         0.26927E-02
         0.26927E-02
         0.26927E-02
         0.26927E-02
         0.26927E-02
         0.26927E-02
         0.26927E-02
         0.26927E-02
         0.26927E-02
         0.26927E-02
         0.26927E-02
         0.26927E-02
         0.26927E-02
         0.26927E-02
         0.26927E-02
         0.26927E-02
         0.26927E-02
         0.26927E-02
         0.26927E-02
         0.26927E-02
         0.26927E-02
         0.26927E-02
         0.26927E-02
         0.26927E-02
         0.26927E-02
         0.26927E-02
         0.26927E-02
         0.26927E-02
         0.26927E-02
         0.26927E-02
         0.26927E-02
         0.26927E-02
         0.26927E-02
         0.26927E-02
         0.26927E-02
         0.26927E-02
         0.26927E-02
         0.26927E-02
         0.26927E-02
         0.26927E-02
         0.26927E-02
         0.26927E-02
         0.26927E-02
         0.26927E-02
         0.26927E-02
         0.26927E-02
         0.26927E-02
         0.26927E-02
         0.26927E-02
         0.26927E-02
         0.26927E-02
         0.26927E-02
         0.26927E-02
         0.26927E-02
         0.26927E-02
         0.26927E-02
         0.26927E-02
         0.26927E-02
         0.26927E-02
         0.26927E-02
         0.26927E-02
         0.26927E-02
         0.26927E-02
         0.26927E-02
         0.26927E-02
         0.26927E-02
         0.26927E-02
         0.26927E-02
         0.26927E-02
         0.26927E-02
         0.26927E-02
         0.26927E-02
         0.26927E-02
         0.26927E-02
         0.26927E-02
         0.26927E-02
         0.26927E-02
         0.26927E-02
         0.26927E-02
         0.26927E-02
         0.26927E-02
         0.26927E-02
         0.26927E-02
         0.26927E-02
         0.26927E-02
         0.26927E-02
         0.26927E-02
         0.26927E-02
         0.26927E-02
         0.26927E-02
         0.26927E-02
         0.26927E-02
         0.26927E-02
         0.26927E-02
         0.26927E-02
         0.26927E-02
         0.26927E-02
         0.26927E-02
         0.26927E-02
         0.26927E-02
         0.26927E-02
         0.26927E-02
         0.26927E-02
         0.26927E-02
         0.26927E-02
         0.26927E-02
         0.26927E-02
         0.26927E-02
         0.26927E-02
         0.26927E-02
         0.26927E-02
         0.26927E-02
         0.26927E-02
         0.26927E-02
         0.26927E-02
         0.26927E-02
         0.26927E-02
         0.26927E-02
         0.26927E-02
         0.26927E-02
         0.26927E-02
         0.26927E-02
         0.26927E-02
         0.26927E-02
         0.26927E-02
         0.26927E-02
         0.26927E-02
         0.26927E-02
         0.26927E-02
         0.26927E-02
         0.26927E-02
         0.26927E-02
         0.26927E-02
         0.26927E-02
         0.26927E-02
         0.26927E-02
         0.26927E-02
         0.26927E-02
         0.26927E-02
         0.26927E-02
         0.26927E-02
         0.26927E-02
         0.26927E-02
         0.26927E-02
         0.26927E-02
         0.26927E-02
         0.26927E-02
         0.26927E-02
         0.26927E-02
         0.26927E-02
         0.26927E-02
         0.26927E-02
         0.26927E-02
         0.26927E-02
         0.26927E-02
         0.26927E-02
         0.26927E-02
         0.26927E-02
         0.26927E-02
         0.26927E-02
         0.26927E-02
         0.26927E-02
         0.26927E-02
         0.26927E-02
         0.26927E-02
         0.26927E-02
         0.26927E-02
         0.26927E-02
         0.26927E-02
         0.26927E-02
         0.26927E-02
         0.26927E-02
         0.26927E-02
         0.26927E-02
         0.26927E-02
         0.26927E-02
         0.26927E-02
         0.26927E-02
         0.26927E-02
         0.26927E-02
         0.26927E-02
         0.26927E-02
         0.26927E-02
         0.26927E-02
         0.26927E-02
         0.26928E-02
         0.26928E-02
         0.26928E-02
         0.26928E-02
         0.26928E-02
         0.26928E-02
         0.26928E-02
         0.26928E-02
         0.26928E-02
         0.26928E-02
         0.26928E-02
         0.26928E-02
         0.26928E-02
         0.26928E-02
         0.26928E-02
         0.26928E-02
         0.26928E-02
         0.26928E-02
         0.26928E-02
         0.26928E-02
         0.26928E-02
         0.26928E-02
         0.26928E-02
         0.26928E-02
         0.26928E-02
         0.26928E-02
         0.26928E-02
         0.26928E-02
         0.26928E-02
         0.26928E-02
         0.26928E-02
         0.26928E-02
         0.26928E-02
         0.26928E-02
         0.26928E-02
         0.26928E-02
         0.26928E-02
         0.26928E-02
         0.26928E-02
         0.26928E-02
         0.26928E-02
         0.26928E-02
         0.26928E-02
         0.26928E-02
         0.26928E-02
         0.26928E-02
         0.26928E-02
         0.26928E-02
         0.26928E-02
         0.26928E-02
         0.26928E-02
         0.26928E-02
         0.26928E-02
         0.26928E-02
         0.26928E-02
         0.26928E-02
         0.26928E-02
         0.26928E-02
         0.26928E-02
         0.26928E-02
         0.26928E-02
         0.26928E-02
         0.26928E-02
         0.26928E-02
         0.26928E-02
         0.26928E-02
         0.26928E-02
         0.26928E-02
         0.26928E-02
         0.26928E-02
         0.26928E-02
         0.26928E-02
         0.26928E-02
         0.26928E-02
         0.26928E-02
         0.26928E-02
         0.26928E-02
         0.26928E-02
         0.26928E-02
         0.26928E-02
         0.26928E-02
         0.26928E-02
         0.26928E-02
         0.26928E-02
         0.26928E-02
         0.26928E-02
         0.26928E-02
         0.26928E-02
         0.26928E-02
         0.26928E-02
         0.26928E-02
         0.26928E-02
         0.26928E-02
         0.26928E-02
         0.26928E-02
         0.26928E-02
         0.26928E-02
         0.26928E-02
         0.26928E-02
         0.26928E-02
         0.26928E-02
         0.26928E-02
         0.26928E-02
         0.26928E-02
         0.26928E-02
         0.26928E-02
         0.26928E-02
         0.26928E-02
         0.26928E-02
         0.26928E-02
         0.26928E-02
         0.26928E-02
         0.26928E-02
         0.26928E-02
         0.26928E-02
         0.26928E-02
         0.26928E-02
         0.26928E-02
         0.26928E-02
         0.26928E-02
         0.26928E-02
         0.26928E-02
         0.26928E-02
         0.26928E-02
         0.26928E-02
         0.26928E-02
         0.26928E-02
         0.26928E-02
         0.26928E-02
         0.26928E-02
         0.26928E-02
         0.26928E-02
         0.26928E-02
         0.26928E-02
         0.26928E-02
         0.26928E-02
         0.26928E-02
         0.26928E-02
         0.26928E-02
         0.26928E-02
         0.26928E-02
         0.26928E-02
         0.26928E-02
         0.26928E-02
         0.26928E-02
         0.26928E-02
         0.26928E-02
         0.26928E-02
         0.26928E-02
         0.26928E-02
         0.26928E-02
         0.26928E-02
         0.26928E-02
         0.26928E-02
         0.26928E-02
         0.26928E-02
  
SCALARS                   nodal_volume  double 1
LOOKUP_TABLE default
         0.91140E-09
         0.72412E-09
         0.77574E-09
         0.13316E-08
         0.45570E-09
         0.36211E-09
         0.38787E-09
         0.66566E-09
         0.71537E-09
         0.91211E-09
         0.35767E-09
         0.45600E-09
         0.51195E-09
         0.61532E-09
         0.25605E-09
         0.30776E-09
         0.10101E-08
         0.74536E-09
         0.50500E-09
         0.37281E-09
         0.30273E-09
         0.57012E-09
         0.62699E-09
         0.15144E-09
         0.28509E-09
         0.31352E-09
         0.51329E-09
         0.64933E-09
         0.25683E-09
         0.32471E-09
         0.12026E-08
         0.93909E-09
         0.11935E-08
         0.60122E-09
         0.46945E-09
         0.59663E-09
         0.70296E-09
         0.80270E-09
         0.35149E-09
         0.40134E-09
         0.75859E-09
         0.84013E-09
         0.37932E-09
         0.42007E-09
         0.64542E-09
         0.40086E-09
         0.32274E-09
         0.20045E-09
         0.76288E-09
         0.38153E-09
         0.63346E-09
         0.31675E-09
         0.66583E-09
         0.33318E-09
         0.68008E-09
         0.34022E-09
         0.58930E-09
         0.71738E-09
         0.29472E-09
         0.35874E-09
         0.90938E-09
         0.64302E-09
         0.45469E-09
         0.32154E-09
         0.10152E-08
         0.50747E-09
         0.88120E-09
         0.44042E-09
         0.40077E-09
         0.61872E-09
         0.20039E-09
         0.30940E-09
         0.70206E-09
         0.35106E-09
         0.74172E-09
         0.37089E-09
         0.71539E-09
         0.35770E-09
         0.56226E-09
         0.28113E-09
         0.35349E-09
         0.58452E-09
         0.17675E-09
         0.29229E-09
         0.77354E-09
         0.38679E-09
         0.62469E-09
         0.31238E-09
         0.54957E-09
         0.27483E-09
         0.36009E-09
         0.61365E-09
         0.18007E-09
         0.30685E-09
         0.83268E-09
         0.41635E-09
         0.87287E-09
         0.43642E-09
         0.70438E-09
         0.35217E-09
         0.43365E-09
         0.74413E-09
         0.21683E-09
         0.37198E-09
         0.27660E-09
         0.35144E-09
         0.13833E-09
         0.17573E-09
         0.32921E-09
         0.16465E-09
         0.38764E-09
         0.19382E-09
         0.37797E-09
         0.18897E-09
         0.36707E-09
         0.18352E-09
         0.39112E-09
         0.19552E-09
         0.41268E-09
         0.20627E-09
         0.38876E-09
         0.19433E-09
         0.30402E-09
         0.15200E-09
         0.24796E-09
         0.12398E-09
         0.31999E-09
         0.16000E-09
         0.42608E-09
         0.21303E-09
         0.46805E-09
         0.23401E-09
         0.44933E-09
         0.22466E-09
         0.40550E-09
         0.20276E-09
         0.36826E-09
         0.18414E-09
         0.29911E-09
         0.14956E-09
         0.25178E-09
         0.12591E-09
         0.32888E-09
         0.16445E-09
         0.43529E-09
         0.21765E-09
         0.44963E-09
         0.22482E-09
         0.36384E-09
         0.18194E-09
         0.29543E-09
         0.14774E-09
         0.36126E-09
         0.18063E-09
         0.42771E-09
         0.21386E-09
         0.91143E-09
         0.72396E-09
         0.77579E-09
         0.13322E-08
         0.71547E-09
         0.91237E-09
         0.51167E-09
         0.61494E-09
         0.10105E-08
         0.74486E-09
         0.30244E-09
         0.57001E-09
         0.62694E-09
         0.51257E-09
         0.64918E-09
         0.12029E-08
         0.93950E-09
         0.11941E-08
         0.70298E-09
         0.80279E-09
         0.75855E-09
         0.84015E-09
         0.64535E-09
         0.40081E-09
         0.76254E-09
         0.63339E-09
         0.66483E-09
         0.67941E-09
         0.58904E-09
         0.71721E-09
         0.90946E-09
         0.64293E-09
         0.10157E-08
         0.88199E-09
         0.40076E-09
         0.61859E-09
         0.70195E-09
         0.74166E-09
         0.71543E-09
         0.56228E-09
         0.35349E-09
         0.58443E-09
         0.77349E-09
         0.62459E-09
         0.54943E-09
         0.35999E-09
         0.61359E-09
         0.83268E-09
         0.87299E-09
         0.70451E-09
         0.43366E-09
         0.74449E-09
         0.27651E-09
         0.35143E-09
         0.32904E-09
         0.38765E-09
         0.37805E-09
         0.36714E-09
         0.39129E-09
         0.41297E-09
         0.38899E-09
         0.30408E-09
         0.24798E-09
         0.31999E-09
         0.42613E-09
         0.46815E-09
         0.44938E-09
         0.40548E-09
         0.36823E-09
         0.29908E-09
         0.25174E-09
         0.32885E-09
         0.43527E-09
         0.44962E-09
         0.36376E-09
         0.29536E-09
         0.36130E-09
         0.42769E-09
         0.91151E-09
         0.72383E-09
         0.77587E-09
         0.13329E-08
         0.71560E-09
         0.91267E-09
         0.51142E-09
         0.61459E-09
         0.10109E-08
         0.74439E-09
         0.30216E-09
         0.56992E-09
         0.62691E-09
         0.51187E-09
         0.64906E-09
         0.12033E-08
         0.93995E-09
         0.11947E-08
         0.70302E-09
         0.80291E-09
         0.75853E-09
         0.84020E-09
         0.64530E-09
         0.40078E-09
         0.76223E-09
         0.63335E-09
         0.66385E-09
         0.67875E-09
         0.58880E-09
         0.71706E-09
         0.90957E-09
         0.64286E-09
         0.10162E-08
         0.88281E-09
         0.40076E-09
         0.61849E-09
         0.70188E-09
         0.74162E-09
         0.71550E-09
         0.56232E-09
         0.35350E-09
         0.58436E-09
         0.77347E-09
         0.62452E-09
         0.54931E-09
         0.35990E-09
         0.61355E-09
         0.83270E-09
         0.87315E-09
         0.70467E-09
         0.43368E-09
         0.74487E-09
         0.27643E-09
         0.35143E-09
         0.32889E-09
         0.38767E-09
         0.37814E-09
         0.36723E-09
         0.39147E-09
         0.41328E-09
         0.38923E-09
         0.30416E-09
         0.24800E-09
         0.32001E-09
         0.42620E-09
         0.46826E-09
         0.44944E-09
         0.40548E-09
         0.36821E-09
         0.29906E-09
         0.25171E-09
         0.32883E-09
         0.43527E-09
         0.44963E-09
         0.36369E-09
         0.29530E-09
         0.36135E-09
         0.42769E-09
         0.91156E-09
         0.72368E-09
         0.77594E-09
         0.13335E-08
         0.71571E-09
         0.91295E-09
         0.51115E-09
         0.61422E-09
         0.10112E-08
         0.74389E-09
         0.30187E-09
         0.56982E-09
         0.62686E-09
         0.51116E-09
         0.64892E-09
         0.12036E-08
         0.94038E-09
         0.11953E-08
         0.70304E-09
         0.80300E-09
         0.75850E-09
         0.84023E-09
         0.64523E-09
         0.40073E-09
         0.76190E-09
         0.63330E-09
         0.66285E-09
         0.67809E-09
         0.58855E-09
         0.71689E-09
         0.90966E-09
         0.64278E-09
         0.10168E-08
         0.88361E-09
         0.40076E-09
         0.61837E-09
         0.70178E-09
         0.74156E-09
         0.71554E-09
         0.56234E-09
         0.35350E-09
         0.58428E-09
         0.77343E-09
         0.62442E-09
         0.54918E-09
         0.35981E-09
         0.61349E-09
         0.83271E-09
         0.87328E-09
         0.70481E-09
         0.43369E-09
         0.74524E-09
         0.27634E-09
         0.35142E-09
         0.32873E-09
         0.38768E-09
         0.37823E-09
         0.36731E-09
         0.39163E-09
         0.41358E-09
         0.38945E-09
         0.30422E-09
         0.24802E-09
         0.32001E-09
         0.42625E-09
         0.46837E-09
         0.44949E-09
         0.40546E-09
         0.36819E-09
         0.29904E-09
         0.25167E-09
         0.32881E-09
         0.43526E-09
         0.44963E-09
         0.36362E-09
         0.29523E-09
         0.36139E-09
         0.42768E-09
         0.91161E-09
         0.72353E-09
         0.77600E-09
         0.13341E-08
         0.71583E-09
         0.91323E-09
         0.51088E-09
         0.61386E-09
         0.10116E-08
         0.74341E-09
         0.30158E-09
         0.56972E-09
         0.62682E-09
         0.51045E-09
         0.64879E-09
         0.12040E-08
         0.94081E-09
         0.11959E-08
         0.70307E-09
         0.80310E-09
         0.75847E-09
         0.84027E-09
         0.64517E-09
         0.40069E-09
         0.76158E-09
         0.63325E-09
         0.66186E-09
         0.67742E-09
         0.58831E-09
         0.71673E-09
         0.90975E-09
         0.64270E-09
         0.10173E-08
         0.88441E-09
         0.40075E-09
         0.61825E-09
         0.70169E-09
         0.74151E-09
         0.71559E-09
         0.56237E-09
         0.35350E-09
         0.58420E-09
         0.77339E-09
         0.62433E-09
         0.54905E-09
         0.35972E-09
         0.61344E-09
         0.83272E-09
         0.87341E-09
         0.70496E-09
         0.43370E-09
         0.74562E-09
         0.27626E-09
         0.35142E-09
         0.32857E-09
         0.38770E-09
         0.37832E-09
         0.36739E-09
         0.39181E-09
         0.41387E-09
         0.38968E-09
         0.30429E-09
         0.24804E-09
         0.32002E-09
         0.42631E-09
         0.46847E-09
         0.44954E-09
         0.40545E-09
         0.36816E-09
         0.29901E-09
         0.25163E-09
         0.32878E-09
         0.43525E-09
         0.44963E-09
         0.36354E-09
         0.29517E-09
         0.36144E-09
         0.42766E-09
         0.91167E-09
         0.72338E-09
         0.77607E-09
         0.13348E-08
         0.71594E-09
         0.91351E-09
         0.51062E-09
         0.61349E-09
         0.10119E-08
         0.74292E-09
         0.30129E-09
         0.56962E-09
         0.62678E-09
         0.50974E-09
         0.64865E-09
         0.12044E-08
         0.94125E-09
         0.11965E-08
         0.70310E-09
         0.80321E-09
         0.75844E-09
         0.84031E-09
         0.64511E-09
         0.40065E-09
         0.76125E-09
         0.63320E-09
         0.66087E-09
         0.67676E-09
         0.58806E-09
         0.71657E-09
         0.90984E-09
         0.64263E-09
         0.10179E-08
         0.88522E-09
         0.40075E-09
         0.61813E-09
         0.70160E-09
         0.74146E-09
         0.71564E-09
         0.56240E-09
         0.35350E-09
         0.58412E-09
         0.77336E-09
         0.62425E-09
         0.54892E-09
         0.35963E-09
         0.61339E-09
         0.83274E-09
         0.87355E-09
         0.70511E-09
         0.43371E-09
         0.74599E-09
         0.27618E-09
         0.35141E-09
         0.32841E-09
         0.38771E-09
         0.37841E-09
         0.36747E-09
         0.39198E-09
         0.41417E-09
         0.38992E-09
         0.30436E-09
         0.24806E-09
         0.32003E-09
         0.42637E-09
         0.46858E-09
         0.44960E-09
         0.40544E-09
         0.36814E-09
         0.29899E-09
         0.25159E-09
         0.32876E-09
         0.43525E-09
         0.44963E-09
         0.36347E-09
         0.29511E-09
         0.36148E-09
         0.42766E-09
         0.91171E-09
         0.72323E-09
         0.77613E-09
         0.13354E-08
         0.71606E-09
         0.91379E-09
         0.51035E-09
         0.61313E-09
         0.10123E-08
         0.74243E-09
         0.30101E-09
         0.56952E-09
         0.62674E-09
         0.50903E-09
         0.64851E-09
         0.12047E-08
         0.94167E-09
         0.11971E-08
         0.70312E-09
         0.80331E-09
         0.75840E-09
         0.84034E-09
         0.64504E-09
         0.40061E-09
         0.76092E-09
         0.63314E-09
         0.65988E-09
         0.67609E-09
         0.58781E-09
         0.71641E-09
         0.90993E-09
         0.64255E-09
         0.10184E-08
         0.88601E-09
         0.40075E-09
         0.61801E-09
         0.70151E-09
         0.74140E-09
         0.71569E-09
         0.56243E-09
         0.35350E-09
         0.58404E-09
         0.77332E-09
         0.62416E-09
         0.54879E-09
         0.35953E-09
         0.61334E-09
         0.83274E-09
         0.87368E-09
         0.70525E-09
         0.43372E-09
         0.74636E-09
         0.27609E-09
         0.35141E-09
         0.32825E-09
         0.38772E-09
         0.37849E-09
         0.36754E-09
         0.39215E-09
         0.41447E-09
         0.39014E-09
         0.30443E-09
         0.24808E-09
         0.32004E-09
         0.42642E-09
         0.46868E-09
         0.44965E-09
         0.40543E-09
         0.36812E-09
         0.29897E-09
         0.25155E-09
         0.32874E-09
         0.43524E-09
         0.44963E-09
         0.36340E-09
         0.29504E-09
         0.36153E-09
         0.42764E-09
         0.91176E-09
         0.72308E-09
         0.77620E-09
         0.13360E-08
         0.71617E-09
         0.91407E-09
         0.51008E-09
         0.61276E-09
         0.10126E-08
         0.74195E-09
         0.30072E-09
         0.56942E-09
         0.62670E-09
         0.50832E-09
         0.64838E-09
         0.12051E-08
         0.94210E-09
         0.11977E-08
         0.70314E-09
         0.80341E-09
         0.75837E-09
         0.84038E-09
         0.64498E-09
         0.40056E-09
         0.76060E-09
         0.63309E-09
         0.65888E-09
         0.67542E-09
         0.58756E-09
         0.71624E-09
         0.91002E-09
         0.64247E-09
         0.10189E-08
         0.88682E-09
         0.40074E-09
         0.61790E-09
         0.70142E-09
         0.74135E-09
         0.71574E-09
         0.56245E-09
         0.35351E-09
         0.58396E-09
         0.77328E-09
         0.62407E-09
         0.54866E-09
         0.35944E-09
         0.61329E-09
         0.83275E-09
         0.87382E-09
         0.70539E-09
         0.43373E-09
         0.74673E-09
         0.27601E-09
         0.35140E-09
         0.32809E-09
         0.38774E-09
         0.37858E-09
         0.36762E-09
         0.39232E-09
         0.41477E-09
         0.39037E-09
         0.30450E-09
         0.24810E-09
         0.32005E-09
         0.42648E-09
         0.46879E-09
         0.44970E-09
         0.40541E-09
         0.36809E-09
         0.29894E-09
         0.25151E-09
         0.32871E-09
         0.43523E-09
         0.44963E-09
         0.36333E-09
         0.29497E-09
         0.36157E-09
         0.42763E-09
         0.91182E-09
         0.72293E-09
         0.77627E-09
         0.13367E-08
         0.71629E-09
         0.91436E-09
         0.50982E-09
         0.61240E-09
         0.10130E-08
         0.74146E-09
         0.30043E-09
         0.56932E-09
         0.62666E-09
         0.50762E-09
         0.64825E-09
         0.12054E-08
         0.94253E-09
         0.11983E-08
         0.70317E-09
         0.80351E-09
         0.75834E-09
         0.84041E-09
         0.64491E-09
         0.40053E-09
         0.76028E-09
         0.63304E-09
         0.65790E-09
         0.67476E-09
         0.58731E-09
         0.71609E-09
         0.91012E-09
         0.64239E-09
         0.10195E-08
         0.88762E-09
         0.40074E-09
         0.61778E-09
         0.70133E-09
         0.74130E-09
         0.71579E-09
         0.56249E-09
         0.35351E-09
         0.58388E-09
         0.77324E-09
         0.62398E-09
         0.54853E-09
         0.35935E-09
         0.61324E-09
         0.83277E-09
         0.87396E-09
         0.70554E-09
         0.43375E-09
         0.74711E-09
         0.27592E-09
         0.35140E-09
         0.32793E-09
         0.38775E-09
         0.37867E-09
         0.36770E-09
         0.39249E-09
         0.41507E-09
         0.39061E-09
         0.30457E-09
         0.24812E-09
         0.32006E-09
         0.42654E-09
         0.46890E-09
         0.44975E-09
         0.40540E-09
         0.36807E-09
         0.29892E-09
         0.25148E-09
         0.32869E-09
         0.43522E-09
         0.44963E-09
         0.36325E-09
         0.29491E-09
         0.36162E-09
         0.42762E-09
         0.91187E-09
         0.72278E-09
         0.77633E-09
         0.13373E-08
         0.71640E-09
         0.91463E-09
         0.50955E-09
         0.61204E-09
         0.10134E-08
         0.74098E-09
         0.30015E-09
         0.56922E-09
         0.62662E-09
         0.50691E-09
         0.64811E-09
         0.12058E-08
         0.94296E-09
         0.11989E-08
         0.70320E-09
         0.80361E-09
         0.75831E-09
         0.84045E-09
         0.64485E-09
         0.40048E-09
         0.75995E-09
         0.63298E-09
         0.65690E-09
         0.67409E-09
         0.58706E-09
         0.71592E-09
         0.91020E-09
         0.64231E-09
         0.10200E-08
         0.88843E-09
         0.40074E-09
         0.61766E-09
         0.70124E-09
         0.74124E-09
         0.71584E-09
         0.56251E-09
         0.35351E-09
         0.58380E-09
         0.77320E-09
         0.62389E-09
         0.54840E-09
         0.35926E-09
         0.61318E-09
         0.83277E-09
         0.87409E-09
         0.70568E-09
         0.43376E-09
         0.74748E-09
         0.27584E-09
         0.35139E-09
         0.32777E-09
         0.38777E-09
         0.37876E-09
         0.36778E-09
         0.39266E-09
         0.41536E-09
         0.39084E-09
         0.30464E-09
         0.24814E-09
         0.32006E-09
         0.42659E-09
         0.46900E-09
         0.44980E-09
         0.40539E-09
         0.36805E-09
         0.29890E-09
         0.25144E-09
         0.32867E-09
         0.43521E-09
         0.44963E-09
         0.36318E-09
         0.29485E-09
         0.36166E-09
         0.42761E-09
         0.91192E-09
         0.72263E-09
         0.77640E-09
         0.13380E-08
         0.71652E-09
         0.91491E-09
         0.50928E-09
         0.61167E-09
         0.10137E-08
         0.74049E-09
         0.29986E-09
         0.56912E-09
         0.62657E-09
         0.50620E-09
         0.64797E-09
         0.12061E-08
         0.94339E-09
         0.11995E-08
         0.70322E-09
         0.80371E-09
         0.75827E-09
         0.84048E-09
         0.64478E-09
         0.40044E-09
         0.75962E-09
         0.63293E-09
         0.65591E-09
         0.67343E-09
         0.58681E-09
         0.71576E-09
         0.91029E-09
         0.64223E-09
         0.10205E-08
         0.88923E-09
         0.40073E-09
         0.61754E-09
         0.70114E-09
         0.74119E-09
         0.71588E-09
         0.56254E-09
         0.35351E-09
         0.58372E-09
         0.77316E-09
         0.62380E-09
         0.54827E-09
         0.35917E-09
         0.61313E-09
         0.83278E-09
         0.87422E-09
         0.70582E-09
         0.43377E-09
         0.74785E-09
         0.27575E-09
         0.35138E-09
         0.32761E-09
         0.38778E-09
         0.37885E-09
         0.36786E-09
         0.39283E-09
         0.41566E-09
         0.39107E-09
         0.30470E-09
         0.24816E-09
         0.32007E-09
         0.42665E-09
         0.46911E-09
         0.44985E-09
         0.40538E-09
         0.36802E-09
         0.29887E-09
         0.25140E-09
         0.32864E-09
         0.43520E-09
         0.44963E-09
         0.36310E-09
         0.29478E-09
         0.36170E-09
         0.42760E-09
         0.91198E-09
         0.72248E-09
         0.77646E-09
         0.13386E-08
         0.71663E-09
         0.91520E-09
         0.50901E-09
         0.61131E-09
         0.10141E-08
         0.74000E-09
         0.29957E-09
         0.56902E-09
         0.62653E-09
         0.50549E-09
         0.64784E-09
         0.12065E-08
         0.94382E-09
         0.12002E-08
         0.70325E-09
         0.80381E-09
         0.75824E-09
         0.84052E-09
         0.64472E-09
         0.40040E-09
         0.75929E-09
         0.63288E-09
         0.65492E-09
         0.67276E-09
         0.58657E-09
         0.71560E-09
         0.91038E-09
         0.64216E-09
         0.10211E-08
         0.89003E-09
         0.40073E-09
         0.61742E-09
         0.70105E-09
         0.74114E-09
         0.71593E-09
         0.56257E-09
         0.35351E-09
         0.58364E-09
         0.77313E-09
         0.62371E-09
         0.54814E-09
         0.35908E-09
         0.61308E-09
         0.83280E-09
         0.87436E-09
         0.70597E-09
         0.43378E-09
         0.74823E-09
         0.27567E-09
         0.35138E-09
         0.32745E-09
         0.38779E-09
         0.37893E-09
         0.36794E-09
         0.39300E-09
         0.41596E-09
         0.39130E-09
         0.30477E-09
         0.24818E-09
         0.32008E-09
         0.42671E-09
         0.46921E-09
         0.44991E-09
         0.40537E-09
         0.36800E-09
         0.29885E-09
         0.25136E-09
         0.32862E-09
         0.43520E-09
         0.44963E-09
         0.36303E-09
         0.29472E-09
         0.36175E-09
         0.42759E-09
         0.91203E-09
         0.72233E-09
         0.77653E-09
         0.13392E-08
         0.71675E-09
         0.91547E-09
         0.50875E-09
         0.61094E-09
         0.10144E-08
         0.73952E-09
         0.29928E-09
         0.56892E-09
         0.62649E-09
         0.50478E-09
         0.64770E-09
         0.12068E-08
         0.94424E-09
         0.12008E-08
         0.70327E-09
         0.80391E-09
         0.75821E-09
         0.84055E-09
         0.64465E-09
         0.40035E-09
         0.75896E-09
         0.63282E-09
         0.65393E-09
         0.67210E-09
         0.58632E-09
         0.71543E-09
         0.91047E-09
         0.64208E-09
         0.10216E-08
         0.89084E-09
         0.40073E-09
         0.61730E-09
         0.70096E-09
         0.74108E-09
         0.71598E-09
         0.56259E-09
         0.35351E-09
         0.58356E-09
         0.77309E-09
         0.62362E-09
         0.54801E-09
         0.35898E-09
         0.61303E-09
         0.83281E-09
         0.87449E-09
         0.70611E-09
         0.43379E-09
         0.74860E-09
         0.27558E-09
         0.35137E-09
         0.32729E-09
         0.38781E-09
         0.37902E-09
         0.36802E-09
         0.39317E-09
         0.41625E-09
         0.39153E-09
         0.30484E-09
         0.24820E-09
         0.32009E-09
         0.42677E-09
         0.46932E-09
         0.44996E-09
         0.40536E-09
         0.36798E-09
         0.29883E-09
         0.25132E-09
         0.32859E-09
         0.43519E-09
         0.44963E-09
         0.36296E-09
         0.29465E-09
         0.36179E-09
         0.42758E-09
         0.91208E-09
         0.72218E-09
         0.77659E-09
         0.13399E-08
         0.71686E-09
         0.91576E-09
         0.50848E-09
         0.61058E-09
         0.10148E-08
         0.73903E-09
         0.29900E-09
         0.56882E-09
         0.62645E-09
         0.50408E-09
         0.64757E-09
         0.12072E-08
         0.94467E-09
         0.12014E-08
         0.70330E-09
         0.80401E-09
         0.75818E-09
         0.84059E-09
         0.64459E-09
         0.40031E-09
         0.75864E-09
         0.63277E-09
         0.65294E-09
         0.67143E-09
         0.58607E-09
         0.71527E-09
         0.91057E-09
         0.64200E-09
         0.10221E-08
         0.89164E-09
         0.40072E-09
         0.61719E-09
         0.70087E-09
         0.74103E-09
         0.71603E-09
         0.56262E-09
         0.35352E-09
         0.58348E-09
         0.77305E-09
         0.62354E-09
         0.54788E-09
         0.35889E-09
         0.61298E-09
         0.83282E-09
         0.87463E-09
         0.70626E-09
         0.43380E-09
         0.74897E-09
         0.27550E-09
         0.35137E-09
         0.32713E-09
         0.38782E-09
         0.37911E-09
         0.36810E-09
         0.39334E-09
         0.41655E-09
         0.39176E-09
         0.30491E-09
         0.24822E-09
         0.32010E-09
         0.42682E-09
         0.46942E-09
         0.45001E-09
         0.40534E-09
         0.36796E-09
         0.29881E-09
         0.25128E-09
         0.32857E-09
         0.43518E-09
         0.44963E-09
         0.36288E-09
         0.29459E-09
         0.36184E-09
         0.42757E-09
         0.91214E-09
         0.72204E-09
         0.77666E-09
         0.13405E-08
         0.71698E-09
         0.91604E-09
         0.50822E-09
         0.61022E-09
         0.10151E-08
         0.73855E-09
         0.29871E-09
         0.56872E-09
         0.62641E-09
         0.50337E-09
         0.64743E-09
         0.12075E-08
         0.94510E-09
         0.12020E-08
         0.70333E-09
         0.80411E-09
         0.75815E-09
         0.84063E-09
         0.64453E-09
         0.40027E-09
         0.75831E-09
         0.63272E-09
         0.65196E-09
         0.67077E-09
         0.58582E-09
         0.71511E-09
         0.91066E-09
         0.64192E-09
         0.10227E-08
         0.89245E-09
         0.40072E-09
         0.61707E-09
         0.70078E-09
         0.74098E-09
         0.71608E-09
         0.56265E-09
         0.35352E-09
         0.58340E-09
         0.77301E-09
         0.62345E-09
         0.54775E-09
         0.35880E-09
         0.61293E-09
         0.83283E-09
         0.87476E-09
         0.70641E-09
         0.43382E-09
         0.74935E-09
         0.27541E-09
         0.35136E-09
         0.32697E-09
         0.38784E-09
         0.37920E-09
         0.36818E-09
         0.39352E-09
         0.41685E-09
         0.39199E-09
         0.30498E-09
         0.24824E-09
         0.32011E-09
         0.42688E-09
         0.46953E-09
         0.45007E-09
         0.40533E-09
         0.36793E-09
         0.29878E-09
         0.25124E-09
         0.32855E-09
         0.43517E-09
         0.44963E-09
         0.36281E-09
         0.29452E-09
         0.36188E-09
         0.42756E-09
         0.91219E-09
         0.72188E-09
         0.77672E-09
         0.13412E-08
         0.71709E-09
         0.91632E-09
         0.50795E-09
         0.60986E-09
         0.10155E-08
         0.73806E-09
         0.29842E-09
         0.56862E-09
         0.62636E-09
         0.50266E-09
         0.64730E-09
         0.12079E-08
         0.94552E-09
         0.12026E-08
         0.70335E-09
         0.80421E-09
         0.75811E-09
         0.84066E-09
         0.64446E-09
         0.40023E-09
         0.75798E-09
         0.63267E-09
         0.65096E-09
         0.67010E-09
         0.58557E-09
         0.71494E-09
         0.91074E-09
         0.64184E-09
         0.10232E-08
         0.89325E-09
         0.40072E-09
         0.61695E-09
         0.70069E-09
         0.74092E-09
         0.71612E-09
         0.56268E-09
         0.35352E-09
         0.58332E-09
         0.77297E-09
         0.62336E-09
         0.54762E-09
         0.35871E-09
         0.61287E-09
         0.83284E-09
         0.87489E-09
         0.70655E-09
         0.43383E-09
         0.74972E-09
         0.27533E-09
         0.35136E-09
         0.32681E-09
         0.38785E-09
         0.37929E-09
         0.36825E-09
         0.39369E-09
         0.41715E-09
         0.39222E-09
         0.30505E-09
         0.24826E-09
         0.32011E-09
         0.42694E-09
         0.46963E-09
         0.45011E-09
         0.40532E-09
         0.36791E-09
         0.29876E-09
         0.25120E-09
         0.32853E-09
         0.43516E-09
         0.44962E-09
         0.36274E-09
         0.29445E-09
         0.36192E-09
         0.42755E-09
         0.91224E-09
         0.72173E-09
         0.77679E-09
         0.13418E-08
         0.71720E-09
         0.91660E-09
         0.50768E-09
         0.60949E-09
         0.10158E-08
         0.73758E-09
         0.29814E-09
         0.56852E-09
         0.62632E-09
         0.50195E-09
         0.64716E-09
         0.12082E-08
         0.94595E-09
         0.12032E-08
         0.70337E-09
         0.80431E-09
         0.75808E-09
         0.84069E-09
         0.64440E-09
         0.40018E-09
         0.75766E-09
         0.63262E-09
         0.64998E-09
         0.66943E-09
         0.58532E-09
         0.71478E-09
         0.91083E-09
         0.64176E-09
         0.10238E-08
         0.89406E-09
         0.40071E-09
         0.61683E-09
         0.70059E-09
         0.74087E-09
         0.71617E-09
         0.56270E-09
         0.35352E-09
         0.58324E-09
         0.77294E-09
         0.62327E-09
         0.54749E-09
         0.35861E-09
         0.61282E-09
         0.83284E-09
         0.87503E-09
         0.70669E-09
         0.43384E-09
         0.75009E-09
         0.27524E-09
         0.35135E-09
         0.32665E-09
         0.38786E-09
         0.37937E-09
         0.36833E-09
         0.39386E-09
         0.41745E-09
         0.39245E-09
         0.30512E-09
         0.24828E-09
         0.32012E-09
         0.42699E-09
         0.46974E-09
         0.45017E-09
         0.40531E-09
         0.36788E-09
         0.29873E-09
         0.25117E-09
         0.32850E-09
         0.43515E-09
         0.44962E-09
         0.36266E-09
         0.29439E-09
         0.36197E-09
         0.42754E-09
         0.91230E-09
         0.72159E-09
         0.77686E-09
         0.13425E-08
         0.71732E-09
         0.91688E-09
         0.50742E-09
         0.60913E-09
         0.10162E-08
         0.73710E-09
         0.29785E-09
         0.56842E-09
         0.62628E-09
         0.50125E-09
         0.64703E-09
         0.12086E-08
         0.94638E-09
         0.12038E-08
         0.70340E-09
         0.80441E-09
         0.75805E-09
         0.84073E-09
         0.64433E-09
         0.40014E-09
         0.75733E-09
         0.63257E-09
         0.64899E-09
         0.66877E-09
         0.58508E-09
         0.71462E-09
         0.91093E-09
         0.64169E-09
         0.10243E-08
         0.89487E-09
         0.40071E-09
         0.61671E-09
         0.70051E-09
         0.74082E-09
         0.71622E-09
         0.56273E-09
         0.35352E-09
         0.58316E-09
         0.77290E-09
         0.62318E-09
         0.54737E-09
         0.35852E-09
         0.61277E-09
         0.83286E-09
         0.87517E-09
         0.70684E-09
         0.43385E-09
         0.75047E-09
         0.27516E-09
         0.35135E-09
         0.32649E-09
         0.38788E-09
         0.37946E-09
         0.36841E-09
         0.39403E-09
         0.41775E-09
         0.39268E-09
         0.30519E-09
         0.24830E-09
         0.32013E-09
         0.42705E-09
         0.46985E-09
         0.45022E-09
         0.40530E-09
         0.36786E-09
         0.29871E-09
         0.25113E-09
         0.32848E-09
         0.43515E-09
         0.44962E-09
         0.36259E-09
         0.29433E-09
         0.36201E-09
         0.42753E-09
         0.91235E-09
         0.72143E-09
         0.77692E-09
         0.13431E-08
         0.71743E-09
         0.91716E-09
         0.50715E-09
         0.60877E-09
         0.10165E-08
         0.73661E-09
         0.29757E-09
         0.56832E-09
         0.62624E-09
         0.50054E-09
         0.64689E-09
         0.12089E-08
         0.94680E-09
         0.12044E-08
         0.70342E-09
         0.80450E-09
         0.75802E-09
         0.84076E-09
         0.64427E-09
         0.40010E-09
         0.75700E-09
         0.63251E-09
         0.64800E-09
         0.66810E-09
         0.58482E-09
         0.71445E-09
         0.91101E-09
         0.64161E-09
         0.10248E-08
         0.89567E-09
         0.40071E-09
         0.61659E-09
         0.70041E-09
         0.74077E-09
         0.71627E-09
         0.56276E-09
         0.35352E-09
         0.58308E-09
         0.77286E-09
         0.62309E-09
         0.54723E-09
         0.35843E-09
         0.61272E-09
         0.83287E-09
         0.87530E-09
         0.70698E-09
         0.43386E-09
         0.75084E-09
         0.27507E-09
         0.35134E-09
         0.32633E-09
         0.38789E-09
         0.37955E-09
         0.36849E-09
         0.39420E-09
         0.41804E-09
         0.39291E-09
         0.30525E-09
         0.24832E-09
         0.32014E-09
         0.42711E-09
         0.46995E-09
         0.45027E-09
         0.40528E-09
         0.36784E-09
         0.29869E-09
         0.25109E-09
         0.32845E-09
         0.43514E-09
         0.44962E-09
         0.36252E-09
         0.29426E-09
         0.36206E-09
         0.42751E-09
         0.91240E-09
         0.72128E-09
         0.77698E-09
         0.13437E-08
         0.71755E-09
         0.91744E-09
         0.50688E-09
         0.60841E-09
         0.10169E-08
         0.73612E-09
         0.29728E-09
         0.56822E-09
         0.62619E-09
         0.49984E-09
         0.64676E-09
         0.12093E-08
         0.94723E-09
         0.12050E-08
         0.70345E-09
         0.80460E-09
         0.75798E-09
         0.84080E-09
         0.64420E-09
         0.40006E-09
         0.75667E-09
         0.63246E-09
         0.64701E-09
         0.66744E-09
         0.58457E-09
         0.71429E-09
         0.91110E-09
         0.64153E-09
         0.10254E-08
         0.89648E-09
         0.40070E-09
         0.61647E-09
         0.70032E-09
         0.74071E-09
         0.71632E-09
         0.56279E-09
         0.35353E-09
         0.58300E-09
         0.77282E-09
         0.62300E-09
         0.54710E-09
         0.35834E-09
         0.61266E-09
         0.83288E-09
         0.87543E-09
         0.70713E-09
         0.43387E-09
         0.75122E-09
         0.27499E-09
         0.35133E-09
         0.32617E-09
         0.38790E-09
         0.37964E-09
         0.36857E-09
         0.39437E-09
         0.41834E-09
         0.39314E-09
         0.30532E-09
         0.24834E-09
         0.32014E-09
         0.42716E-09
         0.47005E-09
         0.45032E-09
         0.40527E-09
         0.36781E-09
         0.29866E-09
         0.25105E-09
         0.32843E-09
         0.43513E-09
         0.44962E-09
         0.36244E-09
         0.29419E-09
         0.36210E-09
         0.42750E-09
         0.91246E-09
         0.72114E-09
         0.77705E-09
         0.13444E-08
         0.71767E-09
         0.91773E-09
         0.50662E-09
         0.60805E-09
         0.10173E-08
         0.73564E-09
         0.29700E-09
         0.56812E-09
         0.62616E-09
         0.49914E-09
         0.64663E-09
         0.12097E-08
         0.94766E-09
         0.12056E-08
         0.70348E-09
         0.80471E-09
         0.75796E-09
         0.84084E-09
         0.64414E-09
         0.40002E-09
         0.75635E-09
         0.63241E-09
         0.64603E-09
         0.66678E-09
         0.58433E-09
         0.71413E-09
         0.91120E-09
         0.64146E-09
         0.10259E-08
         0.89729E-09
         0.40070E-09
         0.61636E-09
         0.70023E-09
         0.74067E-09
         0.71637E-09
         0.56282E-09
         0.35353E-09
         0.58293E-09
         0.77279E-09
         0.62291E-09
         0.54698E-09
         0.35825E-09
         0.61261E-09
         0.83289E-09
         0.87557E-09
         0.70728E-09
         0.43389E-09
         0.75160E-09
         0.27491E-09
         0.35133E-09
         0.32601E-09
         0.38792E-09
         0.37972E-09
         0.36865E-09
         0.39454E-09
         0.41864E-09
         0.39337E-09
         0.30539E-09
         0.24836E-09
         0.32015E-09
         0.42722E-09
         0.47016E-09
         0.45038E-09
         0.40526E-09
         0.36779E-09
         0.29864E-09
         0.25101E-09
         0.32841E-09
         0.43512E-09
         0.44962E-09
         0.36237E-09
         0.29413E-09
         0.36215E-09
         0.42750E-09
         0.91249E-09
         0.72097E-09
         0.77710E-09
         0.13450E-08
         0.71777E-09
         0.91799E-09
         0.50634E-09
         0.60767E-09
         0.10176E-08
         0.73514E-09
         0.29670E-09
         0.56801E-09
         0.62610E-09
         0.49842E-09
         0.64648E-09
         0.12100E-08
         0.94806E-09
         0.12062E-08
         0.70349E-09
         0.80479E-09
         0.75791E-09
         0.84086E-09
         0.64406E-09
         0.39997E-09
         0.75600E-09
         0.63234E-09
         0.64503E-09
         0.66610E-09
         0.58407E-09
         0.71395E-09
         0.91127E-09
         0.64136E-09
         0.10264E-08
         0.89808E-09
         0.40069E-09
         0.61622E-09
         0.70012E-09
         0.74060E-09
         0.71641E-09
         0.56283E-09
         0.35352E-09
         0.58283E-09
         0.77273E-09
         0.62281E-09
         0.54684E-09
         0.35815E-09
         0.61255E-09
         0.83288E-09
         0.87569E-09
         0.70741E-09
         0.43389E-09
         0.75195E-09
         0.27482E-09
         0.35132E-09
         0.32584E-09
         0.38793E-09
         0.37980E-09
         0.36872E-09
         0.39470E-09
         0.41893E-09
         0.39360E-09
         0.30545E-09
         0.24837E-09
         0.32016E-09
         0.42727E-09
         0.47026E-09
         0.45042E-09
         0.40524E-09
         0.36776E-09
         0.29861E-09
         0.25097E-09
         0.32838E-09
         0.43510E-09
         0.44961E-09
         0.36229E-09
         0.29406E-09
         0.36218E-09
         0.42748E-09
         0.91256E-09
         0.72083E-09
         0.77718E-09
         0.13457E-08
         0.71789E-09
         0.91829E-09
         0.50608E-09
         0.60732E-09
         0.10180E-08
         0.73467E-09
         0.29642E-09
         0.56792E-09
         0.62607E-09
         0.49772E-09
         0.64636E-09
         0.12103E-08
         0.94850E-09
         0.12068E-08
         0.70352E-09
         0.80490E-09
         0.75789E-09
         0.84091E-09
         0.64401E-09
         0.39993E-09
         0.75569E-09
         0.63230E-09
         0.64405E-09
         0.66544E-09
         0.58382E-09
         0.71379E-09
         0.91137E-09
         0.64129E-09
         0.10270E-08
         0.89890E-09
         0.40069E-09
         0.61611E-09
         0.70004E-09
         0.74056E-09
         0.71646E-09
         0.56287E-09
         0.35353E-09
         0.58276E-09
         0.77271E-09
         0.62273E-09
         0.54672E-09
         0.35806E-09
         0.61251E-09
         0.83291E-09
         0.87583E-09
         0.70756E-09
         0.43391E-09
         0.75234E-09
         0.27474E-09
         0.35132E-09
         0.32569E-09
         0.38794E-09
         0.37990E-09
         0.36881E-09
         0.39488E-09
         0.41923E-09
         0.39383E-09
         0.30553E-09
         0.24840E-09
         0.32017E-09
         0.42734E-09
         0.47037E-09
         0.45048E-09
         0.40524E-09
         0.36774E-09
         0.29859E-09
         0.25093E-09
         0.32836E-09
         0.43510E-09
         0.44962E-09
         0.36222E-09
         0.29400E-09
         0.36223E-09
         0.42747E-09
         0.45631E-09
         0.36039E-09
         0.38862E-09
         0.67302E-09
         0.35899E-09
         0.45923E-09
         0.25298E-09
         0.30358E-09
         0.50909E-09
         0.36723E-09
         0.14815E-09
         0.28394E-09
         0.31303E-09
         0.24869E-09
         0.32316E-09
         0.60528E-09
         0.47437E-09
         0.60357E-09
         0.35178E-09
         0.40249E-09
         0.37895E-09
         0.42048E-09
         0.32200E-09
         0.19996E-09
         0.37777E-09
         0.31615E-09
         0.32179E-09
         0.33257E-09
         0.29186E-09
         0.35687E-09
         0.45572E-09
         0.32064E-09
         0.51365E-09
         0.44967E-09
         0.20035E-09
         0.30804E-09
         0.35001E-09
         0.37028E-09
         0.35826E-09
         0.28145E-09
         0.17677E-09
         0.29137E-09
         0.38636E-09
         0.31135E-09
         0.27333E-09
         0.17901E-09
         0.30625E-09
         0.41647E-09
         0.43797E-09
         0.35383E-09
         0.21697E-09
         0.37628E-09
         0.13735E-09
         0.17566E-09
         0.16281E-09
         0.19398E-09
         0.18998E-09
         0.18443E-09
         0.19749E-09
         0.20970E-09
         0.19698E-09
         0.15279E-09
         0.12421E-09
         0.16009E-09
         0.21369E-09
         0.23522E-09
         0.22526E-09
         0.20262E-09
         0.18387E-09
         0.14930E-09
         0.12546E-09
         0.16418E-09
         0.21756E-09
         0.22482E-09
         0.18110E-09
         0.14699E-09
         0.18113E-09
         0.21374E-09
  
SCALARS               pre_disp_force_x  double 1
LOOKUP_TABLE default
         0.00000E+00
         0.00000E+00
         0.00000E+00
         0.00000E+00
         0.00000E+00
         0.00000E+00
         0.00000E+00
         0.00000E+00
         0.00000E+00
         0.00000E+00
         0.00000E+00
         0.00000E+00
         0.00000E+00
         0.00000E+00
         0.00000E+00
         0.00000E+00
         0.00000E+00
         0.00000E+00
         0.00000E+00
         0.00000E+00
         0.00000E+00
         0.00000E+00
         0.00000E+00
         0.00000E+00
         0.00000E+00
         0.00000E+00
         0.00000E+00
         0.00000E+00
         0.00000E+00
         0.00000E+00
         0.00000E+00
         0.00000E+00
         0.00000E+00
         0.00000E+00
         0.00000E+00
         0.00000E+00
         0.00000E+00
         0.00000E+00
         0.00000E+00
         0.00000E+00
         0.00000E+00
         0.00000E+00
         0.00000E+00
         0.00000E+00
         0.00000E+00
         0.00000E+00
         0.00000E+00
         0.00000E+00
         0.00000E+00
         0.00000E+00
         0.00000E+00
         0.00000E+00
         0.00000E+00
         0.00000E+00
         0.00000E+00
         0.00000E+00
         0.00000E+00
         0.00000E+00
         0.00000E+00
         0.00000E+00
         0.00000E+00
         0.00000E+00
         0.00000E+00
         0.00000E+00
         0.00000E+00
         0.00000E+00
         0.00000E+00
         0.00000E+00
         0.00000E+00
         0.00000E+00
         0.00000E+00
         0.00000E+00
         0.00000E+00
         0.00000E+00
         0.00000E+00
         0.00000E+00
         0.00000E+00
         0.00000E+00
         0.00000E+00
         0.00000E+00
         0.00000E+00
         0.00000E+00
         0.00000E+00
         0.00000E+00
         0.00000E+00
         0.00000E+00
         0.00000E+00
         0.00000E+00
         0.00000E+00
         0.00000E+00
         0.00000E+00
         0.00000E+00
         0.00000E+00
         0.00000E+00
         0.00000E+00
         0.00000E+00
         0.00000E+00
         0.00000E+00
         0.00000E+00
         0.00000E+00
         0.00000E+00
         0.00000E+00
         0.00000E+00
         0.00000E+00
         0.00000E+00
         0.00000E+00
         0.00000E+00
         0.00000E+00
         0.00000E+00
         0.00000E+00
         0.00000E+00
         0.00000E+00
         0.00000E+00
         0.00000E+00
         0.00000E+00
         0.00000E+00
         0.00000E+00
         0.00000E+00
         0.00000E+00
         0.00000E+00
         0.00000E+00
         0.00000E+00
         0.00000E+00
         0.00000E+00
         0.00000E+00
         0.00000E+00
         0.00000E+00
         0.00000E+00
         0.00000E+00
         0.00000E+00
         0.00000E+00
         0.00000E+00
         0.00000E+00
         0.00000E+00
         0.00000E+00
         0.00000E+00
         0.00000E+00
         0.00000E+00
         0.00000E+00
         0.00000E+00
         0.00000E+00
         0.00000E+00
         0.00000E+00
         0.00000E+00
         0.00000E+00
         0.00000E+00
         0.00000E+00
         0.00000E+00
         0.00000E+00
         0.00000E+00
         0.00000E+00
         0.00000E+00
         0.00000E+00
         0.00000E+00
         0.00000E+00
         0.00000E+00
         0.00000E+00
         0.00000E+00
         0.00000E+00
         0.00000E+00
         0.00000E+00
         0.00000E+00
         0.00000E+00
         0.00000E+00
         0.00000E+00
         0.00000E+00
         0.00000E+00
         0.00000E+00
         0.00000E+00
         0.00000E+00
         0.00000E+00
         0.00000E+00
         0.00000E+00
         0.00000E+00
         0.00000E+00
         0.00000E+00
         0.00000E+00
         0.00000E+00
         0.00000E+00
         0.00000E+00
         0.00000E+00
         0.00000E+00
         0.00000E+00
         0.00000E+00
         0.00000E+00
         0.00000E+00
         0.00000E+00
         0.00000E+00
         0.00000E+00
         0.00000E+00
         0.00000E+00
         0.00000E+00
         0.00000E+00
         0.00000E+00
         0.00000E+00
         0.00000E+00
         0.00000E+00
         0.00000E+00
         0.00000E+00
         0.00000E+00
         0.00000E+00
         0.00000E+00
         0.00000E+00
         0.00000E+00
         0.00000E+00
         0.00000E+00
         0.00000E+00
         0.00000E+00
         0.00000E+00
         0.00000E+00
         0.00000E+00
         0.00000E+00
         0.00000E+00
         0.00000E+00
         0.00000E+00
         0.00000E+00
         0.00000E+00
         0.00000E+00
         0.00000E+00
         0.00000E+00
         0.00000E+00
         0.00000E+00
         0.00000E+00
         0.00000E+00
         0.00000E+00
         0.00000E+00
         0.00000E+00
         0.00000E+00
         0.00000E+00
         0.00000E+00
         0.00000E+00
         0.00000E+00
         0.00000E+00
         0.00000E+00
         0.00000E+00
         0.00000E+00
         0.00000E+00
         0.00000E+00
         0.00000E+00
         0.00000E+00
         0.00000E+00
         0.00000E+00
         0.00000E+00
         0.00000E+00
         0.00000E+00
         0.00000E+00
         0.00000E+00
         0.00000E+00
         0.00000E+00
         0.00000E+00
         0.00000E+00
         0.00000E+00
         0.00000E+00
         0.00000E+00
         0.00000E+00
         0.00000E+00
         0.00000E+00
         0.00000E+00
         0.00000E+00
         0.00000E+00
         0.00000E+00
         0.00000E+00
         0.00000E+00
         0.00000E+00
         0.00000E+00
         0.00000E+00
         0.00000E+00
         0.00000E+00
         0.00000E+00
         0.00000E+00
         0.00000E+00
         0.00000E+00
         0.00000E+00
         0.00000E+00
         0.00000E+00
         0.00000E+00
         0.00000E+00
         0.00000E+00
         0.00000E+00
         0.00000E+00
         0.00000E+00
         0.00000E+00
         0.00000E+00
         0.00000E+00
         0.00000E+00
         0.00000E+00
         0.00000E+00
         0.00000E+00
         0.00000E+00
         0.00000E+00
         0.00000E+00
         0.00000E+00
         0.00000E+00
         0.00000E+00
         0.00000E+00
         0.00000E+00
         0.00000E+00
         0.00000E+00
         0.00000E+00
         0.00000E+00
         0.00000E+00
         0.00000E+00
         0.00000E+00
         0.00000E+00
         0.00000E+00
         0.00000E+00
         0.00000E+00
         0.00000E+00
         0.00000E+00
         0.00000E+00
         0.00000E+00
         0.00000E+00
         0.00000E+00
         0.00000E+00
         0.00000E+00
         0.00000E+00
         0.00000E+00
         0.00000E+00
         0.00000E+00
         0.00000E+00
         0.00000E+00
         0.00000E+00
         0.00000E+00
         0.00000E+00
         0.00000E+00
         0.00000E+00
         0.00000E+00
         0.00000E+00
         0.00000E+00
         0.00000E+00
         0.00000E+00
         0.00000E+00
         0.00000E+00
         0.00000E+00
         0.00000E+00
         0.00000E+00
         0.00000E+00
         0.00000E+00
         0.00000E+00
         0.00000E+00
         0.00000E+00
         0.00000E+00
         0.00000E+00
         0.00000E+00
         0.00000E+00
         0.00000E+00
         0.00000E+00
         0.00000E+00
         0.00000E+00
         0.00000E+00
         0.00000E+00
         0.00000E+00
         0.00000E+00
         0.00000E+00
         0.00000E+00
         0.00000E+00
         0.00000E+00
         0.00000E+00
         0.00000E+00
         0.00000E+00
         0.00000E+00
         0.00000E+00
         0.00000E+00
         0.00000E+00
         0.00000E+00
         0.00000E+00
         0.00000E+00
         0.00000E+00
         0.00000E+00
         0.00000E+00
         0.00000E+00
         0.00000E+00
         0.00000E+00
         0.00000E+00
         0.00000E+00
         0.00000E+00
         0.00000E+00
         0.00000E+00
         0.00000E+00
         0.00000E+00
         0.00000E+00
         0.00000E+00
         0.00000E+00
         0.00000E+00
         0.00000E+00
         0.00000E+00
         0.00000E+00
         0.00000E+00
         0.00000E+00
         0.00000E+00
         0.00000E+00
         0.00000E+00
         0.00000E+00
         0.00000E+00
         0.00000E+00
         0.00000E+00
         0.00000E+00
         0.00000E+00
         0.00000E+00
         0.00000E+00
         0.00000E+00
         0.00000E+00
         0.00000E+00
         0.00000E+00
         0.00000E+00
         0.00000E+00
         0.00000E+00
         0.00000E+00
         0.00000E+00
         0.00000E+00
         0.00000E+00
         0.00000E+00
         0.00000E+00
         0.00000E+00
         0.00000E+00
         0.00000E+00
         0.00000E+00
         0.00000E+00
         0.00000E+00
         0.00000E+00
         0.00000E+00
         0.00000E+00
         0.00000E+00
         0.00000E+00
         0.00000E+00
         0.00000E+00
         0.00000E+00
         0.00000E+00
         0.00000E+00
         0.00000E+00
         0.00000E+00
         0.00000E+00
         0.00000E+00
         0.00000E+00
         0.00000E+00
         0.00000E+00
         0.00000E+00
         0.00000E+00
         0.00000E+00
         0.00000E+00
         0.00000E+00
         0.00000E+00
         0.00000E+00
         0.00000E+00
         0.00000E+00
         0.00000E+00
         0.00000E+00
         0.00000E+00
         0.00000E+00
         0.00000E+00
         0.00000E+00
         0.00000E+00
         0.00000E+00
         0.00000E+00
         0.00000E+00
         0.00000E+00
         0.00000E+00
         0.00000E+00
         0.00000E+00
         0.00000E+00
         0.00000E+00
         0.00000E+00
         0.00000E+00
         0.00000E+00
         0.00000E+00
         0.00000E+00
         0.00000E+00
         0.00000E+00
         0.00000E+00
         0.00000E+00
         0.00000E+00
         0.00000E+00
         0.00000E+00
         0.00000E+00
         0.00000E+00
         0.00000E+00
         0.00000E+00
         0.00000E+00
         0.00000E+00
         0.00000E+00
         0.00000E+00
         0.00000E+00
         0.00000E+00
         0.00000E+00
         0.00000E+00
         0.00000E+00
         0.00000E+00
         0.00000E+00
         0.00000E+00
         0.00000E+00
         0.00000E+00
         0.00000E+00
         0.00000E+00
         0.00000E+00
         0.00000E+00
         0.00000E+00
         0.00000E+00
         0.00000E+00
         0.00000E+00
         0.00000E+00
         0.00000E+00
         0.00000E+00
         0.00000E+00
         0.00000E+00
         0.00000E+00
         0.00000E+00
         0.00000E+00
         0.00000E+00
         0.00000E+00
         0.00000E+00
         0.00000E+00
         0.00000E+00
         0.00000E+00
         0.00000E+00
         0.00000E+00
         0.00000E+00
         0.00000E+00
         0.00000E+00
         0.00000E+00
         0.00000E+00
         0.00000E+00
         0.00000E+00
         0.00000E+00
         0.00000E+00
         0.00000E+00
         0.00000E+00
         0.00000E+00
         0.00000E+00
         0.00000E+00
         0.00000E+00
         0.00000E+00
         0.00000E+00
         0.00000E+00
         0.00000E+00
         0.00000E+00
         0.00000E+00
         0.00000E+00
         0.00000E+00
         0.00000E+00
         0.00000E+00
         0.00000E+00
         0.00000E+00
         0.00000E+00
         0.00000E+00
         0.00000E+00
         0.00000E+00
         0.00000E+00
         0.00000E+00
         0.00000E+00
         0.00000E+00
         0.00000E+00
         0.00000E+00
         0.00000E+00
         0.00000E+00
         0.00000E+00
         0.00000E+00
         0.00000E+00
         0.00000E+00
         0.00000E+00
         0.00000E+00
         0.00000E+00
         0.00000E+00
         0.00000E+00
         0.00000E+00
         0.00000E+00
         0.00000E+00
         0.00000E+00
         0.00000E+00
         0.00000E+00
         0.00000E+00
         0.00000E+00
         0.00000E+00
         0.00000E+00
         0.00000E+00
         0.00000E+00
         0.00000E+00
         0.00000E+00
         0.00000E+00
         0.00000E+00
         0.00000E+00
         0.00000E+00
         0.00000E+00
         0.00000E+00
         0.00000E+00
         0.00000E+00
         0.00000E+00
         0.00000E+00
         0.00000E+00
         0.00000E+00
         0.00000E+00
         0.00000E+00
         0.00000E+00
         0.00000E+00
         0.00000E+00
         0.00000E+00
         0.00000E+00
         0.00000E+00
         0.00000E+00
         0.00000E+00
         0.00000E+00
         0.00000E+00
         0.00000E+00
         0.00000E+00
         0.00000E+00
         0.00000E+00
         0.00000E+00
         0.00000E+00
         0.00000E+00
         0.00000E+00
         0.00000E+00
         0.00000E+00
         0.00000E+00
         0.00000E+00
         0.00000E+00
         0.00000E+00
         0.00000E+00
         0.00000E+00
         0.00000E+00
         0.00000E+00
         0.00000E+00
         0.00000E+00
         0.00000E+00
         0.00000E+00
         0.00000E+00
         0.00000E+00
         0.00000E+00
         0.00000E+00
         0.00000E+00
         0.00000E+00
         0.00000E+00
         0.00000E+00
         0.00000E+00
         0.00000E+00
         0.00000E+00
         0.00000E+00
         0.00000E+00
         0.00000E+00
         0.00000E+00
         0.00000E+00
         0.00000E+00
         0.00000E+00
         0.00000E+00
         0.00000E+00
         0.00000E+00
         0.00000E+00
         0.00000E+00
         0.00000E+00
         0.00000E+00
         0.00000E+00
         0.00000E+00
         0.00000E+00
         0.00000E+00
         0.00000E+00
         0.00000E+00
         0.00000E+00
         0.00000E+00
         0.00000E+00
         0.00000E+00
         0.00000E+00
         0.00000E+00
         0.00000E+00
         0.00000E+00
         0.00000E+00
         0.00000E+00
         0.00000E+00
         0.00000E+00
         0.00000E+00
         0.00000E+00
         0.00000E+00
         0.00000E+00
         0.00000E+00
         0.00000E+00
         0.00000E+00
         0.00000E+00
         0.00000E+00
         0.00000E+00
         0.00000E+00
         0.00000E+00
         0.00000E+00
         0.00000E+00
         0.00000E+00
         0.00000E+00
         0.00000E+00
         0.00000E+00
         0.00000E+00
         0.00000E+00
         0.00000E+00
         0.00000E+00
         0.00000E+00
         0.00000E+00
         0.00000E+00
         0.00000E+00
         0.00000E+00
         0.00000E+00
         0.00000E+00
         0.00000E+00
         0.00000E+00
         0.00000E+00
         0.00000E+00
         0.00000E+00
         0.00000E+00
         0.00000E+00
         0.00000E+00
         0.00000E+00
         0.00000E+00
         0.00000E+00
         0.00000E+00
         0.00000E+00
         0.00000E+00
         0.00000E+00
         0.00000E+00
         0.00000E+00
         0.00000E+00
         0.00000E+00
         0.00000E+00
         0.00000E+00
         0.00000E+00
         0.00000E+00
         0.00000E+00
         0.00000E+00
         0.00000E+00
         0.00000E+00
         0.00000E+00
         0.00000E+00
         0.00000E+00
         0.00000E+00
         0.00000E+00
         0.00000E+00
         0.00000E+00
         0.00000E+00
         0.00000E+00
         0.00000E+00
         0.00000E+00
         0.00000E+00
         0.00000E+00
         0.00000E+00
         0.00000E+00
         0.00000E+00
         0.00000E+00
         0.00000E+00
         0.00000E+00
         0.00000E+00
         0.00000E+00
         0.00000E+00
         0.00000E+00
         0.00000E+00
         0.00000E+00
         0.00000E+00
         0.00000E+00
         0.00000E+00
         0.00000E+00
         0.00000E+00
         0.00000E+00
         0.00000E+00
         0.00000E+00
         0.00000E+00
         0.00000E+00
         0.00000E+00
         0.00000E+00
         0.00000E+00
         0.00000E+00
         0.00000E+00
         0.00000E+00
         0.00000E+00
         0.00000E+00
         0.00000E+00
         0.00000E+00
         0.00000E+00
         0.00000E+00
         0.00000E+00
         0.00000E+00
         0.00000E+00
         0.00000E+00
         0.00000E+00
         0.00000E+00
         0.00000E+00
         0.00000E+00
         0.00000E+00
         0.00000E+00
         0.00000E+00
         0.00000E+00
         0.00000E+00
         0.00000E+00
         0.00000E+00
         0.00000E+00
         0.00000E+00
         0.00000E+00
         0.00000E+00
         0.00000E+00
         0.00000E+00
         0.00000E+00
         0.00000E+00
         0.00000E+00
         0.00000E+00
         0.00000E+00
         0.00000E+00
         0.00000E+00
         0.00000E+00
         0.00000E+00
         0.00000E+00
         0.00000E+00
         0.00000E+00
         0.00000E+00
         0.00000E+00
         0.00000E+00
         0.00000E+00
         0.00000E+00
         0.00000E+00
         0.00000E+00
         0.00000E+00
         0.00000E+00
         0.00000E+00
         0.00000E+00
         0.00000E+00
         0.00000E+00
         0.00000E+00
         0.00000E+00
         0.00000E+00
         0.00000E+00
         0.00000E+00
         0.00000E+00
         0.00000E+00
         0.00000E+00
         0.00000E+00
         0.00000E+00
         0.00000E+00
         0.00000E+00
         0.00000E+00
         0.00000E+00
         0.00000E+00
         0.00000E+00
         0.00000E+00
         0.00000E+00
         0.00000E+00
         0.00000E+00
         0.00000E+00
         0.00000E+00
         0.00000E+00
         0.00000E+00
         0.00000E+00
         0.00000E+00
         0.00000E+00
         0.00000E+00
         0.00000E+00
         0.00000E+00
         0.00000E+00
         0.00000E+00
         0.00000E+00
         0.00000E+00
         0.00000E+00
         0.00000E+00
         0.00000E+00
         0.00000E+00
         0.00000E+00
         0.00000E+00
         0.00000E+00
         0.00000E+00
         0.00000E+00
         0.00000E+00
         0.00000E+00
         0.00000E+00
         0.00000E+00
         0.00000E+00
         0.00000E+00
         0.00000E+00
         0.00000E+00
         0.00000E+00
         0.00000E+00
         0.00000E+00
         0.00000E+00
         0.00000E+00
         0.00000E+00
         0.00000E+00
         0.00000E+00
         0.00000E+00
         0.00000E+00
         0.00000E+00
         0.00000E+00
         0.00000E+00
         0.00000E+00
         0.00000E+00
         0.00000E+00
         0.00000E+00
         0.00000E+00
         0.00000E+00
         0.00000E+00
         0.00000E+00
         0.00000E+00
         0.00000E+00
         0.00000E+00
         0.00000E+00
         0.00000E+00
         0.00000E+00
         0.00000E+00
         0.00000E+00
         0.00000E+00
         0.00000E+00
         0.00000E+00
         0.00000E+00
         0.00000E+00
         0.00000E+00
         0.00000E+00
         0.00000E+00
         0.00000E+00
         0.00000E+00
         0.00000E+00
         0.00000E+00
         0.00000E+00
         0.00000E+00
         0.00000E+00
         0.00000E+00
         0.00000E+00
         0.00000E+00
         0.00000E+00
         0.00000E+00
         0.00000E+00
         0.00000E+00
         0.00000E+00
         0.00000E+00
         0.00000E+00
         0.00000E+00
         0.00000E+00
         0.00000E+00
         0.00000E+00
         0.00000E+00
         0.00000E+00
         0.00000E+00
         0.00000E+00
         0.00000E+00
         0.00000E+00
         0.00000E+00
         0.00000E+00
         0.00000E+00
         0.00000E+00
         0.00000E+00
         0.00000E+00
         0.00000E+00
         0.00000E+00
         0.00000E+00
         0.00000E+00
         0.00000E+00
         0.00000E+00
         0.00000E+00
         0.00000E+00
         0.00000E+00
         0.00000E+00
         0.00000E+00
         0.00000E+00
         0.00000E+00
         0.00000E+00
         0.00000E+00
         0.00000E+00
         0.00000E+00
         0.00000E+00
         0.00000E+00
         0.00000E+00
         0.00000E+00
         0.00000E+00
         0.00000E+00
         0.00000E+00
         0.00000E+00
         0.00000E+00
         0.00000E+00
         0.00000E+00
         0.00000E+00
         0.00000E+00
         0.00000E+00
         0.00000E+00
         0.00000E+00
         0.00000E+00
         0.00000E+00
         0.00000E+00
         0.00000E+00
         0.00000E+00
         0.00000E+00
         0.00000E+00
         0.00000E+00
         0.00000E+00
         0.00000E+00
         0.00000E+00
         0.00000E+00
         0.00000E+00
         0.00000E+00
         0.00000E+00
         0.00000E+00
         0.00000E+00
         0.00000E+00
         0.00000E+00
         0.00000E+00
         0.00000E+00
         0.00000E+00
         0.00000E+00
         0.00000E+00
         0.00000E+00
         0.00000E+00
         0.00000E+00
         0.00000E+00
         0.00000E+00
         0.00000E+00
         0.00000E+00
         0.00000E+00
         0.00000E+00
         0.00000E+00
         0.00000E+00
         0.00000E+00
         0.00000E+00
         0.00000E+00
         0.00000E+00
         0.00000E+00
         0.00000E+00
         0.00000E+00
         0.00000E+00
         0.00000E+00
         0.00000E+00
         0.00000E+00
         0.00000E+00
         0.00000E+00
         0.00000E+00
         0.00000E+00
         0.00000E+00
         0.00000E+00
         0.00000E+00
         0.00000E+00
         0.00000E+00
         0.00000E+00
         0.00000E+00
         0.00000E+00
         0.00000E+00
         0.00000E+00
         0.00000E+00
         0.00000E+00
         0.00000E+00
         0.00000E+00
         0.00000E+00
         0.00000E+00
         0.00000E+00
         0.00000E+00
         0.00000E+00
         0.00000E+00
         0.00000E+00
         0.00000E+00
         0.00000E+00
         0.00000E+00
         0.00000E+00
         0.00000E+00
         0.00000E+00
         0.00000E+00
         0.00000E+00
         0.00000E+00
         0.00000E+00
         0.00000E+00
         0.00000E+00
         0.00000E+00
         0.00000E+00
         0.00000E+00
         0.00000E+00
         0.00000E+00
         0.00000E+00
         0.00000E+00
         0.00000E+00
         0.00000E+00
         0.00000E+00
         0.00000E+00
         0.00000E+00
         0.00000E+00
         0.00000E+00
         0.00000E+00
         0.00000E+00
         0.00000E+00
         0.00000E+00
         0.00000E+00
         0.00000E+00
         0.00000E+00
         0.00000E+00
         0.00000E+00
         0.00000E+00
         0.00000E+00
         0.00000E+00
         0.00000E+00
         0.00000E+00
         0.00000E+00
         0.00000E+00
         0.00000E+00
         0.00000E+00
         0.00000E+00
         0.00000E+00
         0.00000E+00
         0.00000E+00
         0.00000E+00
         0.00000E+00
         0.00000E+00
         0.00000E+00
         0.00000E+00
         0.00000E+00
         0.00000E+00
         0.00000E+00
         0.00000E+00
         0.00000E+00
         0.00000E+00
         0.00000E+00
         0.00000E+00
         0.00000E+00
         0.00000E+00
         0.00000E+00
         0.00000E+00
         0.00000E+00
         0.00000E+00
         0.00000E+00
         0.00000E+00
         0.00000E+00
         0.00000E+00
         0.00000E+00
         0.00000E+00
         0.00000E+00
         0.00000E+00
         0.00000E+00
         0.00000E+00
         0.00000E+00
         0.00000E+00
         0.00000E+00
         0.00000E+00
         0.00000E+00
         0.00000E+00
         0.00000E+00
         0.00000E+00
         0.00000E+00
         0.00000E+00
         0.00000E+00
         0.00000E+00
         0.00000E+00
         0.00000E+00
         0.00000E+00
         0.00000E+00
         0.00000E+00
         0.00000E+00
         0.00000E+00
         0.00000E+00
         0.00000E+00
         0.00000E+00
         0.00000E+00
         0.00000E+00
         0.00000E+00
         0.00000E+00
         0.00000E+00
         0.00000E+00
         0.00000E+00
         0.00000E+00
         0.00000E+00
         0.00000E+00
         0.00000E+00
         0.00000E+00
         0.00000E+00
         0.00000E+00
         0.00000E+00
         0.00000E+00
         0.00000E+00
         0.00000E+00
         0.00000E+00
         0.00000E+00
         0.00000E+00
         0.00000E+00
         0.00000E+00
         0.00000E+00
         0.00000E+00
         0.00000E+00
         0.00000E+00
         0.00000E+00
         0.00000E+00
         0.00000E+00
         0.00000E+00
         0.00000E+00
         0.00000E+00
         0.00000E+00
         0.00000E+00
         0.00000E+00
         0.00000E+00
         0.00000E+00
         0.00000E+00
         0.00000E+00
         0.00000E+00
         0.00000E+00
         0.00000E+00
         0.00000E+00
         0.00000E+00
         0.00000E+00
         0.00000E+00
         0.00000E+00
         0.00000E+00
         0.00000E+00
         0.00000E+00
         0.00000E+00
         0.00000E+00
         0.00000E+00
         0.00000E+00
         0.00000E+00
         0.00000E+00
         0.00000E+00
         0.00000E+00
         0.00000E+00
         0.00000E+00
         0.00000E+00
         0.00000E+00
         0.00000E+00
         0.00000E+00
         0.00000E+00
         0.00000E+00
         0.00000E+00
         0.00000E+00
         0.00000E+00
         0.00000E+00
         0.00000E+00
         0.00000E+00
         0.00000E+00
         0.00000E+00
         0.00000E+00
         0.00000E+00
         0.00000E+00
         0.00000E+00
         0.00000E+00
         0.00000E+00
         0.00000E+00
         0.00000E+00
         0.00000E+00
         0.00000E+00
         0.00000E+00
         0.00000E+00
         0.00000E+00
         0.00000E+00
         0.00000E+00
         0.00000E+00
         0.00000E+00
         0.00000E+00
         0.00000E+00
         0.00000E+00
         0.00000E+00
         0.00000E+00
         0.00000E+00
         0.00000E+00
         0.00000E+00
         0.00000E+00
         0.00000E+00
         0.00000E+00
         0.00000E+00
         0.00000E+00
         0.00000E+00
         0.00000E+00
         0.00000E+00
         0.00000E+00
         0.00000E+00
         0.00000E+00
         0.00000E+00
         0.00000E+00
         0.00000E+00
         0.00000E+00
         0.00000E+00
         0.00000E+00
         0.00000E+00
         0.00000E+00
         0.00000E+00
         0.00000E+00
         0.00000E+00
         0.00000E+00
         0.00000E+00
         0.00000E+00
         0.00000E+00
         0.00000E+00
         0.00000E+00
         0.00000E+00
         0.00000E+00
         0.00000E+00
         0.00000E+00
         0.00000E+00
         0.00000E+00
         0.00000E+00
         0.00000E+00
         0.00000E+00
         0.00000E+00
         0.00000E+00
         0.00000E+00
         0.00000E+00
         0.00000E+00
         0.00000E+00
         0.00000E+00
         0.00000E+00
         0.00000E+00
         0.00000E+00
         0.00000E+00
         0.00000E+00
         0.00000E+00
         0.00000E+00
         0.00000E+00
         0.00000E+00
         0.00000E+00
         0.00000E+00
         0.00000E+00
         0.00000E+00
         0.00000E+00
         0.00000E+00
         0.00000E+00
         0.00000E+00
         0.00000E+00
         0.00000E+00
         0.00000E+00
         0.00000E+00
         0.00000E+00
         0.00000E+00
         0.00000E+00
         0.00000E+00
         0.00000E+00
         0.00000E+00
         0.00000E+00
         0.00000E+00
         0.00000E+00
         0.00000E+00
         0.00000E+00
         0.00000E+00
         0.00000E+00
         0.00000E+00
         0.00000E+00
         0.00000E+00
         0.00000E+00
         0.00000E+00
         0.00000E+00
         0.00000E+00
         0.00000E+00
         0.00000E+00
         0.00000E+00
         0.00000E+00
         0.00000E+00
         0.00000E+00
         0.00000E+00
         0.00000E+00
         0.00000E+00
         0.00000E+00
         0.00000E+00
         0.00000E+00
         0.00000E+00
         0.00000E+00
         0.00000E+00
         0.00000E+00
         0.00000E+00
         0.00000E+00
         0.00000E+00
         0.00000E+00
         0.00000E+00
         0.00000E+00
         0.00000E+00
         0.00000E+00
         0.00000E+00
         0.00000E+00
         0.00000E+00
         0.00000E+00
         0.00000E+00
         0.00000E+00
         0.00000E+00
         0.00000E+00
         0.00000E+00
         0.00000E+00
         0.00000E+00
         0.00000E+00
         0.00000E+00
         0.00000E+00
         0.00000E+00
         0.00000E+00
         0.00000E+00
         0.00000E+00
         0.00000E+00
         0.00000E+00
         0.00000E+00
         0.00000E+00
         0.00000E+00
         0.00000E+00
         0.00000E+00
         0.00000E+00
         0.00000E+00
         0.00000E+00
         0.00000E+00
         0.00000E+00
         0.00000E+00
         0.00000E+00
         0.00000E+00
         0.00000E+00
         0.00000E+00
         0.00000E+00
         0.00000E+00
         0.00000E+00
         0.00000E+00
         0.00000E+00
         0.00000E+00
         0.00000E+00
         0.00000E+00
         0.00000E+00
         0.00000E+00
         0.00000E+00
         0.00000E+00
         0.00000E+00
         0.00000E+00
         0.00000E+00
         0.00000E+00
         0.00000E+00
         0.00000E+00
         0.00000E+00
         0.00000E+00
         0.00000E+00
         0.00000E+00
         0.00000E+00
         0.00000E+00
         0.00000E+00
         0.00000E+00
         0.00000E+00
         0.00000E+00
         0.00000E+00
         0.00000E+00
         0.00000E+00
         0.00000E+00
         0.00000E+00
         0.00000E+00
         0.00000E+00
         0.00000E+00
         0.00000E+00
         0.00000E+00
         0.00000E+00
         0.00000E+00
         0.00000E+00
         0.00000E+00
         0.00000E+00
         0.00000E+00
         0.00000E+00
         0.00000E+00
         0.00000E+00
         0.00000E+00
         0.00000E+00
         0.00000E+00
         0.00000E+00
         0.00000E+00
         0.00000E+00
         0.00000E+00
         0.00000E+00
         0.00000E+00
         0.00000E+00
         0.00000E+00
         0.00000E+00
         0.00000E+00
         0.00000E+00
         0.00000E+00
         0.00000E+00
         0.00000E+00
         0.00000E+00
         0.00000E+00
         0.00000E+00
         0.00000E+00
         0.00000E+00
         0.00000E+00
         0.00000E+00
         0.00000E+00
         0.00000E+00
         0.00000E+00
         0.00000E+00
         0.00000E+00
         0.00000E+00
         0.00000E+00
         0.00000E+00
         0.00000E+00
         0.00000E+00
         0.00000E+00
         0.00000E+00
         0.00000E+00
         0.00000E+00
         0.00000E+00
         0.00000E+00
         0.00000E+00
         0.00000E+00
         0.00000E+00
         0.00000E+00
         0.00000E+00
         0.00000E+00
         0.00000E+00
         0.00000E+00
         0.00000E+00
         0.00000E+00
         0.00000E+00
         0.00000E+00
         0.00000E+00
         0.00000E+00
         0.00000E+00
         0.00000E+00
         0.00000E+00
         0.00000E+00
         0.00000E+00
         0.00000E+00
         0.00000E+00
         0.00000E+00
         0.00000E+00
         0.00000E+00
         0.00000E+00
         0.00000E+00
         0.00000E+00
         0.00000E+00
         0.00000E+00
         0.00000E+00
         0.00000E+00
         0.00000E+00
         0.00000E+00
         0.00000E+00
         0.00000E+00
         0.00000E+00
         0.00000E+00
         0.00000E+00
         0.00000E+00
         0.00000E+00
         0.00000E+00
         0.00000E+00
         0.00000E+00
         0.00000E+00
         0.00000E+00
         0.00000E+00
         0.00000E+00
         0.00000E+00
         0.00000E+00
         0.00000E+00
         0.00000E+00
         0.00000E+00
         0.00000E+00
         0.00000E+00
         0.00000E+00
         0.00000E+00
         0.00000E+00
         0.00000E+00
         0.00000E+00
         0.00000E+00
         0.00000E+00
         0.00000E+00
         0.00000E+00
         0.00000E+00
         0.00000E+00
         0.00000E+00
         0.00000E+00
         0.00000E+00
         0.00000E+00
         0.00000E+00
         0.00000E+00
         0.00000E+00
         0.00000E+00
         0.00000E+00
         0.00000E+00
         0.00000E+00
         0.00000E+00
         0.00000E+00
         0.00000E+00
         0.00000E+00
         0.00000E+00
         0.00000E+00
         0.00000E+00
         0.00000E+00
         0.00000E+00
         0.00000E+00
         0.00000E+00
         0.00000E+00
         0.00000E+00
         0.00000E+00
         0.00000E+00
         0.00000E+00
         0.00000E+00
         0.00000E+00
         0.00000E+00
         0.00000E+00
         0.00000E+00
         0.00000E+00
         0.00000E+00
         0.00000E+00
         0.00000E+00
         0.00000E+00
         0.00000E+00
         0.00000E+00
         0.00000E+00
         0.00000E+00
         0.00000E+00
         0.00000E+00
         0.00000E+00
         0.00000E+00
         0.00000E+00
         0.00000E+00
         0.00000E+00
         0.00000E+00
         0.00000E+00
         0.00000E+00
         0.00000E+00
         0.00000E+00
         0.00000E+00
         0.00000E+00
         0.00000E+00
         0.00000E+00
         0.00000E+00
         0.00000E+00
         0.00000E+00
         0.00000E+00
         0.00000E+00
         0.00000E+00
         0.00000E+00
         0.00000E+00
         0.00000E+00
         0.00000E+00
         0.00000E+00
         0.00000E+00
         0.00000E+00
         0.00000E+00
         0.00000E+00
         0.00000E+00
         0.00000E+00
         0.00000E+00
         0.00000E+00
         0.00000E+00
         0.00000E+00
         0.00000E+00
         0.00000E+00
         0.00000E+00
         0.00000E+00
         0.00000E+00
         0.00000E+00
         0.00000E+00
         0.00000E+00
         0.00000E+00
         0.00000E+00
         0.00000E+00
         0.00000E+00
         0.00000E+00
         0.00000E+00
         0.00000E+00
         0.00000E+00
         0.00000E+00
         0.00000E+00
         0.00000E+00
         0.00000E+00
         0.00000E+00
         0.00000E+00
         0.00000E+00
         0.00000E+00
         0.00000E+00
         0.00000E+00
         0.00000E+00
         0.00000E+00
         0.00000E+00
         0.00000E+00
         0.00000E+00
         0.00000E+00
         0.00000E+00
         0.00000E+00
         0.00000E+00
         0.00000E+00
         0.00000E+00
         0.00000E+00
         0.00000E+00
         0.00000E+00
         0.00000E+00
         0.00000E+00
         0.00000E+00
         0.00000E+00
         0.00000E+00
         0.00000E+00
         0.00000E+00
         0.00000E+00
         0.00000E+00
         0.00000E+00
         0.00000E+00
         0.00000E+00
         0.00000E+00
         0.00000E+00
         0.00000E+00
         0.00000E+00
         0.00000E+00
         0.00000E+00
         0.00000E+00
         0.00000E+00
         0.00000E+00
         0.00000E+00
         0.00000E+00
         0.00000E+00
         0.00000E+00
         0.00000E+00
         0.00000E+00
         0.00000E+00
         0.00000E+00
         0.00000E+00
         0.00000E+00
         0.00000E+00
         0.00000E+00
         0.00000E+00
         0.00000E+00
         0.00000E+00
         0.00000E+00
         0.00000E+00
         0.00000E+00
         0.00000E+00
         0.00000E+00
         0.00000E+00
         0.00000E+00
         0.00000E+00
         0.00000E+00
         0.00000E+00
         0.00000E+00
         0.00000E+00
         0.00000E+00
         0.00000E+00
         0.00000E+00
         0.00000E+00
         0.00000E+00
         0.00000E+00
         0.00000E+00
         0.00000E+00
         0.00000E+00
         0.00000E+00
         0.00000E+00
         0.00000E+00
         0.00000E+00
         0.00000E+00
         0.00000E+00
         0.00000E+00
         0.00000E+00
         0.00000E+00
         0.00000E+00
         0.00000E+00
         0.00000E+00
         0.00000E+00
         0.00000E+00
         0.00000E+00
         0.00000E+00
         0.00000E+00
         0.00000E+00
         0.00000E+00
         0.00000E+00
         0.00000E+00
         0.00000E+00
         0.00000E+00
         0.00000E+00
         0.00000E+00
         0.00000E+00
         0.00000E+00
         0.00000E+00
         0.00000E+00
         0.00000E+00
         0.00000E+00
         0.00000E+00
         0.00000E+00
         0.00000E+00
         0.00000E+00
         0.00000E+00
         0.00000E+00
         0.00000E+00
         0.00000E+00
         0.00000E+00
         0.00000E+00
         0.00000E+00
         0.00000E+00
         0.00000E+00
         0.00000E+00
         0.00000E+00
         0.00000E+00
         0.00000E+00
         0.00000E+00
         0.00000E+00
         0.00000E+00
         0.00000E+00
         0.00000E+00
         0.00000E+00
         0.00000E+00
         0.00000E+00
         0.00000E+00
         0.00000E+00
         0.00000E+00
         0.00000E+00
         0.00000E+00
         0.00000E+00
         0.00000E+00
         0.00000E+00
         0.00000E+00
         0.00000E+00
         0.00000E+00
         0.00000E+00
         0.00000E+00
         0.00000E+00
         0.00000E+00
         0.00000E+00
         0.00000E+00
         0.00000E+00
         0.00000E+00
         0.00000E+00
         0.00000E+00
         0.00000E+00
         0.00000E+00
         0.00000E+00
         0.00000E+00
         0.00000E+00
         0.00000E+00
         0.00000E+00
         0.00000E+00
         0.00000E+00
         0.00000E+00
         0.00000E+00
         0.00000E+00
         0.00000E+00
         0.00000E+00
         0.00000E+00
         0.00000E+00
         0.00000E+00
         0.00000E+00
         0.00000E+00
         0.00000E+00
         0.00000E+00
         0.00000E+00
         0.00000E+00
         0.00000E+00
         0.00000E+00
         0.00000E+00
         0.00000E+00
         0.00000E+00
         0.00000E+00
         0.00000E+00
         0.00000E+00
         0.00000E+00
         0.00000E+00
         0.00000E+00
         0.00000E+00
         0.00000E+00
         0.00000E+00
         0.00000E+00
         0.00000E+00
         0.00000E+00
         0.00000E+00
         0.00000E+00
         0.00000E+00
         0.00000E+00
         0.00000E+00
         0.00000E+00
         0.00000E+00
         0.00000E+00
         0.00000E+00
         0.00000E+00
         0.00000E+00
         0.00000E+00
         0.00000E+00
         0.00000E+00
         0.00000E+00
         0.00000E+00
         0.00000E+00
         0.00000E+00
         0.00000E+00
         0.00000E+00
         0.00000E+00
         0.00000E+00
         0.00000E+00
         0.00000E+00
         0.00000E+00
         0.00000E+00
         0.00000E+00
         0.00000E+00
         0.00000E+00
         0.00000E+00
         0.00000E+00
         0.00000E+00
         0.00000E+00
         0.00000E+00
         0.00000E+00
         0.00000E+00
         0.00000E+00
         0.00000E+00
         0.00000E+00
         0.00000E+00
         0.00000E+00
         0.00000E+00
         0.00000E+00
         0.00000E+00
         0.00000E+00
         0.00000E+00
         0.00000E+00
         0.00000E+00
         0.00000E+00
         0.00000E+00
         0.00000E+00
         0.00000E+00
         0.00000E+00
         0.00000E+00
         0.00000E+00
         0.00000E+00
         0.00000E+00
         0.00000E+00
         0.00000E+00
         0.00000E+00
         0.00000E+00
         0.00000E+00
         0.00000E+00
         0.00000E+00
         0.00000E+00
         0.00000E+00
         0.00000E+00
         0.00000E+00
         0.00000E+00
         0.00000E+00
         0.00000E+00
         0.00000E+00
         0.00000E+00
         0.00000E+00
         0.00000E+00
         0.00000E+00
         0.00000E+00
         0.00000E+00
         0.00000E+00
         0.00000E+00
         0.00000E+00
         0.00000E+00
         0.00000E+00
         0.00000E+00
         0.00000E+00
         0.00000E+00
         0.00000E+00
         0.00000E+00
         0.00000E+00
         0.00000E+00
         0.00000E+00
         0.00000E+00
         0.00000E+00
         0.00000E+00
         0.00000E+00
         0.00000E+00
         0.00000E+00
         0.00000E+00
         0.00000E+00
         0.00000E+00
         0.00000E+00
         0.00000E+00
         0.00000E+00
         0.00000E+00
         0.00000E+00
         0.00000E+00
         0.00000E+00
         0.00000E+00
         0.00000E+00
         0.00000E+00
         0.00000E+00
         0.00000E+00
         0.00000E+00
         0.00000E+00
         0.00000E+00
         0.00000E+00
         0.00000E+00
         0.00000E+00
         0.00000E+00
         0.00000E+00
         0.00000E+00
         0.00000E+00
         0.00000E+00
  
SCALARS               pre_disp_force_y  double 1
LOOKUP_TABLE default
         0.00000E+00
         0.00000E+00
         0.00000E+00
         0.00000E+00
         0.00000E+00
         0.00000E+00
         0.00000E+00
         0.00000E+00
         0.00000E+00
         0.00000E+00
         0.00000E+00
         0.00000E+00
         0.00000E+00
         0.00000E+00
         0.00000E+00
         0.00000E+00
         0.00000E+00
         0.00000E+00
         0.00000E+00
         0.00000E+00
         0.00000E+00
         0.00000E+00
         0.00000E+00
         0.00000E+00
         0.00000E+00
         0.00000E+00
         0.00000E+00
         0.00000E+00
         0.00000E+00
         0.00000E+00
         0.00000E+00
         0.00000E+00
         0.00000E+00
         0.00000E+00
         0.00000E+00
         0.00000E+00
         0.00000E+00
         0.00000E+00
         0.00000E+00
         0.00000E+00
         0.00000E+00
         0.00000E+00
         0.00000E+00
         0.00000E+00
         0.00000E+00
         0.00000E+00
         0.00000E+00
         0.00000E+00
         0.00000E+00
         0.00000E+00
         0.00000E+00
         0.00000E+00
         0.00000E+00
         0.00000E+00
         0.00000E+00
         0.00000E+00
         0.00000E+00
         0.00000E+00
         0.00000E+00
         0.00000E+00
         0.00000E+00
         0.00000E+00
         0.00000E+00
         0.00000E+00
         0.00000E+00
         0.00000E+00
         0.00000E+00
         0.00000E+00
         0.00000E+00
         0.00000E+00
         0.00000E+00
         0.00000E+00
         0.00000E+00
         0.00000E+00
         0.00000E+00
         0.00000E+00
         0.00000E+00
         0.00000E+00
         0.00000E+00
         0.00000E+00
         0.00000E+00
         0.00000E+00
         0.00000E+00
         0.00000E+00
         0.00000E+00
         0.00000E+00
         0.00000E+00
         0.00000E+00
         0.00000E+00
         0.00000E+00
         0.00000E+00
         0.00000E+00
         0.00000E+00
         0.00000E+00
         0.00000E+00
         0.00000E+00
         0.00000E+00
         0.00000E+00
         0.00000E+00
         0.00000E+00
         0.00000E+00
         0.00000E+00
         0.00000E+00
         0.00000E+00
         0.00000E+00
         0.00000E+00
         0.00000E+00
         0.00000E+00
         0.00000E+00
         0.00000E+00
         0.00000E+00
         0.00000E+00
         0.00000E+00
         0.00000E+00
         0.00000E+00
         0.00000E+00
         0.00000E+00
         0.00000E+00
         0.00000E+00
         0.00000E+00
         0.00000E+00
         0.00000E+00
         0.00000E+00
         0.00000E+00
         0.00000E+00
         0.00000E+00
         0.00000E+00
         0.00000E+00
         0.00000E+00
         0.00000E+00
         0.00000E+00
         0.00000E+00
         0.00000E+00
         0.00000E+00
         0.00000E+00
         0.00000E+00
         0.00000E+00
         0.00000E+00
         0.00000E+00
         0.00000E+00
         0.00000E+00
         0.00000E+00
         0.00000E+00
         0.00000E+00
         0.00000E+00
         0.00000E+00
         0.00000E+00
         0.00000E+00
         0.00000E+00
         0.00000E+00
         0.00000E+00
         0.00000E+00
         0.00000E+00
         0.00000E+00
         0.00000E+00
         0.00000E+00
         0.00000E+00
         0.00000E+00
         0.00000E+00
         0.00000E+00
         0.00000E+00
         0.00000E+00
         0.00000E+00
         0.00000E+00
         0.00000E+00
         0.00000E+00
         0.00000E+00
         0.00000E+00
         0.00000E+00
         0.00000E+00
         0.00000E+00
         0.00000E+00
         0.00000E+00
         0.00000E+00
         0.00000E+00
         0.00000E+00
         0.00000E+00
         0.00000E+00
         0.00000E+00
         0.00000E+00
         0.00000E+00
         0.00000E+00
         0.00000E+00
         0.00000E+00
         0.00000E+00
         0.00000E+00
         0.00000E+00
         0.00000E+00
         0.00000E+00
         0.00000E+00
         0.00000E+00
         0.00000E+00
         0.00000E+00
         0.00000E+00
         0.00000E+00
         0.00000E+00
         0.00000E+00
         0.00000E+00
         0.00000E+00
         0.00000E+00
         0.00000E+00
         0.00000E+00
         0.00000E+00
         0.00000E+00
         0.00000E+00
         0.00000E+00
         0.00000E+00
         0.00000E+00
         0.00000E+00
         0.00000E+00
         0.00000E+00
         0.00000E+00
         0.00000E+00
         0.00000E+00
         0.00000E+00
         0.00000E+00
         0.00000E+00
         0.00000E+00
         0.00000E+00
         0.00000E+00
         0.00000E+00
         0.00000E+00
         0.00000E+00
         0.00000E+00
         0.00000E+00
         0.00000E+00
         0.00000E+00
         0.00000E+00
         0.00000E+00
         0.00000E+00
         0.00000E+00
         0.00000E+00
         0.00000E+00
         0.00000E+00
         0.00000E+00
         0.00000E+00
         0.00000E+00
         0.00000E+00
         0.00000E+00
         0.00000E+00
         0.00000E+00
         0.00000E+00
         0.00000E+00
         0.00000E+00
         0.00000E+00
         0.00000E+00
         0.00000E+00
         0.00000E+00
         0.00000E+00
         0.00000E+00
         0.00000E+00
         0.00000E+00
         0.00000E+00
         0.00000E+00
         0.00000E+00
         0.00000E+00
         0.00000E+00
         0.00000E+00
         0.00000E+00
         0.00000E+00
         0.00000E+00
         0.00000E+00
         0.00000E+00
         0.00000E+00
         0.00000E+00
         0.00000E+00
         0.00000E+00
         0.00000E+00
         0.00000E+00
         0.00000E+00
         0.00000E+00
         0.00000E+00
         0.00000E+00
         0.00000E+00
         0.00000E+00
         0.00000E+00
         0.00000E+00
         0.00000E+00
         0.00000E+00
         0.00000E+00
         0.00000E+00
         0.00000E+00
         0.00000E+00
         0.00000E+00
         0.00000E+00
         0.00000E+00
         0.00000E+00
         0.00000E+00
         0.00000E+00
         0.00000E+00
         0.00000E+00
         0.00000E+00
         0.00000E+00
         0.00000E+00
         0.00000E+00
         0.00000E+00
         0.00000E+00
         0.00000E+00
         0.00000E+00
         0.00000E+00
         0.00000E+00
         0.00000E+00
         0.00000E+00
         0.00000E+00
         0.00000E+00
         0.00000E+00
         0.00000E+00
         0.00000E+00
         0.00000E+00
         0.00000E+00
         0.00000E+00
         0.00000E+00
         0.00000E+00
         0.00000E+00
         0.00000E+00
         0.00000E+00
         0.00000E+00
         0.00000E+00
         0.00000E+00
         0.00000E+00
         0.00000E+00
         0.00000E+00
         0.00000E+00
         0.00000E+00
         0.00000E+00
         0.00000E+00
         0.00000E+00
         0.00000E+00
         0.00000E+00
         0.00000E+00
         0.00000E+00
         0.00000E+00
         0.00000E+00
         0.00000E+00
         0.00000E+00
         0.00000E+00
         0.00000E+00
         0.00000E+00
         0.00000E+00
         0.00000E+00
         0.00000E+00
         0.00000E+00
         0.00000E+00
         0.00000E+00
         0.00000E+00
         0.00000E+00
         0.00000E+00
         0.00000E+00
         0.00000E+00
         0.00000E+00
         0.00000E+00
         0.00000E+00
         0.00000E+00
         0.00000E+00
         0.00000E+00
         0.00000E+00
         0.00000E+00
         0.00000E+00
         0.00000E+00
         0.00000E+00
         0.00000E+00
         0.00000E+00
         0.00000E+00
         0.00000E+00
         0.00000E+00
         0.00000E+00
         0.00000E+00
         0.00000E+00
         0.00000E+00
         0.00000E+00
         0.00000E+00
         0.00000E+00
         0.00000E+00
         0.00000E+00
         0.00000E+00
         0.00000E+00
         0.00000E+00
         0.00000E+00
         0.00000E+00
         0.00000E+00
         0.00000E+00
         0.00000E+00
         0.00000E+00
         0.00000E+00
         0.00000E+00
         0.00000E+00
         0.00000E+00
         0.00000E+00
         0.00000E+00
         0.00000E+00
         0.00000E+00
         0.00000E+00
         0.00000E+00
         0.00000E+00
         0.00000E+00
         0.00000E+00
         0.00000E+00
         0.00000E+00
         0.00000E+00
         0.00000E+00
         0.00000E+00
         0.00000E+00
         0.00000E+00
         0.00000E+00
         0.00000E+00
         0.00000E+00
         0.00000E+00
         0.00000E+00
         0.00000E+00
         0.00000E+00
         0.00000E+00
         0.00000E+00
         0.00000E+00
         0.00000E+00
         0.00000E+00
         0.00000E+00
         0.00000E+00
         0.00000E+00
         0.00000E+00
         0.00000E+00
         0.00000E+00
         0.00000E+00
         0.00000E+00
         0.00000E+00
         0.00000E+00
         0.00000E+00
         0.00000E+00
         0.00000E+00
         0.00000E+00
         0.00000E+00
         0.00000E+00
         0.00000E+00
         0.00000E+00
         0.00000E+00
         0.00000E+00
         0.00000E+00
         0.00000E+00
         0.00000E+00
         0.00000E+00
         0.00000E+00
         0.00000E+00
         0.00000E+00
         0.00000E+00
         0.00000E+00
         0.00000E+00
         0.00000E+00
         0.00000E+00
         0.00000E+00
         0.00000E+00
         0.00000E+00
         0.00000E+00
         0.00000E+00
         0.00000E+00
         0.00000E+00
         0.00000E+00
         0.00000E+00
         0.00000E+00
         0.00000E+00
         0.00000E+00
         0.00000E+00
         0.00000E+00
         0.00000E+00
         0.00000E+00
         0.00000E+00
         0.00000E+00
         0.00000E+00
         0.00000E+00
         0.00000E+00
         0.00000E+00
         0.00000E+00
         0.00000E+00
         0.00000E+00
         0.00000E+00
         0.00000E+00
         0.00000E+00
         0.00000E+00
         0.00000E+00
         0.00000E+00
         0.00000E+00
         0.00000E+00
         0.00000E+00
         0.00000E+00
         0.00000E+00
         0.00000E+00
         0.00000E+00
         0.00000E+00
         0.00000E+00
         0.00000E+00
         0.00000E+00
         0.00000E+00
         0.00000E+00
         0.00000E+00
         0.00000E+00
         0.00000E+00
         0.00000E+00
         0.00000E+00
         0.00000E+00
         0.00000E+00
         0.00000E+00
         0.00000E+00
         0.00000E+00
         0.00000E+00
         0.00000E+00
         0.00000E+00
         0.00000E+00
         0.00000E+00
         0.00000E+00
         0.00000E+00
         0.00000E+00
         0.00000E+00
         0.00000E+00
         0.00000E+00
         0.00000E+00
         0.00000E+00
         0.00000E+00
         0.00000E+00
         0.00000E+00
         0.00000E+00
         0.00000E+00
         0.00000E+00
         0.00000E+00
         0.00000E+00
         0.00000E+00
         0.00000E+00
         0.00000E+00
         0.00000E+00
         0.00000E+00
         0.00000E+00
         0.00000E+00
         0.00000E+00
         0.00000E+00
         0.00000E+00
         0.00000E+00
         0.00000E+00
         0.00000E+00
         0.00000E+00
         0.00000E+00
         0.00000E+00
         0.00000E+00
         0.00000E+00
         0.00000E+00
         0.00000E+00
         0.00000E+00
         0.00000E+00
         0.00000E+00
         0.00000E+00
         0.00000E+00
         0.00000E+00
         0.00000E+00
         0.00000E+00
         0.00000E+00
         0.00000E+00
         0.00000E+00
         0.00000E+00
         0.00000E+00
         0.00000E+00
         0.00000E+00
         0.00000E+00
         0.00000E+00
         0.00000E+00
         0.00000E+00
         0.00000E+00
         0.00000E+00
         0.00000E+00
         0.00000E+00
         0.00000E+00
         0.00000E+00
         0.00000E+00
         0.00000E+00
         0.00000E+00
         0.00000E+00
         0.00000E+00
         0.00000E+00
         0.00000E+00
         0.00000E+00
         0.00000E+00
         0.00000E+00
         0.00000E+00
         0.00000E+00
         0.00000E+00
         0.00000E+00
         0.00000E+00
         0.00000E+00
         0.00000E+00
         0.00000E+00
         0.00000E+00
         0.00000E+00
         0.00000E+00
         0.00000E+00
         0.00000E+00
         0.00000E+00
         0.00000E+00
         0.00000E+00
         0.00000E+00
         0.00000E+00
         0.00000E+00
         0.00000E+00
         0.00000E+00
         0.00000E+00
         0.00000E+00
         0.00000E+00
         0.00000E+00
         0.00000E+00
         0.00000E+00
         0.00000E+00
         0.00000E+00
         0.00000E+00
         0.00000E+00
         0.00000E+00
         0.00000E+00
         0.00000E+00
         0.00000E+00
         0.00000E+00
         0.00000E+00
         0.00000E+00
         0.00000E+00
         0.00000E+00
         0.00000E+00
         0.00000E+00
         0.00000E+00
         0.00000E+00
         0.00000E+00
         0.00000E+00
         0.00000E+00
         0.00000E+00
         0.00000E+00
         0.00000E+00
         0.00000E+00
         0.00000E+00
         0.00000E+00
         0.00000E+00
         0.00000E+00
         0.00000E+00
         0.00000E+00
         0.00000E+00
         0.00000E+00
         0.00000E+00
         0.00000E+00
         0.00000E+00
         0.00000E+00
         0.00000E+00
         0.00000E+00
         0.00000E+00
         0.00000E+00
         0.00000E+00
         0.00000E+00
         0.00000E+00
         0.00000E+00
         0.00000E+00
         0.00000E+00
         0.00000E+00
         0.00000E+00
         0.00000E+00
         0.00000E+00
         0.00000E+00
         0.00000E+00
         0.00000E+00
         0.00000E+00
         0.00000E+00
         0.00000E+00
         0.00000E+00
         0.00000E+00
         0.00000E+00
         0.00000E+00
         0.00000E+00
         0.00000E+00
         0.00000E+00
         0.00000E+00
         0.00000E+00
         0.00000E+00
         0.00000E+00
         0.00000E+00
         0.00000E+00
         0.00000E+00
         0.00000E+00
         0.00000E+00
         0.00000E+00
         0.00000E+00
         0.00000E+00
         0.00000E+00
         0.00000E+00
         0.00000E+00
         0.00000E+00
         0.00000E+00
         0.00000E+00
         0.00000E+00
         0.00000E+00
         0.00000E+00
         0.00000E+00
         0.00000E+00
         0.00000E+00
         0.00000E+00
         0.00000E+00
         0.00000E+00
         0.00000E+00
         0.00000E+00
         0.00000E+00
         0.00000E+00
         0.00000E+00
         0.00000E+00
         0.00000E+00
         0.00000E+00
         0.00000E+00
         0.00000E+00
         0.00000E+00
         0.00000E+00
         0.00000E+00
         0.00000E+00
         0.00000E+00
         0.00000E+00
         0.00000E+00
         0.00000E+00
         0.00000E+00
         0.00000E+00
         0.00000E+00
         0.00000E+00
         0.00000E+00
         0.00000E+00
         0.00000E+00
         0.00000E+00
         0.00000E+00
         0.00000E+00
         0.00000E+00
         0.00000E+00
         0.00000E+00
         0.00000E+00
         0.00000E+00
         0.00000E+00
         0.00000E+00
         0.00000E+00
         0.00000E+00
         0.00000E+00
         0.00000E+00
         0.00000E+00
         0.00000E+00
         0.00000E+00
         0.00000E+00
         0.00000E+00
         0.00000E+00
         0.00000E+00
         0.00000E+00
         0.00000E+00
         0.00000E+00
         0.00000E+00
         0.00000E+00
         0.00000E+00
         0.00000E+00
         0.00000E+00
         0.00000E+00
         0.00000E+00
         0.00000E+00
         0.00000E+00
         0.00000E+00
         0.00000E+00
         0.00000E+00
         0.00000E+00
         0.00000E+00
         0.00000E+00
         0.00000E+00
         0.00000E+00
         0.00000E+00
         0.00000E+00
         0.00000E+00
         0.00000E+00
         0.00000E+00
         0.00000E+00
         0.00000E+00
         0.00000E+00
         0.00000E+00
         0.00000E+00
         0.00000E+00
         0.00000E+00
         0.00000E+00
         0.00000E+00
         0.00000E+00
         0.00000E+00
         0.00000E+00
         0.00000E+00
         0.00000E+00
         0.00000E+00
         0.00000E+00
         0.00000E+00
         0.00000E+00
         0.00000E+00
         0.00000E+00
         0.00000E+00
         0.00000E+00
         0.00000E+00
         0.00000E+00
         0.00000E+00
         0.00000E+00
         0.00000E+00
         0.00000E+00
         0.00000E+00
         0.00000E+00
         0.00000E+00
         0.00000E+00
         0.00000E+00
         0.00000E+00
         0.00000E+00
         0.00000E+00
         0.00000E+00
         0.00000E+00
         0.00000E+00
         0.00000E+00
         0.00000E+00
         0.00000E+00
         0.00000E+00
         0.00000E+00
         0.00000E+00
         0.00000E+00
         0.00000E+00
         0.00000E+00
         0.00000E+00
         0.00000E+00
         0.00000E+00
         0.00000E+00
         0.00000E+00
         0.00000E+00
         0.00000E+00
         0.00000E+00
         0.00000E+00
         0.00000E+00
         0.00000E+00
         0.00000E+00
         0.00000E+00
         0.00000E+00
         0.00000E+00
         0.00000E+00
         0.00000E+00
         0.00000E+00
         0.00000E+00
         0.00000E+00
         0.00000E+00
         0.00000E+00
         0.00000E+00
         0.00000E+00
         0.00000E+00
         0.00000E+00
         0.00000E+00
         0.00000E+00
         0.00000E+00
         0.00000E+00
         0.00000E+00
         0.00000E+00
         0.00000E+00
         0.00000E+00
         0.00000E+00
         0.00000E+00
         0.00000E+00
         0.00000E+00
         0.00000E+00
         0.00000E+00
         0.00000E+00
         0.00000E+00
         0.00000E+00
         0.00000E+00
         0.00000E+00
         0.00000E+00
         0.00000E+00
         0.00000E+00
         0.00000E+00
         0.00000E+00
         0.00000E+00
         0.00000E+00
         0.00000E+00
         0.00000E+00
         0.00000E+00
         0.00000E+00
         0.00000E+00
         0.00000E+00
         0.00000E+00
         0.00000E+00
         0.00000E+00
         0.00000E+00
         0.00000E+00
         0.00000E+00
         0.00000E+00
         0.00000E+00
         0.00000E+00
         0.00000E+00
         0.00000E+00
         0.00000E+00
         0.00000E+00
         0.00000E+00
         0.00000E+00
         0.00000E+00
         0.00000E+00
         0.00000E+00
         0.00000E+00
         0.00000E+00
         0.00000E+00
         0.00000E+00
         0.00000E+00
         0.00000E+00
         0.00000E+00
         0.00000E+00
         0.00000E+00
         0.00000E+00
         0.00000E+00
         0.00000E+00
         0.00000E+00
         0.00000E+00
         0.00000E+00
         0.00000E+00
         0.00000E+00
         0.00000E+00
         0.00000E+00
         0.00000E+00
         0.00000E+00
         0.00000E+00
         0.00000E+00
         0.00000E+00
         0.00000E+00
         0.00000E+00
         0.00000E+00
         0.00000E+00
         0.00000E+00
         0.00000E+00
         0.00000E+00
         0.00000E+00
         0.00000E+00
         0.00000E+00
         0.00000E+00
         0.00000E+00
         0.00000E+00
         0.00000E+00
         0.00000E+00
         0.00000E+00
         0.00000E+00
         0.00000E+00
         0.00000E+00
         0.00000E+00
         0.00000E+00
         0.00000E+00
         0.00000E+00
         0.00000E+00
         0.00000E+00
         0.00000E+00
         0.00000E+00
         0.00000E+00
         0.00000E+00
         0.00000E+00
         0.00000E+00
         0.00000E+00
         0.00000E+00
         0.00000E+00
         0.00000E+00
         0.00000E+00
         0.00000E+00
         0.00000E+00
         0.00000E+00
         0.00000E+00
         0.00000E+00
         0.00000E+00
         0.00000E+00
         0.00000E+00
         0.00000E+00
         0.00000E+00
         0.00000E+00
         0.00000E+00
         0.00000E+00
         0.00000E+00
         0.00000E+00
         0.00000E+00
         0.00000E+00
         0.00000E+00
         0.00000E+00
         0.00000E+00
         0.00000E+00
         0.00000E+00
         0.00000E+00
         0.00000E+00
         0.00000E+00
         0.00000E+00
         0.00000E+00
         0.00000E+00
         0.00000E+00
         0.00000E+00
         0.00000E+00
         0.00000E+00
         0.00000E+00
         0.00000E+00
         0.00000E+00
         0.00000E+00
         0.00000E+00
         0.00000E+00
         0.00000E+00
         0.00000E+00
         0.00000E+00
         0.00000E+00
         0.00000E+00
         0.00000E+00
         0.00000E+00
         0.00000E+00
         0.00000E+00
         0.00000E+00
         0.00000E+00
         0.00000E+00
         0.00000E+00
         0.00000E+00
         0.00000E+00
         0.00000E+00
         0.00000E+00
         0.00000E+00
         0.00000E+00
         0.00000E+00
         0.00000E+00
         0.00000E+00
         0.00000E+00
         0.00000E+00
         0.00000E+00
         0.00000E+00
         0.00000E+00
         0.00000E+00
         0.00000E+00
         0.00000E+00
         0.00000E+00
         0.00000E+00
         0.00000E+00
         0.00000E+00
         0.00000E+00
         0.00000E+00
         0.00000E+00
         0.00000E+00
         0.00000E+00
         0.00000E+00
         0.00000E+00
         0.00000E+00
         0.00000E+00
         0.00000E+00
         0.00000E+00
         0.00000E+00
         0.00000E+00
         0.00000E+00
         0.00000E+00
         0.00000E+00
         0.00000E+00
         0.00000E+00
         0.00000E+00
         0.00000E+00
         0.00000E+00
         0.00000E+00
         0.00000E+00
         0.00000E+00
         0.00000E+00
         0.00000E+00
         0.00000E+00
         0.00000E+00
         0.00000E+00
         0.00000E+00
         0.00000E+00
         0.00000E+00
         0.00000E+00
         0.00000E+00
         0.00000E+00
         0.00000E+00
         0.00000E+00
         0.00000E+00
         0.00000E+00
         0.00000E+00
         0.00000E+00
         0.00000E+00
         0.00000E+00
         0.00000E+00
         0.00000E+00
         0.00000E+00
         0.00000E+00
         0.00000E+00
         0.00000E+00
         0.00000E+00
         0.00000E+00
         0.00000E+00
         0.00000E+00
         0.00000E+00
         0.00000E+00
         0.00000E+00
         0.00000E+00
         0.00000E+00
         0.00000E+00
         0.00000E+00
         0.00000E+00
         0.00000E+00
         0.00000E+00
         0.00000E+00
         0.00000E+00
         0.00000E+00
         0.00000E+00
         0.00000E+00
         0.00000E+00
         0.00000E+00
         0.00000E+00
         0.00000E+00
         0.00000E+00
         0.00000E+00
         0.00000E+00
         0.00000E+00
         0.00000E+00
         0.00000E+00
         0.00000E+00
         0.00000E+00
         0.00000E+00
         0.00000E+00
         0.00000E+00
         0.00000E+00
         0.00000E+00
         0.00000E+00
         0.00000E+00
         0.00000E+00
         0.00000E+00
         0.00000E+00
         0.00000E+00
         0.00000E+00
         0.00000E+00
         0.00000E+00
         0.00000E+00
         0.00000E+00
         0.00000E+00
         0.00000E+00
         0.00000E+00
         0.00000E+00
         0.00000E+00
         0.00000E+00
         0.00000E+00
         0.00000E+00
         0.00000E+00
         0.00000E+00
         0.00000E+00
         0.00000E+00
         0.00000E+00
         0.00000E+00
         0.00000E+00
         0.00000E+00
         0.00000E+00
         0.00000E+00
         0.00000E+00
         0.00000E+00
         0.00000E+00
         0.00000E+00
         0.00000E+00
         0.00000E+00
         0.00000E+00
         0.00000E+00
         0.00000E+00
         0.00000E+00
         0.00000E+00
         0.00000E+00
         0.00000E+00
         0.00000E+00
         0.00000E+00
         0.00000E+00
         0.00000E+00
         0.00000E+00
         0.00000E+00
         0.00000E+00
         0.00000E+00
         0.00000E+00
         0.00000E+00
         0.00000E+00
         0.00000E+00
         0.00000E+00
         0.00000E+00
         0.00000E+00
         0.00000E+00
         0.00000E+00
         0.00000E+00
         0.00000E+00
         0.00000E+00
         0.00000E+00
         0.00000E+00
         0.00000E+00
         0.00000E+00
         0.00000E+00
         0.00000E+00
         0.00000E+00
         0.00000E+00
         0.00000E+00
         0.00000E+00
         0.00000E+00
         0.00000E+00
         0.00000E+00
         0.00000E+00
         0.00000E+00
         0.00000E+00
         0.00000E+00
         0.00000E+00
         0.00000E+00
         0.00000E+00
         0.00000E+00
         0.00000E+00
         0.00000E+00
         0.00000E+00
         0.00000E+00
         0.00000E+00
         0.00000E+00
         0.00000E+00
         0.00000E+00
         0.00000E+00
         0.00000E+00
         0.00000E+00
         0.00000E+00
         0.00000E+00
         0.00000E+00
         0.00000E+00
         0.00000E+00
         0.00000E+00
         0.00000E+00
         0.00000E+00
         0.00000E+00
         0.00000E+00
         0.00000E+00
         0.00000E+00
         0.00000E+00
         0.00000E+00
         0.00000E+00
         0.00000E+00
         0.00000E+00
         0.00000E+00
         0.00000E+00
         0.00000E+00
         0.00000E+00
         0.00000E+00
         0.00000E+00
         0.00000E+00
         0.00000E+00
         0.00000E+00
         0.00000E+00
         0.00000E+00
         0.00000E+00
         0.00000E+00
         0.00000E+00
         0.00000E+00
         0.00000E+00
         0.00000E+00
         0.00000E+00
         0.00000E+00
         0.00000E+00
         0.00000E+00
         0.00000E+00
         0.00000E+00
         0.00000E+00
         0.00000E+00
         0.00000E+00
         0.00000E+00
         0.00000E+00
         0.00000E+00
         0.00000E+00
         0.00000E+00
         0.00000E+00
         0.00000E+00
         0.00000E+00
         0.00000E+00
         0.00000E+00
         0.00000E+00
         0.00000E+00
         0.00000E+00
         0.00000E+00
         0.00000E+00
         0.00000E+00
         0.00000E+00
         0.00000E+00
         0.00000E+00
         0.00000E+00
         0.00000E+00
         0.00000E+00
         0.00000E+00
         0.00000E+00
         0.00000E+00
         0.00000E+00
         0.00000E+00
         0.00000E+00
         0.00000E+00
         0.00000E+00
         0.00000E+00
         0.00000E+00
         0.00000E+00
         0.00000E+00
         0.00000E+00
         0.00000E+00
         0.00000E+00
         0.00000E+00
         0.00000E+00
         0.00000E+00
         0.00000E+00
         0.00000E+00
         0.00000E+00
         0.00000E+00
         0.00000E+00
         0.00000E+00
         0.00000E+00
         0.00000E+00
         0.00000E+00
         0.00000E+00
         0.00000E+00
         0.00000E+00
         0.00000E+00
         0.00000E+00
         0.00000E+00
         0.00000E+00
         0.00000E+00
         0.00000E+00
         0.00000E+00
         0.00000E+00
         0.00000E+00
         0.00000E+00
         0.00000E+00
         0.00000E+00
         0.00000E+00
         0.00000E+00
         0.00000E+00
         0.00000E+00
         0.00000E+00
         0.00000E+00
         0.00000E+00
         0.00000E+00
         0.00000E+00
         0.00000E+00
         0.00000E+00
         0.00000E+00
         0.00000E+00
         0.00000E+00
         0.00000E+00
         0.00000E+00
         0.00000E+00
         0.00000E+00
         0.00000E+00
         0.00000E+00
         0.00000E+00
         0.00000E+00
         0.00000E+00
         0.00000E+00
         0.00000E+00
         0.00000E+00
         0.00000E+00
         0.00000E+00
         0.00000E+00
         0.00000E+00
         0.00000E+00
         0.00000E+00
         0.00000E+00
         0.00000E+00
         0.00000E+00
         0.00000E+00
         0.00000E+00
         0.00000E+00
         0.00000E+00
         0.00000E+00
         0.00000E+00
         0.00000E+00
         0.00000E+00
         0.00000E+00
         0.00000E+00
         0.00000E+00
         0.00000E+00
         0.00000E+00
         0.00000E+00
         0.00000E+00
         0.00000E+00
         0.00000E+00
         0.00000E+00
         0.00000E+00
         0.00000E+00
         0.00000E+00
         0.00000E+00
         0.00000E+00
         0.00000E+00
         0.00000E+00
         0.00000E+00
         0.00000E+00
         0.00000E+00
         0.00000E+00
         0.00000E+00
         0.00000E+00
         0.00000E+00
         0.00000E+00
         0.00000E+00
         0.00000E+00
         0.00000E+00
         0.00000E+00
         0.00000E+00
         0.00000E+00
         0.00000E+00
         0.00000E+00
         0.00000E+00
         0.00000E+00
         0.00000E+00
         0.00000E+00
         0.00000E+00
         0.00000E+00
         0.00000E+00
         0.00000E+00
         0.00000E+00
         0.00000E+00
         0.00000E+00
         0.00000E+00
         0.00000E+00
         0.00000E+00
         0.00000E+00
         0.00000E+00
         0.00000E+00
         0.00000E+00
         0.00000E+00
         0.00000E+00
         0.00000E+00
         0.00000E+00
         0.00000E+00
         0.00000E+00
         0.00000E+00
         0.00000E+00
         0.00000E+00
         0.00000E+00
         0.00000E+00
         0.00000E+00
         0.00000E+00
         0.00000E+00
         0.00000E+00
         0.00000E+00
         0.00000E+00
         0.00000E+00
         0.00000E+00
         0.00000E+00
         0.00000E+00
         0.00000E+00
         0.00000E+00
         0.00000E+00
         0.00000E+00
         0.00000E+00
         0.00000E+00
         0.00000E+00
         0.00000E+00
         0.00000E+00
         0.00000E+00
         0.00000E+00
         0.00000E+00
         0.00000E+00
         0.00000E+00
         0.00000E+00
         0.00000E+00
         0.00000E+00
         0.00000E+00
         0.00000E+00
         0.00000E+00
         0.00000E+00
         0.00000E+00
         0.00000E+00
         0.00000E+00
         0.00000E+00
         0.00000E+00
         0.00000E+00
         0.00000E+00
         0.00000E+00
         0.00000E+00
         0.00000E+00
         0.00000E+00
         0.00000E+00
         0.00000E+00
         0.00000E+00
         0.00000E+00
         0.00000E+00
         0.00000E+00
         0.00000E+00
         0.00000E+00
         0.00000E+00
         0.00000E+00
         0.00000E+00
         0.00000E+00
         0.00000E+00
         0.00000E+00
         0.00000E+00
         0.00000E+00
         0.00000E+00
         0.00000E+00
         0.00000E+00
         0.00000E+00
         0.00000E+00
         0.00000E+00
         0.00000E+00
         0.00000E+00
         0.00000E+00
         0.00000E+00
         0.00000E+00
         0.00000E+00
         0.00000E+00
         0.00000E+00
         0.00000E+00
         0.00000E+00
         0.00000E+00
         0.00000E+00
         0.00000E+00
         0.00000E+00
         0.00000E+00
         0.00000E+00
         0.00000E+00
         0.00000E+00
         0.00000E+00
         0.00000E+00
         0.00000E+00
         0.00000E+00
         0.00000E+00
         0.00000E+00
         0.00000E+00
         0.00000E+00
         0.00000E+00
         0.00000E+00
         0.00000E+00
         0.00000E+00
         0.00000E+00
         0.00000E+00
         0.00000E+00
         0.00000E+00
         0.00000E+00
         0.00000E+00
         0.00000E+00
         0.00000E+00
         0.00000E+00
         0.00000E+00
         0.00000E+00
         0.00000E+00
         0.00000E+00
         0.00000E+00
         0.00000E+00
         0.00000E+00
         0.00000E+00
         0.00000E+00
         0.00000E+00
         0.00000E+00
         0.00000E+00
         0.00000E+00
         0.00000E+00
         0.00000E+00
         0.00000E+00
         0.00000E+00
         0.00000E+00
         0.00000E+00
         0.00000E+00
         0.00000E+00
         0.00000E+00
         0.00000E+00
         0.00000E+00
         0.00000E+00
         0.00000E+00
         0.00000E+00
         0.00000E+00
         0.00000E+00
         0.00000E+00
         0.00000E+00
         0.00000E+00
         0.00000E+00
         0.00000E+00
         0.00000E+00
         0.00000E+00
         0.00000E+00
         0.00000E+00
         0.00000E+00
         0.00000E+00
         0.00000E+00
         0.00000E+00
         0.00000E+00
         0.00000E+00
         0.00000E+00
         0.00000E+00
         0.00000E+00
         0.00000E+00
         0.00000E+00
         0.00000E+00
         0.00000E+00
         0.00000E+00
         0.00000E+00
         0.00000E+00
         0.00000E+00
         0.00000E+00
         0.00000E+00
         0.00000E+00
         0.00000E+00
         0.00000E+00
         0.00000E+00
         0.00000E+00
         0.00000E+00
         0.00000E+00
         0.00000E+00
         0.00000E+00
         0.00000E+00
         0.00000E+00
         0.00000E+00
         0.00000E+00
         0.00000E+00
         0.00000E+00
         0.00000E+00
         0.00000E+00
         0.00000E+00
         0.00000E+00
         0.00000E+00
         0.00000E+00
         0.00000E+00
         0.00000E+00
         0.00000E+00
         0.00000E+00
         0.00000E+00
         0.00000E+00
         0.00000E+00
         0.00000E+00
         0.00000E+00
         0.00000E+00
         0.00000E+00
         0.00000E+00
         0.00000E+00
         0.00000E+00
         0.00000E+00
         0.00000E+00
         0.00000E+00
         0.00000E+00
         0.00000E+00
         0.00000E+00
         0.00000E+00
         0.00000E+00
         0.00000E+00
         0.00000E+00
         0.00000E+00
         0.00000E+00
         0.00000E+00
         0.00000E+00
         0.00000E+00
         0.00000E+00
         0.00000E+00
         0.00000E+00
         0.00000E+00
         0.00000E+00
         0.00000E+00
         0.00000E+00
         0.00000E+00
         0.00000E+00
         0.00000E+00
         0.00000E+00
         0.00000E+00
         0.00000E+00
         0.00000E+00
         0.00000E+00
         0.00000E+00
         0.00000E+00
         0.00000E+00
         0.00000E+00
         0.00000E+00
         0.00000E+00
         0.00000E+00
         0.00000E+00
         0.00000E+00
         0.00000E+00
         0.00000E+00
         0.00000E+00
         0.00000E+00
         0.00000E+00
         0.00000E+00
         0.00000E+00
         0.00000E+00
         0.00000E+00
         0.00000E+00
         0.00000E+00
         0.00000E+00
         0.00000E+00
         0.00000E+00
         0.00000E+00
         0.00000E+00
         0.00000E+00
         0.00000E+00
         0.00000E+00
         0.00000E+00
         0.00000E+00
         0.00000E+00
         0.00000E+00
         0.00000E+00
         0.00000E+00
         0.00000E+00
         0.00000E+00
         0.00000E+00
         0.00000E+00
         0.00000E+00
         0.00000E+00
         0.00000E+00
         0.00000E+00
         0.00000E+00
         0.00000E+00
         0.00000E+00
         0.00000E+00
         0.00000E+00
         0.00000E+00
         0.00000E+00
         0.00000E+00
         0.00000E+00
         0.00000E+00
         0.00000E+00
         0.00000E+00
         0.00000E+00
         0.00000E+00
         0.00000E+00
         0.00000E+00
         0.00000E+00
         0.00000E+00
         0.00000E+00
         0.00000E+00
         0.00000E+00
         0.00000E+00
         0.00000E+00
         0.00000E+00
         0.00000E+00
         0.00000E+00
         0.00000E+00
         0.00000E+00
         0.00000E+00
         0.00000E+00
         0.00000E+00
         0.00000E+00
         0.00000E+00
         0.00000E+00
         0.00000E+00
         0.00000E+00
         0.00000E+00
         0.00000E+00
         0.00000E+00
         0.00000E+00
         0.00000E+00
         0.00000E+00
         0.00000E+00
         0.00000E+00
         0.00000E+00
         0.00000E+00
         0.00000E+00
         0.00000E+00
         0.00000E+00
         0.00000E+00
         0.00000E+00
         0.00000E+00
         0.00000E+00
         0.00000E+00
         0.00000E+00
         0.00000E+00
         0.00000E+00
         0.00000E+00
         0.00000E+00
         0.00000E+00
         0.00000E+00
         0.00000E+00
         0.00000E+00
         0.00000E+00
         0.00000E+00
         0.00000E+00
         0.00000E+00
         0.00000E+00
         0.00000E+00
         0.00000E+00
         0.00000E+00
         0.00000E+00
         0.00000E+00
         0.00000E+00
         0.00000E+00
         0.00000E+00
         0.00000E+00
         0.00000E+00
         0.00000E+00
         0.00000E+00
         0.00000E+00
         0.00000E+00
         0.00000E+00
         0.00000E+00
         0.00000E+00
         0.00000E+00
         0.00000E+00
         0.00000E+00
         0.00000E+00
         0.00000E+00
         0.00000E+00
         0.00000E+00
         0.00000E+00
         0.00000E+00
         0.00000E+00
         0.00000E+00
         0.00000E+00
         0.00000E+00
         0.00000E+00
         0.00000E+00
         0.00000E+00
         0.00000E+00
         0.00000E+00
         0.00000E+00
         0.00000E+00
         0.00000E+00
         0.00000E+00
         0.00000E+00
         0.00000E+00
         0.00000E+00
         0.00000E+00
         0.00000E+00
         0.00000E+00
         0.00000E+00
         0.00000E+00
         0.00000E+00
         0.00000E+00
         0.00000E+00
         0.00000E+00
         0.00000E+00
         0.00000E+00
         0.00000E+00
         0.00000E+00
         0.00000E+00
         0.00000E+00
         0.00000E+00
         0.00000E+00
         0.00000E+00
         0.00000E+00
         0.00000E+00
         0.00000E+00
         0.00000E+00
         0.00000E+00
         0.00000E+00
         0.00000E+00
         0.00000E+00
         0.00000E+00
         0.00000E+00
         0.00000E+00
         0.00000E+00
         0.00000E+00
         0.00000E+00
         0.00000E+00
         0.00000E+00
         0.00000E+00
         0.00000E+00
         0.00000E+00
         0.00000E+00
         0.00000E+00
         0.00000E+00
         0.00000E+00
         0.00000E+00
         0.00000E+00
         0.00000E+00
         0.00000E+00
         0.00000E+00
         0.00000E+00
         0.00000E+00
         0.00000E+00
         0.00000E+00
         0.00000E+00
         0.00000E+00
         0.00000E+00
         0.00000E+00
         0.00000E+00
         0.00000E+00
         0.00000E+00
         0.00000E+00
         0.00000E+00
         0.00000E+00
         0.00000E+00
         0.00000E+00
         0.00000E+00
         0.00000E+00
         0.00000E+00
         0.00000E+00
         0.00000E+00
         0.00000E+00
         0.00000E+00
         0.00000E+00
         0.00000E+00
         0.00000E+00
         0.00000E+00
         0.00000E+00
         0.00000E+00
         0.00000E+00
         0.00000E+00
         0.00000E+00
         0.00000E+00
         0.00000E+00
         0.00000E+00
         0.00000E+00
         0.00000E+00
         0.00000E+00
         0.00000E+00
         0.00000E+00
         0.00000E+00
         0.00000E+00
         0.00000E+00
         0.00000E+00
         0.00000E+00
         0.00000E+00
         0.00000E+00
         0.00000E+00
         0.00000E+00
         0.00000E+00
         0.00000E+00
         0.00000E+00
         0.00000E+00
         0.00000E+00
         0.00000E+00
         0.00000E+00
         0.00000E+00
         0.00000E+00
         0.00000E+00
         0.00000E+00
         0.00000E+00
         0.00000E+00
         0.00000E+00
         0.00000E+00
         0.00000E+00
         0.00000E+00
         0.00000E+00
         0.00000E+00
         0.00000E+00
         0.00000E+00
         0.00000E+00
         0.00000E+00
         0.00000E+00
         0.00000E+00
         0.00000E+00
         0.00000E+00
         0.00000E+00
         0.00000E+00
         0.00000E+00
         0.00000E+00
         0.00000E+00
         0.00000E+00
         0.00000E+00
         0.00000E+00
         0.00000E+00
         0.00000E+00
         0.00000E+00
         0.00000E+00
         0.00000E+00
         0.00000E+00
         0.00000E+00
         0.00000E+00
         0.00000E+00
         0.00000E+00
         0.00000E+00
         0.00000E+00
         0.00000E+00
         0.00000E+00
         0.00000E+00
         0.00000E+00
         0.00000E+00
         0.00000E+00
         0.00000E+00
         0.00000E+00
         0.00000E+00
         0.00000E+00
         0.00000E+00
         0.00000E+00
         0.00000E+00
         0.00000E+00
         0.00000E+00
         0.00000E+00
         0.00000E+00
         0.00000E+00
         0.00000E+00
  
SCALARS               pre_disp_force_z  double 1
LOOKUP_TABLE default
         0.00000E+00
         0.00000E+00
         0.00000E+00
         0.00000E+00
        -0.00000E+00
        -0.00000E+00
        -0.00000E+00
        -0.00000E+00
         0.00000E+00
         0.00000E+00
        -0.00000E+00
        -0.00000E+00
         0.00000E+00
         0.00000E+00
        -0.00000E+00
        -0.00000E+00
         0.00000E+00
         0.00000E+00
        -0.00000E+00
        -0.00000E+00
         0.00000E+00
         0.00000E+00
         0.00000E+00
        -0.00000E+00
        -0.00000E+00
        -0.00000E+00
         0.00000E+00
         0.00000E+00
        -0.00000E+00
        -0.00000E+00
         0.00000E+00
         0.00000E+00
         0.00000E+00
        -0.00000E+00
        -0.00000E+00
        -0.00000E+00
         0.00000E+00
         0.00000E+00
        -0.00000E+00
        -0.00000E+00
         0.00000E+00
         0.00000E+00
        -0.00000E+00
        -0.00000E+00
         0.00000E+00
         0.00000E+00
        -0.00000E+00
        -0.00000E+00
         0.00000E+00
        -0.00000E+00
         0.00000E+00
        -0.00000E+00
         0.00000E+00
        -0.00000E+00
         0.00000E+00
        -0.00000E+00
         0.00000E+00
         0.00000E+00
        -0.00000E+00
        -0.00000E+00
         0.00000E+00
         0.00000E+00
        -0.00000E+00
        -0.00000E+00
         0.00000E+00
        -0.00000E+00
         0.00000E+00
        -0.00000E+00
         0.00000E+00
         0.00000E+00
        -0.00000E+00
        -0.00000E+00
         0.00000E+00
        -0.00000E+00
         0.00000E+00
        -0.00000E+00
         0.00000E+00
        -0.00000E+00
         0.00000E+00
        -0.00000E+00
         0.00000E+00
         0.00000E+00
        -0.00000E+00
        -0.00000E+00
         0.00000E+00
        -0.00000E+00
         0.00000E+00
        -0.00000E+00
         0.00000E+00
        -0.00000E+00
         0.00000E+00
         0.00000E+00
        -0.00000E+00
        -0.00000E+00
         0.00000E+00
        -0.00000E+00
         0.00000E+00
        -0.00000E+00
         0.00000E+00
        -0.00000E+00
         0.00000E+00
         0.00000E+00
        -0.00000E+00
        -0.00000E+00
         0.00000E+00
         0.00000E+00
        -0.00000E+00
        -0.00000E+00
         0.00000E+00
        -0.00000E+00
         0.00000E+00
        -0.00000E+00
         0.00000E+00
        -0.00000E+00
         0.00000E+00
        -0.00000E+00
         0.00000E+00
        -0.00000E+00
         0.00000E+00
        -0.00000E+00
         0.00000E+00
        -0.00000E+00
         0.00000E+00
        -0.00000E+00
         0.00000E+00
        -0.00000E+00
         0.00000E+00
        -0.00000E+00
         0.00000E+00
        -0.00000E+00
         0.00000E+00
        -0.00000E+00
         0.00000E+00
        -0.00000E+00
         0.00000E+00
        -0.00000E+00
         0.00000E+00
        -0.00000E+00
         0.00000E+00
        -0.00000E+00
         0.00000E+00
        -0.00000E+00
         0.00000E+00
        -0.00000E+00
         0.00000E+00
        -0.00000E+00
         0.00000E+00
        -0.00000E+00
         0.00000E+00
        -0.00000E+00
         0.00000E+00
        -0.00000E+00
         0.00000E+00
        -0.00000E+00
         0.00000E+00
        -0.00000E+00
         0.00000E+00
         0.00000E+00
         0.00000E+00
         0.00000E+00
         0.00000E+00
         0.00000E+00
         0.00000E+00
         0.00000E+00
         0.00000E+00
         0.00000E+00
         0.00000E+00
         0.00000E+00
         0.00000E+00
         0.00000E+00
         0.00000E+00
         0.00000E+00
         0.00000E+00
         0.00000E+00
         0.00000E+00
         0.00000E+00
         0.00000E+00
         0.00000E+00
         0.00000E+00
         0.00000E+00
         0.00000E+00
         0.00000E+00
         0.00000E+00
         0.00000E+00
         0.00000E+00
         0.00000E+00
         0.00000E+00
         0.00000E+00
         0.00000E+00
         0.00000E+00
         0.00000E+00
         0.00000E+00
         0.00000E+00
         0.00000E+00
         0.00000E+00
         0.00000E+00
         0.00000E+00
         0.00000E+00
         0.00000E+00
         0.00000E+00
         0.00000E+00
         0.00000E+00
         0.00000E+00
         0.00000E+00
         0.00000E+00
         0.00000E+00
         0.00000E+00
         0.00000E+00
         0.00000E+00
         0.00000E+00
         0.00000E+00
         0.00000E+00
         0.00000E+00
         0.00000E+00
         0.00000E+00
         0.00000E+00
         0.00000E+00
         0.00000E+00
         0.00000E+00
         0.00000E+00
         0.00000E+00
         0.00000E+00
         0.00000E+00
         0.00000E+00
         0.00000E+00
         0.00000E+00
         0.00000E+00
         0.00000E+00
         0.00000E+00
         0.00000E+00
         0.00000E+00
         0.00000E+00
         0.00000E+00
         0.00000E+00
         0.00000E+00
         0.00000E+00
         0.00000E+00
         0.00000E+00
         0.00000E+00
         0.00000E+00
         0.00000E+00
         0.00000E+00
         0.00000E+00
         0.00000E+00
         0.00000E+00
         0.00000E+00
         0.00000E+00
         0.00000E+00
         0.00000E+00
         0.00000E+00
         0.00000E+00
         0.00000E+00
         0.00000E+00
         0.00000E+00
         0.00000E+00
         0.00000E+00
         0.00000E+00
         0.00000E+00
         0.00000E+00
         0.00000E+00
         0.00000E+00
         0.00000E+00
         0.00000E+00
         0.00000E+00
         0.00000E+00
         0.00000E+00
         0.00000E+00
         0.00000E+00
         0.00000E+00
         0.00000E+00
         0.00000E+00
         0.00000E+00
         0.00000E+00
         0.00000E+00
         0.00000E+00
         0.00000E+00
         0.00000E+00
         0.00000E+00
         0.00000E+00
         0.00000E+00
         0.00000E+00
         0.00000E+00
         0.00000E+00
         0.00000E+00
         0.00000E+00
         0.00000E+00
         0.00000E+00
         0.00000E+00
         0.00000E+00
         0.00000E+00
         0.00000E+00
         0.00000E+00
         0.00000E+00
         0.00000E+00
         0.00000E+00
         0.00000E+00
         0.00000E+00
         0.00000E+00
         0.00000E+00
         0.00000E+00
         0.00000E+00
         0.00000E+00
         0.00000E+00
         0.00000E+00
         0.00000E+00
         0.00000E+00
         0.00000E+00
         0.00000E+00
         0.00000E+00
         0.00000E+00
         0.00000E+00
         0.00000E+00
         0.00000E+00
         0.00000E+00
         0.00000E+00
         0.00000E+00
         0.00000E+00
         0.00000E+00
         0.00000E+00
         0.00000E+00
         0.00000E+00
         0.00000E+00
         0.00000E+00
         0.00000E+00
         0.00000E+00
         0.00000E+00
         0.00000E+00
         0.00000E+00
         0.00000E+00
         0.00000E+00
         0.00000E+00
         0.00000E+00
         0.00000E+00
         0.00000E+00
         0.00000E+00
         0.00000E+00
         0.00000E+00
         0.00000E+00
         0.00000E+00
         0.00000E+00
         0.00000E+00
         0.00000E+00
         0.00000E+00
         0.00000E+00
         0.00000E+00
         0.00000E+00
         0.00000E+00
         0.00000E+00
         0.00000E+00
         0.00000E+00
         0.00000E+00
         0.00000E+00
         0.00000E+00
         0.00000E+00
         0.00000E+00
         0.00000E+00
         0.00000E+00
         0.00000E+00
         0.00000E+00
         0.00000E+00
         0.00000E+00
         0.00000E+00
         0.00000E+00
         0.00000E+00
         0.00000E+00
         0.00000E+00
         0.00000E+00
         0.00000E+00
         0.00000E+00
         0.00000E+00
         0.00000E+00
         0.00000E+00
         0.00000E+00
         0.00000E+00
         0.00000E+00
         0.00000E+00
         0.00000E+00
         0.00000E+00
         0.00000E+00
         0.00000E+00
         0.00000E+00
         0.00000E+00
         0.00000E+00
         0.00000E+00
         0.00000E+00
         0.00000E+00
         0.00000E+00
         0.00000E+00
         0.00000E+00
         0.00000E+00
         0.00000E+00
         0.00000E+00
         0.00000E+00
         0.00000E+00
         0.00000E+00
         0.00000E+00
         0.00000E+00
         0.00000E+00
         0.00000E+00
         0.00000E+00
         0.00000E+00
         0.00000E+00
         0.00000E+00
         0.00000E+00
         0.00000E+00
         0.00000E+00
         0.00000E+00
         0.00000E+00
         0.00000E+00
         0.00000E+00
         0.00000E+00
         0.00000E+00
         0.00000E+00
         0.00000E+00
         0.00000E+00
         0.00000E+00
         0.00000E+00
         0.00000E+00
         0.00000E+00
         0.00000E+00
         0.00000E+00
         0.00000E+00
         0.00000E+00
         0.00000E+00
         0.00000E+00
         0.00000E+00
         0.00000E+00
         0.00000E+00
         0.00000E+00
         0.00000E+00
         0.00000E+00
         0.00000E+00
         0.00000E+00
         0.00000E+00
         0.00000E+00
         0.00000E+00
         0.00000E+00
         0.00000E+00
         0.00000E+00
         0.00000E+00
         0.00000E+00
         0.00000E+00
         0.00000E+00
         0.00000E+00
         0.00000E+00
         0.00000E+00
         0.00000E+00
         0.00000E+00
         0.00000E+00
         0.00000E+00
         0.00000E+00
         0.00000E+00
         0.00000E+00
         0.00000E+00
         0.00000E+00
         0.00000E+00
         0.00000E+00
         0.00000E+00
         0.00000E+00
         0.00000E+00
         0.00000E+00
         0.00000E+00
         0.00000E+00
         0.00000E+00
         0.00000E+00
         0.00000E+00
         0.00000E+00
         0.00000E+00
         0.00000E+00
         0.00000E+00
         0.00000E+00
         0.00000E+00
         0.00000E+00
         0.00000E+00
         0.00000E+00
         0.00000E+00
         0.00000E+00
         0.00000E+00
         0.00000E+00
         0.00000E+00
         0.00000E+00
         0.00000E+00
         0.00000E+00
         0.00000E+00
         0.00000E+00
         0.00000E+00
         0.00000E+00
         0.00000E+00
         0.00000E+00
         0.00000E+00
         0.00000E+00
         0.00000E+00
         0.00000E+00
         0.00000E+00
         0.00000E+00
         0.00000E+00
         0.00000E+00
         0.00000E+00
         0.00000E+00
         0.00000E+00
         0.00000E+00
         0.00000E+00
         0.00000E+00
         0.00000E+00
         0.00000E+00
         0.00000E+00
         0.00000E+00
         0.00000E+00
         0.00000E+00
         0.00000E+00
         0.00000E+00
         0.00000E+00
         0.00000E+00
         0.00000E+00
         0.00000E+00
         0.00000E+00
         0.00000E+00
         0.00000E+00
         0.00000E+00
         0.00000E+00
         0.00000E+00
         0.00000E+00
         0.00000E+00
         0.00000E+00
         0.00000E+00
         0.00000E+00
         0.00000E+00
         0.00000E+00
         0.00000E+00
         0.00000E+00
         0.00000E+00
         0.00000E+00
         0.00000E+00
         0.00000E+00
         0.00000E+00
         0.00000E+00
         0.00000E+00
         0.00000E+00
         0.00000E+00
         0.00000E+00
         0.00000E+00
         0.00000E+00
         0.00000E+00
         0.00000E+00
         0.00000E+00
         0.00000E+00
         0.00000E+00
         0.00000E+00
         0.00000E+00
         0.00000E+00
         0.00000E+00
         0.00000E+00
         0.00000E+00
         0.00000E+00
         0.00000E+00
         0.00000E+00
         0.00000E+00
         0.00000E+00
         0.00000E+00
         0.00000E+00
         0.00000E+00
         0.00000E+00
         0.00000E+00
         0.00000E+00
         0.00000E+00
         0.00000E+00
         0.00000E+00
         0.00000E+00
         0.00000E+00
         0.00000E+00
         0.00000E+00
         0.00000E+00
         0.00000E+00
         0.00000E+00
         0.00000E+00
         0.00000E+00
         0.00000E+00
         0.00000E+00
         0.00000E+00
         0.00000E+00
         0.00000E+00
         0.00000E+00
         0.00000E+00
         0.00000E+00
         0.00000E+00
         0.00000E+00
         0.00000E+00
         0.00000E+00
         0.00000E+00
         0.00000E+00
         0.00000E+00
         0.00000E+00
         0.00000E+00
         0.00000E+00
         0.00000E+00
         0.00000E+00
         0.00000E+00
         0.00000E+00
         0.00000E+00
         0.00000E+00
         0.00000E+00
         0.00000E+00
         0.00000E+00
         0.00000E+00
         0.00000E+00
         0.00000E+00
         0.00000E+00
         0.00000E+00
         0.00000E+00
         0.00000E+00
         0.00000E+00
         0.00000E+00
         0.00000E+00
         0.00000E+00
         0.00000E+00
         0.00000E+00
         0.00000E+00
         0.00000E+00
         0.00000E+00
         0.00000E+00
         0.00000E+00
         0.00000E+00
         0.00000E+00
         0.00000E+00
         0.00000E+00
         0.00000E+00
         0.00000E+00
         0.00000E+00
         0.00000E+00
         0.00000E+00
         0.00000E+00
         0.00000E+00
         0.00000E+00
         0.00000E+00
         0.00000E+00
         0.00000E+00
         0.00000E+00
         0.00000E+00
         0.00000E+00
         0.00000E+00
         0.00000E+00
         0.00000E+00
         0.00000E+00
         0.00000E+00
         0.00000E+00
         0.00000E+00
         0.00000E+00
         0.00000E+00
         0.00000E+00
         0.00000E+00
         0.00000E+00
         0.00000E+00
         0.00000E+00
         0.00000E+00
         0.00000E+00
         0.00000E+00
         0.00000E+00
         0.00000E+00
         0.00000E+00
         0.00000E+00
         0.00000E+00
         0.00000E+00
         0.00000E+00
         0.00000E+00
         0.00000E+00
         0.00000E+00
         0.00000E+00
         0.00000E+00
         0.00000E+00
         0.00000E+00
         0.00000E+00
         0.00000E+00
         0.00000E+00
         0.00000E+00
         0.00000E+00
         0.00000E+00
         0.00000E+00
         0.00000E+00
         0.00000E+00
         0.00000E+00
         0.00000E+00
         0.00000E+00
         0.00000E+00
         0.00000E+00
         0.00000E+00
         0.00000E+00
         0.00000E+00
         0.00000E+00
         0.00000E+00
         0.00000E+00
         0.00000E+00
         0.00000E+00
         0.00000E+00
         0.00000E+00
         0.00000E+00
         0.00000E+00
         0.00000E+00
         0.00000E+00
         0.00000E+00
         0.00000E+00
         0.00000E+00
         0.00000E+00
         0.00000E+00
         0.00000E+00
         0.00000E+00
         0.00000E+00
         0.00000E+00
         0.00000E+00
         0.00000E+00
         0.00000E+00
         0.00000E+00
         0.00000E+00
         0.00000E+00
         0.00000E+00
         0.00000E+00
         0.00000E+00
         0.00000E+00
         0.00000E+00
         0.00000E+00
         0.00000E+00
         0.00000E+00
         0.00000E+00
         0.00000E+00
         0.00000E+00
         0.00000E+00
         0.00000E+00
         0.00000E+00
         0.00000E+00
         0.00000E+00
         0.00000E+00
         0.00000E+00
         0.00000E+00
         0.00000E+00
         0.00000E+00
         0.00000E+00
         0.00000E+00
         0.00000E+00
         0.00000E+00
         0.00000E+00
         0.00000E+00
         0.00000E+00
         0.00000E+00
         0.00000E+00
         0.00000E+00
         0.00000E+00
         0.00000E+00
         0.00000E+00
         0.00000E+00
         0.00000E+00
         0.00000E+00
         0.00000E+00
         0.00000E+00
         0.00000E+00
         0.00000E+00
         0.00000E+00
         0.00000E+00
         0.00000E+00
         0.00000E+00
         0.00000E+00
         0.00000E+00
         0.00000E+00
         0.00000E+00
         0.00000E+00
         0.00000E+00
         0.00000E+00
         0.00000E+00
         0.00000E+00
         0.00000E+00
         0.00000E+00
         0.00000E+00
         0.00000E+00
         0.00000E+00
         0.00000E+00
         0.00000E+00
         0.00000E+00
         0.00000E+00
         0.00000E+00
         0.00000E+00
         0.00000E+00
         0.00000E+00
         0.00000E+00
         0.00000E+00
         0.00000E+00
         0.00000E+00
         0.00000E+00
         0.00000E+00
         0.00000E+00
         0.00000E+00
         0.00000E+00
         0.00000E+00
         0.00000E+00
         0.00000E+00
         0.00000E+00
         0.00000E+00
         0.00000E+00
         0.00000E+00
         0.00000E+00
         0.00000E+00
         0.00000E+00
         0.00000E+00
         0.00000E+00
         0.00000E+00
         0.00000E+00
         0.00000E+00
         0.00000E+00
         0.00000E+00
         0.00000E+00
         0.00000E+00
         0.00000E+00
         0.00000E+00
         0.00000E+00
         0.00000E+00
         0.00000E+00
         0.00000E+00
         0.00000E+00
         0.00000E+00
         0.00000E+00
         0.00000E+00
         0.00000E+00
         0.00000E+00
         0.00000E+00
         0.00000E+00
         0.00000E+00
         0.00000E+00
         0.00000E+00
         0.00000E+00
         0.00000E+00
         0.00000E+00
         0.00000E+00
         0.00000E+00
         0.00000E+00
         0.00000E+00
         0.00000E+00
         0.00000E+00
         0.00000E+00
         0.00000E+00
         0.00000E+00
         0.00000E+00
         0.00000E+00
         0.00000E+00
         0.00000E+00
         0.00000E+00
         0.00000E+00
         0.00000E+00
         0.00000E+00
         0.00000E+00
         0.00000E+00
         0.00000E+00
         0.00000E+00
         0.00000E+00
         0.00000E+00
         0.00000E+00
         0.00000E+00
         0.00000E+00
         0.00000E+00
         0.00000E+00
         0.00000E+00
         0.00000E+00
         0.00000E+00
         0.00000E+00
         0.00000E+00
         0.00000E+00
         0.00000E+00
         0.00000E+00
         0.00000E+00
         0.00000E+00
         0.00000E+00
         0.00000E+00
         0.00000E+00
         0.00000E+00
         0.00000E+00
         0.00000E+00
         0.00000E+00
         0.00000E+00
         0.00000E+00
         0.00000E+00
         0.00000E+00
         0.00000E+00
         0.00000E+00
         0.00000E+00
         0.00000E+00
         0.00000E+00
         0.00000E+00
         0.00000E+00
         0.00000E+00
         0.00000E+00
         0.00000E+00
         0.00000E+00
         0.00000E+00
         0.00000E+00
         0.00000E+00
         0.00000E+00
         0.00000E+00
         0.00000E+00
         0.00000E+00
         0.00000E+00
         0.00000E+00
         0.00000E+00
         0.00000E+00
         0.00000E+00
         0.00000E+00
         0.00000E+00
         0.00000E+00
         0.00000E+00
         0.00000E+00
         0.00000E+00
         0.00000E+00
         0.00000E+00
         0.00000E+00
         0.00000E+00
         0.00000E+00
         0.00000E+00
         0.00000E+00
         0.00000E+00
         0.00000E+00
         0.00000E+00
         0.00000E+00
         0.00000E+00
         0.00000E+00
         0.00000E+00
         0.00000E+00
         0.00000E+00
         0.00000E+00
         0.00000E+00
         0.00000E+00
         0.00000E+00
         0.00000E+00
         0.00000E+00
         0.00000E+00
         0.00000E+00
         0.00000E+00
         0.00000E+00
         0.00000E+00
         0.00000E+00
         0.00000E+00
         0.00000E+00
         0.00000E+00
         0.00000E+00
         0.00000E+00
         0.00000E+00
         0.00000E+00
         0.00000E+00
         0.00000E+00
         0.00000E+00
         0.00000E+00
         0.00000E+00
         0.00000E+00
         0.00000E+00
         0.00000E+00
         0.00000E+00
         0.00000E+00
         0.00000E+00
         0.00000E+00
         0.00000E+00
         0.00000E+00
         0.00000E+00
         0.00000E+00
         0.00000E+00
         0.00000E+00
         0.00000E+00
         0.00000E+00
         0.00000E+00
         0.00000E+00
         0.00000E+00
         0.00000E+00
         0.00000E+00
         0.00000E+00
         0.00000E+00
         0.00000E+00
         0.00000E+00
         0.00000E+00
         0.00000E+00
         0.00000E+00
         0.00000E+00
         0.00000E+00
         0.00000E+00
         0.00000E+00
         0.00000E+00
         0.00000E+00
         0.00000E+00
         0.00000E+00
         0.00000E+00
         0.00000E+00
         0.00000E+00
         0.00000E+00
         0.00000E+00
         0.00000E+00
         0.00000E+00
         0.00000E+00
         0.00000E+00
         0.00000E+00
         0.00000E+00
         0.00000E+00
         0.00000E+00
         0.00000E+00
         0.00000E+00
         0.00000E+00
         0.00000E+00
         0.00000E+00
         0.00000E+00
         0.00000E+00
         0.00000E+00
         0.00000E+00
         0.00000E+00
         0.00000E+00
         0.00000E+00
         0.00000E+00
         0.00000E+00
         0.00000E+00
         0.00000E+00
         0.00000E+00
         0.00000E+00
         0.00000E+00
         0.00000E+00
         0.00000E+00
         0.00000E+00
         0.00000E+00
         0.00000E+00
         0.00000E+00
         0.00000E+00
         0.00000E+00
         0.00000E+00
         0.00000E+00
         0.00000E+00
         0.00000E+00
         0.00000E+00
         0.00000E+00
         0.00000E+00
         0.00000E+00
         0.00000E+00
         0.00000E+00
         0.00000E+00
         0.00000E+00
         0.00000E+00
         0.00000E+00
         0.00000E+00
         0.00000E+00
         0.00000E+00
         0.00000E+00
         0.00000E+00
         0.00000E+00
         0.00000E+00
         0.00000E+00
         0.00000E+00
         0.00000E+00
         0.00000E+00
         0.00000E+00
         0.00000E+00
         0.00000E+00
         0.00000E+00
         0.00000E+00
         0.00000E+00
         0.00000E+00
         0.00000E+00
         0.00000E+00
         0.00000E+00
         0.00000E+00
         0.00000E+00
         0.00000E+00
         0.00000E+00
         0.00000E+00
         0.00000E+00
         0.00000E+00
         0.00000E+00
         0.00000E+00
         0.00000E+00
         0.00000E+00
         0.00000E+00
         0.00000E+00
         0.00000E+00
         0.00000E+00
         0.00000E+00
         0.00000E+00
         0.00000E+00
         0.00000E+00
         0.00000E+00
         0.00000E+00
         0.00000E+00
         0.00000E+00
         0.00000E+00
         0.00000E+00
         0.00000E+00
         0.00000E+00
         0.00000E+00
         0.00000E+00
         0.00000E+00
         0.00000E+00
         0.00000E+00
         0.00000E+00
         0.00000E+00
         0.00000E+00
         0.00000E+00
         0.00000E+00
         0.00000E+00
         0.00000E+00
         0.00000E+00
         0.00000E+00
         0.00000E+00
         0.00000E+00
         0.00000E+00
         0.00000E+00
         0.00000E+00
         0.00000E+00
         0.00000E+00
         0.00000E+00
         0.00000E+00
         0.00000E+00
         0.00000E+00
         0.00000E+00
         0.00000E+00
         0.00000E+00
         0.00000E+00
         0.00000E+00
         0.00000E+00
         0.00000E+00
         0.00000E+00
         0.00000E+00
         0.00000E+00
         0.00000E+00
         0.00000E+00
         0.00000E+00
         0.00000E+00
         0.00000E+00
         0.00000E+00
         0.00000E+00
         0.00000E+00
         0.00000E+00
         0.00000E+00
         0.00000E+00
         0.00000E+00
         0.00000E+00
         0.00000E+00
         0.00000E+00
         0.00000E+00
         0.00000E+00
         0.00000E+00
         0.00000E+00
         0.00000E+00
         0.00000E+00
         0.00000E+00
         0.00000E+00
         0.00000E+00
         0.00000E+00
         0.00000E+00
         0.00000E+00
         0.00000E+00
         0.00000E+00
         0.00000E+00
         0.00000E+00
         0.00000E+00
         0.00000E+00
         0.00000E+00
         0.00000E+00
         0.00000E+00
         0.00000E+00
         0.00000E+00
         0.00000E+00
         0.00000E+00
         0.00000E+00
         0.00000E+00
         0.00000E+00
         0.00000E+00
         0.00000E+00
         0.00000E+00
         0.00000E+00
         0.00000E+00
         0.00000E+00
         0.00000E+00
         0.00000E+00
         0.00000E+00
         0.00000E+00
         0.00000E+00
         0.00000E+00
         0.00000E+00
         0.00000E+00
         0.00000E+00
         0.00000E+00
         0.00000E+00
         0.00000E+00
         0.00000E+00
         0.00000E+00
         0.00000E+00
         0.00000E+00
         0.00000E+00
         0.00000E+00
         0.00000E+00
         0.00000E+00
         0.00000E+00
         0.00000E+00
         0.00000E+00
         0.00000E+00
         0.00000E+00
         0.00000E+00
         0.00000E+00
         0.00000E+00
         0.00000E+00
         0.00000E+00
         0.00000E+00
         0.00000E+00
         0.00000E+00
         0.00000E+00
         0.00000E+00
         0.00000E+00
         0.00000E+00
         0.00000E+00
         0.00000E+00
         0.00000E+00
         0.00000E+00
         0.00000E+00
         0.00000E+00
         0.00000E+00
         0.00000E+00
         0.00000E+00
         0.00000E+00
         0.00000E+00
         0.00000E+00
         0.00000E+00
         0.00000E+00
         0.00000E+00
         0.00000E+00
         0.00000E+00
         0.00000E+00
         0.00000E+00
         0.00000E+00
         0.00000E+00
         0.00000E+00
         0.00000E+00
         0.00000E+00
         0.00000E+00
         0.00000E+00
         0.00000E+00
         0.00000E+00
         0.00000E+00
         0.00000E+00
         0.00000E+00
         0.00000E+00
         0.00000E+00
         0.00000E+00
         0.00000E+00
         0.00000E+00
         0.00000E+00
         0.00000E+00
         0.00000E+00
         0.00000E+00
         0.00000E+00
         0.00000E+00
         0.00000E+00
         0.00000E+00
         0.00000E+00
         0.00000E+00
         0.00000E+00
         0.00000E+00
         0.00000E+00
         0.00000E+00
         0.00000E+00
         0.00000E+00
         0.00000E+00
         0.00000E+00
         0.00000E+00
         0.00000E+00
         0.00000E+00
         0.00000E+00
         0.00000E+00
         0.00000E+00
         0.00000E+00
         0.00000E+00
         0.00000E+00
         0.00000E+00
         0.00000E+00
         0.00000E+00
         0.00000E+00
         0.00000E+00
         0.00000E+00
         0.00000E+00
         0.00000E+00
         0.00000E+00
         0.00000E+00
         0.00000E+00
         0.00000E+00
         0.00000E+00
         0.00000E+00
         0.00000E+00
         0.00000E+00
         0.00000E+00
         0.00000E+00
         0.00000E+00
         0.00000E+00
         0.00000E+00
         0.00000E+00
         0.00000E+00
         0.00000E+00
         0.00000E+00
         0.00000E+00
         0.00000E+00
         0.00000E+00
         0.00000E+00
         0.00000E+00
         0.00000E+00
         0.00000E+00
         0.00000E+00
         0.00000E+00
         0.00000E+00
         0.00000E+00
         0.00000E+00
         0.00000E+00
         0.00000E+00
         0.00000E+00
         0.00000E+00
         0.00000E+00
         0.00000E+00
         0.00000E+00
         0.00000E+00
         0.00000E+00
         0.00000E+00
         0.00000E+00
         0.00000E+00
         0.00000E+00
         0.00000E+00
         0.00000E+00
         0.00000E+00
         0.00000E+00
         0.00000E+00
         0.00000E+00
         0.00000E+00
         0.00000E+00
         0.00000E+00
         0.00000E+00
         0.00000E+00
         0.00000E+00
         0.00000E+00
         0.00000E+00
         0.00000E+00
         0.00000E+00
         0.00000E+00
         0.00000E+00
         0.00000E+00
         0.00000E+00
         0.00000E+00
         0.00000E+00
         0.00000E+00
         0.00000E+00
         0.00000E+00
         0.00000E+00
         0.00000E+00
         0.00000E+00
         0.00000E+00
         0.00000E+00
         0.00000E+00
         0.00000E+00
         0.00000E+00
         0.00000E+00
         0.00000E+00
         0.00000E+00
         0.00000E+00
         0.00000E+00
         0.00000E+00
         0.00000E+00
         0.00000E+00
         0.00000E+00
         0.00000E+00
         0.00000E+00
         0.00000E+00
         0.00000E+00
         0.00000E+00
         0.00000E+00
         0.00000E+00
         0.00000E+00
         0.00000E+00
         0.00000E+00
         0.00000E+00
         0.00000E+00
         0.00000E+00
         0.00000E+00
         0.00000E+00
         0.00000E+00
         0.00000E+00
         0.00000E+00
         0.00000E+00
         0.00000E+00
         0.00000E+00
         0.00000E+00
         0.00000E+00
         0.00000E+00
         0.00000E+00
         0.00000E+00
         0.00000E+00
         0.00000E+00
         0.00000E+00
         0.00000E+00
         0.00000E+00
         0.00000E+00
         0.00000E+00
         0.00000E+00
         0.00000E+00
         0.00000E+00
         0.00000E+00
         0.00000E+00
         0.00000E+00
         0.00000E+00
         0.00000E+00
         0.00000E+00
         0.00000E+00
         0.00000E+00
         0.00000E+00
         0.00000E+00
         0.00000E+00
         0.00000E+00
         0.00000E+00
         0.00000E+00
         0.00000E+00
         0.00000E+00
         0.00000E+00
         0.00000E+00
         0.00000E+00
         0.00000E+00
         0.00000E+00
         0.00000E+00
         0.00000E+00
         0.00000E+00
         0.00000E+00
         0.00000E+00
         0.00000E+00
         0.00000E+00
         0.00000E+00
         0.00000E+00
         0.00000E+00
         0.00000E+00
         0.00000E+00
         0.00000E+00
         0.00000E+00
         0.00000E+00
         0.00000E+00
         0.00000E+00
         0.00000E+00
         0.00000E+00
         0.00000E+00
         0.00000E+00
         0.00000E+00
         0.00000E+00
         0.00000E+00
         0.00000E+00
         0.00000E+00
         0.00000E+00
         0.00000E+00
         0.00000E+00
         0.00000E+00
         0.00000E+00
         0.00000E+00
         0.00000E+00
         0.00000E+00
         0.00000E+00
         0.00000E+00
         0.00000E+00
         0.00000E+00
         0.00000E+00
         0.00000E+00
         0.00000E+00
         0.00000E+00
         0.00000E+00
         0.00000E+00
         0.00000E+00
         0.00000E+00
         0.00000E+00
         0.00000E+00
         0.00000E+00
         0.00000E+00
         0.00000E+00
         0.00000E+00
         0.00000E+00
         0.00000E+00
         0.00000E+00
         0.00000E+00
         0.00000E+00
         0.00000E+00
         0.00000E+00
         0.00000E+00
         0.00000E+00
         0.00000E+00
         0.00000E+00
         0.00000E+00
         0.00000E+00
         0.00000E+00
         0.00000E+00
         0.00000E+00
         0.00000E+00
         0.00000E+00
         0.00000E+00
         0.00000E+00
         0.00000E+00
         0.00000E+00
         0.00000E+00
         0.00000E+00
         0.00000E+00
         0.00000E+00
         0.00000E+00
         0.00000E+00
         0.00000E+00
         0.00000E+00
         0.00000E+00
         0.00000E+00
         0.00000E+00
         0.00000E+00
         0.00000E+00
         0.00000E+00
         0.00000E+00
         0.00000E+00
         0.00000E+00
         0.00000E+00
         0.00000E+00
         0.00000E+00
         0.00000E+00
         0.00000E+00
         0.00000E+00
         0.00000E+00
         0.00000E+00
         0.00000E+00
         0.00000E+00
         0.00000E+00
         0.00000E+00
         0.00000E+00
         0.00000E+00
         0.00000E+00
         0.00000E+00
         0.00000E+00
         0.00000E+00
         0.00000E+00
         0.00000E+00
         0.00000E+00
         0.00000E+00
         0.00000E+00
         0.00000E+00
         0.00000E+00
         0.00000E+00
         0.00000E+00
         0.00000E+00
         0.00000E+00
         0.00000E+00
         0.00000E+00
         0.00000E+00
         0.00000E+00
         0.00000E+00
         0.00000E+00
         0.00000E+00
         0.00000E+00
         0.00000E+00
         0.00000E+00
         0.00000E+00
         0.00000E+00
         0.00000E+00
         0.00000E+00
         0.00000E+00
         0.00000E+00
         0.00000E+00
         0.00000E+00
         0.00000E+00
         0.00000E+00
         0.00000E+00
         0.00000E+00
         0.00000E+00
         0.00000E+00
         0.00000E+00
         0.00000E+00
         0.00000E+00
         0.00000E+00
         0.00000E+00
         0.00000E+00
         0.00000E+00
         0.00000E+00
         0.00000E+00
         0.00000E+00
         0.00000E+00
         0.00000E+00
         0.00000E+00
         0.00000E+00
         0.00000E+00
         0.00000E+00
         0.00000E+00
         0.00000E+00
         0.00000E+00
         0.00000E+00
         0.00000E+00
         0.00000E+00
         0.00000E+00
         0.00000E+00
         0.00000E+00
         0.00000E+00
         0.00000E+00
         0.00000E+00
         0.00000E+00
         0.00000E+00
         0.00000E+00
         0.00000E+00
         0.00000E+00
         0.00000E+00
         0.00000E+00
         0.00000E+00
         0.00000E+00
         0.00000E+00
         0.00000E+00
         0.00000E+00
         0.00000E+00
         0.00000E+00
         0.00000E+00
         0.00000E+00
         0.00000E+00
         0.00000E+00
         0.00000E+00
         0.00000E+00
         0.00000E+00
         0.00000E+00
         0.00000E+00
         0.00000E+00
         0.00000E+00
         0.00000E+00
         0.00000E+00
         0.00000E+00
         0.00000E+00
         0.00000E+00
         0.00000E+00
         0.00000E+00
         0.00000E+00
         0.00000E+00
         0.00000E+00
         0.00000E+00
         0.00000E+00
         0.00000E+00
         0.00000E+00
         0.00000E+00
         0.00000E+00
         0.00000E+00
         0.00000E+00
         0.00000E+00
         0.00000E+00
         0.00000E+00
         0.00000E+00
         0.00000E+00
         0.00000E+00
         0.00000E+00
         0.00000E+00
         0.00000E+00
         0.00000E+00
         0.00000E+00
         0.00000E+00
         0.00000E+00
         0.00000E+00
         0.00000E+00
         0.00000E+00
         0.00000E+00
         0.00000E+00
         0.00000E+00
         0.00000E+00
         0.00000E+00
         0.00000E+00
         0.00000E+00
         0.00000E+00
         0.00000E+00
         0.00000E+00
         0.00000E+00
         0.00000E+00
         0.00000E+00
         0.00000E+00
         0.00000E+00
         0.00000E+00
         0.00000E+00
         0.00000E+00
         0.00000E+00
         0.00000E+00
         0.00000E+00
         0.00000E+00
         0.00000E+00
         0.00000E+00
         0.00000E+00
         0.00000E+00
         0.00000E+00
         0.00000E+00
         0.00000E+00
         0.00000E+00
         0.00000E+00
         0.00000E+00
         0.00000E+00
         0.00000E+00
         0.00000E+00
         0.00000E+00
         0.00000E+00
         0.00000E+00
         0.00000E+00
         0.00000E+00
         0.00000E+00
         0.00000E+00
         0.00000E+00
         0.00000E+00
         0.00000E+00
         0.00000E+00
         0.00000E+00
         0.00000E+00
         0.00000E+00
         0.00000E+00
         0.00000E+00
         0.00000E+00
         0.00000E+00
         0.00000E+00
         0.00000E+00
         0.00000E+00
         0.00000E+00
         0.00000E+00
         0.00000E+00
         0.00000E+00
         0.00000E+00
         0.00000E+00
         0.00000E+00
         0.00000E+00
         0.00000E+00
         0.00000E+00
         0.00000E+00
         0.00000E+00
         0.00000E+00
         0.00000E+00
         0.00000E+00
         0.00000E+00
         0.00000E+00
         0.00000E+00
         0.00000E+00
         0.00000E+00
         0.00000E+00
         0.00000E+00
         0.00000E+00
         0.00000E+00
         0.00000E+00
         0.00000E+00
         0.00000E+00
         0.00000E+00
         0.00000E+00
         0.00000E+00
         0.00000E+00
         0.00000E+00
         0.00000E+00
         0.00000E+00
         0.00000E+00
         0.00000E+00
         0.00000E+00
         0.00000E+00
         0.00000E+00
         0.00000E+00
         0.00000E+00
         0.00000E+00
         0.00000E+00
         0.00000E+00
         0.00000E+00
         0.00000E+00
         0.00000E+00
         0.00000E+00
         0.00000E+00
         0.00000E+00
         0.00000E+00
         0.00000E+00
         0.00000E+00
         0.00000E+00
         0.00000E+00
         0.00000E+00
         0.00000E+00
         0.00000E+00
         0.00000E+00
         0.00000E+00
         0.00000E+00
         0.00000E+00
         0.00000E+00
         0.00000E+00
         0.00000E+00
         0.00000E+00
         0.00000E+00
         0.00000E+00
         0.00000E+00
         0.00000E+00
         0.00000E+00
         0.00000E+00
         0.00000E+00
         0.00000E+00
         0.00000E+00
         0.00000E+00
         0.00000E+00
         0.00000E+00
         0.00000E+00
         0.00000E+00
         0.00000E+00
         0.00000E+00
         0.00000E+00
         0.00000E+00
         0.00000E+00
         0.00000E+00
         0.00000E+00
         0.00000E+00
         0.00000E+00
         0.00000E+00
         0.00000E+00
         0.00000E+00
         0.00000E+00
         0.00000E+00
         0.00000E+00
         0.00000E+00
         0.00000E+00
         0.00000E+00
         0.00000E+00
         0.00000E+00
         0.00000E+00
         0.00000E+00
         0.00000E+00
         0.00000E+00
         0.00000E+00
         0.00000E+00
         0.00000E+00
         0.00000E+00
         0.00000E+00
         0.00000E+00
         0.00000E+00
         0.00000E+00
         0.00000E+00
         0.00000E+00
         0.00000E+00
         0.00000E+00
         0.00000E+00
         0.00000E+00
         0.00000E+00
         0.00000E+00
         0.00000E+00
         0.00000E+00
         0.00000E+00
         0.00000E+00
         0.00000E+00
         0.00000E+00
         0.00000E+00
         0.00000E+00
         0.00000E+00
         0.00000E+00
         0.00000E+00
         0.00000E+00
         0.00000E+00
         0.00000E+00
         0.00000E+00
         0.00000E+00
         0.00000E+00
         0.00000E+00
         0.00000E+00
         0.00000E+00
         0.00000E+00
         0.00000E+00
         0.00000E+00
         0.00000E+00
         0.00000E+00
         0.00000E+00
         0.00000E+00
         0.00000E+00
         0.00000E+00
         0.00000E+00
         0.00000E+00
         0.00000E+00
         0.00000E+00
         0.00000E+00
         0.00000E+00
         0.00000E+00
         0.00000E+00
         0.00000E+00
         0.00000E+00
         0.00000E+00
         0.00000E+00
         0.00000E+00
         0.00000E+00
         0.00000E+00
         0.00000E+00
         0.00000E+00
         0.00000E+00
         0.00000E+00
         0.00000E+00
         0.00000E+00
         0.00000E+00
         0.00000E+00
         0.00000E+00
         0.00000E+00
         0.00000E+00
         0.00000E+00
         0.00000E+00
         0.00000E+00
         0.00000E+00
         0.00000E+00
         0.00000E+00
         0.00000E+00
         0.00000E+00
         0.00000E+00
         0.00000E+00
         0.00000E+00
         0.00000E+00
         0.00000E+00
         0.00000E+00
         0.00000E+00
         0.00000E+00
         0.00000E+00
         0.00000E+00
         0.00000E+00
         0.00000E+00
         0.00000E+00
         0.00000E+00
         0.00000E+00
         0.00000E+00
         0.00000E+00
         0.00000E+00
         0.00000E+00
         0.00000E+00
         0.00000E+00
         0.00000E+00
         0.00000E+00
         0.00000E+00
         0.00000E+00
         0.00000E+00
         0.00000E+00
         0.00000E+00
         0.00000E+00
         0.00000E+00
         0.00000E+00
         0.00000E+00
         0.00000E+00
         0.00000E+00
         0.00000E+00
         0.00000E+00
         0.00000E+00
         0.00000E+00
         0.00000E+00
         0.00000E+00
         0.00000E+00
         0.00000E+00
         0.00000E+00
         0.00000E+00
         0.00000E+00
         0.00000E+00
         0.00000E+00
         0.00000E+00
         0.00000E+00
         0.00000E+00
         0.00000E+00
         0.00000E+00
         0.00000E+00
         0.00000E+00
         0.00000E+00
         0.00000E+00
         0.00000E+00
         0.00000E+00
         0.00000E+00
         0.00000E+00
         0.00000E+00
         0.00000E+00
         0.00000E+00
         0.00000E+00
  
SCALARS                      stress_xx  double 1
LOOKUP_TABLE default
         0.30092E+11
         0.28964E+11
         0.29679E+11
         0.30963E+11
        -0.61389E+02
        -0.68838E+02
        -0.65915E+02
        -0.59881E+02
         0.28925E+11
         0.29306E+11
        -0.61903E+02
        -0.59906E+02
         0.27334E+11
         0.27274E+11
        -0.73553E+02
        -0.69159E+02
         0.30775E+11
         0.27362E+11
        -0.54348E+02
        -0.60281E+02
         0.26112E+11
         0.25144E+11
         0.26686E+11
        -0.72900E+02
        -0.63664E+02
        -0.65741E+02
         0.25182E+11
         0.23771E+11
        -0.69937E+02
        -0.58980E+02
         0.30713E+11
         0.29226E+11
         0.32157E+11
        -0.59681E+02
        -0.55483E+02
        -0.53943E+02
         0.29852E+11
         0.27961E+11
        -0.63140E+02
        -0.57616E+02
         0.29103E+11
         0.27645E+11
        -0.54571E+02
        -0.48311E+02
         0.30339E+11
         0.30889E+11
        -0.59802E+02
        -0.66820E+02
         0.26478E+11
        -0.58422E+02
         0.30781E+11
        -0.68648E+02
         0.24775E+11
        -0.61695E+02
         0.24331E+11
        -0.59178E+02
         0.24338E+11
         0.25916E+11
        -0.60296E+02
        -0.58722E+02
         0.30682E+11
         0.30110E+11
        -0.60461E+02
        -0.68351E+02
         0.31040E+11
        -0.58341E+02
         0.30360E+11
        -0.63672E+02
         0.28573E+11
         0.28395E+11
        -0.61291E+02
        -0.64221E+02
         0.27992E+11
        -0.64760E+02
         0.23270E+11
        -0.51165E+02
         0.23024E+11
        -0.49664E+02
         0.23146E+11
        -0.52366E+02
         0.23827E+11
         0.24537E+11
        -0.49892E+02
        -0.52016E+02
         0.25967E+11
        -0.48445E+02
         0.30310E+11
        -0.63530E+02
         0.29631E+11
        -0.65021E+02
         0.29074E+11
         0.28769E+11
        -0.62442E+02
        -0.63170E+02
         0.29145E+11
        -0.57377E+02
         0.29413E+11
        -0.56558E+02
         0.29171E+11
        -0.60547E+02
         0.29085E+11
         0.29330E+11
        -0.59375E+02
        -0.61117E+02
         0.27743E+11
         0.28386E+11
        -0.46099E+02
        -0.43358E+02
         0.27621E+11
        -0.44018E+02
         0.28363E+11
        -0.42206E+02
         0.27631E+11
        -0.41618E+02
         0.26012E+11
        -0.39330E+02
         0.24446E+11
        -0.34940E+02
         0.23511E+11
        -0.31461E+02
         0.23416E+11
        -0.31243E+02
         0.23445E+11
        -0.33881E+02
         0.24460E+11
        -0.35608E+02
         0.26360E+11
        -0.32514E+02
         0.28455E+11
        -0.29308E+02
         0.29684E+11
        -0.29275E+02
         0.30901E+11
        -0.32722E+02
         0.31707E+11
        -0.37310E+02
         0.31677E+11
        -0.40083E+02
         0.29723E+11
        -0.43289E+02
         0.28364E+11
        -0.46378E+02
         0.27897E+11
        -0.42485E+02
         0.28625E+11
        -0.37271E+02
         0.29005E+11
        -0.37156E+02
         0.28368E+11
        -0.40653E+02
         0.28378E+11
        -0.43339E+02
         0.28858E+11
        -0.41128E+02
         0.29485E+11
        -0.39761E+02
        -0.22404E+11
        -0.22717E+11
        -0.22675E+11
        -0.22267E+11
        -0.23012E+11
        -0.22640E+11
        -0.23099E+11
        -0.22861E+11
        -0.22332E+11
        -0.22664E+11
        -0.23348E+11
        -0.23423E+11
        -0.23222E+11
        -0.23208E+11
        -0.23339E+11
        -0.22287E+11
        -0.22364E+11
        -0.22147E+11
        -0.22750E+11
        -0.22642E+11
        -0.22796E+11
        -0.22695E+11
        -0.22882E+11
        -0.22833E+11
        -0.22651E+11
        -0.22665E+11
        -0.22973E+11
        -0.22945E+11
        -0.23170E+11
        -0.22829E+11
        -0.22325E+11
        -0.22721E+11
        -0.22328E+11
        -0.22589E+11
        -0.23475E+11
        -0.23198E+11
        -0.23064E+11
        -0.23221E+11
        -0.23242E+11
        -0.23494E+11
        -0.23674E+11
        -0.23230E+11
        -0.22790E+11
        -0.22851E+11
        -0.23077E+11
        -0.23465E+11
        -0.23135E+11
        -0.22771E+11
        -0.22796E+11
        -0.23079E+11
        -0.23360E+11
        -0.22979E+11
        -0.24098E+11
        -0.23781E+11
        -0.23834E+11
        -0.23759E+11
        -0.23779E+11
        -0.23951E+11
        -0.24125E+11
        -0.24181E+11
        -0.24157E+11
        -0.24174E+11
        -0.24247E+11
        -0.23795E+11
        -0.23621E+11
        -0.23553E+11
        -0.23436E+11
        -0.23346E+11
        -0.23350E+11
        -0.23502E+11
        -0.23994E+11
        -0.23879E+11
        -0.23710E+11
        -0.23712E+11
        -0.23741E+11
        -0.23902E+11
        -0.23664E+11
        -0.23575E+11
         0.35642E+06
         0.16924E+06
         0.21736E+06
         0.32376E+06
        -0.53664E+04
         0.16671E+06
        -0.13228E+06
        -0.34065E+06
         0.47464E+06
        -0.36387E+06
        -0.39338E+06
        -0.25459E+05
        -0.17417E+06
        -0.11972E+07
        -0.45199E+06
        -0.15523E+06
         0.18088E+06
         0.32051E+06
        -0.11294E+04
         0.10077E+05
        -0.77690E+06
        -0.54316E+06
        -0.94446E+06
        -0.15870E+06
        -0.36583E+06
        -0.47906E+05
        -0.14788E+07
        -0.91609E+06
        -0.50300E+06
        -0.36200E+06
        -0.52724E+05
        -0.78920E+05
         0.28420E+06
         0.49508E+06
        -0.68211E+06
        -0.36462E+06
        -0.27513E+06
        -0.58398E+06
        -0.30968E+06
        -0.22347E+06
        -0.58843E+06
        -0.85122E+06
        -0.75880E+06
        -0.71962E+06
        -0.51069E+06
        -0.20248E+06
        -0.13594E+06
        -0.17853E+06
         0.19897E+06
         0.31960E+06
        -0.59784E+05
        -0.36696E+05
        -0.17036E+07
        -0.80370E+06
        -0.10760E+07
        -0.14403E+06
         0.68688E+06
         0.12946E+07
         0.10903E+07
         0.11604E+07
         0.89667E+06
         0.37194E+06
        -0.29859E+06
        -0.77457E+06
        -0.10401E+07
        -0.68386E+06
        -0.13044E+07
        -0.16596E+07
        -0.13547E+07
        -0.11391E+07
        -0.52218E+06
         0.22652E+06
         0.19390E+06
        -0.19988E+05
        -0.46680E+06
        -0.92165E+06
        -0.92239E+06
        -0.58456E+06
         0.33292E+06
         0.14679E+06
         0.19514E+06
         0.30371E+06
        -0.33181E+05
         0.14323E+06
        -0.15711E+06
        -0.36698E+06
         0.45156E+06
        -0.39245E+06
        -0.42074E+06
        -0.65860E+05
        -0.20810E+06
        -0.12227E+07
        -0.49201E+06
        -0.17930E+06
         0.15473E+06
         0.30085E+06
        -0.27379E+05
        -0.17265E+05
        -0.81036E+06
        -0.57556E+06
        -0.97857E+06
        -0.18549E+06
        -0.39577E+06
        -0.73472E+05
        -0.15055E+07
        -0.94350E+06
        -0.53307E+06
        -0.39284E+06
        -0.75923E+05
        -0.10308E+06
         0.26425E+06
         0.47472E+06
        -0.71609E+06
        -0.38959E+06
        -0.30281E+06
        -0.62395E+06
        -0.34544E+06
        -0.25828E+06
        -0.62780E+06
        -0.88932E+06
        -0.79472E+06
        -0.75140E+06
        -0.53992E+06
        -0.23686E+06
        -0.16459E+06
        -0.20431E+06
         0.17571E+06
         0.29630E+06
        -0.90516E+05
        -0.61837E+05
        -0.17725E+07
        -0.87093E+06
        -0.11423E+07
        -0.20755E+06
         0.61965E+06
         0.12195E+07
         0.10154E+07
         0.10848E+07
         0.82046E+06
         0.29384E+06
        -0.37631E+06
        -0.84638E+06
        -0.10997E+07
        -0.73943E+06
        -0.13628E+07
        -0.17221E+07
        -0.14186E+07
        -0.12061E+07
        -0.58933E+06
         0.15539E+06
         0.12705E+06
        -0.80300E+05
        -0.52720E+06
        -0.98359E+06
        -0.98510E+06
        -0.64844E+06
         0.33834E+06
         0.15118E+06
         0.19982E+06
         0.30895E+06
        -0.25366E+05
         0.15026E+06
        -0.15240E+06
        -0.36044E+06
         0.45533E+06
        -0.39120E+06
        -0.41498E+06
        -0.58243E+05
        -0.20188E+06
        -0.12141E+07
        -0.48190E+06
        -0.18464E+06
         0.15298E+06
         0.30638E+06
        -0.33836E+05
        -0.22337E+05
        -0.81572E+06
        -0.57757E+06
        -0.10009E+07
        -0.20482E+06
        -0.40872E+06
        -0.91396E+05
        -0.15004E+07
        -0.94691E+06
        -0.54549E+06
        -0.41442E+06
        -0.76412E+05
        -0.10855E+06
         0.27037E+06
         0.48137E+06
        -0.70762E+06
        -0.38286E+06
        -0.29650E+06
        -0.61746E+06
        -0.34011E+06
        -0.25680E+06
        -0.62897E+06
        -0.90339E+06
        -0.81406E+06
        -0.77262E+06
        -0.54477E+06
        -0.23205E+06
        -0.15932E+06
        -0.19873E+06
         0.18219E+06
         0.30359E+06
        -0.81540E+05
        -0.54148E+05
        -0.17519E+07
        -0.85241E+06
        -0.11217E+07
        -0.19181E+06
         0.63142E+06
         0.12311E+07
         0.10302E+07
         0.10996E+07
         0.83559E+06
         0.30953E+06
        -0.36712E+06
        -0.84669E+06
        -0.10987E+07
        -0.72916E+06
        -0.13561E+07
        -0.17348E+07
        -0.14323E+07
        -0.12025E+07
        -0.57079E+06
         0.17677E+06
         0.14620E+06
        -0.61011E+05
        -0.50539E+06
        -0.96535E+06
        -0.97030E+06
        -0.63421E+06
         0.33493E+06
         0.14926E+06
         0.19793E+06
         0.30569E+06
        -0.27605E+05
         0.14877E+06
        -0.15482E+06
        -0.36346E+06
         0.44863E+06
        -0.40342E+06
        -0.41765E+06
        -0.62505E+05
        -0.20478E+06
        -0.12155E+07
        -0.48667E+06
        -0.20399E+06
         0.13739E+06
         0.30299E+06
        -0.56776E+05
        -0.45324E+05
        -0.84107E+06
        -0.59995E+06
        -0.10530E+07
        -0.24804E+06
        -0.44426E+06
        -0.13219E+06
        -0.15078E+07
        -0.96906E+06
        -0.58236E+06
        -0.46601E+06
        -0.87997E+05
        -0.13034E+06
         0.26780E+06
         0.47803E+06
        -0.71226E+06
        -0.38505E+06
        -0.29857E+06
        -0.62513E+06
        -0.34919E+06
        -0.27286E+06
        -0.65133E+06
        -0.94655E+06
        -0.86661E+06
        -0.82284E+06
        -0.56888E+06
        -0.24584E+06
        -0.16850E+06
        -0.20368E+06
         0.17831E+06
         0.29925E+06
        -0.85996E+05
        -0.56486E+05
        -0.17615E+07
        -0.85896E+06
        -0.11320E+07
        -0.20097E+06
         0.62532E+06
         0.12240E+07
         0.10183E+07
         0.10866E+07
         0.82322E+06
         0.29445E+06
        -0.39106E+06
        -0.88530E+06
        -0.11348E+07
        -0.74623E+06
        -0.13754E+07
        -0.17880E+07
        -0.14887E+07
        -0.12290E+07
        -0.58329E+06
         0.16478E+06
         0.13717E+06
        -0.71711E+05
        -0.51645E+06
        -0.97293E+06
        -0.97611E+06
        -0.64004E+06
         0.32880E+06
         0.14538E+06
         0.19466E+06
         0.30233E+06
        -0.30258E+05
         0.14648E+06
        -0.15842E+06
        -0.36879E+06
         0.44062E+06
        -0.41615E+06
        -0.42051E+06
        -0.65193E+05
        -0.20799E+06
        -0.12172E+07
        -0.48883E+06
        -0.21735E+06
         0.12494E+06
         0.29987E+06
        -0.71870E+05
        -0.61835E+05
        -0.85734E+06
        -0.61602E+06
        -0.10851E+07
        -0.27482E+06
        -0.46993E+06
        -0.15832E+06
        -0.15142E+07
        -0.98495E+06
        -0.60795E+06
        -0.50031E+06
        -0.10010E+06
        -0.14619E+06
         0.26220E+06
         0.47339E+06
        -0.71705E+06
        -0.38795E+06
        -0.30176E+06
        -0.63093E+06
        -0.35678E+06
        -0.28516E+06
        -0.66715E+06
        -0.97574E+06
        -0.90114E+06
        -0.85467E+06
        -0.58465E+06
        -0.25490E+06
        -0.17664E+06
        -0.21150E+06
         0.17148E+06
         0.29279E+06
        -0.93075E+05
        -0.60564E+05
        -0.17701E+07
        -0.86466E+06
        -0.11408E+07
        -0.20810E+06
         0.62251E+06
         0.12219E+07
         0.10132E+07
         0.10780E+07
         0.81273E+06
         0.28514E+06
        -0.40562E+06
        -0.91200E+06
        -0.11595E+07
        -0.75943E+06
        -0.13891E+07
        -0.18225E+07
        -0.15282E+07
        -0.12479E+07
        -0.58893E+06
         0.15388E+06
         0.12518E+06
        -0.83992E+05
        -0.53075E+06
        -0.98528E+06
        -0.98379E+06
        -0.64586E+06
         0.31403E+06
         0.13796E+06
         0.19144E+06
         0.30500E+06
        -0.26019E+05
         0.15156E+06
        -0.16103E+06
        -0.37847E+06
         0.42941E+06
        -0.43340E+06
        -0.41800E+06
        -0.56277E+05
        -0.20482E+06
        -0.12142E+07
        -0.47726E+06
        -0.21581E+06
         0.12169E+06
         0.30552E+06
        -0.68770E+05
        -0.59253E+05
        -0.85240E+06
        -0.61030E+06
        -0.10844E+07
        -0.27535E+06
        -0.48099E+06
        -0.16200E+06
        -0.15157E+07
        -0.98651E+06
        -0.60706E+06
        -0.50164E+06
        -0.11445E+06
        -0.15454E+06
         0.25242E+06
         0.47224E+06
        -0.71349E+06
        -0.38728E+06
        -0.30223E+06
        -0.62433E+06
        -0.35135E+06
        -0.27923E+06
        -0.65966E+06
        -0.97165E+06
        -0.89755E+06
        -0.85653E+06
        -0.58644E+06
        -0.25634E+06
        -0.18366E+06
        -0.22703E+06
         0.15462E+06
         0.28397E+06
        -0.95271E+05
        -0.57969E+05
        -0.17531E+07
        -0.84712E+06
        -0.11265E+07
        -0.19856E+06
         0.63261E+06
         0.12355E+07
         0.10286E+07
         0.10927E+07
         0.82977E+06
         0.30766E+06
        -0.38597E+06
        -0.90013E+06
        -0.11464E+07
        -0.74587E+06
        -0.13761E+07
        -0.18120E+07
        -0.15204E+07
        -0.12403E+07
        -0.57974E+06
         0.16018E+06
         0.12388E+06
        -0.92524E+05
        -0.53625E+06
        -0.98235E+06
        -0.97533E+06
        -0.63378E+06
         0.29158E+06
         0.12484E+06
         0.18377E+06
         0.30294E+06
        -0.28640E+05
         0.15185E+06
        -0.17127E+06
        -0.39781E+06
         0.41052E+06
        -0.45893E+06
        -0.42444E+06
        -0.59815E+05
        -0.21047E+06
        -0.12211E+07
        -0.47948E+06
        -0.22036E+06
         0.11140E+06
         0.30470E+06
        -0.71412E+05
        -0.62964E+05
        -0.85453E+06
        -0.61185E+06
        -0.10869E+07
        -0.27860E+06
        -0.49655E+06
        -0.16861E+06
        -0.15266E+07
        -0.99452E+06
        -0.61030E+06
        -0.50585E+06
        -0.13425E+06
        -0.16820E+06
         0.23720E+06
         0.46605E+06
        -0.71906E+06
        -0.39228E+06
        -0.30865E+06
        -0.63039E+06
        -0.35697E+06
        -0.28247E+06
        -0.66116E+06
        -0.97273E+06
        -0.89799E+06
        -0.86126E+06
        -0.59507E+06
        -0.26922E+06
        -0.19990E+06
        -0.25027E+06
         0.13053E+06
         0.26850E+06
        -0.10482E+06
        -0.60596E+05
        -0.17602E+07
        -0.85253E+06
        -0.11306E+07
        -0.20337E+06
         0.62571E+06
         0.12272E+07
         0.10216E+07
         0.10867E+07
         0.82391E+06
         0.30325E+06
        -0.38950E+06
        -0.90440E+06
        -0.11472E+07
        -0.74690E+06
        -0.13790E+07
        -0.18137E+07
        -0.15237E+07
        -0.12523E+07
        -0.59746E+06
         0.14054E+06
         0.10195E+06
        -0.11961E+06
        -0.55996E+06
        -0.99493E+06
        -0.98214E+06
        -0.63918E+06
         0.28498E+06
         0.11996E+06
         0.18061E+06
         0.30017E+06
        -0.31501E+05
         0.14964E+06
        -0.17665E+06
        -0.40416E+06
         0.40493E+06
        -0.46659E+06
        -0.42899E+06
        -0.64754E+05
        -0.21603E+06
        -0.12240E+07
        -0.48342E+06
        -0.22452E+06
         0.10698E+06
         0.30231E+06
        -0.73833E+05
        -0.65844E+05
        -0.85797E+06
        -0.61552E+06
        -0.10903E+07
        -0.28109E+06
        -0.50219E+06
        -0.17238E+06
        -0.15313E+07
        -0.99864E+06
        -0.61548E+06
        -0.50987E+06
        -0.14108E+06
        -0.17358E+06
         0.23273E+06
         0.46259E+06
        -0.72383E+06
        -0.39489E+06
        -0.31252E+06
        -0.63795E+06
        -0.36340E+06
        -0.28889E+06
        -0.66790E+06
        -0.97832E+06
        -0.90138E+06
        -0.86548E+06
        -0.60014E+06
        -0.27522E+06
        -0.20519E+06
        -0.25614E+06
         0.12462E+06
         0.26317E+06
        -0.11067E+06
        -0.63996E+05
        -0.17698E+07
        -0.86198E+06
        -0.11369E+07
        -0.21002E+06
         0.61771E+06
         0.12200E+07
         0.10143E+07
         0.10766E+07
         0.81073E+06
         0.28934E+06
        -0.40212E+06
        -0.91009E+06
        -0.11517E+07
        -0.75650E+06
        -0.13892E+07
        -0.18234E+07
        -0.15362E+07
        -0.12643E+07
        -0.60752E+06
         0.13232E+06
         0.95327E+05
        -0.12862E+06
        -0.57179E+06
        -0.10060E+07
        -0.99156E+06
        -0.64856E+06
         0.28905E+06
         0.12321E+06
         0.18299E+06
         0.30096E+06
        -0.27564E+05
         0.15107E+06
        -0.17361E+06
        -0.39864E+06
         0.40848E+06
        -0.46170E+06
        -0.42554E+06
        -0.59962E+05
        -0.21277E+06
        -0.12172E+07
        -0.47543E+06
        -0.22086E+06
         0.11033E+06
         0.30500E+06
        -0.69280E+05
        -0.61742E+05
        -0.85292E+06
        -0.61094E+06
        -0.10855E+07
        -0.27667E+06
        -0.49844E+06
        -0.16825E+06
        -0.15248E+07
        -0.99322E+06
        -0.61229E+06
        -0.50628E+06
        -0.13797E+06
        -0.17044E+06
         0.23590E+06
         0.46378E+06
        -0.71913E+06
        -0.39131E+06
        -0.30929E+06
        -0.63311E+06
        -0.35983E+06
        -0.28584E+06
        -0.66355E+06
        -0.97394E+06
        -0.89654E+06
        -0.86108E+06
        -0.59646E+06
        -0.27128E+06
        -0.20157E+06
        -0.25228E+06
         0.12866E+06
         0.26626E+06
        -0.10797E+06
        -0.62609E+05
        -0.17553E+07
        -0.84770E+06
        -0.11283E+07
        -0.20654E+06
         0.62487E+06
         0.12311E+07
         0.10266E+07
         0.10852E+07
         0.81418E+06
         0.29456E+06
        -0.39278E+06
        -0.89682E+06
        -0.11402E+07
        -0.74903E+06
        -0.13822E+07
        -0.18153E+07
        -0.15278E+07
        -0.12540E+07
        -0.59771E+06
         0.14375E+06
         0.10717E+06
        -0.11810E+06
        -0.56286E+06
        -0.99821E+06
        -0.98375E+06
        -0.64017E+06
         0.28790E+06
         0.12290E+06
         0.18233E+06
         0.29909E+06
        -0.27837E+05
         0.15014E+06
        -0.17460E+06
        -0.39997E+06
         0.40569E+06
        -0.46465E+06
        -0.42740E+06
        -0.62991E+05
        -0.21378E+06
        -0.12178E+07
        -0.47958E+06
        -0.22372E+06
         0.10732E+06
         0.30243E+06
        -0.71278E+05
        -0.63951E+05
        -0.85462E+06
        -0.61326E+06
        -0.10872E+07
        -0.27831E+06
        -0.50022E+06
        -0.16981E+06
        -0.15264E+07
        -0.99345E+06
        -0.61409E+06
        -0.50822E+06
        -0.14048E+06
        -0.17205E+06
         0.23375E+06
         0.46123E+06
        -0.72107E+06
        -0.39234E+06
        -0.31009E+06
        -0.63968E+06
        -0.36361E+06
        -0.28931E+06
        -0.66691E+06
        -0.97637E+06
        -0.89945E+06
        -0.86218E+06
        -0.59747E+06
        -0.27315E+06
        -0.20397E+06
        -0.25504E+06
         0.12640E+06
         0.26421E+06
        -0.11017E+06
        -0.64370E+05
        -0.17595E+07
        -0.85093E+06
        -0.11350E+07
        -0.21230E+06
         0.62414E+06
         0.12270E+07
         0.10171E+07
         0.10746E+07
         0.80809E+06
         0.28532E+06
        -0.40289E+06
        -0.90183E+06
        -0.11461E+07
        -0.75225E+06
        -0.13853E+07
        -0.18182E+07
        -0.15281E+07
        -0.12560E+07
        -0.60054E+06
         0.13600E+06
         0.97695E+05
        -0.12541E+06
        -0.56643E+06
        -0.99998E+06
        -0.98798E+06
        -0.64618E+06
         0.28483E+06
         0.12039E+06
         0.18051E+06
         0.29800E+06
        -0.29729E+05
         0.14974E+06
        -0.17703E+06
        -0.40218E+06
         0.40315E+06
        -0.46760E+06
        -0.42952E+06
        -0.66983E+05
        -0.21642E+06
        -0.12178E+07
        -0.48383E+06
        -0.22741E+06
         0.10484E+06
         0.30103E+06
        -0.73735E+05
        -0.65576E+05
        -0.85686E+06
        -0.61563E+06
        -0.10899E+07
        -0.28087E+06
        -0.50197E+06
        -0.17275E+06
        -0.15276E+07
        -0.99431E+06
        -0.61607E+06
        -0.50968E+06
        -0.14385E+06
        -0.17474E+06
         0.23279E+06
         0.46078E+06
        -0.72531E+06
        -0.39432E+06
        -0.31211E+06
        -0.64606E+06
        -0.36779E+06
        -0.29239E+06
        -0.66890E+06
        -0.97851E+06
        -0.90212E+06
        -0.86437E+06
        -0.59943E+06
        -0.27569E+06
        -0.20620E+06
        -0.25744E+06
         0.12423E+06
         0.26243E+06
        -0.11225E+06
        -0.64905E+05
        -0.17678E+07
        -0.85782E+06
        -0.11400E+07
        -0.21404E+06
         0.62194E+06
         0.12188E+07
         0.10052E+07
         0.10650E+07
         0.80179E+06
         0.27868E+06
        -0.40702E+06
        -0.90678E+06
        -0.11532E+07
        -0.75706E+06
        -0.13905E+07
        -0.18242E+07
        -0.15320E+07
        -0.12607E+07
        -0.60619E+06
         0.12962E+06
         0.90521E+05
        -0.13289E+06
        -0.57168E+06
        -0.10051E+07
        -0.99442E+06
        -0.65303E+06
         0.28671E+06
         0.12139E+06
         0.18136E+06
         0.29947E+06
        -0.26939E+05
         0.15240E+06
        -0.17521E+06
        -0.39818E+06
         0.40476E+06
        -0.46553E+06
        -0.42626E+06
        -0.63734E+05
        -0.21555E+06
        -0.12114E+07
        -0.47640E+06
        -0.22569E+06
         0.10592E+06
         0.30371E+06
        -0.70993E+05
        -0.62268E+05
        -0.85278E+06
        -0.61153E+06
        -0.10866E+07
        -0.27816E+06
        -0.50031E+06
        -0.17014E+06
        -0.15236E+07
        -0.99075E+06
        -0.61241E+06
        -0.50575E+06
        -0.14151E+06
        -0.17258E+06
         0.23649E+06
         0.46370E+06
        -0.72254E+06
        -0.39194E+06
        -0.31068E+06
        -0.64223E+06
        -0.36424E+06
        -0.28773E+06
        -0.66403E+06
        -0.97528E+06
        -0.89825E+06
        -0.86162E+06
        -0.59711E+06
        -0.27348E+06
        -0.20396E+06
        -0.25516E+06
         0.12692E+06
         0.26507E+06
        -0.10942E+06
        -0.61852E+05
        -0.17572E+07
        -0.84631E+06
        -0.11291E+07
        -0.20876E+06
         0.62029E+06
         0.12193E+07
         0.10137E+07
         0.10743E+07
         0.80823E+06
         0.28837E+06
        -0.39784E+06
        -0.90240E+06
        -0.11455E+07
        -0.74923E+06
        -0.13834E+07
        -0.18187E+07
        -0.15282E+07
        -0.12560E+07
        -0.60170E+06
         0.13649E+06
         0.98711E+05
        -0.12506E+06
        -0.56476E+06
        -0.99927E+06
        -0.98595E+06
        -0.64317E+06
         0.28524E+06
         0.11937E+06
         0.17960E+06
         0.29738E+06
        -0.28869E+05
         0.15084E+06
        -0.17818E+06
        -0.40014E+06
         0.40272E+06
        -0.46915E+06
        -0.42937E+06
        -0.68678E+05
        -0.22069E+06
        -0.12126E+07
        -0.47936E+06
        -0.22882E+06
         0.10285E+06
         0.30095E+06
        -0.74005E+05
        -0.64893E+05
        -0.85697E+06
        -0.61584E+06
        -0.10911E+07
        -0.28111E+06
        -0.50371E+06
        -0.17272E+06
        -0.15276E+07
        -0.99470E+06
        -0.61646E+06
        -0.50825E+06
        -0.14469E+06
        -0.17511E+06
         0.23375E+06
         0.46139E+06
        -0.72660E+06
        -0.39432E+06
        -0.31410E+06
        -0.64915E+06
        -0.37073E+06
        -0.29334E+06
        -0.67034E+06
        -0.98134E+06
        -0.90272E+06
        -0.86626E+06
        -0.60093E+06
        -0.27720E+06
        -0.20719E+06
        -0.25886E+06
         0.12410E+06
         0.26305E+06
        -0.11224E+06
        -0.63914E+05
        -0.17654E+07
        -0.85337E+06
        -0.11372E+07
        -0.21818E+06
         0.60937E+06
         0.12088E+07
         0.10073E+07
         0.10660E+07
         0.79749E+06
         0.27768E+06
        -0.41090E+06
        -0.91528E+06
        -0.11540E+07
        -0.75802E+06
        -0.13911E+07
        -0.18275E+07
        -0.15416E+07
        -0.12681E+07
        -0.60769E+06
         0.12806E+06
         0.90144E+05
        -0.12945E+06
        -0.56763E+06
        -0.10056E+07
        -0.99463E+06
        -0.65187E+06
         0.28492E+06
         0.11868E+06
         0.17904E+06
         0.29670E+06
        -0.28748E+05
         0.15081E+06
        -0.17901E+06
        -0.39981E+06
         0.40281E+06
        -0.46924E+06
        -0.42975E+06
        -0.69429E+05
        -0.22167E+06
        -0.12105E+07
        -0.47889E+06
        -0.23002E+06
         0.10252E+06
         0.30052E+06
        -0.74291E+05
        -0.64975E+05
        -0.85772E+06
        -0.61646E+06
        -0.10921E+07
        -0.28167E+06
        -0.50420E+06
        -0.17347E+06
        -0.15269E+07
        -0.99502E+06
        -0.61797E+06
        -0.50889E+06
        -0.14664E+06
        -0.17608E+06
         0.23301E+06
         0.46093E+06
        -0.72781E+06
        -0.39488E+06
        -0.31503E+06
        -0.65264E+06
        -0.37461E+06
        -0.29587E+06
        -0.67117E+06
        -0.98228E+06
        -0.90342E+06
        -0.86692E+06
        -0.60143E+06
        -0.27804E+06
        -0.20816E+06
        -0.26039E+06
         0.12306E+06
         0.26268E+06
        -0.11264E+06
        -0.64068E+05
        -0.17656E+07
        -0.85314E+06
        -0.11393E+07
        -0.22180E+06
         0.60922E+06
         0.12086E+07
         0.10047E+07
         0.10591E+07
         0.78977E+06
         0.27341E+06
        -0.41131E+06
        -0.91651E+06
        -0.11561E+07
        -0.76142E+06
        -0.13952E+07
        -0.18303E+07
        -0.15433E+07
        -0.12697E+07
        -0.60933E+06
         0.12501E+06
         0.86407E+05
        -0.13184E+06
        -0.56772E+06
        -0.10063E+07
        -0.99851E+06
        -0.65543E+06
         0.29103E+06
         0.12491E+06
         0.18426E+06
         0.30063E+06
        -0.21350E+05
         0.15619E+06
        -0.17209E+06
        -0.39198E+06
         0.40706E+06
        -0.46360E+06
        -0.42214E+06
        -0.58962E+05
        -0.21299E+06
        -0.12009E+07
        -0.46793E+06
        -0.22543E+06
         0.10727E+06
         0.30536E+06
        -0.68294E+05
        -0.58316E+05
        -0.84892E+06
        -0.60839E+06
        -0.10841E+07
        -0.27579E+06
        -0.49791E+06
        -0.16764E+06
        -0.15188E+07
        -0.98600E+06
        -0.61026E+06
        -0.50151E+06
        -0.14137E+06
        -0.17009E+06
         0.23837E+06
         0.46480E+06
        -0.71979E+06
        -0.38851E+06
        -0.30809E+06
        -0.64640E+06
        -0.36717E+06
        -0.28798E+06
        -0.66292E+06
        -0.97439E+06
        -0.89612E+06
        -0.85871E+06
        -0.59335E+06
        -0.26945E+06
        -0.20120E+06
        -0.25439E+06
         0.12840E+06
         0.26739E+06
        -0.10691E+06
        -0.59095E+05
        -0.17463E+07
        -0.83394E+06
        -0.11230E+07
        -0.21013E+06
         0.62356E+06
         0.12267E+07
         0.10198E+07
         0.10704E+07
         0.80275E+06
         0.28758E+06
        -0.39855E+06
        -0.90156E+06
        -0.11444E+07
        -0.74834E+06
        -0.13803E+07
        -0.18148E+07
        -0.15256E+07
        -0.12506E+07
        -0.59298E+06
         0.14202E+06
         0.10095E+06
        -0.12107E+06
        -0.55568E+06
        -0.99213E+06
        -0.98318E+06
        -0.64001E+06
         0.28837E+06
         0.12309E+06
         0.18261E+06
         0.29807E+06
        -0.23877E+05
         0.15455E+06
        -0.17478E+06
        -0.39467E+06
         0.40415E+06
        -0.46814E+06
        -0.42521E+06
        -0.62779E+05
        -0.21537E+06
        -0.12024E+07
        -0.47229E+06
        -0.22924E+06
         0.10352E+06
         0.30314E+06
        -0.72271E+05
        -0.61580E+05
        -0.85165E+06
        -0.61232E+06
        -0.10869E+07
        -0.27936E+06
        -0.50189E+06
        -0.17129E+06
        -0.15224E+07
        -0.98863E+06
        -0.61157E+06
        -0.50330E+06
        -0.14383E+06
        -0.17297E+06
         0.23667E+06
         0.46200E+06
        -0.72493E+06
        -0.39062E+06
        -0.30968E+06
        -0.65417E+06
        -0.37254E+06
        -0.29069E+06
        -0.66695E+06
        -0.97919E+06
        -0.90126E+06
        -0.86212E+06
        -0.59664E+06
        -0.27295E+06
        -0.20387E+06
        -0.25652E+06
         0.12605E+06
         0.26432E+06
        -0.11033E+06
        -0.61223E+05
        -0.17585E+07
        -0.84417E+06
        -0.11323E+07
        -0.21510E+06
         0.62194E+06
         0.12220E+07
         0.10094E+07
         0.10580E+07
         0.79085E+06
         0.27693E+06
        -0.41114E+06
        -0.91595E+06
        -0.11545E+07
        -0.75335E+06
        -0.13827E+07
        -0.18164E+07
        -0.15305E+07
        -0.12592E+07
        -0.59927E+06
         0.13443E+06
         0.94097E+05
        -0.12881E+06
        -0.56387E+06
        -0.99736E+06
        -0.98812E+06
        -0.64824E+06
         0.28398E+06
         0.11849E+06
         0.17814E+06
         0.29466E+06
        -0.28174E+05
         0.15098E+06
        -0.17901E+06
        -0.39797E+06
         0.39999E+06
        -0.47622E+06
        -0.42896E+06
        -0.68910E+05
        -0.22039E+06
        -0.12040E+07
        -0.47787E+06
        -0.23374E+06
         0.98045E+05
         0.30054E+06
        -0.75532E+05
        -0.63060E+05
        -0.85508E+06
        -0.61691E+06
        -0.10902E+07
        -0.28242E+06
        -0.50884E+06
        -0.17487E+06
        -0.15306E+07
        -0.99308E+06
        -0.60241E+06
        -0.49809E+06
        -0.14785E+06
        -0.17703E+06
         0.23499E+06
         0.46006E+06
        -0.73068E+06
        -0.39430E+06
        -0.31371E+06
        -0.66551E+06
        -0.37784E+06
        -0.28345E+06
        -0.66743E+06
        -0.98436E+06
        -0.90810E+06
        -0.86585E+06
        -0.60089E+06
        -0.27860E+06
        -0.20862E+06
        -0.26022E+06
         0.12331E+06
         0.26187E+06
        -0.11333E+06
        -0.63940E+05
        -0.17666E+07
        -0.85158E+06
        -0.11386E+07
        -0.22069E+06
         0.61418E+06
         0.12092E+07
         0.99486E+06
         0.10440E+07
         0.77885E+06
         0.27417E+06
        -0.43311E+06
        -0.95048E+06
        -0.11687E+07
        -0.76122E+06
        -0.13899E+07
        -0.18228E+07
        -0.15382E+07
        -0.12682E+07
        -0.60965E+06
         0.12258E+06
         0.86228E+05
        -0.13620E+06
        -0.57222E+06
        -0.10036E+07
        -0.99783E+06
        -0.65918E+06
         0.28979E+06
         0.12421E+06
         0.18380E+06
         0.29945E+06
        -0.20344E+05
         0.15674E+06
        -0.17299E+06
        -0.39025E+06
         0.40292E+06
        -0.47751E+06
        -0.42212E+06
        -0.61111E+05
        -0.21400E+06
        -0.11948E+07
        -0.46805E+06
        -0.22909E+06
         0.10116E+06
         0.30510E+06
        -0.68611E+05
        -0.52230E+05
        -0.84773E+06
        -0.60986E+06
        -0.10838E+07
        -0.27608E+06
        -0.50740E+06
        -0.16853E+06
        -0.15320E+07
        -0.98736E+06
        -0.57268E+06
        -0.47508E+06
        -0.14344E+06
        -0.17094E+06
         0.24024E+06
         0.46520E+06
        -0.72206E+06
        -0.38724E+06
        -0.30714E+06
        -0.66524E+06
        -0.36924E+06
        -0.25492E+06
        -0.65140E+06
        -0.97632E+06
        -0.90386E+06
        -0.85878E+06
        -0.59298E+06
        -0.26907E+06
        -0.20136E+06
        -0.25475E+06
         0.12917E+06
         0.26826E+06
        -0.10575E+06
        -0.58134E+05
        -0.17468E+07
        -0.83209E+06
        -0.11186E+07
        -0.20679E+06
         0.62316E+06
         0.12195E+07
         0.10090E+07
         0.10583E+07
         0.79470E+06
         0.30499E+06
        -0.44021E+06
        -0.97827E+06
        -0.11677E+07
        -0.75037E+06
        -0.13808E+07
        -0.18152E+07
        -0.15286E+07
        -0.12523E+07
        -0.59013E+06
         0.14077E+06
         0.10199E+06
        -0.12002E+06
        -0.55383E+06
        -0.98668E+06
        -0.98415E+06
        -0.64490E+06
         0.26776E+06
         0.10307E+06
         0.16329E+06
         0.27976E+06
        -0.46359E+05
         0.13441E+06
        -0.19654E+06
        -0.41533E+06
         0.38066E+06
        -0.50894E+06
        -0.44802E+06
        -0.98675E+05
        -0.24790E+06
        -0.12200E+07
        -0.50623E+06
        -0.25021E+06
         0.76958E+05
         0.28551E+06
        -0.91837E+05
        -0.74044E+05
        -0.87920E+06
        -0.64053E+06
        -0.11140E+07
        -0.29847E+06
        -0.53547E+06
        -0.18977E+06
        -0.15640E+07
        -0.10137E+07
        -0.58528E+06
        -0.49088E+06
        -0.16429E+06
        -0.19293E+06
         0.22015E+06
         0.44339E+06
        -0.75523E+06
        -0.41195E+06
        -0.33550E+06
        -0.70880E+06
        -0.40235E+06
        -0.27427E+06
        -0.68314E+06
        -0.10104E+07
        -0.93772E+06
        -0.88716E+06
        -0.62176E+06
        -0.30454E+06
        -0.22906E+06
        -0.27863E+06
         0.10604E+06
         0.24325E+06
        -0.13880E+06
        -0.83707E+05
        -0.18155E+07
        -0.89882E+06
        -0.11881E+07
        -0.27762E+06
         0.55251E+06
         0.11512E+07
         0.93970E+06
         0.98407E+06
         0.72526E+06
         0.24160E+06
        -0.52850E+06
        -0.10743E+07
        -0.12353E+07
        -0.80637E+06
        -0.14398E+07
        -0.18766E+07
        -0.15920E+07
        -0.13234E+07
        -0.66310E+06
         0.70688E+05
         0.37273E+05
        -0.18192E+06
        -0.61719E+06
        -0.10519E+07
        -0.10469E+07
        -0.70722E+06
         0.28026E+06
         0.10451E+06
         0.16709E+06
         0.28715E+06
        -0.37107E+05
         0.14241E+06
        -0.19360E+06
        -0.39925E+06
         0.39511E+06
        -0.48622E+06
        -0.44079E+06
        -0.98054E+05
        -0.25670E+06
        -0.12007E+07
        -0.48863E+06
        -0.23511E+06
         0.91968E+05
         0.29640E+06
        -0.79295E+05
        -0.60854E+05
        -0.86468E+06
        -0.62993E+06
        -0.10924E+07
        -0.28170E+06
        -0.51121E+06
        -0.17417E+06
        -0.15366E+07
        -0.98292E+06
        -0.56057E+06
        -0.46763E+06
        -0.15234E+06
        -0.18318E+06
         0.22658E+06
         0.44021E+06
        -0.75058E+06
        -0.41360E+06
        -0.34344E+06
        -0.68908E+06
        -0.37942E+06
        -0.25461E+06
        -0.66895E+06
        -0.99160E+06
        -0.91756E+06
        -0.86762E+06
        -0.61097E+06
        -0.29903E+06
        -0.22478E+06
        -0.26862E+06
         0.11390E+06
         0.24375E+06
        -0.13651E+06
        -0.82745E+05
        -0.17890E+07
        -0.86431E+06
        -0.11793E+07
        -0.29291E+06
         0.52082E+06
         0.11318E+07
         0.97138E+06
         0.10165E+07
         0.75119E+06
         0.25701E+06
        -0.52417E+06
        -0.10611E+07
        -0.12098E+07
        -0.79371E+06
        -0.14131E+07
        -0.18383E+07
        -0.15592E+07
        -0.12983E+07
        -0.65217E+06
         0.69418E+05
         0.51753E+05
        -0.16131E+06
        -0.58432E+06
        -0.10121E+07
        -0.10156E+07
        -0.67489E+06
         0.87095E+08
         0.82226E+08
         0.81658E+08
         0.74652E+08
         0.10484E+09
         0.88120E+08
         0.88695E+08
         0.98774E+08
         0.77778E+08
         0.98347E+08
         0.98547E+08
         0.14366E+09
         0.12343E+09
         0.10101E+09
         0.14874E+09
         0.75411E+08
         0.81484E+08
         0.71419E+08
         0.84768E+08
         0.88694E+08
         0.11338E+09
         0.11316E+09
         0.10670E+09
         0.80905E+08
         0.90058E+08
         0.77601E+08
         0.99672E+08
         0.97146E+08
         0.97649E+08
         0.93217E+08
         0.76301E+08
         0.80259E+08
         0.75086E+08
         0.78585E+08
         0.12350E+09
         0.96842E+08
         0.10454E+09
         0.13723E+09
         0.12683E+09
         0.12276E+09
         0.13388E+09
         0.12407E+09
         0.11757E+09
         0.10044E+09
         0.10228E+09
         0.12646E+09
         0.10409E+09
         0.91993E+08
         0.86901E+08
         0.92230E+08
         0.11691E+09
         0.96136E+08
         0.24985E+09
         0.24499E+09
         0.25004E+09
         0.24229E+09
         0.25066E+09
         0.26363E+09
         0.26449E+09
         0.26075E+09
         0.26256E+09
         0.27016E+09
         0.26132E+09
         0.24595E+09
         0.21677E+09
         0.20425E+09
         0.20792E+09
         0.21331E+09
         0.21656E+09
         0.23676E+09
         0.25371E+09
         0.25522E+09
         0.23335E+09
         0.22470E+09
         0.23299E+09
         0.22990E+09
         0.22822E+09
         0.22864E+09
         0.11235E+10
         0.11749E+10
         0.11572E+10
         0.10514E+10
         0.13071E+10
         0.12237E+10
         0.12726E+10
         0.12869E+10
         0.10946E+10
         0.12860E+10
         0.14015E+10
         0.15828E+10
         0.14305E+10
         0.14441E+10
         0.16394E+10
         0.10727E+10
         0.11532E+10
         0.10003E+10
         0.11928E+10
         0.12560E+10
         0.13089E+10
         0.13372E+10
         0.12545E+10
         0.11451E+10
         0.12991E+10
         0.11029E+10
         0.14388E+10
         0.14121E+10
         0.14189E+10
         0.13463E+10
         0.10837E+10
         0.11398E+10
         0.10601E+10
         0.11104E+10
         0.14356E+10
         0.13117E+10
         0.13178E+10
         0.15848E+10
         0.15414E+10
         0.15219E+10
         0.15524E+10
         0.14723E+10
         0.13915E+10
         0.12225E+10
         0.12729E+10
         0.14359E+10
         0.13228E+10
         0.12411E+10
         0.12148E+10
         0.12615E+10
         0.13756E+10
         0.12659E+10
         0.23006E+10
         0.22428E+10
         0.22902E+10
         0.22195E+10
         0.22860E+10
         0.24032E+10
         0.24407E+10
         0.24334E+10
         0.24497E+10
         0.25061E+10
         0.24340E+10
         0.22899E+10
         0.20519E+10
         0.19394E+10
         0.19463E+10
         0.19723E+10
         0.19920E+10
         0.21600E+10
         0.23118E+10
         0.23217E+10
         0.21490E+10
         0.20824E+10
         0.21515E+10
         0.21355E+10
         0.21119E+10
         0.21058E+10
  
SCALARS                      stress_yy  double 1
LOOKUP_TABLE default
         0.30092E+11
         0.28964E+11
         0.29679E+11
         0.30963E+11
        -0.61389E+02
        -0.68838E+02
        -0.65915E+02
        -0.59881E+02
         0.28925E+11
         0.29306E+11
        -0.61903E+02
        -0.59906E+02
         0.27334E+11
         0.27274E+11
        -0.73553E+02
        -0.69159E+02
         0.30775E+11
         0.27362E+11
        -0.54348E+02
        -0.60281E+02
         0.26112E+11
         0.25144E+11
         0.26686E+11
        -0.72900E+02
        -0.63664E+02
        -0.65741E+02
         0.25182E+11
         0.23771E+11
        -0.69937E+02
        -0.58980E+02
         0.30713E+11
         0.29226E+11
         0.32157E+11
        -0.59681E+02
        -0.55483E+02
        -0.53943E+02
         0.29852E+11
         0.27961E+11
        -0.63140E+02
        -0.57616E+02
         0.29103E+11
         0.27645E+11
        -0.54571E+02
        -0.48311E+02
         0.30339E+11
         0.30889E+11
        -0.59802E+02
        -0.66820E+02
         0.26478E+11
        -0.58422E+02
         0.30781E+11
        -0.68648E+02
         0.24775E+11
        -0.61695E+02
         0.24331E+11
        -0.59178E+02
         0.24338E+11
         0.25916E+11
        -0.60296E+02
        -0.58722E+02
         0.30682E+11
         0.30110E+11
        -0.60461E+02
        -0.68351E+02
         0.31040E+11
        -0.58341E+02
         0.30360E+11
        -0.63672E+02
         0.28573E+11
         0.28395E+11
        -0.61291E+02
        -0.64221E+02
         0.27992E+11
        -0.64760E+02
         0.23270E+11
        -0.51165E+02
         0.23024E+11
        -0.49664E+02
         0.23146E+11
        -0.52366E+02
         0.23827E+11
         0.24537E+11
        -0.49892E+02
        -0.52016E+02
         0.25967E+11
        -0.48445E+02
         0.30310E+11
        -0.63530E+02
         0.29631E+11
        -0.65021E+02
         0.29074E+11
         0.28769E+11
        -0.62442E+02
        -0.63170E+02
         0.29145E+11
        -0.57377E+02
         0.29413E+11
        -0.56558E+02
         0.29171E+11
        -0.60547E+02
         0.29085E+11
         0.29330E+11
        -0.59375E+02
        -0.61117E+02
         0.27743E+11
         0.28386E+11
        -0.46099E+02
        -0.43358E+02
         0.27621E+11
        -0.44018E+02
         0.28363E+11
        -0.42206E+02
         0.27631E+11
        -0.41618E+02
         0.26012E+11
        -0.39330E+02
         0.24446E+11
        -0.34940E+02
         0.23511E+11
        -0.31461E+02
         0.23416E+11
        -0.31243E+02
         0.23445E+11
        -0.33881E+02
         0.24460E+11
        -0.35608E+02
         0.26360E+11
        -0.32514E+02
         0.28455E+11
        -0.29308E+02
         0.29684E+11
        -0.29275E+02
         0.30901E+11
        -0.32722E+02
         0.31707E+11
        -0.37310E+02
         0.31677E+11
        -0.40083E+02
         0.29723E+11
        -0.43289E+02
         0.28364E+11
        -0.46378E+02
         0.27897E+11
        -0.42485E+02
         0.28625E+11
        -0.37271E+02
         0.29005E+11
        -0.37156E+02
         0.28368E+11
        -0.40653E+02
         0.28378E+11
        -0.43339E+02
         0.28858E+11
        -0.41128E+02
         0.29485E+11
        -0.39761E+02
        -0.22404E+11
        -0.22717E+11
        -0.22675E+11
        -0.22267E+11
        -0.23012E+11
        -0.22640E+11
        -0.23099E+11
        -0.22861E+11
        -0.22332E+11
        -0.22664E+11
        -0.23348E+11
        -0.23423E+11
        -0.23222E+11
        -0.23208E+11
        -0.23339E+11
        -0.22287E+11
        -0.22364E+11
        -0.22147E+11
        -0.22750E+11
        -0.22642E+11
        -0.22796E+11
        -0.22695E+11
        -0.22882E+11
        -0.22833E+11
        -0.22651E+11
        -0.22665E+11
        -0.22973E+11
        -0.22945E+11
        -0.23170E+11
        -0.22829E+11
        -0.22325E+11
        -0.22721E+11
        -0.22328E+11
        -0.22589E+11
        -0.23475E+11
        -0.23198E+11
        -0.23064E+11
        -0.23221E+11
        -0.23242E+11
        -0.23494E+11
        -0.23674E+11
        -0.23230E+11
        -0.22790E+11
        -0.22851E+11
        -0.23077E+11
        -0.23465E+11
        -0.23135E+11
        -0.22771E+11
        -0.22796E+11
        -0.23079E+11
        -0.23360E+11
        -0.22979E+11
        -0.24098E+11
        -0.23781E+11
        -0.23834E+11
        -0.23759E+11
        -0.23779E+11
        -0.23951E+11
        -0.24125E+11
        -0.24181E+11
        -0.24157E+11
        -0.24174E+11
        -0.24247E+11
        -0.23795E+11
        -0.23621E+11
        -0.23553E+11
        -0.23436E+11
        -0.23346E+11
        -0.23350E+11
        -0.23502E+11
        -0.23994E+11
        -0.23879E+11
        -0.23710E+11
        -0.23712E+11
        -0.23741E+11
        -0.23902E+11
        -0.23664E+11
        -0.23575E+11
        -0.94981E+05
        -0.82912E+05
         0.10069E+05
         0.40726E+06
         0.20783E+05
         0.38650E+06
        -0.15419E+06
        -0.70862E+06
         0.25327E+06
        -0.70952E+06
        -0.53072E+06
        -0.85804E+06
        -0.31832E+06
        -0.84433E+06
        -0.11016E+07
         0.38062E+05
         0.26091E+06
         0.34453E+06
        -0.14369E+06
         0.48559E+05
        -0.11400E+06
         0.13914E+06
        -0.23582E+06
        -0.91992E+05
        -0.56971E+06
        -0.50158E+05
        -0.11322E+07
        -0.91302E+06
        -0.47189E+06
        -0.51843E+06
         0.86506E+04
        -0.15777E+05
         0.31032E+06
         0.51413E+06
         0.19620E+05
        -0.45400E+05
        -0.82207E+05
        -0.99002E+06
        -0.98117E+06
        -0.72800E+06
        -0.16094E+06
        -0.10793E+06
        -0.99495E+05
        -0.31600E+06
        -0.38955E+06
        -0.78640E+06
        -0.35630E+06
        -0.10742E+06
        -0.11361E+06
        -0.11576E+06
         0.85280E+05
         0.47028E+06
        -0.60915E+06
         0.22435E+06
        -0.62232E+06
        -0.19749E+06
         0.50074E+05
         0.18647E+06
        -0.10594E+06
         0.73334E+05
        -0.11095E+06
        -0.32784E+06
         0.11192E+06
         0.31845E+06
         0.77444E+05
         0.42607E+06
        -0.16073E+06
        -0.67608E+06
        -0.85350E+06
        -0.10538E+07
        -0.13479E+07
        -0.93726E+06
        -0.83437E+06
        -0.10196E+07
        -0.12043E+07
        -0.74377E+06
        -0.68391E+04
         0.35170E+06
        -0.11851E+06
        -0.10544E+06
        -0.12324E+05
         0.38716E+06
        -0.76728E+04
         0.36236E+06
        -0.17882E+06
        -0.73660E+06
         0.22936E+06
        -0.74042E+06
        -0.55843E+06
        -0.89825E+06
        -0.35202E+06
        -0.87163E+06
        -0.11427E+07
         0.14575E+05
         0.23500E+06
         0.32473E+06
        -0.17017E+06
         0.21126E+05
        -0.14794E+06
         0.10659E+06
        -0.26996E+06
        -0.11876E+06
        -0.60162E+06
        -0.75633E+05
        -0.11587E+07
        -0.94069E+06
        -0.50131E+06
        -0.55014E+06
        -0.14094E+05
        -0.39918E+05
         0.28959E+06
         0.49371E+06
        -0.13995E+05
        -0.70822E+05
        -0.11007E+06
        -0.10303E+07
        -0.10177E+07
        -0.76280E+06
        -0.20024E+06
        -0.14563E+06
        -0.13558E+06
        -0.34806E+06
        -0.41904E+06
        -0.82091E+06
        -0.38508E+06
        -0.13278E+06
        -0.13609E+06
        -0.13792E+06
         0.54351E+05
         0.44452E+06
        -0.67806E+06
         0.15699E+06
        -0.68882E+06
        -0.26102E+06
        -0.17302E+05
         0.11144E+06
        -0.18077E+06
        -0.20694E+04
        -0.18731E+06
        -0.40599E+06
         0.34239E+05
         0.24658E+06
         0.17818E+05
         0.37043E+06
        -0.21915E+06
        -0.73869E+06
        -0.91764E+06
        -0.11208E+07
        -0.14151E+07
        -0.10083E+07
        -0.90136E+06
        -0.10800E+07
        -0.12650E+07
        -0.80561E+06
        -0.69370E+05
         0.28809E+06
        -0.11311E+06
        -0.10112E+06
        -0.78251E+04
         0.39234E+06
        -0.51462E+03
         0.36874E+06
        -0.17391E+06
        -0.73171E+06
         0.23229E+06
        -0.74148E+06
        -0.55301E+06
        -0.89043E+06
        -0.34557E+06
        -0.86486E+06
        -0.11336E+07
         0.98246E+04
         0.23348E+06
         0.33010E+06
        -0.17686E+06
         0.15970E+05
        -0.15377E+06
         0.10442E+06
        -0.29236E+06
        -0.13806E+06
        -0.61651E+06
        -0.93456E+05
        -0.11535E+07
        -0.94436E+06
        -0.51306E+06
        -0.57257E+06
        -0.14110E+05
        -0.45362E+05
         0.29492E+06
         0.50030E+06
        -0.51473E+04
        -0.64521E+05
        -0.10393E+06
        -0.10241E+07
        -0.10132E+07
        -0.76130E+06
        -0.20136E+06
        -0.15929E+06
        -0.15506E+06
        -0.36959E+06
        -0.42417E+06
        -0.81624E+06
        -0.37994E+06
        -0.12677E+06
        -0.12884E+06
        -0.12950E+06
         0.63135E+05
         0.45160E+06
        -0.65745E+06
         0.17538E+06
        -0.66851E+06
        -0.24528E+06
        -0.56680E+04
         0.12317E+06
        -0.16581E+06
         0.12931E+05
        -0.17232E+06
        -0.39035E+06
         0.43475E+05
         0.24619E+06
         0.18785E+05
         0.38063E+06
        -0.21232E+06
        -0.75143E+06
        -0.93158E+06
        -0.11173E+07
        -0.13968E+07
        -0.98693E+06
        -0.88236E+06
        -0.10608E+07
        -0.12434E+07
        -0.78728E+06
        -0.54399E+05
         0.30258E+06
        -0.11654E+06
        -0.10311E+06
        -0.98967E+04
         0.38903E+06
        -0.34097E+04
         0.36659E+06
        -0.17613E+06
        -0.73638E+06
         0.22474E+06
        -0.75602E+06
        -0.55601E+06
        -0.89449E+06
        -0.34826E+06
        -0.86805E+06
        -0.11394E+07
        -0.88717E+04
         0.21814E+06
         0.32656E+06
        -0.20005E+06
        -0.71040E+04
        -0.17960E+06
         0.81926E+05
        -0.34450E+06
        -0.18125E+06
        -0.65392E+06
        -0.13412E+06
        -0.11607E+07
        -0.96677E+06
        -0.54924E+06
        -0.62493E+06
        -0.25164E+05
        -0.67088E+05
         0.29156E+06
         0.49690E+06
        -0.94277E+04
        -0.67154E+05
        -0.10617E+06
        -0.10321E+07
        -0.10231E+07
        -0.77741E+06
        -0.22374E+06
        -0.20198E+06
        -0.20768E+06
        -0.42021E+06
        -0.44868E+06
        -0.83020E+06
        -0.38928E+06
        -0.13128E+06
        -0.13196E+06
        -0.13270E+06
         0.58486E+05
         0.44864E+06
        -0.66703E+06
         0.16870E+06
        -0.67915E+06
        -0.25445E+06
        -0.11913E+05
         0.11612E+06
        -0.17766E+06
         0.16227E+03
        -0.18484E+06
        -0.40549E+06
         0.19556E+05
         0.20750E+06
        -0.17357E+05
         0.36348E+06
        -0.23159E+06
        -0.80469E+06
        -0.98821E+06
        -0.11439E+07
        -0.14094E+07
        -0.99889E+06
        -0.89154E+06
        -0.10716E+07
        -0.12548E+07
        -0.79478E+06
        -0.60034E+05
         0.29702E+06
        -0.12270E+06
        -0.10706E+06
        -0.13339E+05
         0.38561E+06
        -0.67052E+04
         0.36363E+06
        -0.17953E+06
        -0.74335E+06
         0.21587E+06
        -0.77108E+06
        -0.55922E+06
        -0.89698E+06
        -0.35125E+06
        -0.87158E+06
        -0.11426E+07
        -0.21534E+05
         0.20596E+06
         0.32328E+06
        -0.21540E+06
        -0.23700E+05
        -0.19633E+06
         0.65757E+05
        -0.37656E+06
        -0.20797E+06
        -0.68136E+06
        -0.16009E+06
        -0.11669E+07
        -0.98292E+06
        -0.57410E+06
        -0.65991E+06
        -0.36690E+05
        -0.82831E+05
         0.28517E+06
         0.49220E+06
        -0.13853E+05
        -0.70499E+05
        -0.10954E+06
        -0.10382E+07
        -0.10315E+07
        -0.78977E+06
        -0.23961E+06
        -0.23064E+06
        -0.24221E+06
        -0.45255E+06
        -0.46498E+06
        -0.83948E+06
        -0.39759E+06
        -0.13869E+06
        -0.13803E+06
        -0.13802E+06
         0.51221E+05
         0.44394E+06
        -0.67563E+06
         0.16286E+06
        -0.68823E+06
        -0.26158E+06
        -0.14864E+05
         0.11408E+06
        -0.18266E+06
        -0.82278E+04
        -0.19548E+06
        -0.41486E+06
         0.49888E+04
         0.18070E+06
        -0.41997E+05
         0.35022E+06
        -0.24519E+06
        -0.83923E+06
        -0.10281E+07
        -0.11629E+07
        -0.14152E+07
        -0.10097E+07
        -0.90368E+06
        -0.10839E+07
        -0.12694E+07
        -0.80704E+06
        -0.67543E+05
         0.29146E+06
        -0.13749E+06
        -0.11451E+06
        -0.16740E+05
         0.38821E+06
        -0.31169E+04
         0.36805E+06
        -0.18191E+06
        -0.75464E+06
         0.20379E+06
        -0.79060E+06
        -0.55706E+06
        -0.88787E+06
        -0.34787E+06
        -0.87041E+06
        -0.11320E+07
        -0.19294E+05
         0.20298E+06
         0.32878E+06
        -0.21255E+06
        -0.21195E+05
        -0.19185E+06
         0.71383E+05
        -0.37589E+06
        -0.20845E+06
        -0.69416E+06
        -0.16361E+06
        -0.11684E+07
        -0.98475E+06
        -0.57248E+06
        -0.66186E+06
        -0.50445E+05
        -0.91075E+05
         0.27460E+06
         0.49097E+06
        -0.99228E+04
        -0.70249E+05
        -0.11020E+06
        -0.10319E+07
        -0.10269E+07
        -0.78394E+06
        -0.23220E+06
        -0.22601E+06
        -0.23859E+06
        -0.45495E+06
        -0.46733E+06
        -0.84115E+06
        -0.40483E+06
        -0.15386E+06
        -0.15418E+06
        -0.14572E+06
         0.48846E+05
         0.44593E+06
        -0.65868E+06
         0.18027E+06
        -0.67414E+06
        -0.25205E+06
        -0.49014E+04
         0.12781E+06
        -0.16712E+06
         0.66982E+04
        -0.17858E+06
        -0.39239E+06
         0.24627E+05
         0.19248E+06
        -0.28990E+05
         0.36371E+06
        -0.23206E+06
        -0.82882E+06
        -0.10207E+07
        -0.11554E+07
        -0.14062E+07
        -0.10034E+07
        -0.90513E+06
        -0.10926E+07
        -0.12752E+07
        -0.80401E+06
        -0.58913E+05
         0.30381E+06
        -0.15995E+06
        -0.12758E+06
        -0.24593E+05
         0.38607E+06
        -0.63783E+04
         0.36770E+06
        -0.19189E+06
        -0.77551E+06
         0.18402E+06
        -0.81830E+06
        -0.56389E+06
        -0.89123E+06
        -0.35334E+06
        -0.87914E+06
        -0.11353E+07
        -0.23144E+05
         0.19293E+06
         0.32781E+06
        -0.21545E+06
        -0.24980E+05
        -0.19444E+06
         0.69756E+05
        -0.37846E+06
        -0.21164E+06
        -0.71143E+06
        -0.17007E+06
        -0.11791E+07
        -0.99302E+06
        -0.57496E+06
        -0.66667E+06
        -0.69673E+05
        -0.10465E+06
         0.25856E+06
         0.48469E+06
        -0.15119E+05
        -0.75646E+05
        -0.11680E+06
        -0.10383E+07
        -0.10333E+07
        -0.78726E+06
        -0.23377E+06
        -0.22654E+06
        -0.23898E+06
        -0.46021E+06
        -0.47652E+06
        -0.85426E+06
        -0.42140E+06
        -0.17685E+06
        -0.17770E+06
        -0.16011E+06
         0.39166E+05
         0.44270E+06
        -0.66568E+06
         0.17473E+06
        -0.67852E+06
        -0.25686E+06
        -0.11944E+05
         0.11951E+06
        -0.17395E+06
         0.91883E+03
        -0.18458E+06
        -0.39684E+06
         0.21082E+05
         0.18810E+06
        -0.29749E+05
         0.36261E+06
        -0.23492E+06
        -0.83054E+06
        -0.10243E+07
        -0.11675E+07
        -0.14240E+07
        -0.10230E+07
        -0.92722E+06
        -0.11197E+07
        -0.12991E+07
        -0.81649E+06
        -0.65553E+05
         0.29867E+06
        -0.16657E+06
        -0.13240E+06
        -0.27945E+05
         0.38322E+06
        -0.98645E+04
         0.36483E+06
        -0.19699E+06
        -0.78335E+06
         0.17753E+06
        -0.82806E+06
        -0.56886E+06
        -0.89598E+06
        -0.35873E+06
        -0.88394E+06
        -0.11402E+07
        -0.26619E+05
         0.18874E+06
         0.32526E+06
        -0.21814E+06
        -0.27924E+05
        -0.19835E+06
         0.65993E+05
        -0.38183E+06
        -0.21407E+06
        -0.71878E+06
        -0.17368E+06
        -0.11837E+07
        -0.99742E+06
        -0.57938E+06
        -0.67128E+06
        -0.75946E+05
        -0.10996E+06
         0.25326E+06
         0.48113E+06
        -0.19501E+05
        -0.78625E+05
        -0.12085E+06
        -0.10462E+07
        -0.10406E+07
        -0.79377E+06
        -0.24059E+06
        -0.23157E+06
        -0.24233E+06
        -0.46495E+06
        -0.48215E+06
        -0.86049E+06
        -0.42707E+06
        -0.18253E+06
        -0.18308E+06
        -0.16438E+06
         0.33192E+05
         0.43870E+06
        -0.67531E+06
         0.16515E+06
        -0.68515E+06
        -0.26352E+06
        -0.20086E+05
         0.11248E+06
        -0.18113E+06
        -0.89980E+04
        -0.19791E+06
        -0.41080E+06
         0.84462E+04
         0.18231E+06
        -0.34266E+05
         0.35295E+06
        -0.24504E+06
        -0.84030E+06
        -0.10371E+07
        -0.11798E+07
        -0.14342E+07
        -0.10312E+07
        -0.93401E+06
        -0.11288E+07
        -0.13112E+07
        -0.82750E+06
        -0.74796E+05
         0.28956E+06
        -0.16251E+06
        -0.12908E+06
        -0.25750E+05
         0.38391E+06
        -0.65627E+04
         0.36559E+06
        -0.19367E+06
        -0.77932E+06
         0.18019E+06
        -0.82526E+06
        -0.56580E+06
        -0.89100E+06
        -0.35529E+06
        -0.87894E+06
        -0.11333E+07
        -0.22266E+05
         0.19233E+06
         0.32780E+06
        -0.21384E+06
        -0.23894E+05
        -0.19376E+06
         0.70488E+05
        -0.37700E+06
        -0.20959E+06
        -0.71675E+06
        -0.16940E+06
        -0.11772E+07
        -0.99226E+06
        -0.57543E+06
        -0.66827E+06
        -0.72275E+05
        -0.10674E+06
         0.25562E+06
         0.48222E+06
        -0.14412E+05
        -0.75431E+05
        -0.11780E+06
        -0.10418E+07
        -0.10379E+07
        -0.79081E+06
        -0.23632E+06
        -0.22664E+06
        -0.23744E+06
        -0.46106E+06
        -0.47902E+06
        -0.85679E+06
        -0.42381E+06
        -0.17849E+06
        -0.17852E+06
        -0.16024E+06
         0.35778E+05
         0.43948E+06
        -0.66083E+06
         0.17929E+06
        -0.67683E+06
        -0.26004E+06
        -0.13070E+05
         0.12361E+06
        -0.16872E+06
        -0.97200E+02
        -0.19461E+06
        -0.40562E+06
         0.17774E+05
         0.19548E+06
        -0.22770E+05
         0.36035E+06
        -0.23798E+06
        -0.83224E+06
        -0.10291E+07
        -0.11696E+07
        -0.14246E+07
        -0.10198E+07
        -0.92234E+06
        -0.11184E+07
        -0.13026E+07
        -0.81956E+06
        -0.66821E+05
         0.29822E+06
        -0.16367E+06
        -0.12932E+06
        -0.26589E+05
         0.38197E+06
        -0.74666E+04
         0.36401E+06
        -0.19439E+06
        -0.78212E+06
         0.17649E+06
        -0.83029E+06
        -0.56807E+06
        -0.89385E+06
        -0.35613E+06
        -0.88132E+06
        -0.11385E+07
        -0.24440E+05
         0.18954E+06
         0.32508E+06
        -0.21610E+06
        -0.26168E+05
        -0.19592E+06
         0.68073E+05
        -0.37876E+06
        -0.21117E+06
        -0.72025E+06
        -0.17081E+06
        -0.11786E+07
        -0.99275E+06
        -0.57647E+06
        -0.67080E+06
        -0.74224E+05
        -0.10828E+06
         0.25265E+06
         0.47957E+06
        -0.15981E+05
        -0.76833E+05
        -0.11879E+06
        -0.10487E+07
        -0.10425E+07
        -0.79435E+06
        -0.23976E+06
        -0.22853E+06
        -0.24031E+06
        -0.46267E+06
        -0.48058E+06
        -0.85889E+06
        -0.42660E+06
        -0.18108E+06
        -0.18027E+06
        -0.16122E+06
         0.33457E+05
         0.43712E+06
        -0.66495E+06
         0.17594E+06
        -0.68375E+06
        -0.26581E+06
        -0.13941E+05
         0.11960E+06
        -0.17810E+06
        -0.10503E+05
        -0.20084E+06
        -0.41491E+06
         0.76480E+04
         0.19036E+06
        -0.28707E+05
         0.35706E+06
        -0.24103E+06
        -0.83520E+06
        -0.10298E+07
        -0.11718E+07
        -0.14276E+07
        -0.10275E+07
        -0.93198E+06
        -0.11258E+07
        -0.13064E+07
        -0.82122E+06
        -0.70882E+05
         0.29247E+06
        -0.16675E+06
        -0.13175E+06
        -0.28600E+05
         0.38079E+06
        -0.99785E+04
         0.36297E+06
        -0.19654E+06
        -0.78581E+06
         0.17305E+06
        -0.83531E+06
        -0.57058E+06
        -0.89765E+06
        -0.35859E+06
        -0.88316E+06
        -0.11438E+07
        -0.27444E+05
         0.18729E+06
         0.32353E+06
        -0.21881E+06
        -0.27864E+05
        -0.19863E+06
         0.65622E+05
        -0.38142E+06
        -0.21366E+06
        -0.72373E+06
        -0.17360E+06
        -0.11797E+07
        -0.99386E+06
        -0.57768E+06
        -0.67285E+06
        -0.77033E+05
        -0.11089E+06
         0.25088E+06
         0.47902E+06
        -0.19843E+05
        -0.79191E+05
        -0.12099E+06
        -0.10555E+07
        -0.10475E+07
        -0.79751E+06
        -0.24182E+06
        -0.23012E+06
        -0.24294E+06
        -0.46538E+06
        -0.48310E+06
        -0.86166E+06
        -0.42922E+06
        -0.18329E+06
        -0.18192E+06
        -0.16195E+06
         0.31253E+05
         0.43598E+06
        -0.67325E+06
         0.16892E+06
        -0.68906E+06
        -0.26756E+06
        -0.16288E+05
         0.11142E+06
        -0.18990E+06
        -0.19888E+05
        -0.20729E+06
        -0.42159E+06
         0.35106E+04
         0.18531E+06
        -0.35837E+05
         0.35218E+06
        -0.24611E+06
        -0.84122E+06
        -0.10340E+07
        -0.11765E+07
        -0.14334E+07
        -0.10338E+07
        -0.93932E+06
        -0.11334E+07
        -0.13119E+07
        -0.82619E+06
        -0.77152E+05
         0.28589E+06
        -0.16487E+06
        -0.13068E+06
        -0.27928E+05
         0.38216E+06
        -0.78212E+04
         0.36497E+06
        -0.19443E+06
        -0.78328E+06
         0.17376E+06
        -0.83530E+06
        -0.56772E+06
        -0.89422E+06
        -0.35755E+06
        -0.87857E+06
        -0.11374E+07
        -0.25036E+05
         0.18859E+06
         0.32606E+06
        -0.21632E+06
        -0.24622E+05
        -0.19502E+06
         0.69638E+05
        -0.37817E+06
        -0.21089E+06
        -0.72379E+06
        -0.17084E+06
        -0.11755E+07
        -0.99055E+06
        -0.57327E+06
        -0.66949E+06
        -0.74130E+05
        -0.10866E+06
         0.25377E+06
         0.48183E+06
        -0.16681E+05
        -0.77186E+05
        -0.11975E+06
        -0.10520E+07
        -0.10448E+07
        -0.79292E+06
        -0.23703E+06
        -0.22634E+06
        -0.23901E+06
        -0.46315E+06
        -0.48134E+06
        -0.85968E+06
        -0.42733E+06
        -0.18084E+06
        -0.17871E+06
        -0.15826E+06
         0.33959E+05
         0.43842E+06
        -0.66264E+06
         0.18030E+06
        -0.67843E+06
        -0.26229E+06
        -0.18082E+05
         0.11205E+06
        -0.18127E+06
        -0.10346E+05
        -0.20100E+06
        -0.41195E+06
         0.12679E+05
         0.18959E+06
        -0.28151E+05
         0.35994E+06
        -0.23898E+06
        -0.83581E+06
        -0.10306E+07
        -0.11720E+07
        -0.14290E+07
        -0.10269E+07
        -0.93130E+06
        -0.11257E+07
        -0.13053E+07
        -0.82030E+06
        -0.68512E+05
         0.29602E+06
        -0.16635E+06
        -0.13262E+06
        -0.29883E+05
         0.37998E+06
        -0.10382E+05
         0.36275E+06
        -0.19712E+06
        -0.78671E+06
         0.17080E+06
        -0.84098E+06
        -0.57123E+06
        -0.89897E+06
        -0.36252E+06
        -0.88165E+06
        -0.11414E+07
        -0.27474E+05
         0.18575E+06
         0.32315E+06
        -0.21959E+06
        -0.27319E+05
        -0.19968E+06
         0.65244E+05
        -0.38269E+06
        -0.21378E+06
        -0.72893E+06
        -0.17327E+06
        -0.11794E+07
        -0.99475E+06
        -0.57656E+06
        -0.67257E+06
        -0.76745E+05
        -0.11112E+06
         0.25022E+06
         0.47942E+06
        -0.20369E+05
        -0.79928E+05
        -0.12334E+06
        -0.10593E+07
        -0.10521E+07
        -0.79860E+06
        -0.24342E+06
        -0.23187E+06
        -0.24345E+06
        -0.46831E+06
        -0.48571E+06
        -0.86363E+06
        -0.43096E+06
        -0.18435E+06
        -0.18103E+06
        -0.15923E+06
         0.31013E+05
         0.43574E+06
        -0.67084E+06
         0.17311E+06
        -0.68675E+06
        -0.27171E+06
        -0.29140E+05
         0.10159E+06
        -0.18762E+06
        -0.18457E+05
        -0.21187E+06
        -0.42268E+06
        -0.38844E+03
         0.17662E+06
        -0.36675E+05
         0.35108E+06
        -0.24657E+06
        -0.84463E+06
        -0.10444E+07
        -0.11842E+07
        -0.14352E+07
        -0.10353E+07
        -0.94004E+06
        -0.11301E+07
        -0.13084E+07
        -0.82648E+06
        -0.77028E+05
         0.28759E+06
        -0.16667E+06
        -0.13324E+06
        -0.30624E+05
         0.37920E+06
        -0.10880E+05
         0.36206E+06
        -0.19767E+06
        -0.78784E+06
         0.16998E+06
        -0.84312E+06
        -0.57200E+06
        -0.89954E+06
        -0.36332E+06
        -0.88130E+06
        -0.11419E+07
        -0.27993E+05
         0.18564E+06
         0.32257E+06
        -0.22013E+06
        -0.27468E+05
        -0.20090E+06
         0.64531E+05
        -0.38372E+06
        -0.21427E+06
        -0.73116E+06
        -0.17387E+06
        -0.11786E+07
        -0.99531E+06
        -0.57730E+06
        -0.67380E+06
        -0.78126E+05
        -0.11203E+06
         0.24867E+06
         0.47886E+06
        -0.21197E+05
        -0.80867E+05
        -0.12445E+06
        -0.10632E+07
        -0.10568E+07
        -0.80118E+06
        -0.24433E+06
        -0.23227E+06
        -0.24410E+06
        -0.46948E+06
        -0.48677E+06
        -0.86470E+06
        -0.43231E+06
        -0.18570E+06
        -0.18155E+06
        -0.15855E+06
         0.30486E+05
         0.43498E+06
        -0.67100E+06
         0.17322E+06
        -0.68910E+06
        -0.27535E+06
        -0.29425E+05
         0.10147E+06
        -0.19013E+06
        -0.25215E+05
        -0.21974E+06
        -0.42698E+06
        -0.80996E+03
         0.17528E+06
        -0.38817E+05
         0.34761E+06
        -0.25053E+06
        -0.84753E+06
        -0.10464E+07
        -0.11860E+07
        -0.14370E+07
        -0.10383E+07
        -0.94394E+06
        -0.11326E+07
        -0.13087E+07
        -0.82713E+06
        -0.80736E+05
         0.28428E+06
        -0.16057E+06
        -0.12695E+06
        -0.25596E+05
         0.38303E+06
        -0.41106E+04
         0.36679E+06
        -0.19046E+06
        -0.78146E+06
         0.17331E+06
        -0.83951E+06
        -0.56478E+06
        -0.88888E+06
        -0.35447E+06
        -0.87350E+06
        -0.11320E+07
        -0.22708E+05
         0.19060E+06
         0.32726E+06
        -0.21439E+06
        -0.20880E+05
        -0.19257E+06
         0.72521E+05
        -0.37568E+06
        -0.20834E+06
        -0.72662E+06
        -0.16789E+06
        -0.11704E+07
        -0.98653E+06
        -0.56882E+06
        -0.66702E+06
        -0.72290E+05
        -0.10596E+06
         0.25323E+06
         0.48263E+06
        -0.12809E+05
        -0.74861E+05
        -0.11768E+06
        -0.10573E+07
        -0.10501E+07
        -0.79335E+06
        -0.23617E+06
        -0.22385E+06
        -0.23675E+06
        -0.46178E+06
        -0.47925E+06
        -0.85635E+06
        -0.42572E+06
        -0.17953E+06
        -0.17568E+06
        -0.15277E+06
         0.36090E+05
         0.43933E+06
        -0.65176E+06
         0.19228E+06
        -0.67313E+06
        -0.26368E+06
        -0.15230E+05
         0.11965E+06
        -0.17488E+06
        -0.13614E+05
        -0.20691E+06
        -0.41285E+06
         0.11936E+05
         0.19014E+06
        -0.27072E+05
         0.36062E+06
        -0.23560E+06
        -0.83205E+06
        -0.10291E+07
        -0.11671E+07
        -0.14208E+07
        -0.10213E+07
        -0.92957E+06
        -0.11219E+07
        -0.12970E+07
        -0.81285E+06
        -0.65249E+05
         0.29997E+06
        -0.16323E+06
        -0.12868E+06
        -0.27425E+05
         0.38037E+06
        -0.72680E+04
         0.36451E+06
        -0.19286E+06
        -0.78561E+06
         0.16948E+06
        -0.84608E+06
        -0.56822E+06
        -0.89251E+06
        -0.35668E+06
        -0.87678E+06
        -0.11374E+07
        -0.25826E+05
         0.18707E+06
         0.32490E+06
        -0.21863E+06
        -0.24212E+05
        -0.19578E+06
         0.68511E+05
        -0.37849E+06
        -0.21184E+06
        -0.73236E+06
        -0.17139E+06
        -0.11739E+07
        -0.98939E+06
        -0.56936E+06
        -0.66940E+06
        -0.74196E+05
        -0.10877E+06
         0.25073E+06
         0.47972E+06
        -0.17573E+05
        -0.77347E+05
        -0.11946E+06
        -0.10655E+07
        -0.10563E+07
        -0.79611E+06
        -0.24027E+06
        -0.22812E+06
        -0.24186E+06
        -0.46572E+06
        -0.48310E+06
        -0.86009E+06
        -0.42878E+06
        -0.18148E+06
        -0.17753E+06
        -0.15480E+06
         0.32556E+05
         0.43658E+06
        -0.66391E+06
         0.18194E+06
        -0.68271E+06
        -0.26866E+06
        -0.16998E+05
         0.11503E+06
        -0.18511E+06
        -0.25875E+05
        -0.21896E+06
        -0.42354E+06
        -0.65972E+03
         0.17565E+06
        -0.37217E+05
         0.35555E+06
        -0.23795E+06
        -0.83365E+06
        -0.10343E+07
        -0.11758E+07
        -0.14272E+07
        -0.10289E+07
        -0.93659E+06
        -0.11298E+07
        -0.13054E+07
        -0.81797E+06
        -0.70026E+05
         0.29201E+06
        -0.16762E+06
        -0.13320E+06
        -0.32083E+05
         0.37686E+06
        -0.12182E+05
         0.36028E+06
        -0.19681E+06
        -0.79036E+06
         0.16439E+06
        -0.85620E+06
        -0.57236E+06
        -0.89845E+06
        -0.36152E+06
        -0.88013E+06
        -0.11440E+07
        -0.29637E+05
         0.18181E+06
         0.32215E+06
        -0.22214E+06
        -0.25765E+05
        -0.19968E+06
         0.63827E+05
        -0.38186E+06
        -0.21483E+06
        -0.74108E+06
        -0.17482E+06
        -0.11820E+07
        -0.99407E+06
        -0.55944E+06
        -0.66476E+06
        -0.77644E+05
        -0.11277E+06
         0.24824E+06
         0.47768E+06
        -0.22942E+05
        -0.81397E+05
        -0.12366E+06
        -0.10772E+07
        -0.10624E+07
        -0.78891E+06
        -0.24084E+06
        -0.23276E+06
        -0.24866E+06
        -0.46995E+06
        -0.48792E+06
        -0.86598E+06
        -0.43390E+06
        -0.18500E+06
        -0.17976E+06
        -0.15621E+06
         0.29421E+05
         0.43324E+06
        -0.67198E+06
         0.17439E+06
        -0.68928E+06
        -0.27427E+06
        -0.24893E+05
         0.10233E+06
        -0.19957E+06
        -0.39579E+05
        -0.23109E+06
        -0.42633E+06
        -0.22649E+05
         0.14102E+06
        -0.51476E+05
         0.34761E+06
        -0.24502E+06
        -0.84010E+06
        -0.10424E+07
        -0.11849E+07
        -0.14377E+07
        -0.10407E+07
        -0.94463E+06
        -0.11373E+07
        -0.13140E+07
        -0.82410E+06
        -0.79576E+05
         0.28134E+06
        -0.16181E+06
        -0.12741E+06
        -0.26608E+05
         0.38155E+06
        -0.49786E+04
         0.36540E+06
        -0.19049E+06
        -0.78407E+06
         0.16637E+06
        -0.85956E+06
        -0.56589E+06
        -0.89046E+06
        -0.35496E+06
        -0.87275E+06
        -0.11352E+07
        -0.24293E+05
         0.18513E+06
         0.32656E+06
        -0.21547E+06
        -0.15005E+05
        -0.19279E+06
         0.70807E+05
        -0.37541E+06
        -0.20843E+06
        -0.74142E+06
        -0.16833E+06
        -0.11833E+07
        -0.98858E+06
        -0.52894E+06
        -0.64228E+06
        -0.72661E+05
        -0.10661E+06
         0.25269E+06
         0.48272E+06
        -0.13957E+05
        -0.74693E+05
        -0.11727E+06
        -0.10774E+07
        -0.10546E+07
        -0.76040E+06
        -0.22494E+06
        -0.22422E+06
        -0.24440E+06
        -0.46340E+06
        -0.48057E+06
        -0.85668E+06
        -0.42701E+06
        -0.17935E+06
        -0.17338E+06
        -0.14877E+06
         0.36878E+05
         0.43841E+06
        -0.65218E+06
         0.19376E+06
        -0.66954E+06
        -0.26037E+06
        -0.16056E+05
         0.11269E+06
        -0.18527E+06
        -0.25096E+05
        -0.21538E+06
        -0.39554E+06
        -0.29794E+05
         0.11314E+06
        -0.50442E+05
         0.35838E+06
        -0.23590E+06
        -0.83255E+06
        -0.10332E+07
        -0.11692E+07
        -0.14183E+07
        -0.10225E+07
        -0.92904E+06
        -0.11212E+07
        -0.12959E+07
        -0.80708E+06
        -0.65741E+05
         0.29588E+06
        -0.18383E+06
        -0.14847E+06
        -0.47308E+05
         0.36175E+06
        -0.31622E+05
         0.34241E+06
        -0.21375E+06
        -0.81058E+06
         0.14316E+06
        -0.89307E+06
        -0.59216E+06
        -0.92784E+06
        -0.38870E+06
        -0.89972E+06
        -0.11744E+07
        -0.44725E+05
         0.16113E+06
         0.30683E+06
        -0.23896E+06
        -0.36896E+05
        -0.22473E+06
         0.40046E+05
        -0.40567E+06
        -0.23076E+06
        -0.77129E+06
        -0.18942E+06
        -0.12154E+07
        -0.10152E+07
        -0.54078E+06
        -0.65857E+06
        -0.92941E+05
        -0.12853E+06
         0.23181E+06
         0.46080E+06
        -0.46753E+05
        -0.99784E+05
        -0.14579E+06
        -0.11214E+07
        -0.10885E+07
        -0.77973E+06
        -0.25683E+06
        -0.25778E+06
        -0.27827E+06
        -0.49229E+06
        -0.50991E+06
        -0.89239E+06
        -0.45510E+06
        -0.20305E+06
        -0.19600E+06
        -0.17273E+06
         0.37047E+04
         0.41220E+06
        -0.72093E+06
         0.12690E+06
        -0.73929E+06
        -0.33121E+06
        -0.86849E+05
         0.44517E+05
        -0.25449E+06
        -0.99131E+05
        -0.28496E+06
        -0.45896E+06
        -0.11814E+06
         0.16997E+05
        -0.11808E+06
         0.30232E+06
        -0.29481E+06
        -0.89401E+06
        -0.10969E+07
        -0.12405E+07
        -0.14915E+07
        -0.10925E+07
        -0.99392E+06
        -0.11832E+07
        -0.13595E+07
        -0.87215E+06
        -0.12829E+06
         0.23383E+06
        -0.17134E+06
        -0.14697E+06
        -0.43707E+05
         0.36903E+06
        -0.22999E+05
         0.34979E+06
        -0.21052E+06
        -0.79592E+06
         0.15664E+06
        -0.87242E+06
        -0.58530E+06
        -0.92703E+06
        -0.39732E+06
        -0.88227E+06
        -0.11579E+07
        -0.28937E+05
         0.17634E+06
         0.31757E+06
        -0.22668E+06
        -0.23781E+05
        -0.21069E+06
         0.50560E+05
        -0.38400E+06
        -0.21394E+06
        -0.74884E+06
        -0.17367E+06
        -0.11880E+07
        -0.98460E+06
        -0.51530E+06
        -0.63581E+06
        -0.80424E+05
        -0.11872E+06
         0.23746E+06
         0.45752E+06
        -0.41727E+05
        -0.10178E+06
        -0.15391E+06
        -0.11022E+07
        -0.10663E+07
        -0.76005E+06
        -0.24279E+06
        -0.23858E+06
        -0.25812E+06
        -0.47325E+06
        -0.49968E+06
        -0.88711E+06
        -0.45118E+06
        -0.19285E+06
        -0.18762E+06
        -0.17119E+06
         0.58711E+04
         0.41255E+06
        -0.69441E+06
         0.16129E+06
        -0.73070E+06
        -0.34650E+06
        -0.11869E+06
         0.25179E+05
        -0.22269E+06
        -0.66505E+05
        -0.25917E+06
        -0.44357E+06
        -0.11388E+06
         0.30095E+05
        -0.92498E+05
         0.31491E+06
        -0.26805E+06
        -0.85577E+06
        -0.10645E+07
        -0.12155E+07
        -0.14807E+07
        -0.10938E+07
        -0.97960E+06
        -0.11627E+07
        -0.13269E+07
        -0.83230E+06
        -0.96851E+05
         0.26643E+06
         0.86663E+08
         0.81973E+08
         0.81446E+08
         0.74735E+08
         0.10485E+09
         0.88328E+08
         0.88679E+08
         0.98398E+08
         0.77537E+08
         0.97982E+08
         0.98401E+08
         0.14286E+09
         0.12330E+09
         0.10132E+09
         0.14809E+09
         0.75619E+08
         0.81569E+08
         0.71441E+08
         0.84619E+08
         0.88732E+08
         0.11401E+09
         0.11381E+09
         0.10738E+09
         0.80973E+08
         0.89817E+08
         0.77602E+08
         0.10002E+09
         0.97144E+08
         0.97695E+08
         0.93047E+08
         0.76373E+08
         0.80324E+08
         0.75097E+08
         0.78602E+08
         0.12418E+09
         0.97130E+08
         0.10472E+09
         0.13683E+09
         0.12618E+09
         0.12228E+09
         0.13429E+09
         0.12480E+09
         0.11821E+09
         0.10081E+09
         0.10239E+09
         0.12590E+09
         0.10388E+09
         0.92064E+08
         0.86598E+08
         0.91832E+08
         0.11704E+09
         0.96596E+08
         0.25093E+09
         0.24600E+09
         0.25048E+09
         0.24224E+09
         0.25003E+09
         0.26253E+09
         0.26331E+09
         0.25968E+09
         0.26156E+09
         0.26947E+09
         0.26173E+09
         0.24703E+09
         0.21787E+09
         0.20535E+09
         0.20906E+09
         0.21428E+09
         0.21705E+09
         0.23684E+09
         0.25290E+09
         0.25407E+09
         0.23233E+09
         0.22371E+09
         0.23225E+09
         0.23008E+09
         0.22913E+09
         0.22957E+09
         0.11234E+10
         0.11748E+10
         0.11571E+10
         0.10515E+10
         0.13071E+10
         0.12237E+10
         0.12726E+10
         0.12868E+10
         0.10945E+10
         0.12859E+10
         0.14014E+10
         0.15825E+10
         0.14304E+10
         0.14442E+10
         0.16391E+10
         0.10727E+10
         0.11532E+10
         0.10003E+10
         0.11928E+10
         0.12560E+10
         0.13092E+10
         0.13374E+10
         0.12548E+10
         0.11451E+10
         0.12990E+10
         0.11029E+10
         0.14389E+10
         0.14121E+10
         0.14189E+10
         0.13462E+10
         0.10837E+10
         0.11398E+10
         0.10601E+10
         0.11104E+10
         0.14358E+10
         0.13117E+10
         0.13178E+10
         0.15847E+10
         0.15412E+10
         0.15218E+10
         0.15525E+10
         0.14726E+10
         0.13918E+10
         0.12227E+10
         0.12730E+10
         0.14357E+10
         0.13227E+10
         0.12411E+10
         0.12147E+10
         0.12614E+10
         0.13756E+10
         0.12660E+10
         0.23013E+10
         0.22435E+10
         0.22905E+10
         0.22194E+10
         0.22856E+10
         0.24024E+10
         0.24399E+10
         0.24327E+10
         0.24491E+10
         0.25056E+10
         0.24343E+10
         0.22906E+10
         0.20526E+10
         0.19401E+10
         0.19471E+10
         0.19729E+10
         0.19924E+10
         0.21600E+10
         0.23112E+10
         0.23209E+10
         0.21483E+10
         0.20817E+10
         0.21510E+10
         0.21356E+10
         0.21125E+10
         0.21064E+10
  
SCALARS                      stress_zz  double 1
LOOKUP_TABLE default
         0.30559E+11
         0.29431E+11
         0.30147E+11
         0.31431E+11
        -0.14324E+03
        -0.16062E+03
        -0.15380E+03
        -0.13972E+03
         0.29392E+11
         0.29774E+11
        -0.14444E+03
        -0.13978E+03
         0.27801E+11
         0.27741E+11
        -0.17162E+03
        -0.16137E+03
         0.31243E+11
         0.27829E+11
        -0.12681E+03
        -0.14065E+03
         0.26578E+11
         0.25610E+11
         0.27152E+11
        -0.17010E+03
        -0.14855E+03
        -0.15340E+03
         0.25647E+11
         0.24236E+11
        -0.16319E+03
        -0.13762E+03
         0.31181E+11
         0.29694E+11
         0.32626E+11
        -0.13926E+03
        -0.12946E+03
        -0.12587E+03
         0.30320E+11
         0.28428E+11
        -0.14733E+03
        -0.13444E+03
         0.29570E+11
         0.28111E+11
        -0.12733E+03
        -0.11272E+03
         0.30807E+11
         0.31357E+11
        -0.13954E+03
        -0.15591E+03
         0.26944E+11
        -0.13632E+03
         0.31250E+11
        -0.16018E+03
         0.25240E+11
        -0.14396E+03
         0.24796E+11
        -0.13808E+03
         0.24803E+11
         0.26382E+11
        -0.14069E+03
        -0.13702E+03
         0.31151E+11
         0.30578E+11
        -0.14108E+03
        -0.15949E+03
         0.31508E+11
        -0.13613E+03
         0.30828E+11
        -0.14857E+03
         0.29040E+11
         0.28862E+11
        -0.14301E+03
        -0.14985E+03
         0.28459E+11
        -0.15111E+03
         0.23735E+11
        -0.11939E+03
         0.23488E+11
        -0.11588E+03
         0.23611E+11
        -0.12219E+03
         0.24292E+11
         0.25002E+11
        -0.11642E+03
        -0.12137E+03
         0.26433E+11
        -0.11304E+03
         0.30778E+11
        -0.14824E+03
         0.30098E+11
        -0.15172E+03
         0.29541E+11
         0.29236E+11
        -0.14570E+03
        -0.14740E+03
         0.29613E+11
        -0.13388E+03
         0.29880E+11
        -0.13197E+03
         0.29638E+11
        -0.14128E+03
         0.29553E+11
         0.29798E+11
        -0.13854E+03
        -0.14261E+03
         0.28210E+11
         0.28853E+11
        -0.10756E+03
        -0.10117E+03
         0.28088E+11
        -0.10271E+03
         0.28830E+11
        -0.98481E+02
         0.28097E+11
        -0.97109E+02
         0.26477E+11
        -0.91769E+02
         0.24911E+11
        -0.81526E+02
         0.23975E+11
        -0.73410E+02
         0.23880E+11
        -0.72900E+02
         0.23909E+11
        -0.79056E+02
         0.24925E+11
        -0.83086E+02
         0.26826E+11
        -0.75866E+02
         0.28921E+11
        -0.68385E+02
         0.30152E+11
        -0.68307E+02
         0.31369E+11
        -0.76350E+02
         0.32175E+11
        -0.87057E+02
         0.32146E+11
        -0.93526E+02
         0.30190E+11
        -0.10101E+03
         0.28831E+11
        -0.10821E+03
         0.28364E+11
        -0.99132E+02
         0.29092E+11
        -0.86966E+02
         0.29472E+11
        -0.86697E+02
         0.28835E+11
        -0.94856E+02
         0.28845E+11
        -0.10112E+03
         0.29325E+11
        -0.95966E+02
         0.29952E+11
        -0.92776E+02
        -0.22810E+11
        -0.23124E+11
        -0.23082E+11
        -0.22673E+11
        -0.23419E+11
        -0.23047E+11
        -0.23507E+11
        -0.23269E+11
        -0.22739E+11
        -0.23071E+11
        -0.23756E+11
        -0.23831E+11
        -0.23630E+11
        -0.23616E+11
        -0.23747E+11
        -0.22693E+11
        -0.22770E+11
        -0.22553E+11
        -0.23157E+11
        -0.23049E+11
        -0.23203E+11
        -0.23102E+11
        -0.23289E+11
        -0.23241E+11
        -0.23058E+11
        -0.23071E+11
        -0.23381E+11
        -0.23353E+11
        -0.23578E+11
        -0.23236E+11
        -0.22731E+11
        -0.23128E+11
        -0.22734E+11
        -0.22996E+11
        -0.23883E+11
        -0.23606E+11
        -0.23472E+11
        -0.23629E+11
        -0.23650E+11
        -0.23902E+11
        -0.24082E+11
        -0.23638E+11
        -0.23197E+11
        -0.23258E+11
        -0.23485E+11
        -0.23873E+11
        -0.23543E+11
        -0.23178E+11
        -0.23204E+11
        -0.23486E+11
        -0.23768E+11
        -0.23386E+11
        -0.24507E+11
        -0.24189E+11
        -0.24242E+11
        -0.24167E+11
        -0.24186E+11
        -0.24358E+11
        -0.24533E+11
        -0.24589E+11
        -0.24565E+11
        -0.24582E+11
        -0.24655E+11
        -0.24203E+11
        -0.24028E+11
        -0.23960E+11
        -0.23843E+11
        -0.23753E+11
        -0.23757E+11
        -0.23909E+11
        -0.24402E+11
        -0.24286E+11
        -0.24118E+11
        -0.24120E+11
        -0.24149E+11
        -0.24310E+11
        -0.24072E+11
        -0.23982E+11
         0.13990E+07
         0.66056E+06
         0.76343E+06
         0.10871E+07
         0.11759E+07
         0.14448E+07
        -0.17845E+06
         0.67712E+05
         0.14378E+07
        -0.37103E+05
        -0.76151E+06
         0.86029E+06
         0.96690E+06
        -0.15338E+07
         0.40939E+06
         0.68202E+06
         0.72556E+06
         0.86141E+06
         0.20224E+06
         0.17721E+06
         0.67312E+06
         0.10187E+07
         0.35370E+06
        -0.86952E+05
        -0.53680E+06
        -0.58329E+05
        -0.22914E+07
        -0.21141E+07
        -0.10361E+07
        -0.37459E+06
         0.54606E+06
         0.58562E+05
         0.94427E+06
         0.13650E+07
         0.75067E+06
         0.52236E+06
         0.81317E+06
         0.21179E+06
         0.16337E+06
         0.38482E+06
         0.86164E+06
         0.61956E+06
         0.70565E+06
         0.31255E+06
         0.31287E+06
         0.55212E+06
         0.60429E+06
         0.67974E+06
         0.79750E+06
         0.12110E+07
         0.13146E+07
         0.15344E+07
         0.50838E+06
         0.15167E+07
         0.88944E+06
         0.16643E+07
         0.22963E+07
         0.27323E+07
         0.24433E+07
         0.25629E+07
         0.23001E+07
         0.18901E+07
         0.17525E+07
         0.15940E+07
         0.12394E+07
         0.16406E+07
         0.95983E+06
         0.48063E+06
         0.57040E+06
         0.61631E+06
         0.78525E+06
         0.14587E+07
         0.14664E+07
         0.12176E+07
         0.87412E+06
         0.86861E+06
         0.13052E+07
         0.17054E+07
         0.13524E+07
         0.60833E+06
         0.71195E+06
         0.10409E+07
         0.11207E+07
         0.13884E+07
        -0.23522E+06
         0.14154E+05
         0.13850E+07
        -0.95393E+05
        -0.82576E+06
         0.80144E+06
         0.91228E+06
        -0.15994E+07
         0.35199E+06
         0.62785E+06
         0.66599E+06
         0.81494E+06
         0.14116E+06
         0.11282E+06
         0.61929E+06
         0.96522E+06
         0.29682E+06
        -0.14944E+06
        -0.60418E+06
        -0.11790E+06
        -0.23528E+07
        -0.21787E+07
        -0.11046E+07
        -0.44528E+06
         0.49361E+06
         0.21057E+04
         0.89597E+06
         0.13178E+07
         0.69367E+06
         0.46300E+06
         0.75881E+06
         0.15133E+06
         0.10314E+06
         0.32352E+06
         0.80171E+06
         0.55943E+06
         0.64835E+06
         0.25504E+06
         0.25625E+06
         0.49580E+06
         0.54523E+06
         0.62057E+06
         0.74215E+06
         0.11553E+07
         0.12610E+07
         0.14789E+07
         0.42861E+06
         0.14391E+07
         0.81343E+06
         0.15915E+07
         0.22197E+07
         0.26476E+07
         0.23583E+07
         0.24761E+07
         0.22121E+07
         0.18007E+07
         0.16634E+07
         0.15115E+07
         0.11691E+07
         0.15746E+07
         0.89141E+06
         0.40813E+06
         0.49660E+06
         0.53985E+06
         0.70811E+06
         0.13774E+07
         0.13889E+07
         0.11471E+07
         0.80394E+06
         0.79653E+06
         0.12327E+07
         0.16315E+07
         0.13635E+07
         0.61875E+06
         0.72323E+06
         0.10537E+07
         0.11350E+07
         0.14031E+07
        -0.22303E+06
         0.26968E+05
         0.13949E+07
        -0.91038E+05
        -0.81273E+06
         0.81268E+06
         0.92285E+06
        -0.15854E+07
         0.36662E+06
         0.61742E+06
         0.66338E+06
         0.82722E+06
         0.12626E+06
         0.10042E+06
         0.61042E+06
         0.96174E+06
         0.25950E+06
        -0.19453E+06
        -0.63189E+06
        -0.15964E+06
        -0.23404E+07
        -0.21874E+07
        -0.11318E+07
        -0.49440E+06
         0.49419E+06
        -0.10738E+05
         0.90847E+06
         0.13335E+07
         0.70876E+06
         0.47769E+06
         0.77075E+06
         0.16269E+06
         0.11433E+06
         0.32771E+06
         0.80046E+06
         0.53773E+06
         0.61753E+06
         0.21656E+06
         0.24648E+06
         0.50353E+06
         0.55595E+06
         0.63390E+06
         0.75619E+06
         0.11710E+07
         0.12760E+07
         0.14944E+07
         0.45226E+06
         0.14603E+07
         0.83685E+06
         0.16095E+07
         0.22330E+07
         0.26607E+07
         0.23751E+07
         0.24932E+07
         0.22294E+07
         0.18185E+07
         0.16739E+07
         0.15111E+07
         0.11702E+07
         0.15867E+07
         0.89941E+06
         0.39350E+06
         0.48076E+06
         0.54398E+06
         0.72927E+06
         0.14019E+07
         0.14109E+07
         0.11695E+07
         0.82887E+06
         0.81749E+06
         0.12497E+07
         0.16480E+07
         0.13571E+07
         0.61444E+06
         0.71917E+06
         0.10467E+07
         0.11297E+07
         0.13980E+07
        -0.22749E+06
         0.20474E+05
         0.13803E+07
        -0.11495E+06
        -0.81934E+06
         0.80659E+06
         0.91863E+06
        -0.15947E+07
         0.35987E+06
         0.57451E+06
         0.62855E+06
         0.81871E+06
         0.72927E+05
         0.46195E+05
         0.56960E+06
         0.92480E+06
         0.17272E+06
        -0.29538E+06
        -0.71231E+06
        -0.25472E+06
        -0.23569E+07
        -0.22397E+07
        -0.12161E+07
        -0.61365E+06
         0.46899E+06
        -0.61594E+05
         0.90071E+06
         0.13260E+07
         0.70156E+06
         0.47151E+06
         0.76634E+06
         0.15218E+06
         0.10056E+06
         0.30035E+06
         0.76665E+06
         0.46965E+06
         0.53385E+06
         0.12588E+06
         0.19965E+06
         0.48085E+06
         0.53699E+06
         0.62290E+06
         0.74606E+06
         0.11595E+07
         0.12678E+07
         0.14882E+07
         0.44103E+06
         0.14526E+07
         0.82482E+06
         0.15990E+07
         0.22259E+07
         0.26526E+07
         0.23615E+07
         0.24783E+07
         0.22150E+07
         0.18012E+07
         0.16464E+07
         0.14667E+07
         0.11276E+07
         0.15664E+07
         0.87686E+06
         0.33188E+06
         0.41570E+06
         0.51380E+06
         0.71481E+06
         0.13881E+07
         0.14003E+07
         0.11570E+07
         0.81577E+06
         0.80848E+06
         0.12429E+07
         0.16412E+07
         0.13452E+07
         0.60557E+06
         0.71192E+06
         0.10395E+07
         0.11236E+07
         0.13909E+07
        -0.23469E+06
         0.93375E+04
         0.13626E+07
        -0.13993E+06
        -0.82641E+06
         0.80279E+06
         0.91389E+06
        -0.16047E+07
         0.35688E+06
         0.54573E+06
         0.60111E+06
         0.81081E+06
         0.37896E+05
         0.70690E+04
         0.54335E+06
         0.89827E+06
         0.11944E+06
        -0.35786E+06
        -0.76968E+06
        -0.31558E+06
        -0.23714E+07
        -0.22774E+07
        -0.12741E+07
        -0.69265E+06
         0.44269E+06
        -0.98522E+05
         0.88587E+06
         0.13155E+07
         0.69413E+06
         0.46366E+06
         0.75975E+06
         0.14456E+06
         0.89405E+05
         0.27985E+06
         0.74293E+06
         0.42398E+06
         0.47903E+06
         0.68337E+05
         0.16879E+06
         0.46591E+06
         0.52019E+06
         0.60528E+06
         0.72909E+06
         0.11431E+07
         0.12551E+07
         0.14781E+07
         0.43092E+06
         0.14459E+07
         0.81458E+06
         0.15908E+07
         0.22226E+07
         0.26502E+07
         0.23557E+07
         0.24685E+07
         0.22027E+07
         0.17904E+07
         0.16297E+07
         0.14360E+07
         0.10986E+07
         0.15507E+07
         0.86094E+06
         0.29199E+06
         0.37005E+06
         0.49225E+06
         0.70823E+06
         0.13757E+07
         0.13863E+07
         0.11426E+07
         0.79893E+06
         0.79394E+06
         0.12339E+07
         0.16345E+07
         0.13160E+07
         0.58840E+06
         0.70474E+06
         0.10463E+07
         0.11310E+07
         0.14011E+07
        -0.23957E+06
        -0.10604E+05
         0.13375E+07
        -0.17430E+06
        -0.82089E+06
         0.81593E+06
         0.91950E+06
        -0.16038E+07
         0.37359E+06
         0.55176E+06
         0.59515E+06
         0.82339E+06
         0.45318E+05
         0.12519E+05
         0.55104E+06
         0.90759E+06
         0.12067E+06
        -0.35910E+06
        -0.79300E+06
        -0.32407E+06
        -0.23746E+07
        -0.22816E+07
        -0.12703E+07
        -0.69470E+06
         0.41113E+06
        -0.11798E+06
         0.86128E+06
         0.13130E+07
         0.70088E+06
         0.46428E+06
         0.75848E+06
         0.15607E+06
         0.10082E+06
         0.29216E+06
         0.75495E+06
         0.43151E+06
         0.48500E+06
         0.64802E+05
         0.16485E+06
         0.46346E+06
         0.50567E+06
         0.56979E+06
         0.68872E+06
         0.11212E+07
         0.12508E+07
         0.14827E+07
         0.45034E+06
         0.14659E+07
         0.83088E+06
         0.16018E+07
         0.22340E+07
         0.26656E+07
         0.23731E+07
         0.24855E+07
         0.22223E+07
         0.18160E+07
         0.16522E+07
         0.14496E+07
         0.11139E+07
         0.15667E+07
         0.87633E+06
         0.30425E+06
         0.37890E+06
         0.50097E+06
         0.71867E+06
         0.13829E+07
         0.13847E+07
         0.11325E+07
         0.79226E+06
         0.79713E+06
         0.12436E+07
         0.16485E+07
         0.12716E+07
         0.55789E+06
         0.68715E+06
         0.10421E+07
         0.11250E+07
         0.14002E+07
        -0.26226E+06
        -0.50071E+05
         0.12945E+07
        -0.22583E+06
        -0.83622E+06
         0.81091E+06
         0.91081E+06
        -0.16258E+07
         0.37051E+06
         0.54361E+06
         0.57272E+06
         0.82085E+06
         0.39356E+05
         0.32941E+04
         0.54742E+06
         0.90499E+06
         0.11653E+06
        -0.36667E+06
        -0.82693E+06
        -0.33942E+06
        -0.23993E+07
        -0.23009E+07
        -0.12761E+07
        -0.70346E+06
         0.36676E+06
        -0.14993E+06
         0.82396E+06
         0.12988E+07
         0.69215E+06
         0.45177E+06
         0.74563E+06
         0.14805E+06
         0.93149E+05
         0.28800E+06
         0.75320E+06
         0.43078E+06
         0.48457E+06
         0.56134E+05
         0.14782E+06
         0.44236E+06
         0.47215E+06
         0.51645E+06
         0.63159E+06
         0.10839E+07
         0.12339E+07
         0.14758E+07
         0.44208E+06
         0.14595E+07
         0.82601E+06
         0.15963E+07
         0.22260E+07
         0.26561E+07
         0.23652E+07
         0.24787E+07
         0.22154E+07
         0.18109E+07
         0.16481E+07
         0.14447E+07
         0.11130E+07
         0.15654E+07
         0.87299E+06
         0.30244E+06
         0.37510E+06
         0.48734E+06
         0.69823E+06
         0.13604E+07
         0.13592E+07
         0.11008E+07
         0.76453E+06
         0.78233E+06
         0.12356E+07
         0.16422E+07
         0.12588E+07
         0.54657E+06
         0.68007E+06
         0.10363E+07
         0.11185E+07
         0.13933E+07
        -0.27361E+06
        -0.63414E+05
         0.12825E+07
        -0.24011E+06
        -0.84710E+06
         0.80383E+06
         0.90226E+06
        -0.16387E+07
         0.36497E+06
         0.53634E+06
         0.56396E+06
         0.81466E+06
         0.33902E+05
        -0.39575E+04
         0.54169E+06
         0.89887E+06
         0.11104E+06
        -0.37245E+06
        -0.83774E+06
        -0.34813E+06
        -0.24097E+07
        -0.23111E+07
        -0.12864E+07
        -0.71177E+06
         0.35258E+06
        -0.16260E+06
         0.81171E+06
         0.12910E+07
         0.68483E+06
         0.44496E+06
         0.73778E+06
         0.13774E+06
         0.84083E+05
         0.27816E+06
         0.74343E+06
         0.42287E+06
         0.47944E+06
         0.48409E+05
         0.13766E+06
         0.43253E+06
         0.46114E+06
         0.50325E+06
         0.61696E+06
         0.10703E+07
         0.12233E+07
         0.14673E+07
         0.43079E+06
         0.14485E+07
         0.81857E+06
         0.15886E+07
         0.22168E+07
         0.26481E+07
         0.23569E+07
         0.24671E+07
         0.22000E+07
         0.17949E+07
         0.16335E+07
         0.14381E+07
         0.11077E+07
         0.15540E+07
         0.86116E+06
         0.29131E+06
         0.36064E+06
         0.47359E+06
         0.68657E+06
         0.13510E+07
         0.13514E+07
         0.10903E+07
         0.75054E+06
         0.76922E+06
         0.12246E+07
         0.16313E+07
         0.12672E+07
         0.55424E+06
         0.68591E+06
         0.10387E+07
         0.11253E+07
         0.13950E+07
        -0.26530E+06
        -0.52857E+05
         0.12919E+07
        -0.22836E+06
        -0.83930E+06
         0.81096E+06
         0.90804E+06
        -0.16287E+07
         0.37653E+06
         0.54734E+06
         0.57335E+06
         0.82033E+06
         0.44716E+05
         0.50613E+04
         0.54955E+06
         0.90634E+06
         0.11922E+06
        -0.36212E+06
        -0.82665E+06
        -0.33842E+06
        -0.23942E+07
        -0.22990E+07
        -0.12772E+07
        -0.70230E+06
         0.36160E+06
        -0.15536E+06
         0.81731E+06
         0.12940E+07
         0.69355E+06
         0.45250E+06
         0.74379E+06
         0.14651E+06
         0.92288E+05
         0.28526E+06
         0.75064E+06
         0.43088E+06
         0.48742E+06
         0.56231E+05
         0.14433E+06
         0.43892E+06
         0.46846E+06
         0.51252E+06
         0.62555E+06
         0.10763E+07
         0.12276E+07
         0.14691E+07
         0.44736E+06
         0.14648E+07
         0.82825E+06
         0.15926E+07
         0.22248E+07
         0.26605E+07
         0.23708E+07
         0.24771E+07
         0.22039E+07
         0.18007E+07
         0.16442E+07
         0.14533E+07
         0.11212E+07
         0.15628E+07
         0.86943E+06
         0.30085E+06
         0.37027E+06
         0.48535E+06
         0.69771E+06
         0.13641E+07
         0.13650E+07
         0.11025E+07
         0.76059E+06
         0.77812E+06
         0.12336E+07
         0.16411E+07
         0.12652E+07
         0.55358E+06
         0.68467E+06
         0.10349E+07
         0.11239E+07
         0.13911E+07
        -0.26640E+06
        -0.56066E+05
         0.12865E+07
        -0.23286E+06
        -0.84388E+06
         0.80668E+06
         0.90688E+06
        -0.16360E+07
         0.37069E+06
         0.54311E+06
         0.56789E+06
         0.81372E+06
         0.40244E+05
        -0.62687E+03
         0.54662E+06
         0.90244E+06
         0.11641E+06
        -0.36591E+06
        -0.82845E+06
        -0.34199E+06
        -0.23973E+07
        -0.23001E+07
        -0.12795E+07
        -0.70575E+06
         0.35751E+06
        -0.15926E+06
         0.81050E+06
         0.12882E+07
         0.69099E+06
         0.44938E+06
         0.74193E+06
         0.13772E+06
         0.87818E+05
         0.28072E+06
         0.74605E+06
         0.42800E+06
         0.48305E+06
         0.54142E+05
         0.14199E+06
         0.43583E+06
         0.46339E+06
         0.50653E+06
         0.61940E+06
         0.10703E+07
         0.12234E+07
         0.14642E+07
         0.44243E+06
         0.14609E+07
         0.82047E+06
         0.15860E+07
         0.22239E+07
         0.26559E+07
         0.23601E+07
         0.24650E+07
         0.21967E+07
         0.17900E+07
         0.16325E+07
         0.14475E+07
         0.11142E+07
         0.15590E+07
         0.86588E+06
         0.29759E+06
         0.36981E+06
         0.48307E+06
         0.69435E+06
         0.13552E+07
         0.13539E+07
         0.10939E+07
         0.75616E+06
         0.77587E+06
         0.12286E+07
         0.16341E+07
         0.12594E+07
         0.54780E+06
         0.68071E+06
         0.10330E+07
         0.11193E+07
         0.13886E+07
        -0.27084E+06
        -0.61062E+05
         0.12816E+07
        -0.23733E+06
        -0.84904E+06
         0.80100E+06
         0.90309E+06
        -0.16419E+07
         0.36471E+06
         0.53695E+06
         0.56368E+06
         0.80984E+06
         0.34713E+05
        -0.49728E+04
         0.54282E+06
         0.89847E+06
         0.11211E+06
        -0.37184E+06
        -0.83019E+06
        -0.34879E+06
        -0.23995E+07
        -0.23026E+07
        -0.12823E+07
        -0.70808E+06
         0.35141E+06
        -0.16563E+06
         0.80649E+06
         0.12874E+07
         0.68455E+06
         0.44400E+06
         0.73769E+06
         0.12923E+06
         0.82663E+05
         0.27686E+06
         0.74355E+06
         0.42560E+06
         0.47908E+06
         0.50057E+05
         0.13780E+06
         0.43165E+06
         0.45867E+06
         0.50135E+06
         0.61350E+06
         0.10650E+07
         0.12194E+07
         0.14619E+07
         0.43266E+06
         0.14528E+07
         0.81454E+06
         0.15840E+07
         0.22213E+07
         0.26466E+07
         0.23465E+07
         0.24540E+07
         0.21893E+07
         0.17823E+07
         0.16278E+07
         0.14418E+07
         0.11058E+07
         0.15532E+07
         0.85995E+06
         0.29080E+06
         0.36532E+06
         0.47780E+06
         0.68776E+06
         0.13479E+07
         0.13454E+07
         0.10851E+07
         0.74979E+06
         0.76977E+06
         0.12210E+07
         0.16262E+07
         0.12635E+07
         0.55020E+06
         0.68300E+06
         0.10370E+07
         0.11239E+07
         0.13931E+07
        -0.26536E+06
        -0.53577E+05
         0.12865E+07
        -0.23144E+06
        -0.84165E+06
         0.80588E+06
         0.90496E+06
        -0.16329E+07
         0.37545E+06
         0.54341E+06
         0.56775E+06
         0.81549E+06
         0.41304E+05
         0.22142E+04
         0.54910E+06
         0.90515E+06
         0.11766E+06
        -0.36547E+06
        -0.82395E+06
        -0.34261E+06
        -0.23894E+07
        -0.22948E+07
        -0.12720E+07
        -0.69780E+06
         0.35864E+06
        -0.16071E+06
         0.81334E+06
         0.12944E+07
         0.69002E+06
         0.44880E+06
         0.74018E+06
         0.13642E+06
         0.90807E+05
         0.28687E+06
         0.75155E+06
         0.43175E+06
         0.48552E+06
         0.54895E+05
         0.14185E+06
         0.43523E+06
         0.46315E+06
         0.50700E+06
         0.61895E+06
         0.10700E+07
         0.12239E+07
         0.14674E+07
         0.44476E+06
         0.14660E+07
         0.82686E+06
         0.15901E+07
         0.22193E+07
         0.26472E+07
         0.23561E+07
         0.24648E+07
         0.21966E+07
         0.17933E+07
         0.16382E+07
         0.14468E+07
         0.11148E+07
         0.15624E+07
         0.86831E+06
         0.29726E+06
         0.36967E+06
         0.48320E+06
         0.69280E+06
         0.13558E+07
         0.13548E+07
         0.10941E+07
         0.75752E+06
         0.77629E+06
         0.12308E+07
         0.16376E+07
         0.12609E+07
         0.54557E+06
         0.67917E+06
         0.10327E+07
         0.11192E+07
         0.13878E+07
        -0.27107E+06
        -0.58045E+05
         0.12828E+07
        -0.23732E+06
        -0.84910E+06
         0.79880E+06
         0.89713E+06
        -0.16417E+07
         0.37132E+06
         0.53856E+06
         0.56218E+06
         0.80845E+06
         0.34473E+05
        -0.44555E+04
         0.54218E+06
         0.89799E+06
         0.11026E+06
        -0.37232E+06
        -0.82954E+06
        -0.34856E+06
        -0.23983E+07
        -0.23045E+07
        -0.12796E+07
        -0.70255E+06
         0.35299E+06
        -0.16673E+06
         0.80517E+06
         0.12892E+07
         0.68387E+06
         0.44256E+06
         0.73322E+06
         0.12711E+06
         0.81707E+05
         0.27849E+06
         0.74245E+06
         0.42306E+06
         0.47866E+06
         0.46431E+05
         0.13414E+06
         0.42910E+06
         0.45638E+06
         0.49883E+06
         0.61153E+06
         0.10641E+07
         0.12186E+07
         0.14617E+07
         0.43511E+06
         0.14577E+07
         0.81749E+06
         0.15793E+07
         0.22067E+07
         0.26352E+07
         0.23488E+07
         0.24553E+07
         0.21841E+07
         0.17810E+07
         0.16232E+07
         0.14320E+07
         0.11048E+07
         0.15520E+07
         0.85944E+06
         0.28721E+06
         0.35414E+06
         0.46938E+06
         0.68581E+06
         0.13461E+07
         0.13447E+07
         0.10889E+07
         0.75390E+06
         0.76878E+06
         0.12206E+07
         0.16275E+07
         0.12606E+07
         0.54405E+06
         0.67817E+06
         0.10317E+07
         0.11186E+07
         0.13861E+07
        -0.27176E+06
        -0.57922E+05
         0.12841E+07
        -0.23591E+06
        -0.85017E+06
         0.79785E+06
         0.89601E+06
        -0.16425E+07
         0.37210E+06
         0.53819E+06
         0.56299E+06
         0.80683E+06
         0.34007E+05
        -0.51751E+04
         0.54076E+06
         0.89689E+06
         0.10868E+06
        -0.37358E+06
        -0.82832E+06
        -0.35024E+06
        -0.23961E+07
        -0.23057E+07
        -0.12812E+07
        -0.70297E+06
         0.35022E+06
        -0.16912E+06
         0.80168E+06
         0.12884E+07
         0.68258E+06
         0.44049E+06
         0.73110E+06
         0.12306E+06
         0.77105E+05
         0.27564E+06
         0.74172E+06
         0.42256E+06
         0.47782E+06
         0.45132E+05
         0.13275E+06
         0.42770E+06
         0.45425E+06
         0.49568E+06
         0.60824E+06
         0.10621E+07
         0.12176E+07
         0.14602E+07
         0.43476E+06
         0.14578E+07
         0.81494E+06
         0.15751E+07
         0.22064E+07
         0.26350E+07
         0.23458E+07
         0.24474E+07
         0.21750E+07
         0.17760E+07
         0.16227E+07
         0.14305E+07
         0.11023E+07
         0.15479E+07
         0.85482E+06
         0.28403E+06
         0.35208E+06
         0.46759E+06
         0.68381E+06
         0.13426E+07
         0.13403E+07
         0.10861E+07
         0.75350E+06
         0.76770E+06
         0.12160E+07
         0.16234E+07
         0.12730E+07
         0.55865E+06
         0.69062E+06
         0.10415E+07
         0.11322E+07
         0.13969E+07
        -0.25435E+06
        -0.42731E+05
         0.12951E+07
        -0.22273E+06
        -0.83259E+06
         0.81327E+06
         0.91055E+06
        -0.16260E+07
         0.38787E+06
         0.55136E+06
         0.57564E+06
         0.81753E+06
         0.48197E+05
         0.98184E+04
         0.55462E+06
         0.91010E+06
         0.12217E+06
        -0.35983E+06
        -0.81128E+06
        -0.33657E+06
        -0.23765E+07
        -0.22852E+07
        -0.12613E+07
        -0.68468E+06
         0.36428E+06
        -0.15525E+06
         0.81244E+06
         0.12976E+07
         0.69688E+06
         0.45466E+06
         0.74438E+06
         0.13393E+06
         0.91870E+05
         0.29136E+06
         0.75488E+06
         0.43612E+06
         0.48972E+06
         0.59777E+05
         0.14785E+06
         0.44168E+06
         0.46842E+06
         0.50990E+06
         0.61988E+06
         0.10719E+07
         0.12271E+07
         0.14700E+07
         0.45682E+06
         0.14798E+07
         0.83338E+06
         0.15885E+07
         0.22226E+07
         0.26554E+07
         0.23629E+07
         0.24606E+07
         0.21898E+07
         0.17921E+07
         0.16372E+07
         0.14477E+07
         0.11161E+07
         0.15634E+07
         0.87232E+06
         0.30217E+06
         0.37243E+06
         0.48931E+06
         0.70246E+06
         0.13621E+07
         0.13570E+07
         0.10986E+07
         0.76715E+06
         0.78397E+06
         0.12337E+07
         0.16413E+07
         0.12681E+07
         0.55448E+06
         0.68707E+06
         0.10361E+07
         0.11264E+07
         0.13915E+07
        -0.25939E+06
        -0.48666E+05
         0.12894E+07
        -0.23045E+06
        -0.83990E+06
         0.80784E+06
         0.90718E+06
        -0.16353E+07
         0.38174E+06
         0.54493E+06
         0.56849E+06
         0.81176E+06
         0.39113E+05
         0.16732E+04
         0.55001E+06
         0.90357E+06
         0.11764E+06
        -0.36811E+06
        -0.81820E+06
        -0.34501E+06
        -0.23844E+07
        -0.22918E+07
        -0.12625E+07
        -0.68780E+06
         0.36029E+06
        -0.16208E+06
         0.80673E+06
         0.12913E+07
         0.68894E+06
         0.44898E+06
         0.74098E+06
         0.12330E+06
         0.84711E+05
         0.28815E+06
         0.74926E+06
         0.42945E+06
         0.48180E+06
         0.53497E+05
         0.14114E+06
         0.43593E+06
         0.46280E+06
         0.50536E+06
         0.61357E+06
         0.10635E+07
         0.12208E+07
         0.14641E+07
         0.44262E+06
         0.14678E+07
         0.82255E+06
         0.15828E+07
         0.22207E+07
         0.26501E+07
         0.23511E+07
         0.24463E+07
         0.21760E+07
         0.17798E+07
         0.16228E+07
         0.14311E+07
         0.11041E+07
         0.15574E+07
         0.86958E+06
         0.30049E+06
         0.36682E+06
         0.47956E+06
         0.69514E+06
         0.13534E+07
         0.13489E+07
         0.10895E+07
         0.75738E+06
         0.77770E+06
         0.12279E+07
         0.16317E+07
         0.12597E+07
         0.54383E+06
         0.67693E+06
         0.10287E+07
         0.11171E+07
         0.13815E+07
        -0.26800E+06
        -0.55813E+05
         0.12808E+07
        -0.24542E+06
        -0.84880E+06
         0.79903E+06
         0.89953E+06
        -0.16447E+07
         0.37385E+06
         0.53689E+06
         0.55732E+06
         0.80512E+06
         0.31703E+05
        -0.23193E+04
         0.54431E+06
         0.89592E+06
         0.11215E+06
        -0.37520E+06
        -0.83206E+06
        -0.35329E+06
        -0.24030E+07
        -0.23026E+07
        -0.12392E+07
        -0.67457E+06
         0.35270E+06
        -0.17168E+06
         0.80107E+06
         0.12870E+07
         0.67997E+06
         0.43966E+06
         0.73281E+06
         0.10721E+06
         0.77693E+05
         0.30270E+06
         0.74905E+06
         0.42220E+06
         0.47117E+06
         0.46706E+05
         0.13257E+06
         0.42668E+06
         0.45293E+06
         0.49719E+06
         0.60636E+06
         0.10566E+07
         0.12152E+07
         0.14570E+07
         0.43312E+06
         0.14592E+07
         0.81518E+06
         0.15764E+07
         0.22117E+07
         0.26356E+07
         0.23346E+07
         0.24303E+07
         0.21620E+07
         0.17765E+07
         0.15975E+07
         0.13914E+07
         0.10873E+07
         0.15480E+07
         0.86132E+06
         0.29319E+06
         0.35781E+06
         0.46933E+06
         0.68311E+06
         0.13398E+07
         0.13397E+07
         0.10808E+07
         0.74742E+06
         0.77025E+06
         0.12165E+07
         0.16191E+07
         0.12716E+07
         0.55725E+06
         0.69043E+06
         0.10405E+07
         0.11316E+07
         0.13933E+07
        -0.25268E+06
        -0.40864E+05
         0.12887E+07
        -0.24654E+06
        -0.83297E+06
         0.81056E+06
         0.91034E+06
        -0.16291E+07
         0.38799E+06
         0.55020E+06
         0.56617E+06
         0.81514E+06
         0.48063E+05
         0.22437E+05
         0.55584E+06
         0.90747E+06
         0.12302E+06
        -0.36037E+06
        -0.82636E+06
        -0.33841E+06
        -0.24059E+07
        -0.22897E+07
        -0.11679E+07
        -0.61984E+06
         0.36478E+06
        -0.15758E+06
         0.81159E+06
         0.12992E+07
         0.69528E+06
         0.45547E+06
         0.74536E+06
         0.10890E+06
         0.94383E+05
         0.35504E+06
         0.77402E+06
         0.43589E+06
         0.47814E+06
         0.59295E+05
         0.14734E+06
         0.44220E+06
         0.46769E+06
         0.51021E+06
         0.61919E+06
         0.10704E+07
         0.12279E+07
         0.14686E+07
         0.45583E+06
         0.14815E+07
         0.83792E+06
         0.15923E+07
         0.22218E+07
         0.26472E+07
         0.23506E+07
         0.24468E+07
         0.21802E+07
         0.18117E+07
         0.15893E+07
         0.13595E+07
         0.10886E+07
         0.15608E+07
         0.87201E+06
         0.30213E+06
         0.36884E+06
         0.48751E+06
         0.70540E+06
         0.13607E+07
         0.13578E+07
         0.10996E+07
         0.76842E+06
         0.78971E+06
         0.12323E+07
         0.16356E+07
         0.12282E+07
         0.50801E+06
         0.64285E+06
         0.99514E+06
         0.10796E+07
         0.13395E+07
        -0.30636E+06
        -0.91621E+05
         0.12379E+07
        -0.30912E+06
        -0.89352E+06
         0.75588E+06
         0.85595E+06
        -0.16937E+07
         0.33353E+06
         0.50337E+06
         0.51130E+06
         0.76885E+06
        -0.59298E+04
        -0.28987E+05
         0.50534E+06
         0.85691E+06
         0.72804E+05
        -0.41256E+06
        -0.88953E+06
        -0.38789E+06
        -0.24806E+07
        -0.23517E+07
        -0.11954E+07
        -0.65572E+06
         0.31790E+06
        -0.20901E+06
         0.76298E+06
         0.12485E+07
         0.63995E+06
         0.39705E+06
         0.68968E+06
         0.43528E+05
         0.40010E+05
         0.32216E+06
         0.72591E+06
         0.38255E+06
         0.42443E+06
         0.81730E+04
         0.91721E+05
         0.38428E+06
         0.41072E+06
         0.45544E+06
         0.56440E+06
         0.10109E+07
         0.11702E+07
         0.14110E+07
         0.37618E+06
         0.14044E+07
         0.75819E+06
         0.15111E+07
         0.21413E+07
         0.25701E+07
         0.22719E+07
         0.23615E+07
         0.20999E+07
         0.17390E+07
         0.14879E+07
         0.12492E+07
         0.10088E+07
         0.14943E+07
         0.80306E+06
         0.23106E+06
         0.29567E+06
         0.40632E+06
         0.62156E+06
         0.12805E+07
         0.12827E+07
         0.10273E+07
         0.69476E+06
         0.71376E+06
         0.11596E+07
         0.15634E+07
         0.12533E+07
         0.51143E+06
         0.65203E+06
         0.10130E+07
         0.10969E+07
         0.13566E+07
        -0.29823E+06
        -0.59934E+05
         0.12727E+07
        -0.26134E+06
        -0.87676E+06
         0.75693E+06
         0.84219E+06
        -0.16547E+07
         0.35877E+06
         0.54106E+06
         0.54792E+06
         0.79368E+06
         0.23538E+05
         0.12816E+04
         0.52831E+06
         0.87426E+06
         0.10896E+06
        -0.37340E+06
        -0.83063E+06
        -0.35140E+06
        -0.24166E+07
        -0.22802E+07
        -0.11358E+07
        -0.60049E+06
         0.34758E+06
        -0.18638E+06
         0.77631E+06
         0.12413E+07
         0.64858E+06
         0.39254E+06
         0.67385E+06
         0.74932E+05
         0.81085E+05
         0.35860E+06
         0.74799E+06
         0.41319E+06
         0.45669E+06
         0.43189E+05
         0.11201E+06
         0.39324E+06
         0.41940E+06
         0.47896E+06
         0.58195E+06
         0.10109E+07
         0.11737E+07
         0.14119E+07
         0.40667E+06
         0.14441E+07
         0.76816E+06
         0.14936E+07
         0.21051E+07
         0.25482E+07
         0.23078E+07
         0.23988E+07
         0.21297E+07
         0.17565E+07
         0.14928E+07
         0.12643E+07
         0.10390E+07
         0.15093E+07
         0.83441E+06
         0.27557E+06
         0.33345E+06
         0.43502E+06
         0.63398E+06
         0.12790E+07
         0.12993E+07
         0.10512E+07
         0.73253E+06
         0.75974E+06
         0.11957E+07
         0.16009E+07
         0.16876E+09
         0.19213E+09
         0.19080E+09
         0.17453E+09
         0.19978E+09
         0.20664E+09
         0.20711E+09
         0.19161E+09
         0.18184E+09
         0.19322E+09
         0.23010E+09
         0.20869E+09
         0.19794E+09
         0.23683E+09
         0.21170E+09
         0.17706E+09
         0.19047E+09
         0.16675E+09
         0.19800E+09
         0.20710E+09
         0.18081E+09
         0.18532E+09
         0.17689E+09
         0.18906E+09
         0.21050E+09
         0.18113E+09
         0.23375E+09
         0.22669E+09
         0.22802E+09
         0.21800E+09
         0.17874E+09
         0.18751E+09
         0.17545E+09
         0.18358E+09
         0.20640E+09
         0.21314E+09
         0.19873E+09
         0.20825E+09
         0.21165E+09
         0.21309E+09
         0.20387E+09
         0.19667E+09
         0.18663E+09
         0.17838E+09
         0.19176E+09
         0.20384E+09
         0.20546E+09
         0.20121E+09
         0.20309E+09
         0.20781E+09
         0.20001E+09
         0.20307E+09
         0.29092E+09
         0.28436E+09
         0.28814E+09
         0.27924E+09
         0.28646E+09
         0.29871E+09
         0.30102E+09
         0.30080E+09
         0.30385E+09
         0.31028E+09
         0.30143E+09
         0.28454E+09
         0.25754E+09
         0.24462E+09
         0.24556E+09
         0.24936E+09
         0.25166E+09
         0.27185E+09
         0.29216E+09
         0.29277E+09
         0.27137E+09
         0.26314E+09
         0.27086E+09
         0.26882E+09
         0.26625E+09
         0.26702E+09
         0.14072E+10
         0.14782E+10
         0.14610E+10
         0.13572E+10
         0.16013E+10
         0.15258E+10
         0.15853E+10
         0.15800E+10
         0.13938E+10
         0.15801E+10
         0.17148E+10
         0.18563E+10
         0.17125E+10
         0.17531E+10
         0.19107E+10
         0.13667E+10
         0.14620E+10
         0.13089E+10
         0.15001E+10
         0.15696E+10
         0.15820E+10
         0.16156E+10
         0.15301E+10
         0.14543E+10
         0.16050E+10
         0.14142E+10
         0.17475E+10
         0.17297E+10
         0.17352E+10
         0.16530E+10
         0.13827E+10
         0.14496E+10
         0.13664E+10
         0.14189E+10
         0.17242E+10
         0.16139E+10
         0.16118E+10
         0.18655E+10
         0.18332E+10
         0.18168E+10
         0.18311E+10
         0.17529E+10
         0.16675E+10
         0.15050E+10
         0.15639E+10
         0.17206E+10
         0.16202E+10
         0.15401E+10
         0.15182E+10
         0.15628E+10
         0.16636E+10
         0.15644E+10
         0.25250E+10
         0.24608E+10
         0.25049E+10
         0.24302E+10
         0.24934E+10
         0.26086E+10
         0.26521E+10
         0.26572E+10
         0.26777E+10
         0.27300E+10
         0.26563E+10
         0.25054E+10
         0.22743E+10
         0.21599E+10
         0.21574E+10
         0.21777E+10
         0.21945E+10
         0.23635E+10
         0.25296E+10
         0.25367E+10
         0.23650E+10
         0.22997E+10
         0.23668E+10
         0.23532E+10
         0.23250E+10
         0.23199E+10
  
SCALARS                      stress_yz  double 1
LOOKUP_TABLE default
         0.29451E+06
        -0.97967E+05
        -0.25453E+06
        -0.13090E+06
        -0.31659E+01
        -0.87259E+00
        -0.39235E+01
        -0.29926E+01
        -0.95405E+06
         0.62748E+06
        -0.58389E+01
        -0.51405E+01
        -0.83698E+06
        -0.42560E+05
         0.41787E+01
        -0.26791E+00
         0.28772E+06
         0.10725E+07
         0.61479E-01
         0.62905E+00
        -0.55659E+06
        -0.20952E+07
        -0.21779E+07
         0.95789E+01
         0.16543E+02
         0.13827E+02
        -0.20651E+06
        -0.21243E+07
         0.68903E+01
         0.13367E+02
         0.32881E+06
         0.28664E+06
        -0.24343E+06
         0.35721E+01
         0.36465E+01
        -0.75705E-01
         0.97724E+06
         0.94180E+06
         0.65733E+01
         0.51142E+01
         0.96068E+06
         0.61155E+06
         0.49677E+01
         0.45398E+01
         0.87120E+06
         0.30036E+06
        -0.16479E+00
         0.25489E+01
         0.80908E+06
         0.12001E+01
         0.79723E+05
        -0.97200E-01
         0.47671E+05
         0.46422E+01
        -0.31594E+06
         0.27004E+01
        -0.10304E+07
         0.18295E+06
         0.73260E-01
        -0.14869E+00
         0.39876E+06
         0.14550E+07
        -0.99816E+00
        -0.37336E+01
         0.24079E+06
        -0.20148E+01
         0.10338E+07
        -0.24545E+01
        -0.83965E+06
        -0.44475E+06
        -0.30333E+00
         0.40050E+01
        -0.15551E+07
         0.87945E+01
        -0.26966E+07
         0.85153E+01
        -0.27214E+07
         0.64640E+01
        -0.22417E+07
         0.54180E+01
        -0.32877E+07
        -0.25232E+07
         0.34756E+01
        -0.77060E+00
        -0.35286E+06
        -0.86226E-01
         0.13615E+07
        -0.54015E+01
         0.32179E+07
        -0.94560E+01
         0.44968E+07
         0.27875E+07
        -0.14025E+02
        -0.11352E+02
         0.19604E+07
        -0.88121E+01
         0.17590E+07
        -0.90153E+01
         0.17117E+07
        -0.96934E+01
         0.28484E+07
         0.23671E+07
        -0.90144E+01
        -0.43193E+01
        -0.19110E+07
         0.72331E+06
         0.31696E+01
        -0.39388E+01
        -0.46979E+07
         0.10545E+02
        -0.67251E+07
         0.15424E+02
        -0.82340E+07
         0.19049E+02
        -0.96576E+07
         0.18895E+02
        -0.11370E+08
         0.14953E+02
        -0.11623E+08
         0.11572E+02
        -0.10945E+08
         0.10763E+02
        -0.97389E+07
         0.10240E+02
        -0.71022E+07
         0.65441E+01
        -0.47959E+07
         0.21606E+01
        -0.24058E+07
         0.13961E+01
         0.17304E+06
         0.20984E+01
         0.22953E+07
         0.10838E+01
         0.41175E+07
        -0.32776E+01
         0.63722E+07
        -0.92516E+01
         0.71705E+07
        -0.14447E+02
         0.78438E+07
        -0.18939E+02
         0.10021E+08
        -0.18923E+02
         0.10379E+08
        -0.16519E+02
         0.95913E+07
        -0.16099E+02
         0.78010E+07
        -0.16199E+02
         0.53037E+07
        -0.12810E+02
         0.37565E+07
        -0.75751E+01
         0.27013E+07
        -0.58571E+01
        -0.27794E+07
        -0.14380E+07
        -0.12552E+07
        -0.38971E+06
        -0.12859E+07
        -0.13675E+07
        -0.14415E+06
        -0.22159E+07
        -0.19015E+07
        -0.27895E+07
         0.14562E+07
         0.62116E+07
         0.42449E+07
         0.49236E+06
         0.62757E+07
         0.73620E+06
        -0.65225E+06
         0.41994E+06
         0.54812E+06
        -0.41434E+06
         0.38042E+06
         0.31369E+06
        -0.10539E+07
         0.88832E+05
        -0.19045E+07
         0.28156E+06
         0.14576E+05
         0.25485E+06
         0.30917E+06
        -0.14928E+07
         0.71860E+06
        -0.77939E+06
         0.52259E+06
        -0.12727E+06
         0.20984E+06
         0.11380E+07
         0.25525E+07
         0.55161E+07
         0.50401E+07
         0.42568E+07
         0.40066E+07
         0.99613E+06
        -0.81559E+06
        -0.22369E+07
        -0.36944E+07
        -0.60292E+07
        -0.39592E+07
        -0.28414E+07
        -0.30314E+07
        -0.32187E+07
        -0.37730E+07
        -0.17257E+07
         0.32418E+07
        -0.38994E+07
         0.10559E+08
         0.14591E+08
         0.18598E+08
         0.22075E+08
         0.22188E+08
         0.20086E+08
         0.19114E+08
         0.18064E+08
         0.11669E+08
         0.51277E+07
         0.22573E+07
         0.99531E+06
        -0.15246E+07
        -0.60276E+07
        -0.11078E+08
        -0.14452E+08
        -0.17475E+08
        -0.20041E+08
        -0.18885E+08
        -0.17853E+08
        -0.16609E+08
        -0.11548E+08
        -0.67480E+07
        -0.59257E+07
        -0.15997E+09
        -0.12430E+09
        -0.11503E+09
        -0.27283E+08
        -0.11697E+09
        -0.67193E+08
        -0.53282E+08
        -0.15362E+09
        -0.12215E+09
        -0.15294E+09
         0.92625E+08
         0.17306E+09
         0.13290E+09
         0.34128E+08
         0.16327E+09
         0.74741E+08
        -0.22650E+08
         0.21624E+08
         0.97467E+08
         0.18844E+08
         0.45482E+08
         0.34301E+08
        -0.20391E+08
         0.29187E+08
        -0.11797E+09
         0.29180E+08
         0.73225E+07
         0.13612E+08
        -0.21743E+08
        -0.11768E+09
         0.80550E+08
         0.21218E+08
         0.52064E+08
         0.45206E+08
        -0.13218E+08
         0.65706E+08
         0.98096E+08
         0.15031E+09
         0.16991E+09
         0.16031E+09
         0.84476E+08
        -0.22900E+08
        -0.46874E+08
        -0.74635E+08
        -0.10705E+09
        -0.16236E+09
        -0.14120E+09
        -0.10909E+09
        -0.13860E+09
        -0.16362E+09
        -0.10754E+09
        -0.11552E+08
         0.33774E+08
        -0.47276E+08
         0.10564E+09
         0.13743E+09
         0.16730E+09
         0.18811E+09
         0.19134E+09
         0.18607E+09
         0.18259E+09
         0.16976E+09
         0.10859E+09
         0.36242E+08
         0.17198E+08
         0.15440E+08
        -0.65586E+07
        -0.52236E+08
        -0.10115E+09
        -0.12986E+09
        -0.17513E+09
        -0.18950E+09
        -0.18320E+09
        -0.18164E+09
        -0.17071E+09
        -0.12272E+09
        -0.62100E+08
        -0.59259E+08
        -0.15996E+09
        -0.12433E+09
        -0.11508E+09
        -0.27484E+08
        -0.11703E+09
        -0.67245E+08
        -0.53349E+08
        -0.15373E+09
        -0.12237E+09
        -0.15308E+09
         0.92680E+08
         0.17305E+09
         0.13288E+09
         0.34129E+08
         0.16332E+09
         0.74746E+08
        -0.22856E+08
         0.21592E+08
         0.97533E+08
         0.18739E+08
         0.45591E+08
         0.34336E+08
        -0.20397E+08
         0.29173E+08
        -0.11851E+09
         0.29127E+08
         0.74088E+07
         0.13688E+08
        -0.21600E+08
        -0.11793E+09
         0.80564E+08
         0.21172E+08
         0.52179E+08
         0.45280E+08
        -0.13088E+08
         0.65749E+08
         0.98113E+08
         0.15032E+09
         0.16991E+09
         0.16028E+09
         0.84488E+08
        -0.22827E+08
        -0.46917E+08
        -0.74675E+08
        -0.10707E+09
        -0.16237E+09
        -0.14121E+09
        -0.10903E+09
        -0.13841E+09
        -0.16340E+09
        -0.10755E+09
        -0.11394E+08
         0.33754E+08
        -0.47289E+08
         0.10566E+09
         0.13743E+09
         0.16730E+09
         0.18811E+09
         0.19134E+09
         0.18606E+09
         0.18259E+09
         0.16976E+09
         0.10858E+09
         0.36258E+08
         0.17199E+08
         0.15472E+08
        -0.65045E+07
        -0.52252E+08
        -0.10117E+09
        -0.12986E+09
        -0.17513E+09
        -0.18950E+09
        -0.18320E+09
        -0.18164E+09
        -0.17072E+09
        -0.12271E+09
        -0.62064E+08
        -0.59210E+08
        -0.15994E+09
        -0.12435E+09
        -0.11514E+09
        -0.27686E+08
        -0.11710E+09
        -0.67300E+08
        -0.53416E+08
        -0.15385E+09
        -0.12259E+09
        -0.15322E+09
         0.92735E+08
         0.17305E+09
         0.13287E+09
         0.34126E+08
         0.16337E+09
         0.74751E+08
        -0.23064E+08
         0.21559E+08
         0.97601E+08
         0.18632E+08
         0.45701E+08
         0.34371E+08
        -0.20406E+08
         0.29155E+08
        -0.11904E+09
         0.29067E+08
         0.75010E+07
         0.13769E+08
        -0.21443E+08
        -0.11817E+09
         0.80577E+08
         0.21116E+08
         0.52295E+08
         0.45352E+08
        -0.12958E+08
         0.65794E+08
         0.98129E+08
         0.15033E+09
         0.16992E+09
         0.16026E+09
         0.84502E+08
        -0.22748E+08
        -0.46956E+08
        -0.74721E+08
        -0.10710E+09
        -0.16238E+09
        -0.14123E+09
        -0.10897E+09
        -0.13823E+09
        -0.16318E+09
        -0.10756E+09
        -0.11236E+08
         0.33734E+08
        -0.47302E+08
         0.10568E+09
         0.13743E+09
         0.16731E+09
         0.18810E+09
         0.19133E+09
         0.18605E+09
         0.18260E+09
         0.16976E+09
         0.10858E+09
         0.36274E+08
         0.17199E+08
         0.15504E+08
        -0.64500E+07
        -0.52268E+08
        -0.10119E+09
        -0.12987E+09
        -0.17514E+09
        -0.18949E+09
        -0.18321E+09
        -0.18165E+09
        -0.17073E+09
        -0.12270E+09
        -0.62027E+08
        -0.59160E+08
        -0.15992E+09
        -0.12437E+09
        -0.11520E+09
        -0.27889E+08
        -0.11716E+09
        -0.67355E+08
        -0.53486E+08
        -0.15397E+09
        -0.12281E+09
        -0.15336E+09
         0.92790E+08
         0.17304E+09
         0.13285E+09
         0.34126E+08
         0.16342E+09
         0.74757E+08
        -0.23276E+08
         0.21526E+08
         0.97673E+08
         0.18519E+08
         0.45811E+08
         0.34401E+08
        -0.20424E+08
         0.29126E+08
        -0.11955E+09
         0.28987E+08
         0.75963E+07
         0.13876E+08
        -0.21249E+08
        -0.11839E+09
         0.80582E+08
         0.21040E+08
         0.52410E+08
         0.45426E+08
        -0.12828E+08
         0.65837E+08
         0.98144E+08
         0.15035E+09
         0.16992E+09
         0.16023E+09
         0.84524E+08
        -0.22649E+08
        -0.46985E+08
        -0.74787E+08
        -0.10714E+09
        -0.16239E+09
        -0.14124E+09
        -0.10891E+09
        -0.13804E+09
        -0.16296E+09
        -0.10757E+09
        -0.11078E+08
         0.33714E+08
        -0.47315E+08
         0.10570E+09
         0.13744E+09
         0.16731E+09
         0.18809E+09
         0.19132E+09
         0.18604E+09
         0.18260E+09
         0.16976E+09
         0.10857E+09
         0.36294E+08
         0.17200E+08
         0.15536E+08
        -0.63951E+07
        -0.52285E+08
        -0.10122E+09
        -0.12988E+09
        -0.17515E+09
        -0.18949E+09
        -0.18321E+09
        -0.18165E+09
        -0.17074E+09
        -0.12268E+09
        -0.61992E+08
        -0.59111E+08
        -0.15991E+09
        -0.12440E+09
        -0.11526E+09
        -0.28091E+08
        -0.11722E+09
        -0.67408E+08
        -0.53552E+08
        -0.15408E+09
        -0.12303E+09
        -0.15350E+09
         0.92846E+08
         0.17303E+09
         0.13283E+09
         0.34128E+08
         0.16347E+09
         0.74764E+08
        -0.23491E+08
         0.21492E+08
         0.97747E+08
         0.18399E+08
         0.45922E+08
         0.34427E+08
        -0.20449E+08
         0.29085E+08
        -0.12004E+09
         0.28887E+08
         0.77023E+07
         0.14008E+08
        -0.21016E+08
        -0.11859E+09
         0.80583E+08
         0.20941E+08
         0.52524E+08
         0.45500E+08
        -0.12698E+08
         0.65880E+08
         0.98161E+08
         0.15036E+09
         0.16993E+09
         0.16021E+09
         0.84552E+08
        -0.22531E+08
        -0.47003E+08
        -0.74872E+08
        -0.10720E+09
        -0.16240E+09
        -0.14125E+09
        -0.10885E+09
        -0.13786E+09
        -0.16274E+09
        -0.10758E+09
        -0.10919E+08
         0.33693E+08
        -0.47328E+08
         0.10572E+09
         0.13744E+09
         0.16732E+09
         0.18809E+09
         0.19131E+09
         0.18603E+09
         0.18261E+09
         0.16976E+09
         0.10857E+09
         0.36317E+08
         0.17203E+08
         0.15567E+08
        -0.63401E+07
        -0.52303E+08
        -0.10125E+09
        -0.12989E+09
        -0.17515E+09
        -0.18949E+09
        -0.18322E+09
        -0.18165E+09
        -0.17075E+09
        -0.12267E+09
        -0.61956E+08
        -0.59062E+08
        -0.15989E+09
        -0.12441E+09
        -0.11531E+09
        -0.28296E+08
        -0.11729E+09
        -0.67462E+08
        -0.53611E+08
        -0.15420E+09
        -0.12326E+09
        -0.15364E+09
         0.92909E+08
         0.17302E+09
         0.13282E+09
         0.34134E+08
         0.16352E+09
         0.74773E+08
        -0.23711E+08
         0.21459E+08
         0.97822E+08
         0.18277E+08
         0.46032E+08
         0.34452E+08
        -0.20478E+08
         0.29040E+08
        -0.12052E+09
         0.28781E+08
         0.78164E+07
         0.14153E+08
        -0.20767E+08
        -0.11877E+09
         0.80579E+08
         0.20830E+08
         0.52641E+08
         0.45577E+08
        -0.12567E+08
         0.65928E+08
         0.98179E+08
         0.15037E+09
         0.16993E+09
         0.16019E+09
         0.84583E+08
        -0.22406E+08
        -0.47016E+08
        -0.74963E+08
        -0.10726E+09
        -0.16241E+09
        -0.14127E+09
        -0.10880E+09
        -0.13769E+09
        -0.16252E+09
        -0.10759E+09
        -0.10758E+08
         0.33672E+08
        -0.47341E+08
         0.10574E+09
         0.13744E+09
         0.16732E+09
         0.18808E+09
         0.19131E+09
         0.18602E+09
         0.18261E+09
         0.16976E+09
         0.10857E+09
         0.36342E+08
         0.17206E+08
         0.15598E+08
        -0.62850E+07
        -0.52321E+08
        -0.10128E+09
        -0.12990E+09
        -0.17516E+09
        -0.18949E+09
        -0.18323E+09
        -0.18166E+09
        -0.17076E+09
        -0.12266E+09
        -0.61919E+08
        -0.59013E+08
        -0.15988E+09
        -0.12441E+09
        -0.11537E+09
        -0.28505E+08
        -0.11735E+09
        -0.67517E+08
        -0.53657E+08
        -0.15431E+09
        -0.12348E+09
        -0.15377E+09
         0.92986E+08
         0.17301E+09
         0.13281E+09
         0.34161E+08
         0.16357E+09
         0.74785E+08
        -0.23936E+08
         0.21426E+08
         0.97898E+08
         0.18155E+08
         0.46143E+08
         0.34477E+08
        -0.20507E+08
         0.28997E+08
        -0.12099E+09
         0.28673E+08
         0.79508E+07
         0.14307E+08
        -0.20513E+08
        -0.11895E+09
         0.80571E+08
         0.20712E+08
         0.52762E+08
         0.45657E+08
        -0.12435E+08
         0.65978E+08
         0.98197E+08
         0.15039E+09
         0.16994E+09
         0.16017E+09
         0.84615E+08
        -0.22279E+08
        -0.47028E+08
        -0.75053E+08
        -0.10733E+09
        -0.16242E+09
        -0.14130E+09
        -0.10877E+09
        -0.13755E+09
        -0.16231E+09
        -0.10760E+09
        -0.10595E+08
         0.33652E+08
        -0.47354E+08
         0.10576E+09
         0.13744E+09
         0.16733E+09
         0.18808E+09
         0.19130E+09
         0.18601E+09
         0.18262E+09
         0.16976E+09
         0.10857E+09
         0.36366E+08
         0.17209E+08
         0.15629E+08
        -0.62299E+07
        -0.52340E+08
        -0.10132E+09
        -0.12991E+09
        -0.17516E+09
        -0.18949E+09
        -0.18323E+09
        -0.18166E+09
        -0.17077E+09
        -0.12264E+09
        -0.61883E+08
        -0.58963E+08
        -0.15987E+09
        -0.12440E+09
        -0.11543E+09
        -0.28718E+08
        -0.11741E+09
        -0.67571E+08
        -0.53693E+08
        -0.15442E+09
        -0.12371E+09
        -0.15390E+09
         0.93069E+08
         0.17300E+09
         0.13279E+09
         0.34191E+08
         0.16362E+09
         0.74800E+08
        -0.24164E+08
         0.21392E+08
         0.97974E+08
         0.18033E+08
         0.46254E+08
         0.34503E+08
        -0.20536E+08
         0.28954E+08
        -0.12145E+09
         0.28566E+08
         0.80904E+07
         0.14465E+08
        -0.20257E+08
        -0.11913E+09
         0.80563E+08
         0.20588E+08
         0.52885E+08
         0.45741E+08
        -0.12302E+08
         0.66033E+08
         0.98217E+08
         0.15040E+09
         0.16994E+09
         0.16015E+09
         0.84647E+08
        -0.22152E+08
        -0.47039E+08
        -0.75143E+08
        -0.10739E+09
        -0.16244E+09
        -0.14133E+09
        -0.10874E+09
        -0.13742E+09
        -0.16211E+09
        -0.10760E+09
        -0.10432E+08
         0.33631E+08
        -0.47367E+08
         0.10578E+09
         0.13744E+09
         0.16733E+09
         0.18807E+09
         0.19129E+09
         0.18599E+09
         0.18262E+09
         0.16976E+09
         0.10857E+09
         0.36391E+08
         0.17212E+08
         0.15661E+08
        -0.61747E+07
        -0.52358E+08
        -0.10135E+09
        -0.12992E+09
        -0.17517E+09
        -0.18949E+09
        -0.18324E+09
        -0.18166E+09
        -0.17078E+09
        -0.12263E+09
        -0.61847E+08
        -0.58914E+08
        -0.15985E+09
        -0.12439E+09
        -0.11548E+09
        -0.28931E+08
        -0.11748E+09
        -0.67625E+08
        -0.53730E+08
        -0.15452E+09
        -0.12394E+09
        -0.15402E+09
         0.93148E+08
         0.17299E+09
         0.13278E+09
         0.34226E+08
         0.16367E+09
         0.74814E+08
        -0.24393E+08
         0.21357E+08
         0.98049E+08
         0.17910E+08
         0.46365E+08
         0.34529E+08
        -0.20564E+08
         0.28912E+08
        -0.12192E+09
         0.28460E+08
         0.82336E+07
         0.14621E+08
        -0.20003E+08
        -0.11930E+09
         0.80554E+08
         0.20466E+08
         0.53008E+08
         0.45824E+08
        -0.12169E+08
         0.66083E+08
         0.98236E+08
         0.15042E+09
         0.16995E+09
         0.16013E+09
         0.84678E+08
        -0.22025E+08
        -0.47051E+08
        -0.75232E+08
        -0.10745E+09
        -0.16245E+09
        -0.14136E+09
        -0.10872E+09
        -0.13729E+09
        -0.16191E+09
        -0.10761E+09
        -0.10267E+08
         0.33611E+08
        -0.47380E+08
         0.10580E+09
         0.13744E+09
         0.16734E+09
         0.18807E+09
         0.19128E+09
         0.18598E+09
         0.18262E+09
         0.16976E+09
         0.10857E+09
         0.36415E+08
         0.17215E+08
         0.15693E+08
        -0.61197E+07
        -0.52376E+08
        -0.10138E+09
        -0.12993E+09
        -0.17518E+09
        -0.18948E+09
        -0.18324E+09
        -0.18167E+09
        -0.17079E+09
        -0.12261E+09
        -0.61811E+08
        -0.58865E+08
        -0.15984E+09
        -0.12438E+09
        -0.11554E+09
        -0.29142E+08
        -0.11754E+09
        -0.67678E+08
        -0.53766E+08
        -0.15463E+09
        -0.12417E+09
        -0.15414E+09
         0.93232E+08
         0.17298E+09
         0.13277E+09
         0.34256E+08
         0.16372E+09
         0.74828E+08
        -0.24623E+08
         0.21323E+08
         0.98123E+08
         0.17786E+08
         0.46475E+08
         0.34554E+08
        -0.20592E+08
         0.28870E+08
        -0.12238E+09
         0.28354E+08
         0.83729E+07
         0.14776E+08
        -0.19749E+08
        -0.11948E+09
         0.80544E+08
         0.20344E+08
         0.53129E+08
         0.45907E+08
        -0.12036E+08
         0.66137E+08
         0.98256E+08
         0.15043E+09
         0.16995E+09
         0.16010E+09
         0.84710E+08
        -0.21899E+08
        -0.47063E+08
        -0.75321E+08
        -0.10752E+09
        -0.16246E+09
        -0.14139E+09
        -0.10870E+09
        -0.13715E+09
        -0.16170E+09
        -0.10761E+09
        -0.10103E+08
         0.33590E+08
        -0.47392E+08
         0.10582E+09
         0.13744E+09
         0.16734E+09
         0.18806E+09
         0.19127E+09
         0.18597E+09
         0.18263E+09
         0.16976E+09
         0.10856E+09
         0.36439E+08
         0.17219E+08
         0.15724E+08
        -0.60649E+07
        -0.52394E+08
        -0.10141E+09
        -0.12994E+09
        -0.17518E+09
        -0.18948E+09
        -0.18325E+09
        -0.18167E+09
        -0.17080E+09
        -0.12260E+09
        -0.61775E+08
        -0.58815E+08
        -0.15983E+09
        -0.12437E+09
        -0.11559E+09
        -0.29354E+08
        -0.11760E+09
        -0.67732E+08
        -0.53806E+08
        -0.15474E+09
        -0.12440E+09
        -0.15427E+09
         0.93315E+08
         0.17297E+09
         0.13276E+09
         0.34290E+08
         0.16377E+09
         0.74843E+08
        -0.24853E+08
         0.21289E+08
         0.98198E+08
         0.17662E+08
         0.46586E+08
         0.34579E+08
        -0.20620E+08
         0.28828E+08
        -0.12284E+09
         0.28248E+08
         0.85147E+07
         0.14929E+08
        -0.19496E+08
        -0.11966E+09
         0.80536E+08
         0.20222E+08
         0.53251E+08
         0.45991E+08
        -0.11902E+08
         0.66190E+08
         0.98276E+08
         0.15045E+09
         0.16996E+09
         0.16008E+09
         0.84741E+08
        -0.21773E+08
        -0.47074E+08
        -0.75409E+08
        -0.10758E+09
        -0.16247E+09
        -0.14143E+09
        -0.10868E+09
        -0.13702E+09
        -0.16150E+09
        -0.10762E+09
        -0.99371E+07
         0.33569E+08
        -0.47405E+08
         0.10584E+09
         0.13744E+09
         0.16735E+09
         0.18805E+09
         0.19127E+09
         0.18596E+09
         0.18263E+09
         0.16976E+09
         0.10856E+09
         0.36463E+08
         0.17222E+08
         0.15756E+08
        -0.60098E+07
        -0.52412E+08
        -0.10145E+09
        -0.12996E+09
        -0.17519E+09
        -0.18948E+09
        -0.18326E+09
        -0.18167E+09
        -0.17081E+09
        -0.12258E+09
        -0.61739E+08
        -0.58765E+08
        -0.15981E+09
        -0.12436E+09
        -0.11565E+09
        -0.29567E+08
        -0.11766E+09
        -0.67785E+08
        -0.53842E+08
        -0.15484E+09
        -0.12463E+09
        -0.15439E+09
         0.93399E+08
         0.17296E+09
         0.13274E+09
         0.34323E+08
         0.16382E+09
         0.74858E+08
        -0.25084E+08
         0.21254E+08
         0.98273E+08
         0.17538E+08
         0.46697E+08
         0.34603E+08
        -0.20649E+08
         0.28787E+08
        -0.12330E+09
         0.28143E+08
         0.86533E+07
         0.15080E+08
        -0.19243E+08
        -0.11984E+09
         0.80526E+08
         0.20099E+08
         0.53372E+08
         0.46075E+08
        -0.11768E+08
         0.66243E+08
         0.98295E+08
         0.15046E+09
         0.16997E+09
         0.16006E+09
         0.84772E+08
        -0.21648E+08
        -0.47085E+08
        -0.75498E+08
        -0.10764E+09
        -0.16248E+09
        -0.14146E+09
        -0.10866E+09
        -0.13689E+09
        -0.16130E+09
        -0.10762E+09
        -0.97714E+07
         0.33549E+08
        -0.47417E+08
         0.10586E+09
         0.13744E+09
         0.16735E+09
         0.18805E+09
         0.19126E+09
         0.18595E+09
         0.18264E+09
         0.16976E+09
         0.10856E+09
         0.36488E+08
         0.17225E+08
         0.15787E+08
        -0.59545E+07
        -0.52430E+08
        -0.10148E+09
        -0.12997E+09
        -0.17519E+09
        -0.18948E+09
        -0.18326E+09
        -0.18168E+09
        -0.17082E+09
        -0.12257E+09
        -0.61704E+08
        -0.58716E+08
        -0.15980E+09
        -0.12435E+09
        -0.11570E+09
        -0.29781E+08
        -0.11773E+09
        -0.67839E+08
        -0.53878E+08
        -0.15495E+09
        -0.12486E+09
        -0.15451E+09
         0.93482E+08
         0.17295E+09
         0.13273E+09
         0.34352E+08
         0.16387E+09
         0.74872E+08
        -0.25315E+08
         0.21219E+08
         0.98348E+08
         0.17416E+08
         0.46808E+08
         0.34628E+08
        -0.20677E+08
         0.28746E+08
        -0.12376E+09
         0.28037E+08
         0.87959E+07
         0.15230E+08
        -0.18990E+08
        -0.12001E+09
         0.80517E+08
         0.19976E+08
         0.53493E+08
         0.46158E+08
        -0.11635E+08
         0.66298E+08
         0.98314E+08
         0.15048E+09
         0.16997E+09
         0.16004E+09
         0.84803E+08
        -0.21523E+08
        -0.47096E+08
        -0.75587E+08
        -0.10771E+09
        -0.16250E+09
        -0.14149E+09
        -0.10863E+09
        -0.13676E+09
        -0.16110E+09
        -0.10763E+09
        -0.96057E+07
         0.33528E+08
        -0.47430E+08
         0.10588E+09
         0.13744E+09
         0.16736E+09
         0.18804E+09
         0.19125E+09
         0.18594E+09
         0.18264E+09
         0.16975E+09
         0.10856E+09
         0.36512E+08
         0.17228E+08
         0.15819E+08
        -0.58995E+07
        -0.52448E+08
        -0.10151E+09
        -0.12998E+09
        -0.17520E+09
        -0.18948E+09
        -0.18327E+09
        -0.18168E+09
        -0.17083E+09
        -0.12255E+09
        -0.61668E+08
        -0.58666E+08
        -0.15979E+09
        -0.12434E+09
        -0.11576E+09
        -0.29994E+08
        -0.11779E+09
        -0.67893E+08
        -0.53919E+08
        -0.15505E+09
        -0.12509E+09
        -0.15463E+09
         0.93566E+08
         0.17294E+09
         0.13272E+09
         0.34385E+08
         0.16392E+09
         0.74886E+08
        -0.25547E+08
         0.21185E+08
         0.98422E+08
         0.17293E+08
         0.46918E+08
         0.34652E+08
        -0.20705E+08
         0.28705E+08
        -0.12422E+09
         0.27930E+08
         0.89347E+07
         0.15379E+08
        -0.18738E+08
        -0.12019E+09
         0.80507E+08
         0.19853E+08
         0.53615E+08
         0.46242E+08
        -0.11500E+08
         0.66350E+08
         0.98332E+08
         0.15050E+09
         0.16998E+09
         0.16002E+09
         0.84835E+08
        -0.21397E+08
        -0.47107E+08
        -0.75675E+08
        -0.10777E+09
        -0.16251E+09
        -0.14152E+09
        -0.10861E+09
        -0.13663E+09
        -0.16089E+09
        -0.10763E+09
        -0.94404E+07
         0.33507E+08
        -0.47442E+08
         0.10590E+09
         0.13744E+09
         0.16736E+09
         0.18804E+09
         0.19124E+09
         0.18593E+09
         0.18265E+09
         0.16975E+09
         0.10856E+09
         0.36536E+08
         0.17232E+08
         0.15851E+08
        -0.58446E+07
        -0.52465E+08
        -0.10154E+09
        -0.12999E+09
        -0.17521E+09
        -0.18948E+09
        -0.18328E+09
        -0.18169E+09
        -0.17083E+09
        -0.12254E+09
        -0.61633E+08
        -0.58616E+08
        -0.15977E+09
        -0.12433E+09
        -0.11581E+09
        -0.30208E+08
        -0.11785E+09
        -0.67946E+08
        -0.53956E+08
        -0.15516E+09
        -0.12533E+09
        -0.15475E+09
         0.93649E+08
         0.17293E+09
         0.13271E+09
         0.34413E+08
         0.16397E+09
         0.74900E+08
        -0.25780E+08
         0.21150E+08
         0.98497E+08
         0.17169E+08
         0.47028E+08
         0.34676E+08
        -0.20732E+08
         0.28665E+08
        -0.12468E+09
         0.27824E+08
         0.90760E+07
         0.15524E+08
        -0.18487E+08
        -0.12037E+09
         0.80497E+08
         0.19730E+08
         0.53736E+08
         0.46326E+08
        -0.11366E+08
         0.66404E+08
         0.98351E+08
         0.15051E+09
         0.16998E+09
         0.15999E+09
         0.84866E+08
        -0.21272E+08
        -0.47119E+08
        -0.75763E+08
        -0.10784E+09
        -0.16252E+09
        -0.14155E+09
        -0.10859E+09
        -0.13650E+09
        -0.16069E+09
        -0.10764E+09
        -0.92737E+07
         0.33486E+08
        -0.47454E+08
         0.10591E+09
         0.13744E+09
         0.16737E+09
         0.18803E+09
         0.19124E+09
         0.18592E+09
         0.18265E+09
         0.16975E+09
         0.10856E+09
         0.36560E+08
         0.17235E+08
         0.15882E+08
        -0.57896E+07
        -0.52483E+08
        -0.10158E+09
        -0.13000E+09
        -0.17521E+09
        -0.18947E+09
        -0.18328E+09
        -0.18169E+09
        -0.17084E+09
        -0.12252E+09
        -0.61598E+08
        -0.58566E+08
        -0.15976E+09
        -0.12432E+09
        -0.11587E+09
        -0.30420E+08
        -0.11791E+09
        -0.67999E+08
        -0.53994E+08
        -0.15526E+09
        -0.12556E+09
        -0.15487E+09
         0.93733E+08
         0.17292E+09
         0.13269E+09
         0.34445E+08
         0.16402E+09
         0.74915E+08
        -0.26014E+08
         0.21116E+08
         0.98571E+08
         0.17045E+08
         0.47139E+08
         0.34700E+08
        -0.20760E+08
         0.28626E+08
        -0.12514E+09
         0.27718E+08
         0.92135E+07
         0.15668E+08
        -0.18238E+08
        -0.12054E+09
         0.80487E+08
         0.19608E+08
         0.53856E+08
         0.46411E+08
        -0.11231E+08
         0.66457E+08
         0.98370E+08
         0.15053E+09
         0.16999E+09
         0.15997E+09
         0.84898E+08
        -0.21148E+08
        -0.47131E+08
        -0.75850E+08
        -0.10790E+09
        -0.16253E+09
        -0.14159E+09
        -0.10857E+09
        -0.13637E+09
        -0.16049E+09
        -0.10764E+09
        -0.91064E+07
         0.33465E+08
        -0.47466E+08
         0.10593E+09
         0.13744E+09
         0.16737E+09
         0.18803E+09
         0.19123E+09
         0.18591E+09
         0.18265E+09
         0.16975E+09
         0.10855E+09
         0.36584E+08
         0.17238E+08
         0.15913E+08
        -0.57346E+07
        -0.52501E+08
        -0.10161E+09
        -0.13001E+09
        -0.17522E+09
        -0.18947E+09
        -0.18329E+09
        -0.18169E+09
        -0.17085E+09
        -0.12251E+09
        -0.61563E+08
        -0.58516E+08
        -0.15974E+09
        -0.12431E+09
        -0.11592E+09
        -0.30633E+08
        -0.11797E+09
        -0.68052E+08
        -0.54033E+08
        -0.15537E+09
        -0.12579E+09
        -0.15498E+09
         0.93817E+08
         0.17291E+09
         0.13268E+09
         0.34472E+08
         0.16407E+09
         0.74930E+08
        -0.26250E+08
         0.21080E+08
         0.98646E+08
         0.16923E+08
         0.47249E+08
         0.34722E+08
        -0.20788E+08
         0.28586E+08
        -0.12560E+09
         0.27611E+08
         0.93548E+07
         0.15810E+08
        -0.17987E+08
        -0.12071E+09
         0.80477E+08
         0.19485E+08
         0.53977E+08
         0.46495E+08
        -0.11095E+08
         0.66510E+08
         0.98389E+08
         0.15055E+09
         0.16999E+09
         0.15995E+09
         0.84930E+08
        -0.21024E+08
        -0.47143E+08
        -0.75938E+08
        -0.10796E+09
        -0.16255E+09
        -0.14162E+09
        -0.10854E+09
        -0.13624E+09
        -0.16028E+09
        -0.10765E+09
        -0.89399E+07
         0.33444E+08
        -0.47478E+08
         0.10595E+09
         0.13744E+09
         0.16738E+09
         0.18802E+09
         0.19122E+09
         0.18590E+09
         0.18266E+09
         0.16975E+09
         0.10855E+09
         0.36609E+08
         0.17240E+08
         0.15944E+08
        -0.56799E+07
        -0.52518E+08
        -0.10164E+09
        -0.13002E+09
        -0.17522E+09
        -0.18947E+09
        -0.18330E+09
        -0.18170E+09
        -0.17086E+09
        -0.12250E+09
        -0.61528E+08
        -0.58467E+08
        -0.15973E+09
        -0.12430E+09
        -0.11598E+09
        -0.30848E+08
        -0.11804E+09
        -0.68105E+08
        -0.54071E+08
        -0.15547E+09
        -0.12603E+09
        -0.15510E+09
         0.93900E+08
         0.17290E+09
         0.13267E+09
         0.34502E+08
         0.16411E+09
         0.74944E+08
        -0.26488E+08
         0.21045E+08
         0.98720E+08
         0.16807E+08
         0.47359E+08
         0.34744E+08
        -0.20816E+08
         0.28545E+08
        -0.12606E+09
         0.27506E+08
         0.94947E+07
         0.15951E+08
        -0.17738E+08
        -0.12088E+09
         0.80467E+08
         0.19360E+08
         0.54097E+08
         0.46580E+08
        -0.10960E+08
         0.66565E+08
         0.98407E+08
         0.15057E+09
         0.16999E+09
         0.15992E+09
         0.84964E+08
        -0.20901E+08
        -0.47157E+08
        -0.76026E+08
        -0.10803E+09
        -0.16256E+09
        -0.14165E+09
        -0.10852E+09
        -0.13611E+09
        -0.16008E+09
        -0.10765E+09
        -0.87729E+07
         0.33423E+08
        -0.47490E+08
         0.10597E+09
         0.13744E+09
         0.16738E+09
         0.18801E+09
         0.19121E+09
         0.18589E+09
         0.18266E+09
         0.16975E+09
         0.10855E+09
         0.36632E+08
         0.17241E+08
         0.15975E+08
        -0.56253E+07
        -0.52536E+08
        -0.10167E+09
        -0.13004E+09
        -0.17523E+09
        -0.18947E+09
        -0.18330E+09
        -0.18170E+09
        -0.17087E+09
        -0.12248E+09
        -0.61494E+08
        -0.58416E+08
        -0.15972E+09
        -0.12429E+09
        -0.11603E+09
        -0.31062E+08
        -0.11810E+09
        -0.68157E+08
        -0.54109E+08
        -0.15557E+09
        -0.12626E+09
        -0.15523E+09
         0.93983E+08
         0.17289E+09
         0.13266E+09
         0.34533E+08
         0.16417E+09
         0.74958E+08
        -0.26729E+08
         0.21009E+08
         0.98795E+08
         0.16696E+08
         0.47469E+08
         0.34766E+08
        -0.20844E+08
         0.28506E+08
        -0.12652E+09
         0.27399E+08
         0.96406E+07
         0.16091E+08
        -0.17489E+08
        -0.12103E+09
         0.80456E+08
         0.19237E+08
         0.54216E+08
         0.46665E+08
        -0.10824E+08
         0.66617E+08
         0.98426E+08
         0.15059E+09
         0.17000E+09
         0.15990E+09
         0.85000E+08
        -0.20779E+08
        -0.47174E+08
        -0.76113E+08
        -0.10809E+09
        -0.16257E+09
        -0.14168E+09
        -0.10850E+09
        -0.13598E+09
        -0.15987E+09
        -0.10766E+09
        -0.86042E+07
         0.33402E+08
        -0.47502E+08
         0.10599E+09
         0.13744E+09
         0.16739E+09
         0.18801E+09
         0.19120E+09
         0.18588E+09
         0.18267E+09
         0.16975E+09
         0.10856E+09
         0.36655E+08
         0.17240E+08
         0.16006E+08
        -0.55704E+07
        -0.52553E+08
        -0.10171E+09
        -0.13005E+09
        -0.17524E+09
        -0.18947E+09
        -0.18331E+09
        -0.18170E+09
        -0.17088E+09
        -0.12247E+09
        -0.61459E+08
        -0.58366E+08
        -0.15970E+09
        -0.12428E+09
        -0.11609E+09
        -0.31275E+08
        -0.11816E+09
        -0.68211E+08
        -0.54150E+08
        -0.15567E+09
        -0.12650E+09
        -0.15535E+09
         0.94067E+08
         0.17288E+09
         0.13265E+09
         0.34559E+08
         0.16421E+09
         0.74973E+08
        -0.26972E+08
         0.20973E+08
         0.98871E+08
         0.16587E+08
         0.47580E+08
         0.34788E+08
        -0.20870E+08
         0.28470E+08
        -0.12698E+09
         0.27296E+08
         0.97827E+07
         0.16225E+08
        -0.17244E+08
        -0.12118E+09
         0.80447E+08
         0.19116E+08
         0.54337E+08
         0.46751E+08
        -0.10689E+08
         0.66669E+08
         0.98442E+08
         0.15061E+09
         0.17000E+09
         0.15987E+09
         0.85035E+08
        -0.20660E+08
        -0.47193E+08
        -0.76198E+08
        -0.10815E+09
        -0.16258E+09
        -0.14171E+09
        -0.10848E+09
        -0.13585E+09
        -0.15967E+09
        -0.10766E+09
        -0.84359E+07
         0.33380E+08
        -0.47515E+08
         0.10601E+09
         0.13744E+09
         0.16739E+09
         0.18800E+09
         0.19120E+09
         0.18587E+09
         0.18267E+09
         0.16975E+09
         0.10856E+09
         0.36677E+08
         0.17238E+08
         0.16037E+08
        -0.55155E+07
        -0.52570E+08
        -0.10174E+09
        -0.13006E+09
        -0.17524E+09
        -0.18947E+09
        -0.18331E+09
        -0.18171E+09
        -0.17089E+09
        -0.12245E+09
        -0.61425E+08
        -0.58316E+08
        -0.15364E+09
        -0.12465E+09
        -0.11650E+09
        -0.31574E+08
        -0.11219E+09
        -0.68448E+08
        -0.54350E+08
        -0.14809E+09
        -0.12710E+09
        -0.14743E+09
         0.94393E+08
         0.16908E+09
         0.12869E+09
         0.34675E+08
         0.16093E+09
         0.75216E+08
        -0.27279E+08
         0.21002E+08
         0.99221E+08
         0.16536E+08
         0.46547E+08
         0.33846E+08
        -0.20334E+08
         0.28534E+08
        -0.12777E+09
         0.27307E+08
         0.99385E+07
         0.16370E+08
        -0.17090E+08
        -0.12167E+09
         0.80690E+08
         0.19087E+08
         0.54613E+08
         0.46972E+08
        -0.10177E+08
         0.61665E+08
         0.93508E+08
         0.14663E+09
         0.16328E+09
         0.15259E+09
         0.82898E+08
        -0.19997E+08
        -0.46040E+08
        -0.73716E+08
        -0.10332E+09
        -0.15732E+09
        -0.13334E+09
        -0.10082E+09
        -0.13608E+09
        -0.15272E+09
        -0.10360E+09
        -0.77201E+07
         0.33126E+08
        -0.47238E+08
         0.10540E+09
         0.13668E+09
         0.16652E+09
         0.18706E+09
         0.19014E+09
         0.18460E+09
         0.18136E+09
         0.16862E+09
         0.10786E+09
         0.36475E+08
         0.17114E+08
         0.15956E+08
        -0.54321E+07
        -0.52308E+08
        -0.10126E+09
        -0.12943E+09
        -0.17417E+09
        -0.18835E+09
        -0.18219E+09
        -0.18055E+09
        -0.16986E+09
        -0.12167E+09
        -0.61036E+08
        -0.57924E+08
        -0.74704E+08
        -0.47778E+08
        -0.45094E+08
        -0.13538E+08
        -0.48639E+08
        -0.24404E+08
        -0.19860E+08
        -0.65010E+08
        -0.51060E+08
        -0.63548E+08
         0.31068E+08
         0.99612E+08
         0.68309E+08
         0.10904E+08
         0.97302E+08
         0.30358E+08
        -0.10814E+08
         0.94368E+07
         0.37344E+08
         0.60444E+07
         0.26631E+08
         0.18425E+08
        -0.11225E+08
         0.11297E+08
        -0.44966E+08
         0.11350E+08
         0.31866E+07
         0.55230E+07
        -0.56895E+07
        -0.41446E+08
         0.32771E+08
         0.76224E+07
         0.23221E+08
         0.19242E+08
        -0.49174E+07
         0.22324E+08
         0.40765E+08
         0.81074E+08
         0.78254E+08
         0.69417E+08
         0.46562E+08
        -0.10873E+08
        -0.25965E+08
        -0.37399E+08
        -0.46862E+08
        -0.80797E+08
        -0.54456E+08
        -0.38422E+08
        -0.49339E+08
        -0.55373E+08
        -0.50410E+08
        -0.29717E+07
         0.26290E+08
        -0.38229E+08
         0.86182E+08
         0.11279E+09
         0.13889E+09
         0.15719E+09
         0.15748E+09
         0.14740E+09
         0.14289E+09
         0.13482E+09
         0.86633E+08
         0.29808E+08
         0.13591E+08
         0.12726E+08
        -0.44265E+07
        -0.43576E+08
        -0.85028E+08
        -0.10875E+09
        -0.14091E+09
        -0.15372E+09
        -0.14767E+09
        -0.14550E+09
        -0.13804E+09
        -0.98223E+08
        -0.49934E+08
        -0.47217E+08
  
SCALARS                      stress_xz  double 1
LOOKUP_TABLE default
         0.48599E+05
        -0.34276E+06
        -0.11315E+07
         0.77727E+05
        -0.32768E+01
         0.11619E+01
         0.38851E+01
         0.77591E+00
        -0.31839E+07
        -0.21271E+07
         0.11621E+02
         0.10467E+02
         0.13576E+06
        -0.55397E+06
        -0.14332E+01
        -0.67139E+01
        -0.11364E+06
        -0.53162E+06
        -0.48497E+01
        -0.72228E+01
        -0.77914E+06
        -0.13129E+07
        -0.12432E+07
        -0.48230E+01
        -0.22240E+01
         0.38855E+01
        -0.13868E+07
        -0.11261E+07
        -0.90281E+01
        -0.71616E+01
         0.26591E+06
        -0.59071E+06
         0.56525E+05
         0.91917E+00
        -0.35521E+01
        -0.21883E+01
         0.78894E+06
         0.38030E+06
        -0.52737E+01
        -0.56151E+01
         0.15726E+07
         0.22283E+07
        -0.11896E+02
        -0.87726E+01
         0.16824E+07
         0.89598E+06
        -0.13064E+02
        -0.62879E+01
        -0.48301E+06
        -0.39469E+01
         0.11501E+07
        -0.10987E+01
        -0.50389E+06
        -0.77123E+01
         0.37642E+06
        -0.20401E+01
         0.16469E+07
         0.45177E+06
        -0.17476E+01
        -0.42243E+01
        -0.28393E+05
         0.78330E+06
         0.34954E+01
         0.23970E+01
        -0.20343E+06
        -0.35160E+00
        -0.68099E+06
         0.23126E+01
        -0.44806E+07
        -0.30704E+07
         0.14455E+02
         0.10484E+02
        -0.19748E+07
         0.76334E+01
         0.46553E+06
        -0.52804E+01
         0.14568E+07
        -0.10364E+01
         0.30884E+07
        -0.16078E+01
         0.40861E+07
         0.29015E+07
        -0.58924E+01
        -0.67390E+01
         0.25627E+07
        -0.72474E+01
         0.20402E+07
        -0.10435E+02
         0.12706E+07
        -0.66554E+01
         0.20002E+07
         0.14711E+07
        -0.28404E+01
         0.38953E+01
        -0.33628E+06
         0.45691E+01
        -0.92308E+06
         0.19185E+01
        -0.22164E+07
         0.47375E+01
        -0.32764E+07
        -0.22486E+07
         0.10924E+02
         0.11399E+02
        -0.80248E+07
        -0.88855E+07
         0.20184E+02
         0.19891E+02
        -0.79479E+07
         0.17243E+02
        -0.72435E+07
         0.12886E+02
        -0.51969E+07
         0.70815E+01
        -0.37762E+07
         0.75725E+00
        -0.14012E+07
        -0.26971E+01
         0.18054E+07
        -0.21578E+01
         0.43085E+07
        -0.21209E+01
         0.64017E+07
        -0.47828E+01
         0.86108E+07
        -0.90993E+01
         0.10463E+08
        -0.10858E+02
         0.11121E+08
        -0.10245E+02
         0.10592E+08
        -0.11141E+02
         0.97069E+07
        -0.14459E+02
         0.87298E+07
        -0.17050E+02
         0.76995E+07
        -0.15850E+02
         0.61232E+07
        -0.12881E+02
         0.35929E+07
        -0.60811E+01
         0.30802E+06
         0.11612E+01
        -0.20093E+07
         0.28192E+01
        -0.31448E+07
         0.46100E+01
        -0.47298E+07
         0.90221E+01
        -0.62361E+07
         0.14805E+02
        -0.81963E+07
         0.17787E+02
        -0.94163E+07
         0.18193E+02
        -0.86071E+06
         0.44825E+06
         0.52585E+06
        -0.10585E+07
         0.40999E+07
         0.31706E+07
         0.47886E+06
        -0.70330E+06
        -0.36267E+06
        -0.64551E+06
         0.35447E+06
         0.15348E+07
         0.32056E+07
        -0.10254E+07
        -0.12337E+07
         0.14087E+07
         0.11821E+07
        -0.54804E+06
        -0.85304E+06
        -0.91755E+06
        -0.50163E+07
        -0.53406E+07
        -0.48242E+07
        -0.14992E+07
         0.60104E+06
        -0.44789E+06
        -0.14392E+07
        -0.16138E+06
        -0.16515E+07
        -0.11353E+07
         0.12577E+07
         0.24690E+06
        -0.59264E+06
        -0.19167E+06
         0.60652E+07
         0.38639E+07
         0.34965E+07
        -0.24478E+07
        -0.13943E+07
        -0.29830E+07
        -0.61385E+07
        -0.57205E+07
        -0.56467E+07
        -0.41510E+07
        -0.29780E+07
        -0.23302E+07
         0.43757E+06
         0.18273E+07
         0.52844E+06
         0.16754E+07
         0.44760E+07
         0.37696E+07
         0.17711E+08
         0.18593E+08
         0.16618E+08
         0.14137E+08
         0.10526E+08
         0.53614E+07
        -0.31810E+06
        -0.38193E+07
        -0.58194E+07
        -0.99906E+07
        -0.16285E+08
        -0.19818E+08
        -0.18156E+08
        -0.17413E+08
        -0.18394E+08
        -0.18388E+08
        -0.16704E+08
        -0.14626E+08
        -0.74097E+07
         0.11713E+07
         0.45019E+07
         0.50186E+07
         0.84982E+07
         0.13571E+08
         0.17605E+08
         0.18503E+08
        -0.54319E+08
         0.13738E+08
        -0.26153E+08
        -0.76150E+08
         0.12229E+09
         0.13349E+09
         0.38892E+08
        -0.70017E+08
        -0.39010E+08
        -0.70461E+08
        -0.16306E+08
         0.25684E+08
         0.10952E+09
        -0.15009E+09
        -0.64264E+08
         0.13148E+09
         0.73193E+08
        -0.43839E+08
        -0.29502E+08
        -0.51811E+08
        -0.16644E+09
        -0.16849E+09
        -0.17049E+09
        -0.69928E+08
         0.39718E+08
         0.26743E+08
        -0.14503E+09
         0.19257E+08
        -0.48537E+08
        -0.66189E+08
         0.10101E+09
         0.65363E+08
        -0.65514E+08
        -0.56542E+08
         0.17082E+09
         0.15375E+09
         0.13791E+09
        -0.86331E+08
        -0.18528E+08
        -0.57510E+08
        -0.15155E+09
        -0.17102E+09
        -0.16613E+09
        -0.15312E+09
        -0.13134E+09
        -0.57056E+08
         0.92164E+08
         0.12711E+09
        -0.16986E+08
         0.20451E+08
         0.13298E+09
         0.16770E+09
         0.18611E+09
         0.18353E+09
         0.15820E+09
         0.13135E+09
         0.92439E+08
         0.39894E+08
        -0.10286E+08
        -0.37111E+08
        -0.50059E+08
        -0.86228E+08
        -0.15601E+09
        -0.18637E+09
        -0.18613E+09
        -0.18552E+09
        -0.18747E+09
        -0.18126E+09
        -0.15991E+09
        -0.13953E+09
        -0.73668E+08
         0.18685E+08
         0.45495E+08
         0.48338E+08
         0.81012E+08
         0.14322E+09
         0.17856E+09
         0.17938E+09
        -0.54383E+08
         0.13789E+08
        -0.26203E+08
        -0.76201E+08
         0.12223E+09
         0.13336E+09
         0.39139E+08
        -0.69775E+08
        -0.39053E+08
        -0.70208E+08
        -0.15976E+08
         0.25747E+08
         0.10955E+09
        -0.14972E+09
        -0.64168E+08
         0.13161E+09
         0.73354E+08
        -0.43718E+08
        -0.29488E+08
        -0.51720E+08
        -0.16641E+09
        -0.16848E+09
        -0.17049E+09
        -0.69931E+08
         0.39808E+08
         0.26788E+08
        -0.14508E+09
         0.18895E+08
        -0.48878E+08
        -0.66232E+08
         0.10116E+09
         0.65354E+08
        -0.65241E+08
        -0.56567E+08
         0.17084E+09
         0.15368E+09
         0.13789E+09
        -0.86343E+08
        -0.18665E+08
        -0.57615E+08
        -0.15155E+09
        -0.17104E+09
        -0.16612E+09
        -0.15310E+09
        -0.13131E+09
        -0.57029E+08
         0.92145E+08
         0.12716E+09
        -0.16862E+08
         0.20382E+08
         0.13296E+09
         0.16770E+09
         0.18611E+09
         0.18353E+09
         0.15818E+09
         0.13135E+09
         0.92425E+08
         0.39894E+08
        -0.10301E+08
        -0.37143E+08
        -0.50028E+08
        -0.86218E+08
        -0.15601E+09
        -0.18637E+09
        -0.18613E+09
        -0.18552E+09
        -0.18747E+09
        -0.18126E+09
        -0.15990E+09
        -0.13953E+09
        -0.73652E+08
         0.18694E+08
         0.45466E+08
         0.48322E+08
         0.80978E+08
         0.14321E+09
         0.17856E+09
         0.17939E+09
        -0.54446E+08
         0.13839E+08
        -0.26252E+08
        -0.76252E+08
         0.12216E+09
         0.13324E+09
         0.39387E+08
        -0.69534E+08
        -0.39093E+08
        -0.69954E+08
        -0.15646E+08
         0.25810E+08
         0.10957E+09
        -0.14935E+09
        -0.64072E+08
         0.13175E+09
         0.73517E+08
        -0.43595E+08
        -0.29473E+08
        -0.51632E+08
        -0.16638E+09
        -0.16847E+09
        -0.17049E+09
        -0.69935E+08
         0.39903E+08
         0.26836E+08
        -0.14512E+09
         0.18537E+08
        -0.49222E+08
        -0.66273E+08
         0.10131E+09
         0.65349E+08
        -0.64967E+08
        -0.56593E+08
         0.17085E+09
         0.15361E+09
         0.13788E+09
        -0.86354E+08
        -0.18802E+08
        -0.57721E+08
        -0.15155E+09
        -0.17106E+09
        -0.16611E+09
        -0.15308E+09
        -0.13129E+09
        -0.57003E+08
         0.92127E+08
         0.12721E+09
        -0.16735E+08
         0.20310E+08
         0.13295E+09
         0.16770E+09
         0.18611E+09
         0.18352E+09
         0.15817E+09
         0.13135E+09
         0.92410E+08
         0.39894E+08
        -0.10317E+08
        -0.37175E+08
        -0.49998E+08
        -0.86207E+08
        -0.15601E+09
        -0.18637E+09
        -0.18613E+09
        -0.18552E+09
        -0.18747E+09
        -0.18126E+09
        -0.15989E+09
        -0.13953E+09
        -0.73635E+08
         0.18704E+08
         0.45437E+08
         0.48306E+08
         0.80944E+08
         0.14321E+09
         0.17857E+09
         0.17940E+09
        -0.54510E+08
         0.13891E+08
        -0.26300E+08
        -0.76302E+08
         0.12210E+09
         0.13312E+09
         0.39633E+08
        -0.69293E+08
        -0.39128E+08
        -0.69695E+08
        -0.15318E+08
         0.25875E+08
         0.10960E+09
        -0.14898E+09
        -0.63976E+08
         0.13190E+09
         0.73688E+08
        -0.43472E+08
        -0.29461E+08
        -0.51540E+08
        -0.16635E+09
        -0.16847E+09
        -0.17048E+09
        -0.69939E+08
         0.40017E+08
         0.26895E+08
        -0.14515E+09
         0.18191E+08
        -0.49564E+08
        -0.66312E+08
         0.10147E+09
         0.65356E+08
        -0.64691E+08
        -0.56618E+08
         0.17087E+09
         0.15355E+09
         0.13787E+09
        -0.86365E+08
        -0.18938E+08
        -0.57821E+08
        -0.15155E+09
        -0.17107E+09
        -0.16610E+09
        -0.15304E+09
        -0.13125E+09
        -0.56973E+08
         0.92107E+08
         0.12726E+09
        -0.16607E+08
         0.20237E+08
         0.13293E+09
         0.16770E+09
         0.18611E+09
         0.18351E+09
         0.15816E+09
         0.13135E+09
         0.92396E+08
         0.39894E+08
        -0.10333E+08
        -0.37207E+08
        -0.49967E+08
        -0.86197E+08
        -0.15601E+09
        -0.18637E+09
        -0.18613E+09
        -0.18552E+09
        -0.18748E+09
        -0.18126E+09
        -0.15988E+09
        -0.13953E+09
        -0.73618E+08
         0.18713E+08
         0.45408E+08
         0.48289E+08
         0.80910E+08
         0.14321E+09
         0.17857E+09
         0.17941E+09
        -0.54573E+08
         0.13943E+08
        -0.26349E+08
        -0.76352E+08
         0.12203E+09
         0.13300E+09
         0.39881E+08
        -0.69051E+08
        -0.39158E+08
        -0.69431E+08
        -0.14989E+08
         0.25938E+08
         0.10962E+09
        -0.14861E+09
        -0.63879E+08
         0.13207E+09
         0.73867E+08
        -0.43348E+08
        -0.29445E+08
        -0.51447E+08
        -0.16632E+09
        -0.16846E+09
        -0.17048E+09
        -0.69944E+08
         0.40149E+08
         0.26963E+08
        -0.14518E+09
         0.17856E+08
        -0.49905E+08
        -0.66349E+08
         0.10165E+09
         0.65372E+08
        -0.64414E+08
        -0.56643E+08
         0.17088E+09
         0.15348E+09
         0.13785E+09
        -0.86375E+08
        -0.19071E+08
        -0.57919E+08
        -0.15154E+09
        -0.17109E+09
        -0.16610E+09
        -0.15300E+09
        -0.13120E+09
        -0.56938E+08
         0.92086E+08
         0.12731E+09
        -0.16481E+08
         0.20166E+08
         0.13292E+09
         0.16770E+09
         0.18611E+09
         0.18350E+09
         0.15814E+09
         0.13135E+09
         0.92381E+08
         0.39895E+08
        -0.10348E+08
        -0.37239E+08
        -0.49936E+08
        -0.86186E+08
        -0.15601E+09
        -0.18636E+09
        -0.18613E+09
        -0.18551E+09
        -0.18748E+09
        -0.18126E+09
        -0.15987E+09
        -0.13953E+09
        -0.73601E+08
         0.18723E+08
         0.45380E+08
         0.48273E+08
         0.80876E+08
         0.14321E+09
         0.17857E+09
         0.17941E+09
        -0.54633E+08
         0.13999E+08
        -0.26392E+08
        -0.76401E+08
         0.12196E+09
         0.13287E+09
         0.40130E+08
        -0.68812E+08
        -0.39187E+08
        -0.69171E+08
        -0.14659E+08
         0.26001E+08
         0.10965E+09
        -0.14824E+09
        -0.63783E+08
         0.13223E+09
         0.74045E+08
        -0.43225E+08
        -0.29428E+08
        -0.51358E+08
        -0.16629E+09
        -0.16846E+09
        -0.17048E+09
        -0.69949E+08
         0.40280E+08
         0.27034E+08
        -0.14521E+09
         0.17522E+08
        -0.50248E+08
        -0.66391E+08
         0.10182E+09
         0.65386E+08
        -0.64134E+08
        -0.56666E+08
         0.17089E+09
         0.15342E+09
         0.13784E+09
        -0.86383E+08
        -0.19203E+08
        -0.58015E+08
        -0.15153E+09
        -0.17112E+09
        -0.16610E+09
        -0.15296E+09
        -0.13115E+09
        -0.56905E+08
         0.92061E+08
         0.12736E+09
        -0.16351E+08
         0.20101E+08
         0.13291E+09
         0.16770E+09
         0.18610E+09
         0.18350E+09
         0.15813E+09
         0.13135E+09
         0.92367E+08
         0.39895E+08
        -0.10364E+08
        -0.37271E+08
        -0.49906E+08
        -0.86176E+08
        -0.15601E+09
        -0.18636E+09
        -0.18612E+09
        -0.18551E+09
        -0.18748E+09
        -0.18126E+09
        -0.15985E+09
        -0.13952E+09
        -0.73584E+08
         0.18731E+08
         0.45350E+08
         0.48257E+08
         0.80842E+08
         0.14321E+09
         0.17858E+09
         0.17942E+09
        -0.54689E+08
         0.14066E+08
        -0.26425E+08
        -0.76448E+08
         0.12190E+09
         0.13275E+09
         0.40383E+08
        -0.68577E+08
        -0.39218E+08
        -0.68925E+08
        -0.14328E+08
         0.26064E+08
         0.10967E+09
        -0.14787E+09
        -0.63685E+08
         0.13240E+09
         0.74217E+08
        -0.43100E+08
        -0.29415E+08
        -0.51272E+08
        -0.16626E+09
        -0.16845E+09
        -0.17048E+09
        -0.69958E+08
         0.40395E+08
         0.27095E+08
        -0.14524E+09
         0.17181E+08
        -0.50594E+08
        -0.66440E+08
         0.10198E+09
         0.65388E+08
        -0.63849E+08
        -0.56682E+08
         0.17091E+09
         0.15336E+09
         0.13782E+09
        -0.86390E+08
        -0.19336E+08
        -0.58114E+08
        -0.15152E+09
        -0.17114E+09
        -0.16610E+09
        -0.15292E+09
        -0.13110E+09
        -0.56872E+08
         0.92021E+08
         0.12738E+09
        -0.16209E+08
         0.20050E+08
         0.13290E+09
         0.16770E+09
         0.18610E+09
         0.18349E+09
         0.15812E+09
         0.13135E+09
         0.92352E+08
         0.39895E+08
        -0.10379E+08
        -0.37303E+08
        -0.49875E+08
        -0.86166E+08
        -0.15601E+09
        -0.18635E+09
        -0.18612E+09
        -0.18551E+09
        -0.18749E+09
        -0.18126E+09
        -0.15984E+09
        -0.13952E+09
        -0.73567E+08
         0.18739E+08
         0.45319E+08
         0.48240E+08
         0.80810E+08
         0.14321E+09
         0.17858E+09
         0.17943E+09
        -0.54742E+08
         0.14137E+08
        -0.26454E+08
        -0.76494E+08
         0.12183E+09
         0.13263E+09
         0.40639E+08
        -0.68345E+08
        -0.39250E+08
        -0.68686E+08
        -0.13996E+08
         0.26127E+08
         0.10969E+09
        -0.14750E+09
        -0.63588E+08
         0.13257E+09
         0.74384E+08
        -0.42975E+08
        -0.29399E+08
        -0.51190E+08
        -0.16623E+09
        -0.16845E+09
        -0.17047E+09
        -0.69965E+08
         0.40504E+08
         0.27153E+08
        -0.14527E+09
         0.16838E+08
        -0.50946E+08
        -0.66494E+08
         0.10214E+09
         0.65384E+08
        -0.63560E+08
        -0.56696E+08
         0.17092E+09
         0.15331E+09
         0.13781E+09
        -0.86395E+08
        -0.19467E+08
        -0.58211E+08
        -0.15152E+09
        -0.17116E+09
        -0.16610E+09
        -0.15288E+09
        -0.13105E+09
        -0.56842E+08
         0.91975E+08
         0.12741E+09
        -0.16064E+08
         0.20006E+08
         0.13289E+09
         0.16770E+09
         0.18610E+09
         0.18348E+09
         0.15810E+09
         0.13135E+09
         0.92337E+08
         0.39896E+08
        -0.10395E+08
        -0.37335E+08
        -0.49845E+08
        -0.86156E+08
        -0.15600E+09
        -0.18635E+09
        -0.18612E+09
        -0.18550E+09
        -0.18749E+09
        -0.18126E+09
        -0.15982E+09
        -0.13951E+09
        -0.73550E+08
         0.18746E+08
         0.45287E+08
         0.48224E+08
         0.80778E+08
         0.14320E+09
         0.17858E+09
         0.17944E+09
        -0.54795E+08
         0.14209E+08
        -0.26482E+08
        -0.76540E+08
         0.12177E+09
         0.13251E+09
         0.40893E+08
        -0.68113E+08
        -0.39283E+08
        -0.68450E+08
        -0.13666E+08
         0.26190E+08
         0.10971E+09
        -0.14713E+09
        -0.63490E+08
         0.13273E+09
         0.74552E+08
        -0.42850E+08
        -0.29383E+08
        -0.51105E+08
        -0.16620E+09
        -0.16844E+09
        -0.17047E+09
        -0.69974E+08
         0.40612E+08
         0.27211E+08
        -0.14531E+09
         0.16495E+08
        -0.51296E+08
        -0.66547E+08
         0.10230E+09
         0.65381E+08
        -0.63271E+08
        -0.56709E+08
         0.17094E+09
         0.15325E+09
         0.13779E+09
        -0.86400E+08
        -0.19599E+08
        -0.58308E+08
        -0.15151E+09
        -0.17118E+09
        -0.16609E+09
        -0.15284E+09
        -0.13100E+09
        -0.56812E+08
         0.91931E+08
         0.12743E+09
        -0.15918E+08
         0.19965E+08
         0.13288E+09
         0.16770E+09
         0.18610E+09
         0.18348E+09
         0.15809E+09
         0.13135E+09
         0.92323E+08
         0.39896E+08
        -0.10410E+08
        -0.37367E+08
        -0.49814E+08
        -0.86146E+08
        -0.15600E+09
        -0.18635E+09
        -0.18612E+09
        -0.18550E+09
        -0.18750E+09
        -0.18126E+09
        -0.15981E+09
        -0.13950E+09
        -0.73533E+08
         0.18753E+08
         0.45255E+08
         0.48207E+08
         0.80746E+08
         0.14320E+09
         0.17859E+09
         0.17944E+09
        -0.54848E+08
         0.14282E+08
        -0.26510E+08
        -0.76587E+08
         0.12170E+09
         0.13238E+09
         0.41149E+08
        -0.67882E+08
        -0.39315E+08
        -0.68215E+08
        -0.13335E+08
         0.26252E+08
         0.10973E+09
        -0.14676E+09
        -0.63393E+08
         0.13290E+09
         0.74720E+08
        -0.42727E+08
        -0.29367E+08
        -0.51023E+08
        -0.16618E+09
        -0.16844E+09
        -0.17047E+09
        -0.69984E+08
         0.40720E+08
         0.27268E+08
        -0.14534E+09
         0.16155E+08
        -0.51646E+08
        -0.66599E+08
         0.10246E+09
         0.65375E+08
        -0.62983E+08
        -0.56723E+08
         0.17095E+09
         0.15321E+09
         0.13778E+09
        -0.86405E+08
        -0.19730E+08
        -0.58406E+08
        -0.15150E+09
        -0.17121E+09
        -0.16609E+09
        -0.15280E+09
        -0.13095E+09
        -0.56780E+08
         0.91885E+08
         0.12745E+09
        -0.15773E+08
         0.19919E+08
         0.13287E+09
         0.16770E+09
         0.18609E+09
         0.18347E+09
         0.15808E+09
         0.13135E+09
         0.92308E+08
         0.39896E+08
        -0.10426E+08
        -0.37398E+08
        -0.49783E+08
        -0.86137E+08
        -0.15600E+09
        -0.18634E+09
        -0.18612E+09
        -0.18550E+09
        -0.18750E+09
        -0.18126E+09
        -0.15980E+09
        -0.13950E+09
        -0.73516E+08
         0.18760E+08
         0.45223E+08
         0.48190E+08
         0.80714E+08
         0.14320E+09
         0.17859E+09
         0.17945E+09
        -0.54902E+08
         0.14354E+08
        -0.26540E+08
        -0.76632E+08
         0.12164E+09
         0.13226E+09
         0.41403E+08
        -0.67651E+08
        -0.39347E+08
        -0.67982E+08
        -0.13003E+08
         0.26316E+08
         0.10975E+09
        -0.14639E+09
        -0.63294E+08
         0.13306E+09
         0.74888E+08
        -0.42603E+08
        -0.29354E+08
        -0.50938E+08
        -0.16615E+09
        -0.16843E+09
        -0.17047E+09
        -0.69994E+08
         0.40826E+08
         0.27325E+08
        -0.14538E+09
         0.15814E+08
        -0.51994E+08
        -0.66650E+08
         0.10262E+09
         0.65371E+08
        -0.62695E+08
        -0.56737E+08
         0.17096E+09
         0.15315E+09
         0.13776E+09
        -0.86410E+08
        -0.19862E+08
        -0.58503E+08
        -0.15149E+09
        -0.17123E+09
        -0.16609E+09
        -0.15276E+09
        -0.13090E+09
        -0.56751E+08
         0.91839E+08
         0.12747E+09
        -0.15627E+08
         0.19875E+08
         0.13286E+09
         0.16770E+09
         0.18609E+09
         0.18346E+09
         0.15806E+09
         0.13135E+09
         0.92293E+08
         0.39896E+08
        -0.10441E+08
        -0.37430E+08
        -0.49753E+08
        -0.86127E+08
        -0.15600E+09
        -0.18634E+09
        -0.18612E+09
        -0.18549E+09
        -0.18751E+09
        -0.18126E+09
        -0.15978E+09
        -0.13949E+09
        -0.73500E+08
         0.18766E+08
         0.45192E+08
         0.48174E+08
         0.80682E+08
         0.14320E+09
         0.17859E+09
         0.17946E+09
        -0.54955E+08
         0.14426E+08
        -0.26567E+08
        -0.76678E+08
         0.12157E+09
         0.13214E+09
         0.41658E+08
        -0.67420E+08
        -0.39379E+08
        -0.67750E+08
        -0.12673E+08
         0.26379E+08
         0.10978E+09
        -0.14602E+09
        -0.63197E+08
         0.13323E+09
         0.75055E+08
        -0.42479E+08
        -0.29339E+08
        -0.50855E+08
        -0.16612E+09
        -0.16843E+09
        -0.17046E+09
        -0.70004E+08
         0.40933E+08
         0.27383E+08
        -0.14541E+09
         0.15475E+08
        -0.52340E+08
        -0.66704E+08
         0.10278E+09
         0.65366E+08
        -0.62406E+08
        -0.56751E+08
         0.17098E+09
         0.15310E+09
         0.13775E+09
        -0.86414E+08
        -0.19993E+08
        -0.58602E+08
        -0.15148E+09
        -0.17125E+09
        -0.16609E+09
        -0.15271E+09
        -0.13085E+09
        -0.56722E+08
         0.91795E+08
         0.12749E+09
        -0.15480E+08
         0.19833E+08
         0.13285E+09
         0.16770E+09
         0.18609E+09
         0.18345E+09
         0.15805E+09
         0.13135E+09
         0.92278E+08
         0.39897E+08
        -0.10456E+08
        -0.37462E+08
        -0.49722E+08
        -0.86117E+08
        -0.15600E+09
        -0.18634E+09
        -0.18612E+09
        -0.18549E+09
        -0.18751E+09
        -0.18126E+09
        -0.15977E+09
        -0.13949E+09
        -0.73483E+08
         0.18773E+08
         0.45160E+08
         0.48157E+08
         0.80650E+08
         0.14320E+09
         0.17860E+09
         0.17947E+09
        -0.55008E+08
         0.14498E+08
        -0.26594E+08
        -0.76723E+08
         0.12151E+09
         0.13202E+09
         0.41913E+08
        -0.67190E+08
        -0.39410E+08
        -0.67518E+08
        -0.12344E+08
         0.26442E+08
         0.10980E+09
        -0.14565E+09
        -0.63099E+08
         0.13339E+09
         0.75222E+08
        -0.42354E+08
        -0.29325E+08
        -0.50771E+08
        -0.16609E+09
        -0.16842E+09
        -0.17046E+09
        -0.70014E+08
         0.41037E+08
         0.27440E+08
        -0.14544E+09
         0.15134E+08
        -0.52689E+08
        -0.66755E+08
         0.10294E+09
         0.65361E+08
        -0.62116E+08
        -0.56765E+08
         0.17099E+09
         0.15305E+09
         0.13773E+09
        -0.86417E+08
        -0.20123E+08
        -0.58698E+08
        -0.15147E+09
        -0.17127E+09
        -0.16609E+09
        -0.15267E+09
        -0.13080E+09
        -0.56690E+08
         0.91748E+08
         0.12751E+09
        -0.15333E+08
         0.19789E+08
         0.13284E+09
         0.16770E+09
         0.18609E+09
         0.18345E+09
         0.15804E+09
         0.13135E+09
         0.92264E+08
         0.39897E+08
        -0.10472E+08
        -0.37494E+08
        -0.49691E+08
        -0.86107E+08
        -0.15599E+09
        -0.18633E+09
        -0.18612E+09
        -0.18549E+09
        -0.18751E+09
        -0.18126E+09
        -0.15975E+09
        -0.13948E+09
        -0.73466E+08
         0.18780E+08
         0.45128E+08
         0.48141E+08
         0.80618E+08
         0.14320E+09
         0.17860E+09
         0.17947E+09
        -0.55062E+08
         0.14570E+08
        -0.26622E+08
        -0.76768E+08
         0.12144E+09
         0.13190E+09
         0.42165E+08
        -0.66960E+08
        -0.39442E+08
        -0.67287E+08
        -0.12015E+08
         0.26504E+08
         0.10982E+09
        -0.14529E+09
        -0.63002E+08
         0.13355E+09
         0.75389E+08
        -0.42231E+08
        -0.29313E+08
        -0.50689E+08
        -0.16606E+09
        -0.16842E+09
        -0.17046E+09
        -0.70025E+08
         0.41142E+08
         0.27497E+08
        -0.14547E+09
         0.14797E+08
        -0.53037E+08
        -0.66806E+08
         0.10309E+09
         0.65356E+08
        -0.61826E+08
        -0.56778E+08
         0.17100E+09
         0.15300E+09
         0.13772E+09
        -0.86419E+08
        -0.20253E+08
        -0.58798E+08
        -0.15147E+09
        -0.17129E+09
        -0.16609E+09
        -0.15263E+09
        -0.13074E+09
        -0.56660E+08
         0.91702E+08
         0.12753E+09
        -0.15187E+08
         0.19745E+08
         0.13283E+09
         0.16770E+09
         0.18609E+09
         0.18344E+09
         0.15802E+09
         0.13135E+09
         0.92249E+08
         0.39897E+08
        -0.10487E+08
        -0.37525E+08
        -0.49660E+08
        -0.86098E+08
        -0.15599E+09
        -0.18633E+09
        -0.18612E+09
        -0.18549E+09
        -0.18752E+09
        -0.18126E+09
        -0.15974E+09
        -0.13948E+09
        -0.73448E+08
         0.18786E+08
         0.45096E+08
         0.48125E+08
         0.80586E+08
         0.14320E+09
         0.17860E+09
         0.17948E+09
        -0.55116E+08
         0.14641E+08
        -0.26649E+08
        -0.76813E+08
         0.12138E+09
         0.13177E+09
         0.42419E+08
        -0.66730E+08
        -0.39473E+08
        -0.67058E+08
        -0.11686E+08
         0.26568E+08
         0.10984E+09
        -0.14492E+09
        -0.62904E+08
         0.13372E+09
         0.75556E+08
        -0.42107E+08
        -0.29298E+08
        -0.50604E+08
        -0.16603E+09
        -0.16841E+09
        -0.17046E+09
        -0.70035E+08
         0.41247E+08
         0.27554E+08
        -0.14551E+09
         0.14459E+08
        -0.53385E+08
        -0.66857E+08
         0.10325E+09
         0.65351E+08
        -0.61536E+08
        -0.56791E+08
         0.17102E+09
         0.15295E+09
         0.13770E+09
        -0.86421E+08
        -0.20383E+08
        -0.58895E+08
        -0.15146E+09
        -0.17131E+09
        -0.16609E+09
        -0.15259E+09
        -0.13069E+09
        -0.56631E+08
         0.91657E+08
         0.12755E+09
        -0.15038E+08
         0.19702E+08
         0.13282E+09
         0.16770E+09
         0.18608E+09
         0.18343E+09
         0.15801E+09
         0.13135E+09
         0.92235E+08
         0.39897E+08
        -0.10502E+08
        -0.37556E+08
        -0.49630E+08
        -0.86089E+08
        -0.15599E+09
        -0.18633E+09
        -0.18612E+09
        -0.18548E+09
        -0.18752E+09
        -0.18126E+09
        -0.15972E+09
        -0.13947E+09
        -0.73431E+08
         0.18793E+08
         0.45064E+08
         0.48108E+08
         0.80555E+08
         0.14320E+09
         0.17860E+09
         0.17949E+09
        -0.55169E+08
         0.14714E+08
        -0.26677E+08
        -0.76858E+08
         0.12131E+09
         0.13165E+09
         0.42671E+08
        -0.66500E+08
        -0.39504E+08
        -0.66830E+08
        -0.11357E+08
         0.26631E+08
         0.10986E+09
        -0.14456E+09
        -0.62806E+08
         0.13388E+09
         0.75723E+08
        -0.41985E+08
        -0.29284E+08
        -0.50522E+08
        -0.16600E+09
        -0.16841E+09
        -0.17046E+09
        -0.70045E+08
         0.41349E+08
         0.27612E+08
        -0.14554E+09
         0.14121E+08
        -0.53732E+08
        -0.66907E+08
         0.10341E+09
         0.65346E+08
        -0.61247E+08
        -0.56805E+08
         0.17103E+09
         0.15290E+09
         0.13769E+09
        -0.86422E+08
        -0.20513E+08
        -0.58993E+08
        -0.15145E+09
        -0.17133E+09
        -0.16609E+09
        -0.15255E+09
        -0.13064E+09
        -0.56599E+08
         0.91611E+08
         0.12757E+09
        -0.14890E+08
         0.19658E+08
         0.13281E+09
         0.16770E+09
         0.18608E+09
         0.18343E+09
         0.15800E+09
         0.13135E+09
         0.92220E+08
         0.39897E+08
        -0.10517E+08
        -0.37587E+08
        -0.49599E+08
        -0.86079E+08
        -0.15599E+09
        -0.18632E+09
        -0.18612E+09
        -0.18548E+09
        -0.18753E+09
        -0.18126E+09
        -0.15971E+09
        -0.13947E+09
        -0.73414E+08
         0.18799E+08
         0.45032E+08
         0.48092E+08
         0.80523E+08
         0.14320E+09
         0.17861E+09
         0.17950E+09
        -0.55223E+08
         0.14785E+08
        -0.26705E+08
        -0.76903E+08
         0.12125E+09
         0.13153E+09
         0.42924E+08
        -0.66271E+08
        -0.39535E+08
        -0.66600E+08
        -0.11028E+08
         0.26694E+08
         0.10988E+09
        -0.14419E+09
        -0.62708E+08
         0.13405E+09
         0.75890E+08
        -0.41862E+08
        -0.29270E+08
        -0.50437E+08
        -0.16597E+09
        -0.16840E+09
        -0.17045E+09
        -0.70057E+08
         0.41449E+08
         0.27668E+08
        -0.14557E+09
         0.13780E+08
        -0.54076E+08
        -0.66958E+08
         0.10357E+09
         0.65342E+08
        -0.60958E+08
        -0.56820E+08
         0.17104E+09
         0.15285E+09
         0.13767E+09
        -0.86422E+08
        -0.20644E+08
        -0.59092E+08
        -0.15144E+09
        -0.17136E+09
        -0.16609E+09
        -0.15251E+09
        -0.13059E+09
        -0.56569E+08
         0.91565E+08
         0.12759E+09
        -0.14744E+08
         0.19613E+08
         0.13280E+09
         0.16770E+09
         0.18608E+09
         0.18342E+09
         0.15799E+09
         0.13135E+09
         0.92205E+08
         0.39898E+08
        -0.10532E+08
        -0.37618E+08
        -0.49569E+08
        -0.86070E+08
        -0.15599E+09
        -0.18632E+09
        -0.18612E+09
        -0.18548E+09
        -0.18753E+09
        -0.18126E+09
        -0.15970E+09
        -0.13946E+09
        -0.73397E+08
         0.18806E+08
         0.45000E+08
         0.48075E+08
         0.80491E+08
         0.14320E+09
         0.17861E+09
         0.17950E+09
        -0.55277E+08
         0.14857E+08
        -0.26731E+08
        -0.76947E+08
         0.12119E+09
         0.13141E+09
         0.43176E+08
        -0.66043E+08
        -0.39562E+08
        -0.66365E+08
        -0.10700E+08
         0.26758E+08
         0.10991E+09
        -0.14382E+09
        -0.62610E+08
         0.13421E+09
         0.76055E+08
        -0.41738E+08
        -0.29260E+08
        -0.50356E+08
        -0.16594E+09
        -0.16840E+09
        -0.17045E+09
        -0.70066E+08
         0.41543E+08
         0.27727E+08
        -0.14558E+09
         0.13431E+08
        -0.54422E+08
        -0.67012E+08
         0.10373E+09
         0.65336E+08
        -0.60667E+08
        -0.56834E+08
         0.17106E+09
         0.15280E+09
         0.13766E+09
        -0.86419E+08
        -0.20780E+08
        -0.59191E+08
        -0.15143E+09
        -0.17138E+09
        -0.16609E+09
        -0.15247E+09
        -0.13054E+09
        -0.56538E+08
         0.91521E+08
         0.12761E+09
        -0.14597E+08
         0.19569E+08
         0.13279E+09
         0.16769E+09
         0.18608E+09
         0.18341E+09
         0.15797E+09
         0.13135E+09
         0.92191E+08
         0.39898E+08
        -0.10547E+08
        -0.37649E+08
        -0.49538E+08
        -0.86061E+08
        -0.15598E+09
        -0.18631E+09
        -0.18611E+09
        -0.18547E+09
        -0.18753E+09
        -0.18126E+09
        -0.15968E+09
        -0.13945E+09
        -0.73380E+08
         0.18813E+08
         0.44968E+08
         0.48059E+08
         0.80460E+08
         0.14320E+09
         0.17861E+09
         0.17951E+09
        -0.55330E+08
         0.14928E+08
        -0.26758E+08
        -0.76991E+08
         0.12112E+09
         0.13129E+09
         0.43428E+08
        -0.65814E+08
        -0.39586E+08
        -0.66124E+08
        -0.10373E+08
         0.26821E+08
         0.10993E+09
        -0.14345E+09
        -0.62510E+08
         0.13437E+09
         0.76220E+08
        -0.41615E+08
        -0.29247E+08
        -0.50272E+08
        -0.16591E+09
        -0.16839E+09
        -0.17045E+09
        -0.70077E+08
         0.41630E+08
         0.27783E+08
        -0.14559E+09
         0.13071E+08
        -0.54768E+08
        -0.67063E+08
         0.10388E+09
         0.65331E+08
        -0.60376E+08
        -0.56848E+08
         0.17107E+09
         0.15275E+09
         0.13764E+09
        -0.86412E+08
        -0.20920E+08
        -0.59293E+08
        -0.15142E+09
        -0.17140E+09
        -0.16608E+09
        -0.15243E+09
        -0.13049E+09
        -0.56508E+08
         0.91474E+08
         0.12763E+09
        -0.14449E+08
         0.19526E+08
         0.13278E+09
         0.16769E+09
         0.18608E+09
         0.18341E+09
         0.15796E+09
         0.13135E+09
         0.92176E+08
         0.39898E+08
        -0.10562E+08
        -0.37680E+08
        -0.49509E+08
        -0.86053E+08
        -0.15598E+09
        -0.18631E+09
        -0.18611E+09
        -0.18547E+09
        -0.18754E+09
        -0.18126E+09
        -0.15967E+09
        -0.13945E+09
        -0.73363E+08
         0.18819E+08
         0.44936E+08
         0.48042E+08
         0.80428E+08
         0.14320E+09
         0.17862E+09
         0.17952E+09
        -0.55384E+08
         0.14999E+08
        -0.26786E+08
        -0.77036E+08
         0.12105E+09
         0.13117E+09
         0.43678E+08
        -0.65587E+08
        -0.39609E+08
        -0.65883E+08
        -0.10048E+08
         0.26883E+08
         0.10995E+09
        -0.14308E+09
        -0.62411E+08
         0.13454E+09
         0.76384E+08
        -0.41493E+08
        -0.29233E+08
        -0.50191E+08
        -0.16588E+09
        -0.16839E+09
        -0.17045E+09
        -0.70088E+08
         0.41714E+08
         0.27840E+08
        -0.14559E+09
         0.12710E+08
        -0.55111E+08
        -0.67114E+08
         0.10404E+09
         0.65325E+08
        -0.60088E+08
        -0.56863E+08
         0.17108E+09
         0.15271E+09
         0.13763E+09
        -0.86405E+08
        -0.21061E+08
        -0.59392E+08
        -0.15140E+09
        -0.17141E+09
        -0.16608E+09
        -0.15239E+09
        -0.13043E+09
        -0.56479E+08
         0.91430E+08
         0.12765E+09
        -0.14303E+08
         0.19480E+08
         0.13278E+09
         0.16769E+09
         0.18607E+09
         0.18340E+09
         0.15795E+09
         0.13135E+09
         0.92161E+08
         0.39898E+08
        -0.10577E+08
        -0.37710E+08
        -0.49480E+08
        -0.86043E+08
        -0.15597E+09
        -0.18631E+09
        -0.18612E+09
        -0.18547E+09
        -0.18754E+09
        -0.18126E+09
        -0.15965E+09
        -0.13944E+09
        -0.73346E+08
         0.18826E+08
         0.44905E+08
         0.48026E+08
         0.80397E+08
         0.14319E+09
         0.17862E+09
         0.17953E+09
        -0.53335E+08
         0.15099E+08
        -0.26892E+08
        -0.77301E+08
         0.11479E+09
         0.13140E+09
         0.44020E+08
        -0.62165E+08
        -0.39742E+08
        -0.62279E+08
        -0.97909E+07
         0.26340E+08
         0.10669E+09
        -0.14312E+09
        -0.61060E+08
         0.13508E+09
         0.76756E+08
        -0.41502E+08
        -0.29293E+08
        -0.50236E+08
        -0.16188E+09
        -0.16371E+09
        -0.16597E+09
        -0.70291E+08
         0.41903E+08
         0.27969E+08
        -0.14600E+09
         0.12406E+08
        -0.55573E+08
        -0.67339E+08
         0.10449E+09
         0.65499E+08
        -0.59999E+08
        -0.57044E+08
         0.16475E+09
         0.14114E+09
         0.13071E+09
        -0.84111E+08
        -0.20350E+08
        -0.56777E+08
        -0.14754E+09
        -0.16668E+09
        -0.16191E+09
        -0.14727E+09
        -0.12452E+09
        -0.54621E+08
         0.85997E+08
         0.11874E+09
        -0.14211E+08
         0.18611E+08
         0.12774E+09
         0.15655E+09
         0.18481E+09
         0.18225E+09
         0.15702E+09
         0.13062E+09
         0.91668E+08
         0.39693E+08
        -0.10536E+08
        -0.37478E+08
        -0.49093E+08
        -0.85459E+08
        -0.15496E+09
        -0.18521E+09
        -0.18483E+09
        -0.18420E+09
        -0.18646E+09
        -0.18032E+09
        -0.15885E+09
        -0.13875E+09
        -0.72877E+08
         0.18726E+08
         0.44606E+08
         0.47706E+08
         0.79885E+08
         0.14230E+09
         0.17758E+09
         0.17847E+09
        -0.25945E+08
         0.58054E+07
        -0.10410E+08
        -0.32977E+08
         0.49711E+08
         0.46772E+08
         0.16122E+08
        -0.27240E+08
        -0.15948E+08
        -0.26802E+08
        -0.31755E+07
         0.15522E+08
         0.56631E+08
        -0.44925E+08
        -0.36886E+08
         0.54532E+08
         0.30260E+08
        -0.18644E+08
        -0.11019E+08
        -0.18399E+08
        -0.92451E+08
        -0.89072E+08
        -0.91656E+08
        -0.27830E+08
         0.14725E+08
         0.11636E+08
        -0.46369E+08
         0.41035E+07
        -0.18667E+08
        -0.22918E+08
         0.42465E+08
         0.26182E+08
        -0.25388E+08
        -0.23346E+08
         0.80657E+08
         0.51076E+08
         0.56986E+08
        -0.46527E+08
        -0.97872E+07
        -0.25852E+08
        -0.82855E+08
        -0.90797E+08
        -0.91227E+08
        -0.74692E+08
        -0.56464E+08
        -0.28047E+08
         0.35113E+08
         0.45305E+08
        -0.51235E+07
         0.67446E+07
         0.62142E+08
         0.61147E+08
         0.14678E+09
         0.14742E+09
         0.12837E+09
         0.10779E+09
         0.76446E+08
         0.33345E+08
        -0.87394E+07
        -0.29934E+08
        -0.38661E+08
        -0.68317E+08
        -0.12447E+09
        -0.15135E+09
        -0.14686E+09
        -0.14675E+09
        -0.15293E+09
        -0.15021E+09
        -0.13337E+09
        -0.11658E+09
        -0.58951E+08
         0.15294E+08
         0.36148E+08
         0.38437E+08
         0.64909E+08
         0.11489E+09
         0.14533E+09
         0.14556E+09
  
SCALARS                      stress_xy  double 1
LOOKUP_TABLE default
        -0.47376E+00
        -0.11116E+01
        -0.95334E+01
         0.33675E+00
        -0.17139E-09
         0.16749E-10
         0.25183E-09
         0.38361E-10
        -0.10056E+03
         0.44185E+02
         0.11210E-08
         0.88891E-09
         0.37625E+01
        -0.78067E+00
         0.98942E-10
        -0.29716E-10
         0.10822E+01
         0.18880E+02
         0.49257E-11
         0.75062E-10
        -0.14361E+02
        -0.91107E+02
        -0.89659E+02
         0.76325E-09
         0.60782E-09
        -0.88761E-09
        -0.94855E+01
        -0.79247E+02
         0.10277E-08
         0.15815E-08
        -0.28939E+01
         0.56052E+01
         0.45536E+00
        -0.54244E-10
         0.21399E-09
        -0.27370E-11
        -0.25521E+02
        -0.11859E+02
         0.57270E-09
         0.47443E-09
        -0.50012E+02
        -0.45120E+02
         0.97629E-09
         0.65796E-09
        -0.48515E+02
        -0.89070E+01
        -0.35565E-10
         0.26479E-09
         0.12941E+02
         0.78254E-10
        -0.30348E+01
        -0.17643E-11
         0.79562E+00
         0.59147E-09
         0.39393E+01
         0.91015E-10
         0.56212E+02
        -0.27373E+01
         0.21152E-11
        -0.10377E-10
         0.37474E+00
        -0.37725E+02
         0.57641E-10
         0.14785E-09
         0.16212E+01
        -0.11703E-10
         0.23301E+02
         0.93779E-10
        -0.12455E+03
        -0.45211E+02
         0.72436E-10
        -0.69366E-09
        -0.10168E+03
        -0.11091E-08
         0.41587E+02
         0.74285E-09
         0.13134E+03
         0.11067E-09
         0.22936E+03
         0.14392E-09
         0.44501E+03
         0.24250E+03
         0.33834E-09
        -0.85793E-10
         0.29948E+02
        -0.10324E-10
        -0.91944E+02
        -0.93115E-09
        -0.13535E+03
        -0.10397E-08
        -0.29777E+03
        -0.13576E+03
        -0.65814E-09
         0.73054E-09
         0.21825E+02
         0.66518E-09
         0.53751E+02
         0.28574E-09
         0.12560E+03
         0.75868E-09
         0.30896E+03
         0.17620E+03
         0.16268E-08
         0.81339E-09
        -0.50775E+03
         0.21278E+03
        -0.10569E-08
         0.12944E-08
        -0.12363E+04
        -0.30039E-08
        -0.16128E+04
        -0.32836E-08
        -0.14168E+04
        -0.22286E-08
        -0.12078E+04
        -0.23638E-09
        -0.52774E+03
         0.66627E-09
         0.69516E+03
         0.41252E-09
         0.15621E+04
         0.37711E-09
         0.20653E+04
         0.80911E-09
         0.20257E+04
         0.98376E-09
         0.16617E+04
         0.38758E-09
         0.88577E+03
         0.23630E-09
        -0.60673E+02
         0.38623E-09
        -0.73741E+03
         0.25890E-09
        -0.11896E+04
        -0.92325E-09
        -0.16237E+04
        -0.24226E-08
        -0.14534E+04
        -0.30744E-08
        -0.93306E+03
        -0.19027E-08
        -0.10220E+03
         0.36301E-09
         0.69044E+03
         0.76938E-09
         0.99853E+03
         0.12261E-08
         0.12216E+04
         0.24146E-08
         0.10950E+04
         0.31331E-08
         0.10193E+04
         0.22260E-08
         0.84202E+03
         0.17604E-08
        -0.78874E+02
         0.21252E+02
         0.21764E+02
        -0.13600E+02
         0.17384E+03
         0.14296E+03
         0.22761E+01
        -0.51384E+02
        -0.22737E+02
        -0.59370E+02
        -0.17020E+02
        -0.31436E+03
        -0.44868E+03
         0.16647E+02
         0.25528E+03
        -0.34192E+02
         0.25423E+02
         0.75880E+01
         0.15416E+02
        -0.12535E+02
         0.62920E+02
         0.55237E+02
        -0.16763E+03
         0.43913E+01
         0.37743E+02
         0.41581E+01
         0.69168E+00
         0.13561E+01
         0.16836E+02
        -0.55880E+02
        -0.29798E+02
         0.63448E+01
         0.10211E+02
        -0.80431E+00
        -0.41967E+02
        -0.14499E+03
        -0.29428E+03
         0.44520E+03
         0.23172E+03
         0.41871E+03
         0.81099E+03
         0.18789E+03
        -0.15185E+03
        -0.30615E+03
        -0.36277E+03
        -0.46324E+03
         0.57123E+02
         0.17119E+03
         0.52818E+02
         0.17781E+03
         0.55685E+03
         0.21449E+03
        -0.18933E+04
         0.23907E+04
        -0.57862E+04
        -0.68019E+04
        -0.64554E+04
        -0.39027E+04
         0.23274E+03
         0.25297E+04
         0.36680E+04
         0.59511E+04
         0.62663E+04
         0.33510E+04
         0.13514E+04
         0.57149E+03
        -0.92467E+03
        -0.36548E+04
        -0.61016E+04
        -0.69700E+04
        -0.42699E+04
         0.77405E+03
         0.28034E+04
         0.29545E+04
         0.46542E+04
         0.51678E+04
         0.39173E+04
         0.36155E+04
        -0.17325E+06
         0.28211E+05
        -0.49700E+05
        -0.34324E+05
         0.29344E+06
         0.14818E+06
         0.34235E+05
        -0.21170E+06
        -0.78724E+05
        -0.20215E+06
         0.24951E+05
        -0.12634E+06
        -0.37020E+06
         0.84622E+05
         0.30258E+06
        -0.16235E+06
         0.27389E+05
         0.15661E+05
         0.47506E+05
         0.16130E+05
         0.19577E+06
         0.14491E+06
        -0.85987E+05
         0.33718E+05
         0.77412E+05
        -0.12892E+05
         0.17545E+05
        -0.43306E+04
        -0.17435E+05
        -0.12869E+06
        -0.13442E+06
        -0.22912E+05
         0.56351E+05
         0.42228E+05
         0.54624E+05
        -0.16690E+06
        -0.27778E+06
         0.34800E+06
         0.74103E+05
         0.20773E+06
         0.34569E+06
        -0.10134E+06
        -0.20212E+06
        -0.25805E+06
        -0.29413E+06
        -0.23411E+06
         0.25059E+06
         0.23157E+06
        -0.38893E+05
         0.55283E+05
         0.33909E+06
         0.35088E+05
        -0.20537E+06
         0.28363E+06
        -0.54680E+06
        -0.59058E+06
        -0.50651E+06
        -0.24607E+06
         0.64493E+05
         0.22579E+06
         0.29870E+06
         0.47904E+06
         0.55420E+06
         0.22090E+06
         0.10415E+06
         0.93014E+05
        -0.40060E+05
        -0.30909E+06
        -0.52850E+06
        -0.59313E+06
        -0.42200E+06
         0.11587E+06
         0.27214E+06
         0.28629E+06
         0.45170E+06
         0.57374E+06
         0.36223E+06
         0.34718E+06
        -0.17354E+06
         0.28321E+05
        -0.49819E+05
        -0.34599E+05
         0.29335E+06
         0.14816E+06
         0.34496E+05
        -0.21129E+06
        -0.78952E+05
        -0.20210E+06
         0.24461E+05
        -0.12665E+06
        -0.37031E+06
         0.84415E+05
         0.30231E+06
        -0.16252E+06
         0.27699E+05
         0.15595E+05
         0.47515E+05
         0.16011E+05
         0.19621E+06
         0.14504E+06
        -0.86009E+05
         0.33704E+05
         0.77939E+05
        -0.12890E+05
         0.17757E+05
        -0.42729E+04
        -0.17442E+05
        -0.12904E+06
        -0.13464E+06
        -0.22859E+05
         0.56240E+05
         0.42316E+05
         0.54106E+05
        -0.16693E+06
        -0.27776E+06
         0.34830E+06
         0.74754E+05
         0.20826E+06
         0.34583E+06
        -0.10105E+06
        -0.20230E+06
        -0.25815E+06
        -0.29410E+06
        -0.23401E+06
         0.25056E+06
         0.23153E+06
        -0.38557E+05
         0.55020E+05
         0.33897E+06
         0.34562E+05
        -0.20524E+06
         0.28370E+06
        -0.54686E+06
        -0.59058E+06
        -0.50645E+06
        -0.24606E+06
         0.64588E+05
         0.22597E+06
         0.29853E+06
         0.47898E+06
         0.55417E+06
         0.22099E+06
         0.10415E+06
         0.93207E+05
        -0.39730E+05
        -0.30919E+06
        -0.52859E+06
        -0.59315E+06
        -0.42192E+06
         0.11593E+06
         0.27197E+06
         0.28619E+06
         0.45154E+06
         0.57366E+06
         0.36202E+06
         0.34690E+06
        -0.17383E+06
         0.28430E+05
        -0.49937E+05
        -0.34877E+05
         0.29325E+06
         0.14815E+06
         0.34758E+05
        -0.21088E+06
        -0.79175E+05
        -0.20204E+06
         0.23971E+05
        -0.12695E+06
        -0.37043E+06
         0.84198E+05
         0.30204E+06
        -0.16271E+06
         0.28013E+05
         0.15527E+05
         0.47524E+05
         0.15893E+05
         0.19666E+06
         0.14518E+06
        -0.86043E+05
         0.33685E+05
         0.78474E+05
        -0.12887E+05
         0.17983E+05
        -0.42168E+04
        -0.17437E+05
        -0.12939E+06
        -0.13486E+06
        -0.22797E+05
         0.56128E+05
         0.42403E+05
         0.53585E+05
        -0.16698E+06
        -0.27772E+06
         0.34860E+06
         0.75403E+05
         0.20880E+06
         0.34599E+06
        -0.10074E+06
        -0.20247E+06
        -0.25828E+06
        -0.29409E+06
        -0.23391E+06
         0.25053E+06
         0.23147E+06
        -0.38216E+05
         0.54751E+05
         0.33886E+06
         0.34037E+05
        -0.20511E+06
         0.28377E+06
        -0.54691E+06
        -0.59058E+06
        -0.50638E+06
        -0.24605E+06
         0.64683E+05
         0.22615E+06
         0.29835E+06
         0.47892E+06
         0.55414E+06
         0.22109E+06
         0.10415E+06
         0.93400E+05
        -0.39398E+05
        -0.30929E+06
        -0.52868E+06
        -0.59318E+06
        -0.42183E+06
         0.11599E+06
         0.27181E+06
         0.28610E+06
         0.45137E+06
         0.57358E+06
         0.36181E+06
         0.34662E+06
        -0.17411E+06
         0.28542E+05
        -0.50054E+05
        -0.35156E+05
         0.29315E+06
         0.14813E+06
         0.35021E+05
        -0.21046E+06
        -0.79390E+05
        -0.20195E+06
         0.23482E+05
        -0.12726E+06
        -0.37054E+06
         0.83992E+05
         0.30178E+06
        -0.16291E+06
         0.28336E+05
         0.15460E+05
         0.47539E+05
         0.15768E+05
         0.19711E+06
         0.14530E+06
        -0.86116E+05
         0.33654E+05
         0.79035E+05
        -0.12880E+05
         0.18216E+05
        -0.41702E+04
        -0.17399E+05
        -0.12970E+06
        -0.13509E+06
        -0.22717E+05
         0.56013E+05
         0.42491E+05
         0.53066E+05
        -0.16701E+06
        -0.27769E+06
         0.34889E+06
         0.76047E+05
         0.20932E+06
         0.34617E+06
        -0.10034E+06
        -0.20260E+06
        -0.25847E+06
        -0.29410E+06
        -0.23380E+06
         0.25052E+06
         0.23143E+06
        -0.37875E+05
         0.54484E+05
         0.33875E+06
         0.33514E+05
        -0.20499E+06
         0.28383E+06
        -0.54697E+06
        -0.59058E+06
        -0.50631E+06
        -0.24605E+06
         0.64779E+05
         0.22633E+06
         0.29817E+06
         0.47886E+06
         0.55412E+06
         0.22121E+06
         0.10416E+06
         0.93590E+05
        -0.39064E+05
        -0.30939E+06
        -0.52879E+06
        -0.59321E+06
        -0.42175E+06
         0.11605E+06
         0.27164E+06
         0.28601E+06
         0.45120E+06
         0.57350E+06
         0.36160E+06
         0.34634E+06
        -0.17440E+06
         0.28654E+05
        -0.50173E+05
        -0.35434E+05
         0.29306E+06
         0.14811E+06
         0.35284E+05
        -0.21004E+06
        -0.79594E+05
        -0.20183E+06
         0.22991E+05
        -0.12756E+06
        -0.37065E+06
         0.83789E+05
         0.30151E+06
        -0.16313E+06
         0.28667E+05
         0.15391E+05
         0.47549E+05
         0.15638E+05
         0.19757E+06
         0.14540E+06
        -0.86226E+05
         0.33609E+05
         0.79621E+05
        -0.12868E+05
         0.18474E+05
        -0.41320E+04
        -0.17327E+05
        -0.12999E+06
        -0.13532E+06
        -0.22616E+05
         0.55895E+05
         0.42579E+05
         0.52544E+05
        -0.16704E+06
        -0.27767E+06
         0.34918E+06
         0.76687E+05
         0.20985E+06
         0.34637E+06
        -0.99851E+05
        -0.20270E+06
        -0.25873E+06
        -0.29415E+06
        -0.23368E+06
         0.25051E+06
         0.23139E+06
        -0.37537E+05
         0.54218E+05
         0.33864E+06
         0.32986E+05
        -0.20486E+06
         0.28390E+06
        -0.54703E+06
        -0.59058E+06
        -0.50625E+06
        -0.24604E+06
         0.64874E+05
         0.22651E+06
         0.29799E+06
         0.47880E+06
         0.55410E+06
         0.22135E+06
         0.10417E+06
         0.93775E+05
        -0.38729E+05
        -0.30950E+06
        -0.52891E+06
        -0.59324E+06
        -0.42167E+06
         0.11611E+06
         0.27148E+06
         0.28592E+06
         0.45103E+06
         0.57342E+06
         0.36139E+06
         0.34607E+06
        -0.17467E+06
         0.28773E+05
        -0.50279E+05
        -0.35715E+05
         0.29296E+06
         0.14809E+06
         0.35543E+05
        -0.20961E+06
        -0.79798E+05
        -0.20170E+06
         0.22501E+05
        -0.12786E+06
        -0.37076E+06
         0.83594E+05
         0.30124E+06
        -0.16335E+06
         0.29005E+05
         0.15324E+05
         0.47559E+05
         0.15508E+05
         0.19802E+06
         0.14550E+06
        -0.86351E+05
         0.33560E+05
         0.80200E+05
        -0.12854E+05
         0.18751E+05
        -0.40968E+04
        -0.17239E+05
        -0.13027E+06
        -0.13555E+06
        -0.22501E+05
         0.55776E+05
         0.42668E+05
         0.52018E+05
        -0.16710E+06
        -0.27765E+06
         0.34947E+06
         0.77325E+05
         0.21038E+06
         0.34659E+06
        -0.99338E+05
        -0.20278E+06
        -0.25901E+06
        -0.29421E+06
        -0.23357E+06
         0.25050E+06
         0.23137E+06
        -0.37194E+05
         0.53971E+05
         0.33852E+06
         0.32459E+05
        -0.20473E+06
         0.28396E+06
        -0.54708E+06
        -0.59058E+06
        -0.50618E+06
        -0.24603E+06
         0.64968E+05
         0.22669E+06
         0.29782E+06
         0.47874E+06
         0.55408E+06
         0.22149E+06
         0.10419E+06
         0.93959E+05
        -0.38393E+05
        -0.30961E+06
        -0.52904E+06
        -0.59327E+06
        -0.42159E+06
         0.11616E+06
         0.27131E+06
         0.28583E+06
         0.45087E+06
         0.57334E+06
         0.36118E+06
         0.34579E+06
        -0.17492E+06
         0.28911E+05
        -0.50368E+05
        -0.36002E+05
         0.29287E+06
         0.14808E+06
         0.35798E+05
        -0.20917E+06
        -0.80007E+05
        -0.20158E+06
         0.22011E+05
        -0.12816E+06
        -0.37088E+06
         0.83450E+05
         0.30096E+06
        -0.16358E+06
         0.29348E+05
         0.15256E+05
         0.47574E+05
         0.15378E+05
         0.19848E+06
         0.14560E+06
        -0.86478E+05
         0.33513E+05
         0.80744E+05
        -0.12835E+05
         0.19078E+05
        -0.40608E+04
        -0.17145E+05
        -0.13056E+06
        -0.13575E+06
        -0.22374E+05
         0.55656E+05
         0.42755E+05
         0.51491E+05
        -0.16716E+06
        -0.27764E+06
         0.34976E+06
         0.77967E+05
         0.21092E+06
         0.34681E+06
        -0.98814E+05
        -0.20285E+06
        -0.25930E+06
        -0.29428E+06
        -0.23347E+06
         0.25049E+06
         0.23138E+06
        -0.36834E+05
         0.53766E+05
         0.33842E+06
         0.31926E+05
        -0.20460E+06
         0.28403E+06
        -0.54714E+06
        -0.59058E+06
        -0.50612E+06
        -0.24603E+06
         0.65062E+05
         0.22687E+06
         0.29764E+06
         0.47868E+06
         0.55407E+06
         0.22164E+06
         0.10421E+06
         0.94145E+05
        -0.38058E+05
        -0.30972E+06
        -0.52916E+06
        -0.59330E+06
        -0.42150E+06
         0.11620E+06
         0.27113E+06
         0.28574E+06
         0.45071E+06
         0.57326E+06
         0.36097E+06
         0.34551E+06
        -0.17516E+06
         0.29055E+05
        -0.50447E+05
        -0.36293E+05
         0.29278E+06
         0.14806E+06
         0.36049E+05
        -0.20872E+06
        -0.80221E+05
        -0.20146E+06
         0.21520E+05
        -0.12847E+06
        -0.37100E+06
         0.83314E+05
         0.30069E+06
        -0.16382E+06
         0.29695E+05
         0.15188E+05
         0.47585E+05
         0.15251E+05
         0.19894E+06
         0.14571E+06
        -0.86601E+05
         0.33467E+05
         0.81271E+05
        -0.12815E+05
         0.19417E+05
        -0.40237E+04
        -0.17050E+05
        -0.13086E+06
        -0.13595E+06
        -0.22239E+05
         0.55533E+05
         0.42844E+05
         0.50959E+05
        -0.16725E+06
        -0.27763E+06
         0.35004E+06
         0.78607E+05
         0.21145E+06
         0.34703E+06
        -0.98290E+05
        -0.20292E+06
        -0.25958E+06
        -0.29436E+06
        -0.23339E+06
         0.25047E+06
         0.23140E+06
        -0.36468E+05
         0.53581E+05
         0.33832E+06
         0.31392E+05
        -0.20447E+06
         0.28409E+06
        -0.54719E+06
        -0.59058E+06
        -0.50605E+06
        -0.24602E+06
         0.65156E+05
         0.22705E+06
         0.29746E+06
         0.47862E+06
         0.55405E+06
         0.22178E+06
         0.10422E+06
         0.94334E+05
        -0.37722E+05
        -0.30983E+06
        -0.52929E+06
        -0.59333E+06
        -0.42142E+06
         0.11624E+06
         0.27095E+06
         0.28565E+06
         0.45055E+06
         0.57318E+06
         0.36076E+06
         0.34523E+06
        -0.17540E+06
         0.29201E+05
        -0.50524E+05
        -0.36583E+05
         0.29269E+06
         0.14804E+06
         0.36299E+05
        -0.20826E+06
        -0.80437E+05
        -0.20134E+06
         0.21030E+05
        -0.12877E+06
        -0.37112E+06
         0.83191E+05
         0.30041E+06
        -0.16406E+06
         0.30044E+05
         0.15119E+05
         0.47596E+05
         0.15122E+05
         0.19940E+06
         0.14581E+06
        -0.86725E+05
         0.33423E+05
         0.81797E+05
        -0.12794E+05
         0.19765E+05
        -0.39845E+04
        -0.16952E+05
        -0.13116E+06
        -0.13614E+06
        -0.22106E+05
         0.55409E+05
         0.42932E+05
         0.50424E+05
        -0.16731E+06
        -0.27763E+06
         0.35032E+06
         0.79249E+05
         0.21199E+06
         0.34725E+06
        -0.97769E+05
        -0.20300E+06
        -0.25987E+06
        -0.29445E+06
        -0.23330E+06
         0.25045E+06
         0.23142E+06
        -0.36102E+05
         0.53403E+05
         0.33822E+06
         0.30855E+05
        -0.20434E+06
         0.28415E+06
        -0.54725E+06
        -0.59058E+06
        -0.50598E+06
        -0.24601E+06
         0.65249E+05
         0.22723E+06
         0.29728E+06
         0.47856E+06
         0.55403E+06
         0.22193E+06
         0.10424E+06
         0.94525E+05
        -0.37387E+05
        -0.30994E+06
        -0.52942E+06
        -0.59336E+06
        -0.42134E+06
         0.11629E+06
         0.27077E+06
         0.28555E+06
         0.45039E+06
         0.57309E+06
         0.36055E+06
         0.34495E+06
        -0.17564E+06
         0.29348E+05
        -0.50602E+05
        -0.36873E+05
         0.29259E+06
         0.14802E+06
         0.36551E+05
        -0.20781E+06
        -0.80652E+05
        -0.20122E+06
         0.20539E+05
        -0.12907E+06
        -0.37125E+06
         0.83056E+05
         0.30013E+06
        -0.16429E+06
         0.30396E+05
         0.15052E+05
         0.47606E+05
         0.14993E+05
         0.19985E+06
         0.14592E+06
        -0.86844E+05
         0.33379E+05
         0.82326E+05
        -0.12773E+05
         0.20104E+05
        -0.39435E+04
        -0.16851E+05
        -0.13146E+06
        -0.13634E+06
        -0.21972E+05
         0.55283E+05
         0.43021E+05
         0.49891E+05
        -0.16740E+06
        -0.27763E+06
         0.35060E+06
         0.79889E+05
         0.21252E+06
         0.34747E+06
        -0.97249E+05
        -0.20307E+06
        -0.26015E+06
        -0.29452E+06
        -0.23321E+06
         0.25043E+06
         0.23145E+06
        -0.35740E+05
         0.53214E+05
         0.33812E+06
         0.30321E+05
        -0.20421E+06
         0.28422E+06
        -0.54730E+06
        -0.59058E+06
        -0.50592E+06
        -0.24600E+06
         0.65343E+05
         0.22741E+06
         0.29711E+06
         0.47850E+06
         0.55402E+06
         0.22207E+06
         0.10426E+06
         0.94715E+05
        -0.37053E+05
        -0.31005E+06
        -0.52954E+06
        -0.59339E+06
        -0.42125E+06
         0.11633E+06
         0.27059E+06
         0.28546E+06
         0.45023E+06
         0.57301E+06
         0.36035E+06
         0.34467E+06
        -0.17587E+06
         0.29493E+05
        -0.50682E+05
        -0.37163E+05
         0.29250E+06
         0.14800E+06
         0.36804E+05
        -0.20736E+06
        -0.80868E+05
        -0.20109E+06
         0.20047E+05
        -0.12937E+06
        -0.37137E+06
         0.82928E+05
         0.29985E+06
        -0.16453E+06
         0.30749E+05
         0.14984E+05
         0.47622E+05
         0.14863E+05
         0.20031E+06
         0.14601E+06
        -0.86968E+05
         0.33335E+05
         0.82853E+05
        -0.12752E+05
         0.20450E+05
        -0.39002E+04
        -0.16747E+05
        -0.13176E+06
        -0.13654E+06
        -0.21839E+05
         0.55156E+05
         0.43109E+05
         0.49354E+05
        -0.16747E+06
        -0.27763E+06
         0.35088E+06
         0.80530E+05
         0.21305E+06
         0.34769E+06
        -0.96729E+05
        -0.20314E+06
        -0.26043E+06
        -0.29460E+06
        -0.23312E+06
         0.25042E+06
         0.23148E+06
        -0.35375E+05
         0.53029E+05
         0.33802E+06
         0.29784E+05
        -0.20408E+06
         0.28428E+06
        -0.54736E+06
        -0.59058E+06
        -0.50585E+06
        -0.24600E+06
         0.65435E+05
         0.22759E+06
         0.29693E+06
         0.47844E+06
         0.55400E+06
         0.22221E+06
         0.10428E+06
         0.94902E+05
        -0.36717E+05
        -0.31016E+06
        -0.52967E+06
        -0.59343E+06
        -0.42117E+06
         0.11637E+06
         0.27041E+06
         0.28536E+06
         0.45008E+06
         0.57293E+06
         0.36014E+06
         0.34438E+06
        -0.17611E+06
         0.29639E+05
        -0.50758E+05
        -0.37455E+05
         0.29241E+06
         0.14798E+06
         0.37056E+05
        -0.20690E+06
        -0.81084E+05
        -0.20096E+06
         0.19555E+05
        -0.12968E+06
        -0.37148E+06
         0.82800E+05
         0.29957E+06
        -0.16476E+06
         0.31104E+05
         0.14916E+05
         0.47634E+05
         0.14735E+05
         0.20077E+06
         0.14611E+06
        -0.87091E+05
         0.33293E+05
         0.83380E+05
        -0.12732E+05
         0.20787E+05
        -0.38553E+04
        -0.16639E+05
        -0.13206E+06
        -0.13673E+06
        -0.21705E+05
         0.55027E+05
         0.43199E+05
         0.48815E+05
        -0.16755E+06
        -0.27762E+06
         0.35116E+06
         0.81171E+05
         0.21359E+06
         0.34791E+06
        -0.96214E+05
        -0.20321E+06
        -0.26071E+06
        -0.29468E+06
        -0.23304E+06
         0.25040E+06
         0.23151E+06
        -0.35010E+05
         0.52851E+05
         0.33792E+06
         0.29248E+05
        -0.20395E+06
         0.28434E+06
        -0.54741E+06
        -0.59058E+06
        -0.50578E+06
        -0.24599E+06
         0.65527E+05
         0.22777E+06
         0.29675E+06
         0.47839E+06
         0.55398E+06
         0.22236E+06
         0.10430E+06
         0.95091E+05
        -0.36380E+05
        -0.31027E+06
        -0.52979E+06
        -0.59346E+06
        -0.42109E+06
         0.11641E+06
         0.27022E+06
         0.28527E+06
         0.44992E+06
         0.57285E+06
         0.35993E+06
         0.34410E+06
        -0.17635E+06
         0.29786E+05
        -0.50835E+05
        -0.37748E+05
         0.29231E+06
         0.14796E+06
         0.37307E+05
        -0.20644E+06
        -0.81298E+05
        -0.20083E+06
         0.19063E+05
        -0.12998E+06
        -0.37161E+06
         0.82661E+05
         0.29929E+06
        -0.16500E+06
         0.31460E+05
         0.14848E+05
         0.47647E+05
         0.14608E+05
         0.20122E+06
         0.14621E+06
        -0.87213E+05
         0.33250E+05
         0.83905E+05
        -0.12710E+05
         0.21135E+05
        -0.38081E+04
        -0.16530E+05
        -0.13236E+06
        -0.13693E+06
        -0.21570E+05
         0.54895E+05
         0.43287E+05
         0.48277E+05
        -0.16764E+06
        -0.27762E+06
         0.35144E+06
         0.81812E+05
         0.21412E+06
         0.34813E+06
        -0.95694E+05
        -0.20328E+06
        -0.26100E+06
        -0.29477E+06
        -0.23294E+06
         0.25038E+06
         0.23153E+06
        -0.34645E+05
         0.52667E+05
         0.33781E+06
         0.28714E+05
        -0.20382E+06
         0.28440E+06
        -0.54747E+06
        -0.59058E+06
        -0.50572E+06
        -0.24598E+06
         0.65622E+05
         0.22795E+06
         0.29657E+06
         0.47833E+06
         0.55396E+06
         0.22250E+06
         0.10432E+06
         0.95279E+05
        -0.36045E+05
        -0.31038E+06
        -0.52992E+06
        -0.59349E+06
        -0.42100E+06
         0.11645E+06
         0.27004E+06
         0.28518E+06
         0.44976E+06
         0.57277E+06
         0.35973E+06
         0.34382E+06
        -0.17659E+06
         0.29930E+05
        -0.50912E+05
        -0.38041E+05
         0.29222E+06
         0.14794E+06
         0.37560E+05
        -0.20598E+06
        -0.81513E+05
        -0.20070E+06
         0.18572E+05
        -0.13028E+06
        -0.37173E+06
         0.82532E+05
         0.29901E+06
        -0.16523E+06
         0.31819E+05
         0.14780E+05
         0.47663E+05
         0.14481E+05
         0.20168E+06
         0.14631E+06
        -0.87336E+05
         0.33208E+05
         0.84433E+05
        -0.12688E+05
         0.21473E+05
        -0.37593E+04
        -0.16419E+05
        -0.13265E+06
        -0.13712E+06
        -0.21436E+05
         0.54763E+05
         0.43376E+05
         0.47735E+05
        -0.16771E+06
        -0.27761E+06
         0.35171E+06
         0.82452E+05
         0.21466E+06
         0.34835E+06
        -0.95174E+05
        -0.20336E+06
        -0.26128E+06
        -0.29485E+06
        -0.23285E+06
         0.25036E+06
         0.23155E+06
        -0.34280E+05
         0.52484E+05
         0.33771E+06
         0.28182E+05
        -0.20369E+06
         0.28447E+06
        -0.54752E+06
        -0.59058E+06
        -0.50565E+06
        -0.24597E+06
         0.65715E+05
         0.22812E+06
         0.29639E+06
         0.47827E+06
         0.55395E+06
         0.22264E+06
         0.10434E+06
         0.95469E+05
        -0.35711E+05
        -0.31048E+06
        -0.53005E+06
        -0.59352E+06
        -0.42092E+06
         0.11649E+06
         0.26986E+06
         0.28509E+06
         0.44960E+06
         0.57269E+06
         0.35952E+06
         0.34354E+06
        -0.17683E+06
         0.30074E+05
        -0.50988E+05
        -0.38334E+05
         0.29213E+06
         0.14792E+06
         0.37812E+05
        -0.20552E+06
        -0.81730E+05
        -0.20056E+06
         0.18080E+05
        -0.13059E+06
        -0.37184E+06
         0.82391E+05
         0.29873E+06
        -0.16547E+06
         0.32180E+05
         0.14713E+05
         0.47675E+05
         0.14353E+05
         0.20213E+06
         0.14641E+06
        -0.87456E+05
         0.33166E+05
         0.84960E+05
        -0.12666E+05
         0.21817E+05
        -0.37082E+04
        -0.16305E+05
        -0.13295E+06
        -0.13731E+06
        -0.21301E+05
         0.54629E+05
         0.43465E+05
         0.47195E+05
        -0.16780E+06
        -0.27761E+06
         0.35198E+06
         0.83092E+05
         0.21519E+06
         0.34857E+06
        -0.94656E+05
        -0.20343E+06
        -0.26156E+06
        -0.29493E+06
        -0.23277E+06
         0.25034E+06
         0.23158E+06
        -0.33912E+05
         0.52303E+05
         0.33761E+06
         0.27647E+05
        -0.20356E+06
         0.28453E+06
        -0.54757E+06
        -0.59058E+06
        -0.50558E+06
        -0.24597E+06
         0.65806E+05
         0.22829E+06
         0.29622E+06
         0.47821E+06
         0.55393E+06
         0.22279E+06
         0.10436E+06
         0.95658E+05
        -0.35376E+05
        -0.31059E+06
        -0.53017E+06
        -0.59355E+06
        -0.42084E+06
         0.11653E+06
         0.26968E+06
         0.28500E+06
         0.44945E+06
         0.57261E+06
         0.35932E+06
         0.34326E+06
        -0.17707E+06
         0.30220E+05
        -0.51065E+05
        -0.38626E+05
         0.29203E+06
         0.14790E+06
         0.38063E+05
        -0.20506E+06
        -0.81947E+05
        -0.20042E+06
         0.17587E+05
        -0.13089E+06
        -0.37197E+06
         0.82259E+05
         0.29845E+06
        -0.16570E+06
         0.32544E+05
         0.14646E+05
         0.47688E+05
         0.14227E+05
         0.20259E+06
         0.14650E+06
        -0.87577E+05
         0.33125E+05
         0.85485E+05
        -0.12644E+05
         0.22153E+05
        -0.36551E+04
        -0.16189E+05
        -0.13324E+06
        -0.13750E+06
        -0.21168E+05
         0.54494E+05
         0.43556E+05
         0.46650E+05
        -0.16787E+06
        -0.27760E+06
         0.35225E+06
         0.83733E+05
         0.21572E+06
         0.34879E+06
        -0.94139E+05
        -0.20350E+06
        -0.26183E+06
        -0.29501E+06
        -0.23268E+06
         0.25032E+06
         0.23161E+06
        -0.33548E+05
         0.52120E+05
         0.33751E+06
         0.27111E+05
        -0.20343E+06
         0.28459E+06
        -0.54762E+06
        -0.59058E+06
        -0.50552E+06
        -0.24596E+06
         0.65897E+05
         0.22847E+06
         0.29604E+06
         0.47815E+06
         0.55391E+06
         0.22293E+06
         0.10438E+06
         0.95844E+05
        -0.35041E+05
        -0.31070E+06
        -0.53030E+06
        -0.59358E+06
        -0.42075E+06
         0.11657E+06
         0.26949E+06
         0.28491E+06
         0.44929E+06
         0.57252E+06
         0.35911E+06
         0.34298E+06
        -0.17731E+06
         0.30365E+05
        -0.51143E+05
        -0.38920E+05
         0.29194E+06
         0.14788E+06
         0.38317E+05
        -0.20459E+06
        -0.82162E+05
        -0.20027E+06
         0.17093E+05
        -0.13119E+06
        -0.37209E+06
         0.82115E+05
         0.29816E+06
        -0.16594E+06
         0.32911E+05
         0.14579E+05
         0.47702E+05
         0.14102E+05
         0.20304E+06
         0.14659E+06
        -0.87698E+05
         0.33085E+05
         0.86007E+05
        -0.12621E+05
         0.22497E+05
        -0.35993E+04
        -0.16069E+05
        -0.13353E+06
        -0.13770E+06
        -0.21034E+05
         0.54359E+05
         0.43646E+05
         0.46104E+05
        -0.16795E+06
        -0.27760E+06
         0.35252E+06
         0.84380E+05
         0.21626E+06
         0.34900E+06
        -0.93627E+05
        -0.20358E+06
        -0.26211E+06
        -0.29509E+06
        -0.23259E+06
         0.25030E+06
         0.23164E+06
        -0.33186E+05
         0.51936E+05
         0.33741E+06
         0.26580E+05
        -0.20330E+06
         0.28465E+06
        -0.54768E+06
        -0.59058E+06
        -0.50545E+06
        -0.24595E+06
         0.65987E+05
         0.22864E+06
         0.29586E+06
         0.47810E+06
         0.55390E+06
         0.22307E+06
         0.10439E+06
         0.96029E+05
        -0.34707E+05
        -0.31081E+06
        -0.53042E+06
        -0.59361E+06
        -0.42067E+06
         0.11661E+06
         0.26931E+06
         0.28481E+06
         0.44913E+06
         0.57244E+06
         0.35891E+06
         0.34269E+06
        -0.17754E+06
         0.30509E+05
        -0.51218E+05
        -0.39215E+05
         0.29185E+06
         0.14786E+06
         0.38569E+05
        -0.20413E+06
        -0.82371E+05
        -0.20010E+06
         0.16599E+05
        -0.13150E+06
        -0.37220E+06
         0.81977E+05
         0.29787E+06
        -0.16617E+06
         0.33282E+05
         0.14511E+05
         0.47722E+05
         0.13982E+05
         0.20349E+06
         0.14668E+06
        -0.87820E+05
         0.33043E+05
         0.86518E+05
        -0.12600E+05
         0.22836E+05
        -0.35394E+04
        -0.15948E+05
        -0.13382E+06
        -0.13789E+06
        -0.20897E+05
         0.54220E+05
         0.43737E+05
         0.45558E+05
        -0.16804E+06
        -0.27760E+06
         0.35277E+06
         0.85046E+05
         0.21678E+06
         0.34922E+06
        -0.93111E+05
        -0.20366E+06
        -0.26239E+06
        -0.29517E+06
        -0.23250E+06
         0.25028E+06
         0.23166E+06
        -0.32824E+05
         0.51754E+05
         0.33731E+06
         0.26048E+05
        -0.20316E+06
         0.28471E+06
        -0.54773E+06
        -0.59058E+06
        -0.50538E+06
        -0.24595E+06
         0.66078E+05
         0.22882E+06
         0.29569E+06
         0.47804E+06
         0.55388E+06
         0.22321E+06
         0.10440E+06
         0.96215E+05
        -0.34374E+05
        -0.31091E+06
        -0.53055E+06
        -0.59364E+06
        -0.42058E+06
         0.11665E+06
         0.26913E+06
         0.28472E+06
         0.44897E+06
         0.57236E+06
         0.35871E+06
         0.34241E+06
        -0.17778E+06
         0.30653E+05
        -0.51293E+05
        -0.39510E+05
         0.29175E+06
         0.14783E+06
         0.38821E+05
        -0.20366E+06
        -0.82577E+05
        -0.19991E+06
         0.16105E+05
        -0.13180E+06
        -0.37232E+06
         0.81838E+05
         0.29758E+06
        -0.16640E+06
         0.33658E+05
         0.14444E+05
         0.47736E+05
         0.13866E+05
         0.20395E+06
         0.14677E+06
        -0.87941E+05
         0.33003E+05
         0.87015E+05
        -0.12576E+05
         0.23188E+05
        -0.34747E+04
        -0.15824E+05
        -0.13409E+06
        -0.13808E+06
        -0.20763E+05
         0.54079E+05
         0.43827E+05
         0.45008E+05
        -0.16812E+06
        -0.27759E+06
         0.35302E+06
         0.85731E+05
         0.21731E+06
         0.34943E+06
        -0.92598E+05
        -0.20375E+06
        -0.26267E+06
        -0.29525E+06
        -0.23241E+06
         0.25026E+06
         0.23169E+06
        -0.32461E+05
         0.51573E+05
         0.33721E+06
         0.25512E+05
        -0.20303E+06
         0.28477E+06
        -0.54778E+06
        -0.59058E+06
        -0.50532E+06
        -0.24594E+06
         0.66168E+05
         0.22899E+06
         0.29552E+06
         0.47798E+06
         0.55388E+06
         0.22335E+06
         0.10439E+06
         0.96400E+05
        -0.34040E+05
        -0.31102E+06
        -0.53068E+06
        -0.59367E+06
        -0.42050E+06
         0.11669E+06
         0.26895E+06
         0.28463E+06
         0.44882E+06
         0.57228E+06
         0.35851E+06
         0.34213E+06
        -0.17802E+06
         0.30798E+05
        -0.51372E+05
        -0.39804E+05
         0.29167E+06
         0.14781E+06
         0.39074E+05
        -0.20319E+06
        -0.82781E+05
        -0.19971E+06
         0.15615E+05
        -0.13210E+06
        -0.37244E+06
         0.81689E+05
         0.29729E+06
        -0.16664E+06
         0.34037E+05
         0.14377E+05
         0.47750E+05
         0.13754E+05
         0.20440E+06
         0.14686E+06
        -0.88055E+05
         0.32966E+05
         0.87507E+05
        -0.12554E+05
         0.23530E+05
        -0.34069E+04
        -0.15700E+05
        -0.13436E+06
        -0.13828E+06
        -0.20631E+05
         0.53940E+05
         0.43919E+05
         0.44463E+05
        -0.16820E+06
        -0.27758E+06
         0.35326E+06
         0.86422E+05
         0.21783E+06
         0.34964E+06
        -0.92096E+05
        -0.20384E+06
        -0.26294E+06
        -0.29533E+06
        -0.23233E+06
         0.25025E+06
         0.23172E+06
        -0.32101E+05
         0.51387E+05
         0.33711E+06
         0.24979E+05
        -0.20290E+06
         0.28483E+06
        -0.54783E+06
        -0.59058E+06
        -0.50525E+06
        -0.24593E+06
         0.66257E+05
         0.22916E+06
         0.29534E+06
         0.47792E+06
         0.55387E+06
         0.22348E+06
         0.10438E+06
         0.96584E+05
        -0.33705E+05
        -0.31112E+06
        -0.53080E+06
        -0.59370E+06
        -0.42041E+06
         0.11673E+06
         0.26877E+06
         0.28454E+06
         0.44866E+06
         0.57220E+06
         0.35832E+06
         0.34184E+06
        -0.17060E+06
         0.31132E+05
        -0.51822E+05
        -0.40367E+05
         0.27407E+06
         0.14878E+06
         0.39578E+05
        -0.19136E+06
        -0.83546E+05
        -0.18792E+06
         0.15291E+05
        -0.12780E+06
        -0.35690E+06
         0.82107E+05
         0.28744E+06
        -0.16804E+06
         0.34634E+05
         0.14415E+05
         0.48077E+05
         0.13742E+05
         0.19790E+06
         0.14133E+06
        -0.84962E+05
         0.33175E+05
         0.88569E+05
        -0.12632E+05
         0.24007E+05
        -0.33600E+04
        -0.15713E+05
        -0.13554E+06
        -0.13945E+06
        -0.20678E+05
         0.54194E+05
         0.44318E+05
         0.41757E+05
        -0.15566E+06
        -0.26112E+06
         0.33949E+06
         0.82385E+05
         0.20540E+06
         0.33654E+06
        -0.88073E+05
        -0.19671E+06
        -0.25203E+06
        -0.27945E+06
        -0.22165E+06
         0.23352E+06
         0.21553E+06
        -0.31990E+05
         0.49184E+05
         0.32018E+06
         0.22759E+05
        -0.20016E+06
         0.28163E+06
        -0.54193E+06
        -0.58450E+06
        -0.50030E+06
        -0.24360E+06
         0.65684E+05
         0.22640E+06
         0.29119E+06
         0.47191E+06
         0.54715E+06
         0.22112E+06
         0.10302E+06
         0.95539E+05
        -0.33033E+05
        -0.30820E+06
        -0.52603E+06
        -0.58830E+06
        -0.41550E+06
         0.11551E+06
         0.26557E+06
         0.28110E+06
         0.44349E+06
         0.56545E+06
         0.35426E+06
         0.33781E+06
        -0.62019E+05
         0.88585E+04
        -0.14966E+05
        -0.14062E+05
         0.78117E+05
         0.36609E+05
         0.10275E+05
        -0.57162E+05
        -0.25844E+05
        -0.54964E+05
         0.31897E+04
        -0.50592E+05
        -0.12593E+06
         0.15883E+05
         0.11759E+06
        -0.52524E+05
         0.10412E+05
         0.54957E+04
         0.13146E+05
         0.35638E+04
         0.79906E+05
         0.53271E+05
        -0.33286E+05
         0.99935E+04
         0.21323E+05
        -0.41761E+04
         0.47899E+04
        -0.73249E+03
        -0.34346E+04
        -0.30666E+05
        -0.44122E+05
        -0.63392E+04
         0.18585E+05
         0.14232E+05
         0.12900E+05
        -0.36780E+05
        -0.75096E+05
         0.12334E+06
         0.24982E+05
         0.58477E+05
         0.12608E+06
        -0.32190E+05
        -0.77083E+05
        -0.90065E+05
        -0.85389E+05
        -0.73752E+05
         0.61783E+05
         0.55948E+05
        -0.80993E+04
         0.12013E+05
         0.10166E+06
         0.58507E+04
        -0.12741E+06
         0.18607E+06
        -0.36536E+06
        -0.40144E+06
        -0.35071E+06
        -0.17321E+06
         0.45481E+05
         0.14576E+06
         0.18248E+06
         0.30434E+06
         0.35623E+06
         0.14899E+06
         0.65831E+05
         0.61561E+05
        -0.22323E+05
        -0.21592E+06
        -0.37415E+06
        -0.41859E+06
        -0.27433E+06
         0.77651E+05
         0.17617E+06
         0.18450E+06
         0.29572E+06
         0.37240E+06
         0.23949E+06
         0.22680E+06
  
SCALARS                      strain_xx  double 1
LOOKUP_TABLE default
        -0.40555E-08
        -0.18724E-06
        -0.21401E-05
        -0.10965E-07
        -0.58980E-20
        -0.74151E-21
        -0.82908E-20
        -0.33069E-21
        -0.16115E-04
        -0.73794E-05
        -0.74173E-19
        -0.60179E-19
        -0.26213E-07
        -0.43455E-06
        -0.11283E-20
        -0.24760E-19
        -0.23164E-07
        -0.40276E-06
        -0.12919E-19
        -0.28656E-19
        -0.78852E-06
        -0.20763E-05
        -0.20963E-05
        -0.12777E-19
        -0.27169E-20
        -0.82927E-20
        -0.23234E-05
        -0.13641E-05
        -0.44770E-19
        -0.28172E-19
        -0.12632E-06
        -0.56601E-06
        -0.62385E-08
        -0.46408E-21
        -0.69304E-20
        -0.26304E-20
        -0.10523E-05
        -0.21510E-06
        -0.15277E-19
        -0.17319E-19
        -0.39784E-05
        -0.72213E-05
        -0.77730E-19
        -0.42273E-19
        -0.49385E-05
        -0.14502E-05
        -0.93742E-19
        -0.21717E-19
        -0.31152E-06
        -0.85569E-20
        -0.23735E-05
        -0.66304E-21
        -0.29686E-06
        -0.32671E-19
        -0.15975E-06
        -0.22861E-20
        -0.30599E-05
        -0.26115E-06
        -0.16777E-20
        -0.98018E-20
        -0.14375E-08
        -0.10549E-05
        -0.67112E-20
        -0.31559E-20
        -0.75468E-07
        -0.67903E-22
        -0.81016E-06
        -0.29377E-20
        -0.31164E-04
        -0.14454E-04
        -0.11477E-18
        -0.60369E-19
        -0.58131E-05
        -0.32006E-19
        -0.22325E-06
        -0.15316E-19
        -0.21393E-05
        -0.58995E-21
        -0.97202E-05
        -0.14200E-20
        -0.18051E-04
        -0.96553E-05
        -0.19072E-19
        -0.24945E-19
        -0.84370E-05
        -0.28851E-19
        -0.72493E-05
        -0.59806E-19
        -0.26905E-05
        -0.24330E-19
        -0.64259E-05
        -0.34041E-05
        -0.44317E-20
        -0.83344E-20
        -0.18245E-06
        -0.11467E-19
        -0.13995E-05
        -0.20217E-20
        -0.79400E-05
        -0.12328E-19
        -0.17253E-04
        -0.82598E-05
        -0.65543E-19
        -0.71370E-19
        -0.94390E-04
        -0.12107E-03
        -0.22378E-18
        -0.21733E-18
        -0.91809E-04
        -0.16332E-18
        -0.80354E-04
        -0.91211E-19
        -0.39284E-04
        -0.27545E-19
        -0.18405E-04
        -0.31498E-21
        -0.22384E-05
        -0.39957E-20
        -0.34344E-05
        -0.25576E-20
        -0.19398E-04
        -0.24708E-20
        -0.42934E-04
        -0.12565E-19
        -0.84618E-04
        -0.45479E-19
        -0.14512E-03
        -0.64763E-19
        -0.19068E-03
        -0.57654E-19
        -0.18785E-03
        -0.68176E-19
        -0.17055E-03
        -0.11484E-18
        -0.14497E-03
        -0.15968E-18
        -0.11258E-03
        -0.13799E-18
        -0.62921E-04
        -0.91142E-19
        -0.19765E-04
        -0.20312E-19
        -0.14065E-06
        -0.74064E-21
        -0.62965E-05
        -0.43657E-20
        -0.15825E-04
        -0.11674E-19
        -0.34266E-04
        -0.44711E-19
        -0.59595E-04
        -0.12039E-18
        -0.10641E-03
        -0.17378E-18
        -0.14650E-03
        -0.18180E-18
        -0.11123E-05
        -0.30946E-06
        -0.42444E-06
        -0.16630E-05
        -0.26520E-04
        -0.15388E-04
        -0.36421E-06
        -0.77082E-06
        -0.19630E-06
        -0.63908E-06
        -0.20357E-06
        -0.38415E-05
        -0.16489E-04
        -0.16848E-05
        -0.24655E-05
        -0.29503E-05
        -0.20910E-05
        -0.44140E-06
        -0.11238E-05
        -0.12888E-05
        -0.39021E-04
        -0.43868E-04
        -0.36339E-04
        -0.34948E-05
        -0.55346E-06
        -0.30765E-06
        -0.32571E-05
        -0.40859E-07
        -0.43567E-05
        -0.20033E-05
        -0.23591E-05
        -0.93919E-07
        -0.52396E-06
        -0.55996E-07
        -0.60232E-04
        -0.23908E-04
        -0.19370E-04
        -0.96154E-05
        -0.31247E-05
        -0.14590E-04
        -0.62685E-04
        -0.52551E-04
        -0.49426E-04
        -0.26837E-04
        -0.14067E-04
        -0.88839E-05
        -0.30507E-06
        -0.51661E-05
        -0.43293E-06
        -0.44522E-05
        -0.32507E-04
        -0.22359E-04
        -0.54154E-03
        -0.58270E-03
        -0.46762E-03
        -0.33660E-03
        -0.18702E-03
        -0.49215E-04
        -0.17552E-06
        -0.25380E-04
        -0.58799E-04
        -0.17360E-03
        -0.46365E-03
        -0.66338E-03
        -0.54853E-03
        -0.50163E-03
        -0.55492E-03
        -0.55099E-03
        -0.45504E-03
        -0.35319E-03
        -0.94081E-04
        -0.23316E-05
        -0.33984E-04
        -0.42216E-04
        -0.12134E-03
        -0.31318E-03
        -0.51766E-03
        -0.56805E-03
        -0.24600E-05
        -0.10366E-06
        -0.37571E-06
        -0.31852E-05
        -0.13403E-04
        -0.97876E-05
        -0.83082E-06
        -0.39594E-05
        -0.83589E-06
        -0.35785E-05
        -0.14604E-06
        -0.19442E-05
        -0.21040E-04
        -0.12373E-04
        -0.13276E-04
        -0.94950E-05
        -0.29426E-05
        -0.10556E-05
        -0.47810E-06
        -0.14745E-05
        -0.51914E-04
        -0.47152E-04
        -0.45915E-04
        -0.26859E-05
        -0.86651E-06
        -0.39284E-06
        -0.11554E-04
        -0.20369E-06
        -0.12940E-05
        -0.24064E-05
        -0.56045E-05
        -0.23467E-05
        -0.23576E-05
        -0.17561E-05
        -0.42628E-04
        -0.12985E-04
        -0.17085E-04
        -0.16326E-04
        -0.45762E-06
        -0.38467E-05
        -0.51921E-04
        -0.54939E-04
        -0.52492E-04
        -0.27442E-04
        -0.16274E-04
        -0.55715E-05
        -0.65076E-05
        -0.90698E-05
        -0.15848E-06
        -0.22975E-06
        -0.24139E-04
        -0.18731E-04
        -0.74543E-03
        -0.75703E-03
        -0.61006E-03
        -0.41501E-03
        -0.23108E-03
        -0.49021E-04
        -0.30217E-05
        -0.31718E-04
        -0.55042E-04
        -0.18497E-03
        -0.58354E-03
        -0.81209E-03
        -0.57097E-03
        -0.51678E-03
        -0.62728E-03
        -0.66535E-03
        -0.55430E-03
        -0.49600E-03
        -0.12876E-03
        -0.86983E-05
        -0.42544E-04
        -0.43666E-04
        -0.13804E-03
        -0.41380E-03
        -0.67796E-03
        -0.67369E-03
        -0.24693E-05
        -0.10443E-06
        -0.37713E-06
        -0.31895E-05
        -0.13377E-04
        -0.97696E-05
        -0.84141E-06
        -0.39393E-05
        -0.83773E-06
        -0.35729E-05
        -0.14019E-06
        -0.19536E-05
        -0.21065E-04
        -0.12312E-04
        -0.13261E-04
        -0.95146E-05
        -0.29556E-05
        -0.10498E-05
        -0.47763E-06
        -0.14693E-05
        -0.51904E-04
        -0.47141E-04
        -0.45908E-04
        -0.26862E-05
        -0.87042E-06
        -0.39415E-06
        -0.11561E-04
        -0.19610E-06
        -0.13123E-05
        -0.24095E-05
        -0.56209E-05
        -0.23461E-05
        -0.23380E-05
        -0.17577E-05
        -0.42671E-04
        -0.12973E-04
        -0.17075E-04
        -0.16378E-04
        -0.46643E-06
        -0.38710E-05
        -0.51987E-04
        -0.55003E-04
        -0.52497E-04
        -0.27434E-04
        -0.16262E-04
        -0.55658E-05
        -0.65051E-05
        -0.90758E-05
        -0.15617E-06
        -0.22818E-06
        -0.24108E-04
        -0.18676E-04
        -0.74492E-03
        -0.75664E-03
        -0.60995E-03
        -0.41501E-03
        -0.23093E-03
        -0.48992E-04
        -0.30286E-05
        -0.31758E-04
        -0.54949E-04
        -0.18482E-03
        -0.58337E-03
        -0.81212E-03
        -0.57086E-03
        -0.51672E-03
        -0.62744E-03
        -0.66564E-03
        -0.55449E-03
        -0.49620E-03
        -0.12868E-03
        -0.87063E-05
        -0.42481E-04
        -0.43631E-04
        -0.13783E-03
        -0.41329E-03
        -0.67729E-03
        -0.67308E-03
        -0.24787E-05
        -0.10519E-06
        -0.37854E-06
        -0.31938E-05
        -0.13350E-04
        -0.97520E-05
        -0.85213E-06
        -0.39194E-05
        -0.83945E-06
        -0.35668E-05
        -0.13447E-06
        -0.19631E-05
        -0.21091E-04
        -0.12251E-04
        -0.13247E-04
        -0.95350E-05
        -0.29688E-05
        -0.10439E-05
        -0.47715E-06
        -0.14643E-05
        -0.51895E-04
        -0.47131E-04
        -0.45903E-04
        -0.26865E-05
        -0.87461E-06
        -0.39558E-06
        -0.11567E-04
        -0.18875E-06
        -0.13308E-05
        -0.24125E-05
        -0.56377E-05
        -0.23457E-05
        -0.23184E-05
        -0.17592E-05
        -0.42715E-04
        -0.12962E-04
        -0.17063E-04
        -0.16431E-04
        -0.47532E-06
        -0.38956E-05
        -0.52053E-04
        -0.55068E-04
        -0.52504E-04
        -0.27428E-04
        -0.16251E-04
        -0.55604E-05
        -0.65027E-05
        -0.90818E-05
        -0.15383E-06
        -0.22657E-06
        -0.24078E-04
        -0.18621E-04
        -0.74441E-03
        -0.75625E-03
        -0.60985E-03
        -0.41502E-03
        -0.23079E-03
        -0.48962E-04
        -0.30355E-05
        -0.31797E-04
        -0.54857E-04
        -0.18467E-03
        -0.58319E-03
        -0.81216E-03
        -0.57076E-03
        -0.51666E-03
        -0.62760E-03
        -0.66594E-03
        -0.55469E-03
        -0.49639E-03
        -0.12861E-03
        -0.87142E-05
        -0.42419E-04
        -0.43597E-04
        -0.13763E-03
        -0.41278E-03
        -0.67661E-03
        -0.67248E-03
        -0.24881E-05
        -0.10599E-06
        -0.37994E-06
        -0.31980E-05
        -0.13324E-04
        -0.97339E-05
        -0.86279E-06
        -0.38993E-05
        -0.84097E-06
        -0.35598E-05
        -0.12888E-06
        -0.19728E-05
        -0.21117E-04
        -0.12191E-04
        -0.13233E-04
        -0.95570E-05
        -0.29826E-05
        -0.10380E-05
        -0.47674E-06
        -0.14591E-05
        -0.51890E-04
        -0.47124E-04
        -0.45903E-04
        -0.26868E-05
        -0.87960E-06
        -0.39733E-06
        -0.11573E-04
        -0.18176E-06
        -0.13493E-05
        -0.24154E-05
        -0.56559E-05
        -0.23462E-05
        -0.22987E-05
        -0.17608E-05
        -0.42756E-04
        -0.12950E-04
        -0.17052E-04
        -0.16483E-04
        -0.48428E-06
        -0.39200E-05
        -0.52121E-04
        -0.55137E-04
        -0.52518E-04
        -0.27422E-04
        -0.16238E-04
        -0.55544E-05
        -0.65008E-05
        -0.90881E-05
        -0.15150E-06
        -0.22496E-06
        -0.24047E-04
        -0.18566E-04
        -0.74390E-03
        -0.75586E-03
        -0.60974E-03
        -0.41502E-03
        -0.23065E-03
        -0.48932E-04
        -0.30425E-05
        -0.31836E-04
        -0.54764E-04
        -0.18452E-03
        -0.58301E-03
        -0.81221E-03
        -0.57068E-03
        -0.51661E-03
        -0.62779E-03
        -0.66628E-03
        -0.55491E-03
        -0.49658E-03
        -0.12854E-03
        -0.87222E-05
        -0.42357E-04
        -0.43563E-04
        -0.13743E-03
        -0.41228E-03
        -0.67594E-03
        -0.67189E-03
        -0.24974E-05
        -0.10678E-06
        -0.38135E-06
        -0.32021E-05
        -0.13298E-04
        -0.97160E-05
        -0.87365E-06
        -0.38792E-05
        -0.84227E-06
        -0.35517E-05
        -0.12340E-06
        -0.19824E-05
        -0.21142E-04
        -0.12130E-04
        -0.13219E-04
        -0.95807E-05
        -0.29971E-05
        -0.10322E-05
        -0.47622E-06
        -0.14538E-05
        -0.51887E-04
        -0.47118E-04
        -0.45907E-04
        -0.26872E-05
        -0.88539E-06
        -0.39934E-06
        -0.11578E-04
        -0.17512E-06
        -0.13680E-05
        -0.24180E-05
        -0.56753E-05
        -0.23473E-05
        -0.22791E-05
        -0.17624E-05
        -0.42799E-04
        -0.12939E-04
        -0.17042E-04
        -0.16535E-04
        -0.49327E-06
        -0.39449E-05
        -0.52191E-04
        -0.55211E-04
        -0.52539E-04
        -0.27419E-04
        -0.16225E-04
        -0.55480E-05
        -0.64994E-05
        -0.90949E-05
        -0.14920E-06
        -0.22338E-06
        -0.24017E-04
        -0.18511E-04
        -0.74339E-03
        -0.75547E-03
        -0.60963E-03
        -0.41503E-03
        -0.23051E-03
        -0.48903E-04
        -0.30493E-05
        -0.31876E-04
        -0.54671E-04
        -0.18438E-03
        -0.58282E-03
        -0.81227E-03
        -0.57063E-03
        -0.51657E-03
        -0.62798E-03
        -0.66667E-03
        -0.55515E-03
        -0.49677E-03
        -0.12847E-03
        -0.87301E-05
        -0.42295E-04
        -0.43529E-04
        -0.13722E-03
        -0.41177E-03
        -0.67527E-03
        -0.67128E-03
        -0.25063E-05
        -0.10764E-06
        -0.38260E-06
        -0.32062E-05
        -0.13272E-04
        -0.96980E-05
        -0.88457E-06
        -0.38588E-05
        -0.84352E-06
        -0.35433E-05
        -0.11804E-06
        -0.19920E-05
        -0.21168E-04
        -0.12070E-04
        -0.13205E-04
        -0.96049E-05
        -0.30116E-05
        -0.10263E-05
        -0.47568E-06
        -0.14488E-05
        -0.51886E-04
        -0.47115E-04
        -0.45915E-04
        -0.26876E-05
        -0.89118E-06
        -0.40142E-06
        -0.11582E-04
        -0.16864E-06
        -0.13869E-05
        -0.24211E-05
        -0.56946E-05
        -0.23484E-05
        -0.22593E-05
        -0.17638E-05
        -0.42844E-04
        -0.12928E-04
        -0.17032E-04
        -0.16587E-04
        -0.50236E-06
        -0.39698E-05
        -0.52262E-04
        -0.55287E-04
        -0.52563E-04
        -0.27417E-04
        -0.16213E-04
        -0.55424E-05
        -0.64975E-05
        -0.91014E-05
        -0.14685E-06
        -0.22194E-06
        -0.23987E-04
        -0.18457E-04
        -0.74287E-03
        -0.75508E-03
        -0.60951E-03
        -0.41503E-03
        -0.23036E-03
        -0.48874E-04
        -0.30561E-05
        -0.31915E-04
        -0.54579E-04
        -0.18423E-03
        -0.58264E-03
        -0.81234E-03
        -0.57059E-03
        -0.51654E-03
        -0.62818E-03
        -0.66708E-03
        -0.55541E-03
        -0.49695E-03
        -0.12840E-03
        -0.87372E-05
        -0.42232E-04
        -0.43494E-04
        -0.13702E-03
        -0.41127E-03
        -0.67460E-03
        -0.67068E-03
        -0.25146E-05
        -0.10868E-06
        -0.38357E-06
        -0.32102E-05
        -0.13247E-04
        -0.96805E-05
        -0.89576E-06
        -0.38380E-05
        -0.84485E-06
        -0.35354E-05
        -0.11276E-06
        -0.20016E-05
        -0.21194E-04
        -0.12010E-04
        -0.13190E-04
        -0.96291E-05
        -0.30255E-05
        -0.10204E-05
        -0.47525E-06
        -0.14439E-05
        -0.51884E-04
        -0.47113E-04
        -0.45923E-04
        -0.26882E-05
        -0.89631E-06
        -0.40326E-06
        -0.11587E-04
        -0.16214E-06
        -0.14060E-05
        -0.24247E-05
        -0.57129E-05
        -0.23485E-05
        -0.22393E-05
        -0.17648E-05
        -0.42888E-04
        -0.12919E-04
        -0.17022E-04
        -0.16639E-04
        -0.51160E-06
        -0.39952E-05
        -0.52334E-04
        -0.55364E-04
        -0.52588E-04
        -0.27415E-04
        -0.16203E-04
        -0.55374E-05
        -0.64946E-05
        -0.91075E-05
        -0.14432E-06
        -0.22082E-06
        -0.23962E-04
        -0.18404E-04
        -0.74236E-03
        -0.75469E-03
        -0.60940E-03
        -0.41503E-03
        -0.23022E-03
        -0.48844E-04
        -0.30628E-05
        -0.31954E-04
        -0.54487E-04
        -0.18408E-03
        -0.58244E-03
        -0.81240E-03
        -0.57055E-03
        -0.51651E-03
        -0.62839E-03
        -0.66749E-03
        -0.55566E-03
        -0.49713E-03
        -0.12832E-03
        -0.87431E-05
        -0.42167E-04
        -0.43461E-04
        -0.13683E-03
        -0.41077E-03
        -0.67393E-03
        -0.67009E-03
        -0.25225E-05
        -0.10979E-06
        -0.38440E-06
        -0.32141E-05
        -0.13223E-04
        -0.96625E-05
        -0.90716E-06
        -0.38170E-05
        -0.84623E-06
        -0.35279E-05
        -0.10760E-06
        -0.20113E-05
        -0.21221E-04
        -0.11949E-04
        -0.13175E-04
        -0.96532E-05
        -0.30392E-05
        -0.10144E-05
        -0.47475E-06
        -0.14394E-05
        -0.51883E-04
        -0.47109E-04
        -0.45931E-04
        -0.26888E-05
        -0.90113E-06
        -0.40499E-06
        -0.11592E-04
        -0.15573E-06
        -0.14256E-05
        -0.24286E-05
        -0.57308E-05
        -0.23483E-05
        -0.22190E-05
        -0.17656E-05
        -0.42935E-04
        -0.12910E-04
        -0.17014E-04
        -0.16691E-04
        -0.52092E-06
        -0.40207E-05
        -0.52407E-04
        -0.55443E-04
        -0.52614E-04
        -0.27415E-04
        -0.16193E-04
        -0.55333E-05
        -0.64912E-05
        -0.91132E-05
        -0.14174E-06
        -0.21986E-06
        -0.23936E-04
        -0.18351E-04
        -0.74185E-03
        -0.75431E-03
        -0.60929E-03
        -0.41504E-03
        -0.23008E-03
        -0.48814E-04
        -0.30696E-05
        -0.31993E-04
        -0.54395E-04
        -0.18394E-03
        -0.58225E-03
        -0.81247E-03
        -0.57050E-03
        -0.51647E-03
        -0.62859E-03
        -0.66790E-03
        -0.55591E-03
        -0.49730E-03
        -0.12825E-03
        -0.87487E-05
        -0.42101E-04
        -0.43427E-04
        -0.13663E-03
        -0.41027E-03
        -0.67326E-03
        -0.66949E-03
        -0.25304E-05
        -0.11090E-06
        -0.38522E-06
        -0.32179E-05
        -0.13198E-04
        -0.96445E-05
        -0.91855E-06
        -0.37962E-05
        -0.84763E-06
        -0.35205E-05
        -0.10258E-06
        -0.20210E-05
        -0.21247E-04
        -0.11890E-04
        -0.13161E-04
        -0.96773E-05
        -0.30530E-05
        -0.10086E-05
        -0.47424E-06
        -0.14346E-05
        -0.51881E-04
        -0.47107E-04
        -0.45939E-04
        -0.26895E-05
        -0.90593E-06
        -0.40670E-06
        -0.11597E-04
        -0.14946E-06
        -0.14453E-05
        -0.24325E-05
        -0.57486E-05
        -0.23480E-05
        -0.21989E-05
        -0.17665E-05
        -0.42983E-04
        -0.12901E-04
        -0.17006E-04
        -0.16743E-04
        -0.53037E-06
        -0.40461E-05
        -0.52479E-04
        -0.55521E-04
        -0.52639E-04
        -0.27415E-04
        -0.16184E-04
        -0.55292E-05
        -0.64879E-05
        -0.91189E-05
        -0.13917E-06
        -0.21894E-06
        -0.23912E-04
        -0.18298E-04
        -0.74134E-03
        -0.75392E-03
        -0.60917E-03
        -0.41504E-03
        -0.22994E-03
        -0.48784E-04
        -0.30763E-05
        -0.32032E-04
        -0.54303E-04
        -0.18379E-03
        -0.58206E-03
        -0.81253E-03
        -0.57046E-03
        -0.51644E-03
        -0.62879E-03
        -0.66831E-03
        -0.55617E-03
        -0.49748E-03
        -0.12817E-03
        -0.87543E-05
        -0.42035E-04
        -0.43394E-04
        -0.13644E-03
        -0.40978E-03
        -0.67260E-03
        -0.66889E-03
        -0.25383E-05
        -0.11204E-06
        -0.38604E-06
        -0.32219E-05
        -0.13173E-04
        -0.96267E-05
        -0.93009E-06
        -0.37753E-05
        -0.84902E-06
        -0.35130E-05
        -0.97671E-07
        -0.20307E-05
        -0.21274E-04
        -0.11830E-04
        -0.13146E-04
        -0.97013E-05
        -0.30667E-05
        -0.10028E-05
        -0.47372E-06
        -0.14300E-05
        -0.51880E-04
        -0.47104E-04
        -0.45946E-04
        -0.26902E-05
        -0.91076E-06
        -0.40842E-06
        -0.11603E-04
        -0.14335E-06
        -0.14651E-05
        -0.24363E-05
        -0.57664E-05
        -0.23476E-05
        -0.21790E-05
        -0.17674E-05
        -0.43028E-04
        -0.12893E-04
        -0.16998E-04
        -0.16796E-04
        -0.53990E-06
        -0.40720E-05
        -0.52552E-04
        -0.55599E-04
        -0.52664E-04
        -0.27415E-04
        -0.16174E-04
        -0.55247E-05
        -0.64845E-05
        -0.91248E-05
        -0.13665E-06
        -0.21794E-06
        -0.23887E-04
        -0.18246E-04
        -0.74083E-03
        -0.75354E-03
        -0.60905E-03
        -0.41504E-03
        -0.22979E-03
        -0.48753E-04
        -0.30830E-05
        -0.32070E-04
        -0.54212E-04
        -0.18365E-03
        -0.58187E-03
        -0.81260E-03
        -0.57041E-03
        -0.51640E-03
        -0.62899E-03
        -0.66872E-03
        -0.55642E-03
        -0.49765E-03
        -0.12810E-03
        -0.87597E-05
        -0.41969E-04
        -0.43360E-04
        -0.13624E-03
        -0.40928E-03
        -0.67193E-03
        -0.66829E-03
        -0.25462E-05
        -0.11317E-06
        -0.38689E-06
        -0.32257E-05
        -0.13149E-04
        -0.96093E-05
        -0.94159E-06
        -0.37546E-05
        -0.85042E-06
        -0.35056E-05
        -0.92878E-07
        -0.20405E-05
        -0.21301E-04
        -0.11771E-04
        -0.13131E-04
        -0.97253E-05
        -0.30805E-05
        -0.99699E-06
        -0.47331E-06
        -0.14252E-05
        -0.51878E-04
        -0.47101E-04
        -0.45955E-04
        -0.26910E-05
        -0.91554E-06
        -0.41012E-06
        -0.11608E-04
        -0.13736E-06
        -0.14849E-05
        -0.24400E-05
        -0.57842E-05
        -0.23473E-05
        -0.21591E-05
        -0.17682E-05
        -0.43076E-04
        -0.12884E-04
        -0.16990E-04
        -0.16848E-04
        -0.54954E-06
        -0.40975E-05
        -0.52624E-04
        -0.55676E-04
        -0.52690E-04
        -0.27414E-04
        -0.16165E-04
        -0.55207E-05
        -0.64810E-05
        -0.91306E-05
        -0.13413E-06
        -0.21698E-06
        -0.23863E-04
        -0.18193E-04
        -0.74031E-03
        -0.75315E-03
        -0.60893E-03
        -0.41504E-03
        -0.22965E-03
        -0.48724E-04
        -0.30896E-05
        -0.32109E-04
        -0.54120E-04
        -0.18350E-03
        -0.58168E-03
        -0.81267E-03
        -0.57036E-03
        -0.51637E-03
        -0.62920E-03
        -0.66913E-03
        -0.55667E-03
        -0.49782E-03
        -0.12802E-03
        -0.87649E-05
        -0.41902E-04
        -0.43326E-04
        -0.13605E-03
        -0.40878E-03
        -0.67127E-03
        -0.66770E-03
        -0.25541E-05
        -0.11431E-06
        -0.38769E-06
        -0.32296E-05
        -0.13124E-04
        -0.95914E-05
        -0.95324E-06
        -0.37338E-05
        -0.85179E-06
        -0.34982E-05
        -0.88219E-07
        -0.20504E-05
        -0.21327E-04
        -0.11712E-04
        -0.13116E-04
        -0.97494E-05
        -0.30943E-05
        -0.99117E-06
        -0.47282E-06
        -0.14206E-05
        -0.51877E-04
        -0.47098E-04
        -0.45963E-04
        -0.26918E-05
        -0.92031E-06
        -0.41188E-06
        -0.11614E-04
        -0.13153E-06
        -0.15048E-05
        -0.24440E-05
        -0.58022E-05
        -0.23470E-05
        -0.21392E-05
        -0.17691E-05
        -0.43123E-04
        -0.12875E-04
        -0.16982E-04
        -0.16900E-04
        -0.55930E-06
        -0.41236E-05
        -0.52697E-04
        -0.55754E-04
        -0.52715E-04
        -0.27414E-04
        -0.16155E-04
        -0.55167E-05
        -0.64777E-05
        -0.91366E-05
        -0.13163E-06
        -0.21607E-06
        -0.23838E-04
        -0.18141E-04
        -0.73980E-03
        -0.75277E-03
        -0.60882E-03
        -0.41504E-03
        -0.22951E-03
        -0.48695E-04
        -0.30962E-05
        -0.32147E-04
        -0.54029E-04
        -0.18335E-03
        -0.58149E-03
        -0.81273E-03
        -0.57032E-03
        -0.51633E-03
        -0.62940E-03
        -0.66954E-03
        -0.55692E-03
        -0.49800E-03
        -0.12795E-03
        -0.87703E-05
        -0.41836E-04
        -0.43293E-04
        -0.13585E-03
        -0.40829E-03
        -0.67061E-03
        -0.66710E-03
        -0.25621E-05
        -0.11546E-06
        -0.38849E-06
        -0.32334E-05
        -0.13099E-04
        -0.95736E-05
        -0.96492E-06
        -0.37132E-05
        -0.85314E-06
        -0.34906E-05
        -0.83691E-07
        -0.20601E-05
        -0.21354E-04
        -0.11653E-04
        -0.13101E-04
        -0.97735E-05
        -0.31081E-05
        -0.98536E-06
        -0.47236E-06
        -0.14159E-05
        -0.51875E-04
        -0.47095E-04
        -0.45971E-04
        -0.26926E-05
        -0.92503E-06
        -0.41360E-06
        -0.11619E-04
        -0.12581E-06
        -0.15249E-05
        -0.24478E-05
        -0.58201E-05
        -0.23466E-05
        -0.21194E-05
        -0.17699E-05
        -0.43169E-04
        -0.12867E-04
        -0.16974E-04
        -0.16951E-04
        -0.56916E-06
        -0.41495E-05
        -0.52771E-04
        -0.55831E-04
        -0.52740E-04
        -0.27415E-04
        -0.16146E-04
        -0.55120E-05
        -0.64743E-05
        -0.91423E-05
        -0.12914E-06
        -0.21510E-06
        -0.23812E-04
        -0.18088E-04
        -0.73929E-03
        -0.75239E-03
        -0.60870E-03
        -0.41504E-03
        -0.22937E-03
        -0.48665E-04
        -0.31030E-05
        -0.32185E-04
        -0.53937E-04
        -0.18321E-03
        -0.58130E-03
        -0.81279E-03
        -0.57027E-03
        -0.51630E-03
        -0.62960E-03
        -0.66995E-03
        -0.55718E-03
        -0.49817E-03
        -0.12787E-03
        -0.87757E-05
        -0.41770E-04
        -0.43260E-04
        -0.13566E-03
        -0.40779E-03
        -0.66995E-03
        -0.66651E-03
        -0.25701E-05
        -0.11660E-06
        -0.38929E-06
        -0.32371E-05
        -0.13075E-04
        -0.95557E-05
        -0.97654E-06
        -0.36926E-05
        -0.85450E-06
        -0.34831E-05
        -0.79291E-07
        -0.20699E-05
        -0.21381E-04
        -0.11595E-04
        -0.13086E-04
        -0.97975E-05
        -0.31219E-05
        -0.97961E-06
        -0.47197E-06
        -0.14113E-05
        -0.51873E-04
        -0.47092E-04
        -0.45979E-04
        -0.26934E-05
        -0.92976E-06
        -0.41532E-06
        -0.11624E-04
        -0.12026E-06
        -0.15451E-05
        -0.24515E-05
        -0.58380E-05
        -0.23463E-05
        -0.20996E-05
        -0.17708E-05
        -0.43217E-04
        -0.12858E-04
        -0.16966E-04
        -0.17003E-04
        -0.57910E-06
        -0.41758E-05
        -0.52844E-04
        -0.55908E-04
        -0.52766E-04
        -0.27415E-04
        -0.16137E-04
        -0.55079E-05
        -0.64709E-05
        -0.91481E-05
        -0.12668E-06
        -0.21415E-06
        -0.23788E-04
        -0.18036E-04
        -0.73877E-03
        -0.75201E-03
        -0.60858E-03
        -0.41504E-03
        -0.22923E-03
        -0.48634E-04
        -0.31096E-05
        -0.32223E-04
        -0.53845E-04
        -0.18306E-03
        -0.58111E-03
        -0.81286E-03
        -0.57022E-03
        -0.51627E-03
        -0.62981E-03
        -0.67036E-03
        -0.55743E-03
        -0.49834E-03
        -0.12780E-03
        -0.87808E-05
        -0.41705E-04
        -0.43227E-04
        -0.13547E-03
        -0.40730E-03
        -0.66928E-03
        -0.66591E-03
        -0.25781E-05
        -0.11774E-06
        -0.39009E-06
        -0.32410E-05
        -0.13050E-04
        -0.95379E-05
        -0.98835E-06
        -0.36720E-05
        -0.85586E-06
        -0.34757E-05
        -0.75011E-07
        -0.20800E-05
        -0.21407E-04
        -0.11536E-04
        -0.13071E-04
        -0.98216E-05
        -0.31357E-05
        -0.97389E-06
        -0.47149E-06
        -0.14066E-05
        -0.51872E-04
        -0.47089E-04
        -0.45986E-04
        -0.26942E-05
        -0.93448E-06
        -0.41704E-06
        -0.11629E-04
        -0.11483E-06
        -0.15654E-05
        -0.24552E-05
        -0.58558E-05
        -0.23458E-05
        -0.20800E-05
        -0.17716E-05
        -0.43263E-04
        -0.12850E-04
        -0.16958E-04
        -0.17054E-04
        -0.58914E-06
        -0.42020E-05
        -0.52916E-04
        -0.55986E-04
        -0.52791E-04
        -0.27414E-04
        -0.16127E-04
        -0.55039E-05
        -0.64674E-05
        -0.91540E-05
        -0.12421E-06
        -0.21322E-06
        -0.23762E-04
        -0.17983E-04
        -0.73826E-03
        -0.75163E-03
        -0.60847E-03
        -0.41504E-03
        -0.22908E-03
        -0.48604E-04
        -0.31161E-05
        -0.32260E-04
        -0.53754E-04
        -0.18291E-03
        -0.58093E-03
        -0.81293E-03
        -0.57018E-03
        -0.51623E-03
        -0.63001E-03
        -0.67077E-03
        -0.55769E-03
        -0.49851E-03
        -0.12772E-03
        -0.87858E-05
        -0.41639E-04
        -0.43194E-04
        -0.13527E-03
        -0.40680E-03
        -0.66862E-03
        -0.66532E-03
        -0.25861E-05
        -0.11891E-06
        -0.39090E-06
        -0.32447E-05
        -0.13026E-04
        -0.95207E-05
        -0.10001E-05
        -0.36515E-05
        -0.85722E-06
        -0.34682E-05
        -0.70848E-07
        -0.20898E-05
        -0.21434E-04
        -0.11478E-04
        -0.13056E-04
        -0.98457E-05
        -0.31496E-05
        -0.96823E-06
        -0.47103E-06
        -0.14020E-05
        -0.51870E-04
        -0.47086E-04
        -0.45995E-04
        -0.26950E-05
        -0.93913E-06
        -0.41877E-06
        -0.11634E-04
        -0.10953E-06
        -0.15858E-05
        -0.24589E-05
        -0.58737E-05
        -0.23455E-05
        -0.20605E-05
        -0.17725E-05
        -0.43312E-04
        -0.12842E-04
        -0.16950E-04
        -0.17106E-04
        -0.59933E-06
        -0.42282E-05
        -0.52988E-04
        -0.56063E-04
        -0.52816E-04
        -0.27413E-04
        -0.16118E-04
        -0.54994E-05
        -0.64640E-05
        -0.91597E-05
        -0.12179E-06
        -0.21226E-06
        -0.23738E-04
        -0.17931E-04
        -0.73775E-03
        -0.75124E-03
        -0.60835E-03
        -0.41504E-03
        -0.22894E-03
        -0.48574E-04
        -0.31226E-05
        -0.32297E-04
        -0.53663E-04
        -0.18277E-03
        -0.58074E-03
        -0.81300E-03
        -0.57013E-03
        -0.51620E-03
        -0.63021E-03
        -0.67118E-03
        -0.55794E-03
        -0.49868E-03
        -0.12765E-03
        -0.87910E-05
        -0.41572E-04
        -0.43161E-04
        -0.13508E-03
        -0.40631E-03
        -0.66796E-03
        -0.66472E-03
        -0.25941E-05
        -0.12007E-06
        -0.39172E-06
        -0.32485E-05
        -0.13002E-04
        -0.95029E-05
        -0.10120E-05
        -0.36310E-05
        -0.85853E-06
        -0.34604E-05
        -0.66806E-07
        -0.20998E-05
        -0.21461E-04
        -0.11420E-04
        -0.13040E-04
        -0.98700E-05
        -0.31635E-05
        -0.96258E-06
        -0.47059E-06
        -0.13973E-05
        -0.51868E-04
        -0.47082E-04
        -0.46003E-04
        -0.26959E-05
        -0.94369E-06
        -0.42049E-06
        -0.11639E-04
        -0.10431E-06
        -0.16062E-05
        -0.24626E-05
        -0.58918E-05
        -0.23452E-05
        -0.20411E-05
        -0.17734E-05
        -0.43360E-04
        -0.12833E-04
        -0.16942E-04
        -0.17157E-04
        -0.60970E-06
        -0.42548E-05
        -0.53059E-04
        -0.56139E-04
        -0.52840E-04
        -0.27414E-04
        -0.16109E-04
        -0.54954E-05
        -0.64607E-05
        -0.91657E-05
        -0.11940E-06
        -0.21130E-06
        -0.23713E-04
        -0.17879E-04
        -0.73724E-03
        -0.75086E-03
        -0.60823E-03
        -0.41504E-03
        -0.22880E-03
        -0.48544E-04
        -0.31289E-05
        -0.32334E-04
        -0.53572E-04
        -0.18262E-03
        -0.58055E-03
        -0.81308E-03
        -0.57010E-03
        -0.51616E-03
        -0.63041E-03
        -0.67159E-03
        -0.55819E-03
        -0.49885E-03
        -0.12757E-03
        -0.87961E-05
        -0.41507E-04
        -0.43127E-04
        -0.13489E-03
        -0.40581E-03
        -0.66730E-03
        -0.66413E-03
        -0.26022E-05
        -0.12124E-06
        -0.39250E-06
        -0.32522E-05
        -0.12977E-04
        -0.94852E-05
        -0.10239E-05
        -0.36106E-05
        -0.85971E-06
        -0.34518E-05
        -0.62888E-07
        -0.21098E-05
        -0.21487E-04
        -0.11361E-04
        -0.13025E-04
        -0.98941E-05
        -0.31773E-05
        -0.95691E-06
        -0.47027E-06
        -0.13928E-05
        -0.51867E-04
        -0.47079E-04
        -0.46011E-04
        -0.26966E-05
        -0.94798E-06
        -0.42229E-06
        -0.11642E-04
        -0.99088E-07
        -0.16269E-05
        -0.24666E-05
        -0.59099E-05
        -0.23448E-05
        -0.20216E-05
        -0.17743E-05
        -0.43406E-04
        -0.12825E-04
        -0.16934E-04
        -0.17207E-04
        -0.62046E-06
        -0.42809E-05
        -0.53124E-04
        -0.56209E-04
        -0.52861E-04
        -0.27414E-04
        -0.16099E-04
        -0.54910E-05
        -0.64574E-05
        -0.91717E-05
        -0.11704E-06
        -0.21035E-06
        -0.23689E-04
        -0.17827E-04
        -0.73672E-03
        -0.75049E-03
        -0.60811E-03
        -0.41504E-03
        -0.22866E-03
        -0.48515E-04
        -0.31353E-05
        -0.32372E-04
        -0.53483E-04
        -0.18247E-03
        -0.58035E-03
        -0.81320E-03
        -0.57008E-03
        -0.51613E-03
        -0.63061E-03
        -0.67199E-03
        -0.55845E-03
        -0.49902E-03
        -0.12750E-03
        -0.88012E-05
        -0.41442E-04
        -0.43094E-04
        -0.13469E-03
        -0.40532E-03
        -0.66664E-03
        -0.66354E-03
        -0.26102E-05
        -0.12240E-06
        -0.39328E-06
        -0.32560E-05
        -0.12953E-04
        -0.94675E-05
        -0.10360E-05
        -0.35902E-05
        -0.86077E-06
        -0.34424E-05
        -0.59100E-07
        -0.21198E-05
        -0.21514E-04
        -0.11303E-04
        -0.13009E-04
        -0.99182E-05
        -0.31910E-05
        -0.95126E-06
        -0.46984E-06
        -0.13882E-05
        -0.51866E-04
        -0.47074E-04
        -0.46020E-04
        -0.26974E-05
        -0.95193E-06
        -0.42400E-06
        -0.11643E-04
        -0.93850E-07
        -0.16476E-05
        -0.24704E-05
        -0.59279E-05
        -0.23444E-05
        -0.20023E-05
        -0.17751E-05
        -0.43454E-04
        -0.12817E-04
        -0.16926E-04
        -0.17256E-04
        -0.63160E-06
        -0.43073E-05
        -0.53185E-04
        -0.56273E-04
        -0.52880E-04
        -0.27414E-04
        -0.16090E-04
        -0.54870E-05
        -0.64540E-05
        -0.91776E-05
        -0.11468E-06
        -0.20942E-06
        -0.23663E-04
        -0.17774E-04
        -0.73621E-03
        -0.75011E-03
        -0.60799E-03
        -0.41504E-03
        -0.22852E-03
        -0.48485E-04
        -0.31416E-05
        -0.32409E-04
        -0.53394E-04
        -0.18231E-03
        -0.58015E-03
        -0.81337E-03
        -0.57008E-03
        -0.51610E-03
        -0.63081E-03
        -0.67240E-03
        -0.55870E-03
        -0.49918E-03
        -0.12743E-03
        -0.88062E-05
        -0.41376E-04
        -0.43061E-04
        -0.13450E-03
        -0.40483E-03
        -0.66598E-03
        -0.66294E-03
        -0.26183E-05
        -0.12358E-06
        -0.39410E-06
        -0.32598E-05
        -0.12929E-04
        -0.94504E-05
        -0.10479E-05
        -0.35700E-05
        -0.86177E-06
        -0.34328E-05
        -0.55454E-07
        -0.21297E-05
        -0.21541E-04
        -0.11244E-04
        -0.12992E-04
        -0.99423E-05
        -0.32048E-05
        -0.94570E-06
        -0.46939E-06
        -0.13837E-05
        -0.51863E-04
        -0.47070E-04
        -0.46027E-04
        -0.26983E-05
        -0.95576E-06
        -0.42573E-06
        -0.11643E-04
        -0.88737E-07
        -0.16683E-05
        -0.24741E-05
        -0.59460E-05
        -0.23440E-05
        -0.19832E-05
        -0.17761E-05
        -0.43503E-04
        -0.12809E-04
        -0.16918E-04
        -0.17304E-04
        -0.64296E-06
        -0.43330E-05
        -0.53242E-04
        -0.56334E-04
        -0.52898E-04
        -0.27414E-04
        -0.16080E-04
        -0.54829E-05
        -0.64508E-05
        -0.91839E-05
        -0.11237E-06
        -0.20844E-06
        -0.23640E-04
        -0.17723E-04
        -0.73570E-03
        -0.74973E-03
        -0.60788E-03
        -0.41504E-03
        -0.22838E-03
        -0.48454E-04
        -0.31479E-05
        -0.32444E-04
        -0.53306E-04
        -0.18216E-03
        -0.57995E-03
        -0.81355E-03
        -0.57010E-03
        -0.51608E-03
        -0.63101E-03
        -0.67281E-03
        -0.55895E-03
        -0.49935E-03
        -0.12735E-03
        -0.88118E-05
        -0.41312E-04
        -0.43027E-04
        -0.13431E-03
        -0.40434E-03
        -0.66532E-03
        -0.66235E-03
        -0.26452E-05
        -0.12542E-06
        -0.39784E-06
        -0.32867E-05
        -0.12993E-04
        -0.94992E-05
        -0.10661E-05
        -0.35778E-05
        -0.86882E-06
        -0.34496E-05
        -0.52751E-07
        -0.21515E-05
        -0.21709E-04
        -0.11271E-04
        -0.13069E-04
        -0.10036E-04
        -0.32410E-05
        -0.94735E-06
        -0.47206E-06
        -0.13884E-05
        -0.52202E-04
        -0.47383E-04
        -0.46334E-04
        -0.27180E-05
        -0.96608E-06
        -0.43031E-06
        -0.11729E-04
        -0.84691E-07
        -0.16994E-05
        -0.24950E-05
        -0.60059E-05
        -0.23600E-05
        -0.19801E-05
        -0.17900E-05
        -0.43840E-04
        -0.12889E-04
        -0.17025E-04
        -0.17473E-04
        -0.65798E-06
        -0.43872E-05
        -0.53668E-04
        -0.56788E-04
        -0.53280E-04
        -0.27594E-04
        -0.16178E-04
        -0.55137E-05
        -0.64923E-05
        -0.92553E-05
        -0.11111E-06
        -0.20891E-06
        -0.23777E-04
        -0.17796E-04
        -0.73974E-03
        -0.75389E-03
        -0.61150E-03
        -0.41757E-03
        -0.22965E-03
        -0.48715E-04
        -0.31762E-05
        -0.32680E-04
        -0.53565E-04
        -0.18318E-03
        -0.58352E-03
        -0.81880E-03
        -0.57355E-03
        -0.51911E-03
        -0.63485E-03
        -0.67700E-03
        -0.56235E-03
        -0.50243E-03
        -0.12805E-03
        -0.88752E-05
        -0.41510E-04
        -0.43250E-04
        -0.13494E-03
        -0.40632E-03
        -0.66866E-03
        -0.66569E-03
        -0.58507E-05
        -0.28107E-06
        -0.87633E-06
        -0.72937E-05
        -0.26590E-04
        -0.19816E-04
        -0.23755E-05
        -0.78044E-05
        -0.19095E-05
        -0.74994E-05
        -0.10970E-06
        -0.42522E-05
        -0.44203E-04
        -0.23856E-04
        -0.26068E-04
        -0.22235E-04
        -0.71413E-05
        -0.20943E-05
        -0.10164E-05
        -0.30024E-05
        -0.10616E-03
        -0.98843E-04
        -0.94766E-04
        -0.59466E-05
        -0.21427E-05
        -0.95854E-06
        -0.25268E-04
        -0.18114E-06
        -0.38126E-05
        -0.55184E-05
        -0.13318E-04
        -0.51997E-05
        -0.43731E-05
        -0.39721E-05
        -0.86474E-04
        -0.26855E-04
        -0.35506E-04
        -0.36514E-04
        -0.14236E-05
        -0.95078E-05
        -0.11290E-03
        -0.12125E-03
        -0.11361E-03
        -0.57253E-04
        -0.33337E-04
        -0.10718E-04
        -0.13286E-04
        -0.19456E-04
        -0.23271E-06
        -0.43811E-06
        -0.47538E-04
        -0.36894E-04
        -0.11467E-02
        -0.11648E-02
        -0.94575E-03
        -0.64964E-03
        -0.35667E-03
        -0.76001E-04
        -0.50838E-05
        -0.53053E-04
        -0.86507E-04
        -0.29255E-03
        -0.93454E-03
        -0.13070E-02
        -0.93586E-03
        -0.85244E-03
        -0.10162E-02
        -0.10593E-02
        -0.87452E-03
        -0.77269E-03
        -0.19653E-03
        -0.13678E-04
        -0.65202E-04
        -0.68541E-04
        -0.21228E-03
        -0.64370E-03
        -0.10529E-02
        -0.10407E-02
  
SCALARS                      strain_yy  double 1
LOOKUP_TABLE default
        -0.14893E-06
        -0.15296E-07
        -0.10829E-06
        -0.31099E-07
        -0.55054E-20
        -0.41823E-21
        -0.84556E-20
        -0.49192E-20
        -0.14470E-05
        -0.64214E-06
        -0.18727E-19
        -0.14515E-19
        -0.99632E-06
        -0.25649E-08
        -0.95913E-20
        -0.39426E-22
        -0.14847E-06
        -0.16394E-05
        -0.20761E-23
        -0.21735E-21
        -0.40239E-06
        -0.52877E-05
        -0.64331E-05
        -0.50400E-19
        -0.15032E-18
        -0.10502E-18
        -0.51523E-07
        -0.48539E-05
        -0.26078E-19
        -0.98147E-19
        -0.19316E-06
        -0.13327E-06
        -0.11570E-06
        -0.70087E-20
        -0.73038E-20
        -0.31481E-23
        -0.16145E-05
        -0.13192E-05
        -0.23733E-19
        -0.14367E-19
        -0.14848E-05
        -0.54392E-06
        -0.13555E-19
        -0.11321E-19
        -0.13243E-05
        -0.16297E-06
        -0.14916E-22
        -0.35687E-20
        -0.87410E-06
        -0.79110E-21
        -0.11404E-07
        -0.51895E-23
        -0.26570E-08
        -0.11837E-19
        -0.11254E-06
        -0.40056E-20
        -0.11978E-05
        -0.42829E-07
        -0.29480E-23
        -0.12144E-22
        -0.28353E-06
        -0.36396E-05
        -0.54727E-21
        -0.76569E-20
        -0.10573E-06
        -0.22298E-20
        -0.18669E-05
        -0.33092E-20
        -0.10944E-05
        -0.30327E-06
        -0.50540E-22
        -0.88107E-20
        -0.36048E-05
        -0.42484E-19
        -0.74907E-05
        -0.39829E-19
        -0.74657E-05
        -0.22951E-19
        -0.51214E-05
        -0.16124E-19
        -0.11686E-04
        -0.73018E-05
        -0.66354E-20
        -0.32618E-21
        -0.15995E-06
        -0.40839E-23
        -0.32283E-05
        -0.16026E-19
        -0.17257E-04
        -0.49115E-19
        -0.32478E-04
        -0.12222E-04
        -0.10805E-18
        -0.70785E-19
        -0.62008E-05
        -0.42654E-19
        -0.50821E-05
        -0.44644E-19
        -0.47358E-05
        -0.51612E-19
        -0.13040E-04
        -0.91538E-05
        -0.44634E-19
        -0.10247E-19
        -0.53525E-05
        -0.80231E-06
        -0.55184E-20
        -0.85218E-20
        -0.32077E-04
        -0.61074E-19
        -0.69263E-04
        -0.13068E-18
        -0.98616E-04
        -0.19931E-18
        -0.12038E-03
        -0.19611E-18
        -0.14739E-03
        -0.12281E-18
        -0.14235E-03
        -0.73551E-19
        -0.12518E-03
        -0.63627E-19
        -0.99366E-04
        -0.57596E-19
        -0.57566E-04
        -0.23523E-19
        -0.30493E-04
        -0.25641E-20
        -0.89231E-05
        -0.10706E-20
        -0.50139E-07
        -0.24187E-20
        -0.95360E-05
        -0.64521E-21
        -0.32250E-04
        -0.59009E-20
        -0.77108E-04
        -0.47014E-19
        -0.86283E-04
        -0.11464E-18
        -0.94200E-04
        -0.19703E-18
        -0.14887E-03
        -0.19668E-18
        -0.16801E-03
        -0.14989E-18
        -0.14721E-03
        -0.14237E-18
        -0.93212E-04
        -0.14414E-18
        -0.43106E-04
        -0.90136E-19
        -0.22352E-04
        -0.31519E-19
        -0.12056E-04
        -0.18844E-19
        -0.11598E-04
        -0.31847E-05
        -0.24186E-05
        -0.22544E-06
        -0.26089E-05
        -0.28628E-05
        -0.33006E-07
        -0.76518E-05
        -0.53960E-05
        -0.11935E-04
        -0.34356E-05
        -0.62923E-04
        -0.28916E-04
        -0.38842E-06
        -0.63800E-04
        -0.80584E-06
        -0.63657E-06
        -0.25917E-06
        -0.46398E-06
        -0.26282E-06
        -0.22441E-06
        -0.15135E-06
        -0.17342E-05
        -0.12269E-07
        -0.55572E-05
        -0.12158E-06
        -0.33407E-09
        -0.10190E-06
        -0.15270E-06
        -0.34637E-05
        -0.77019E-06
        -0.93591E-06
        -0.40742E-06
        -0.24688E-07
        -0.72100E-07
        -0.20738E-05
        -0.10323E-04
        -0.48831E-04
        -0.40827E-04
        -0.29710E-04
        -0.26705E-04
        -0.15935E-05
        -0.10311E-05
        -0.77929E-05
        -0.21649E-04
        -0.59476E-04
        -0.24975E-04
        -0.12491E-04
        -0.14247E-04
        -0.16432E-04
        -0.23097E-04
        -0.46863E-05
        -0.18143E-04
        -0.25631E-04
        -0.18881E-03
        -0.35854E-03
        -0.58380E-03
        -0.83432E-03
        -0.85391E-03
        -0.70200E-03
        -0.63434E-03
        -0.56754E-03
        -0.23805E-03
        -0.44410E-04
        -0.84785E-05
        -0.16389E-05
        -0.38123E-05
        -0.59204E-04
        -0.20011E-03
        -0.34480E-03
        -0.52331E-03
        -0.68262E-03
        -0.59802E-03
        -0.53426E-03
        -0.46345E-03
        -0.22675E-03
        -0.76056E-04
        -0.58261E-04
        -0.21336E-04
        -0.84873E-05
        -0.72677E-05
        -0.40888E-06
        -0.12260E-04
        -0.24800E-05
        -0.15594E-05
        -0.19059E-04
        -0.81959E-05
        -0.16859E-04
        -0.47125E-05
        -0.88273E-04
        -0.30981E-04
        -0.63977E-06
        -0.85686E-04
        -0.30685E-05
        -0.28180E-06
        -0.25685E-06
        -0.52181E-05
        -0.19505E-06
        -0.38768E-05
        -0.19542E-05
        -0.65682E-06
        -0.46791E-06
        -0.76450E-05
        -0.46772E-06
        -0.29452E-07
        -0.10178E-06
        -0.25969E-06
        -0.76073E-05
        -0.35639E-05
        -0.24729E-06
        -0.14889E-05
        -0.11225E-05
        -0.25521E-06
        -0.23714E-05
        -0.86449E-05
        -0.49491E-04
        -0.38486E-04
        -0.29890E-04
        -0.16132E-04
        -0.98498E-06
        -0.41789E-05
        -0.65202E-05
        -0.10811E-04
        -0.45115E-04
        -0.15275E-04
        -0.66797E-05
        -0.10551E-04
        -0.14705E-04
        -0.15788E-04
        -0.88878E-07
        -0.24549E-04
        -0.50230E-04
        -0.27204E-03
        -0.45432E-03
        -0.75685E-03
        -0.10900E-02
        -0.10457E-02
        -0.79737E-03
        -0.73229E-03
        -0.71690E-03
        -0.28269E-03
        -0.30708E-04
        -0.48748E-05
        -0.35791E-05
        -0.76779E-06
        -0.55256E-04
        -0.22177E-03
        -0.42961E-03
        -0.72764E-03
        -0.89471E-03
        -0.68985E-03
        -0.61658E-03
        -0.61292E-03
        -0.30386E-03
        -0.82001E-04
        -0.73518E-04
        -0.21362E-04
        -0.84903E-05
        -0.72750E-05
        -0.41490E-06
        -0.12263E-04
        -0.24839E-05
        -0.15633E-05
        -0.19123E-04
        -0.82254E-05
        -0.16985E-04
        -0.47181E-05
        -0.88257E-04
        -0.30996E-04
        -0.63980E-06
        -0.85906E-04
        -0.30688E-05
        -0.28695E-06
        -0.25608E-06
        -0.52252E-05
        -0.19288E-06
        -0.38960E-05
        -0.19580E-05
        -0.65713E-06
        -0.46747E-06
        -0.77145E-05
        -0.46602E-06
        -0.30150E-07
        -0.10292E-06
        -0.25627E-06
        -0.76396E-05
        -0.35652E-05
        -0.24622E-06
        -0.14955E-05
        -0.11262E-05
        -0.25044E-06
        -0.23745E-05
        -0.86441E-05
        -0.49643E-04
        -0.38652E-04
        -0.29959E-04
        -0.16157E-04
        -0.97969E-06
        -0.41875E-05
        -0.65269E-05
        -0.10812E-04
        -0.45115E-04
        -0.15278E-04
        -0.66717E-05
        -0.10523E-04
        -0.14665E-04
        -0.15774E-04
        -0.86206E-07
        -0.24503E-04
        -0.50236E-04
        -0.27214E-03
        -0.45433E-03
        -0.75667E-03
        -0.10892E-02
        -0.10448E-02
        -0.79689E-03
        -0.73198E-03
        -0.71650E-03
        -0.28257E-03
        -0.30737E-04
        -0.48741E-05
        -0.35938E-05
        -0.75533E-06
        -0.55314E-04
        -0.22197E-03
        -0.42981E-03
        -0.72761E-03
        -0.89460E-03
        -0.68976E-03
        -0.61653E-03
        -0.61261E-03
        -0.30343E-03
        -0.81821E-04
        -0.73325E-04
        -0.21389E-04
        -0.84936E-05
        -0.72823E-05
        -0.42103E-06
        -0.12266E-04
        -0.24879E-05
        -0.15672E-05
        -0.19188E-04
        -0.82551E-05
        -0.17111E-04
        -0.47237E-05
        -0.88242E-04
        -0.31012E-04
        -0.63967E-06
        -0.86123E-04
        -0.30692E-05
        -0.29220E-06
        -0.25531E-06
        -0.52325E-05
        -0.19068E-06
        -0.39154E-05
        -0.19616E-05
        -0.65764E-06
        -0.46689E-06
        -0.77834E-05
        -0.46408E-06
        -0.30905E-07
        -0.10414E-06
        -0.25257E-06
        -0.76707E-05
        -0.35663E-05
        -0.24491E-06
        -0.15022E-05
        -0.11298E-05
        -0.24569E-06
        -0.23778E-05
        -0.86429E-05
        -0.49797E-04
        -0.38819E-04
        -0.30029E-04
        -0.16183E-04
        -0.97386E-06
        -0.41956E-05
        -0.65353E-05
        -0.10815E-04
        -0.45118E-04
        -0.15281E-04
        -0.66634E-05
        -0.10495E-04
        -0.14626E-04
        -0.15761E-04
        -0.83587E-07
        -0.24457E-04
        -0.50242E-04
        -0.27224E-03
        -0.45434E-03
        -0.75649E-03
        -0.10885E-02
        -0.10439E-02
        -0.79641E-03
        -0.73168E-03
        -0.71611E-03
        -0.28246E-03
        -0.30768E-04
        -0.48735E-05
        -0.36086E-05
        -0.74291E-06
        -0.55375E-04
        -0.22218E-03
        -0.43001E-03
        -0.72758E-03
        -0.89448E-03
        -0.68966E-03
        -0.61648E-03
        -0.61230E-03
        -0.30299E-03
        -0.81641E-04
        -0.73132E-04
        -0.21416E-04
        -0.84967E-05
        -0.72897E-05
        -0.42724E-06
        -0.12269E-04
        -0.24920E-05
        -0.15714E-05
        -0.19252E-04
        -0.82849E-05
        -0.17236E-04
        -0.47293E-05
        -0.88227E-04
        -0.31029E-04
        -0.63970E-06
        -0.86343E-04
        -0.30697E-05
        -0.29759E-06
        -0.25451E-06
        -0.52402E-05
        -0.18837E-06
        -0.39353E-05
        -0.19650E-05
        -0.65877E-06
        -0.46597E-06
        -0.78503E-05
        -0.46155E-06
        -0.31695E-07
        -0.10577E-06
        -0.24802E-06
        -0.76990E-05
        -0.35668E-05
        -0.24315E-06
        -0.15088E-05
        -0.11335E-05
        -0.24101E-06
        -0.23809E-05
        -0.86418E-05
        -0.49951E-04
        -0.38990E-04
        -0.30104E-04
        -0.16213E-04
        -0.96647E-06
        -0.42022E-05
        -0.65482E-05
        -0.10821E-04
        -0.45122E-04
        -0.15286E-04
        -0.66553E-05
        -0.10467E-04
        -0.14587E-04
        -0.15747E-04
        -0.81013E-07
        -0.24411E-04
        -0.50248E-04
        -0.27234E-03
        -0.45434E-03
        -0.75630E-03
        -0.10877E-02
        -0.10431E-02
        -0.79593E-03
        -0.73137E-03
        -0.71571E-03
        -0.28235E-03
        -0.30804E-04
        -0.48737E-05
        -0.36231E-05
        -0.73050E-06
        -0.55440E-04
        -0.22242E-03
        -0.43025E-03
        -0.72757E-03
        -0.89437E-03
        -0.68956E-03
        -0.61643E-03
        -0.61199E-03
        -0.30256E-03
        -0.81463E-04
        -0.72939E-04
        -0.21443E-04
        -0.84998E-05
        -0.72970E-05
        -0.43345E-06
        -0.12272E-04
        -0.24959E-05
        -0.15752E-05
        -0.19315E-04
        -0.83147E-05
        -0.17360E-04
        -0.47351E-05
        -0.88212E-04
        -0.31044E-04
        -0.63977E-06
        -0.86564E-04
        -0.30703E-05
        -0.30312E-06
        -0.25371E-06
        -0.52482E-05
        -0.18595E-06
        -0.39556E-05
        -0.19679E-05
        -0.66050E-06
        -0.46467E-06
        -0.79150E-05
        -0.45836E-06
        -0.32586E-07
        -0.10777E-06
        -0.24260E-06
        -0.77243E-05
        -0.35669E-05
        -0.24086E-06
        -0.15154E-05
        -0.11372E-05
        -0.23633E-06
        -0.23840E-05
        -0.86410E-05
        -0.50106E-04
        -0.39163E-04
        -0.30183E-04
        -0.16247E-04
        -0.95744E-06
        -0.42073E-05
        -0.65657E-05
        -0.10832E-04
        -0.45133E-04
        -0.15293E-04
        -0.66481E-05
        -0.10440E-04
        -0.14547E-04
        -0.15734E-04
        -0.78464E-07
        -0.24365E-04
        -0.50253E-04
        -0.27244E-03
        -0.45435E-03
        -0.75612E-03
        -0.10870E-02
        -0.10422E-02
        -0.79545E-03
        -0.73107E-03
        -0.71532E-03
        -0.28226E-03
        -0.30847E-04
        -0.48746E-05
        -0.36374E-05
        -0.71816E-06
        -0.55511E-04
        -0.22270E-03
        -0.43051E-03
        -0.72755E-03
        -0.89426E-03
        -0.68947E-03
        -0.61638E-03
        -0.61168E-03
        -0.30213E-03
        -0.81284E-04
        -0.72747E-04
        -0.21468E-04
        -0.85018E-05
        -0.73042E-05
        -0.43979E-06
        -0.12274E-04
        -0.24999E-05
        -0.15787E-05
        -0.19377E-04
        -0.83449E-05
        -0.17481E-04
        -0.47415E-05
        -0.88199E-04
        -0.31061E-04
        -0.64000E-06
        -0.86783E-04
        -0.30711E-05
        -0.30881E-06
        -0.25294E-06
        -0.52562E-05
        -0.18349E-06
        -0.39759E-05
        -0.19707E-05
        -0.66251E-06
        -0.46324E-06
        -0.79784E-05
        -0.45499E-06
        -0.33558E-07
        -0.11002E-06
        -0.23688E-06
        -0.77483E-05
        -0.35665E-05
        -0.23833E-06
        -0.15221E-05
        -0.11410E-05
        -0.23167E-06
        -0.23875E-05
        -0.86409E-05
        -0.50263E-04
        -0.39340E-04
        -0.30266E-04
        -0.16283E-04
        -0.94793E-06
        -0.42117E-05
        -0.65847E-05
        -0.10845E-04
        -0.45148E-04
        -0.15301E-04
        -0.66422E-05
        -0.10414E-04
        -0.14508E-04
        -0.15720E-04
        -0.75958E-07
        -0.24320E-04
        -0.50259E-04
        -0.27254E-03
        -0.45436E-03
        -0.75594E-03
        -0.10863E-02
        -0.10413E-02
        -0.79497E-03
        -0.73076E-03
        -0.71492E-03
        -0.28217E-03
        -0.30892E-04
        -0.48760E-05
        -0.36518E-05
        -0.70594E-06
        -0.55583E-04
        -0.22298E-03
        -0.43078E-03
        -0.72753E-03
        -0.89415E-03
        -0.68938E-03
        -0.61633E-03
        -0.61137E-03
        -0.30170E-03
        -0.81105E-04
        -0.72555E-04
        -0.21491E-04
        -0.85013E-05
        -0.73113E-05
        -0.44633E-06
        -0.12278E-04
        -0.25040E-05
        -0.15814E-05
        -0.19432E-04
        -0.83756E-05
        -0.17597E-04
        -0.47493E-05
        -0.88190E-04
        -0.31081E-04
        -0.64098E-06
        -0.87007E-04
        -0.30721E-05
        -0.31470E-06
        -0.25215E-06
        -0.52644E-05
        -0.18105E-06
        -0.39964E-05
        -0.19736E-05
        -0.66453E-06
        -0.46184E-06
        -0.80406E-05
        -0.45160E-06
        -0.34722E-07
        -0.11243E-06
        -0.23112E-06
        -0.77718E-05
        -0.35658E-05
        -0.23563E-06
        -0.15291E-05
        -0.11451E-05
        -0.22705E-06
        -0.23911E-05
        -0.86413E-05
        -0.50423E-04
        -0.39519E-04
        -0.30348E-04
        -0.16320E-04
        -0.93825E-06
        -0.42158E-05
        -0.66038E-05
        -0.10859E-04
        -0.45166E-04
        -0.15313E-04
        -0.66400E-05
        -0.10392E-04
        -0.14471E-04
        -0.15707E-04
        -0.73462E-07
        -0.24274E-04
        -0.50264E-04
        -0.27264E-03
        -0.45437E-03
        -0.75575E-03
        -0.10855E-02
        -0.10404E-02
        -0.79448E-03
        -0.73046E-03
        -0.71451E-03
        -0.28208E-03
        -0.30938E-04
        -0.48773E-05
        -0.36662E-05
        -0.69381E-06
        -0.55656E-04
        -0.22327E-03
        -0.43104E-03
        -0.72749E-03
        -0.89403E-03
        -0.68931E-03
        -0.61630E-03
        -0.61105E-03
        -0.30127E-03
        -0.80928E-04
        -0.72362E-04
        -0.21513E-04
        -0.85003E-05
        -0.73183E-05
        -0.45302E-06
        -0.12281E-04
        -0.25080E-05
        -0.15836E-05
        -0.19485E-04
        -0.84068E-05
        -0.17710E-04
        -0.47578E-05
        -0.88181E-04
        -0.31102E-04
        -0.64213E-06
        -0.87229E-04
        -0.30733E-05
        -0.32072E-06
        -0.25135E-06
        -0.52725E-05
        -0.17862E-06
        -0.40169E-05
        -0.19765E-05
        -0.66651E-06
        -0.46049E-06
        -0.81024E-05
        -0.44824E-06
        -0.35953E-07
        -0.11493E-06
        -0.22540E-06
        -0.77950E-05
        -0.35651E-05
        -0.23283E-06
        -0.15363E-05
        -0.11493E-05
        -0.22243E-06
        -0.23951E-05
        -0.86427E-05
        -0.50584E-04
        -0.39698E-04
        -0.30432E-04
        -0.16356E-04
        -0.92863E-06
        -0.42199E-05
        -0.66231E-05
        -0.10874E-04
        -0.45187E-04
        -0.15327E-04
        -0.66390E-05
        -0.10372E-04
        -0.14435E-04
        -0.15694E-04
        -0.71009E-07
        -0.24228E-04
        -0.50270E-04
        -0.27273E-03
        -0.45437E-03
        -0.75557E-03
        -0.10848E-02
        -0.10395E-02
        -0.79400E-03
        -0.73016E-03
        -0.71410E-03
        -0.28199E-03
        -0.30983E-04
        -0.48787E-05
        -0.36809E-05
        -0.68176E-06
        -0.55728E-04
        -0.22355E-03
        -0.43130E-03
        -0.72745E-03
        -0.89391E-03
        -0.68924E-03
        -0.61628E-03
        -0.61073E-03
        -0.30083E-03
        -0.80750E-04
        -0.72170E-04
        -0.21535E-04
        -0.84992E-05
        -0.73253E-05
        -0.45975E-06
        -0.12284E-04
        -0.25120E-05
        -0.15857E-05
        -0.19538E-04
        -0.84380E-05
        -0.17824E-04
        -0.47659E-05
        -0.88172E-04
        -0.31122E-04
        -0.64345E-06
        -0.87456E-04
        -0.30745E-05
        -0.32683E-06
        -0.25055E-06
        -0.52806E-05
        -0.17619E-06
        -0.40375E-05
        -0.19795E-05
        -0.66850E-06
        -0.45914E-06
        -0.81643E-05
        -0.44491E-06
        -0.37237E-07
        -0.11742E-06
        -0.21978E-06
        -0.78183E-05
        -0.35643E-05
        -0.23008E-06
        -0.15434E-05
        -0.11534E-05
        -0.21784E-06
        -0.23987E-05
        -0.86437E-05
        -0.50747E-04
        -0.39879E-04
        -0.30514E-04
        -0.16393E-04
        -0.91910E-06
        -0.42240E-05
        -0.66426E-05
        -0.10889E-04
        -0.45207E-04
        -0.15341E-04
        -0.66382E-05
        -0.10353E-04
        -0.14399E-04
        -0.15682E-04
        -0.68586E-07
        -0.24182E-04
        -0.50275E-04
        -0.27283E-03
        -0.45438E-03
        -0.75539E-03
        -0.10840E-02
        -0.10386E-02
        -0.79352E-03
        -0.72985E-03
        -0.71369E-03
        -0.28190E-03
        -0.31029E-04
        -0.48803E-05
        -0.36958E-05
        -0.66986E-06
        -0.55800E-04
        -0.22383E-03
        -0.43156E-03
        -0.72741E-03
        -0.89379E-03
        -0.68918E-03
        -0.61625E-03
        -0.61040E-03
        -0.30040E-03
        -0.80573E-04
        -0.71979E-04
        -0.21557E-04
        -0.84978E-05
        -0.73322E-05
        -0.46650E-06
        -0.12287E-04
        -0.25159E-05
        -0.15879E-05
        -0.19590E-04
        -0.84693E-05
        -0.17938E-04
        -0.47745E-05
        -0.88163E-04
        -0.31144E-04
        -0.64458E-06
        -0.87680E-04
        -0.30756E-05
        -0.33303E-06
        -0.24975E-06
        -0.52886E-05
        -0.17377E-06
        -0.40580E-05
        -0.19824E-05
        -0.67040E-06
        -0.45780E-06
        -0.82263E-05
        -0.44160E-06
        -0.38507E-07
        -0.11992E-06
        -0.21424E-06
        -0.78416E-05
        -0.35634E-05
        -0.22733E-06
        -0.15505E-05
        -0.11576E-05
        -0.21330E-06
        -0.24027E-05
        -0.86450E-05
        -0.50909E-04
        -0.40059E-04
        -0.30598E-04
        -0.16430E-04
        -0.90965E-06
        -0.42282E-05
        -0.66618E-05
        -0.10904E-04
        -0.45228E-04
        -0.15355E-04
        -0.66378E-05
        -0.10333E-04
        -0.14363E-04
        -0.15669E-04
        -0.66215E-07
        -0.24136E-04
        -0.50280E-04
        -0.27292E-03
        -0.45438E-03
        -0.75521E-03
        -0.10833E-02
        -0.10377E-02
        -0.79303E-03
        -0.72955E-03
        -0.71329E-03
        -0.28180E-03
        -0.31073E-04
        -0.48819E-05
        -0.37107E-05
        -0.65808E-06
        -0.55873E-04
        -0.22412E-03
        -0.43182E-03
        -0.72737E-03
        -0.89368E-03
        -0.68911E-03
        -0.61623E-03
        -0.61008E-03
        -0.29997E-03
        -0.80397E-04
        -0.71788E-04
        -0.21578E-04
        -0.84963E-05
        -0.73392E-05
        -0.47329E-06
        -0.12290E-04
        -0.25199E-05
        -0.15902E-05
        -0.19643E-04
        -0.85008E-05
        -0.18052E-04
        -0.47830E-05
        -0.88154E-04
        -0.31165E-04
        -0.64583E-06
        -0.87906E-04
        -0.30768E-05
        -0.33929E-06
        -0.24895E-06
        -0.52967E-05
        -0.17135E-06
        -0.40787E-05
        -0.19852E-05
        -0.67241E-06
        -0.45649E-06
        -0.82884E-05
        -0.43831E-06
        -0.39822E-07
        -0.12241E-06
        -0.20878E-06
        -0.78650E-05
        -0.35627E-05
        -0.22461E-06
        -0.15576E-05
        -0.11618E-05
        -0.20879E-06
        -0.24065E-05
        -0.86464E-05
        -0.51072E-04
        -0.40241E-04
        -0.30680E-04
        -0.16467E-04
        -0.90024E-06
        -0.42323E-05
        -0.66809E-05
        -0.10919E-04
        -0.45248E-04
        -0.15369E-04
        -0.66369E-05
        -0.10313E-04
        -0.14327E-04
        -0.15657E-04
        -0.63879E-07
        -0.24090E-04
        -0.50285E-04
        -0.27301E-03
        -0.45439E-03
        -0.75502E-03
        -0.10825E-02
        -0.10368E-02
        -0.79255E-03
        -0.72925E-03
        -0.71288E-03
        -0.28171E-03
        -0.31118E-04
        -0.48834E-05
        -0.37254E-05
        -0.64637E-06
        -0.55946E-04
        -0.22440E-03
        -0.43207E-03
        -0.72733E-03
        -0.89356E-03
        -0.68904E-03
        -0.61620E-03
        -0.60975E-03
        -0.29954E-03
        -0.80222E-04
        -0.71596E-04
        -0.21600E-04
        -0.84951E-05
        -0.73462E-05
        -0.48019E-06
        -0.12293E-04
        -0.25239E-05
        -0.15923E-05
        -0.19695E-04
        -0.85324E-05
        -0.18166E-04
        -0.47915E-05
        -0.88145E-04
        -0.31185E-04
        -0.64708E-06
        -0.88130E-04
        -0.30781E-05
        -0.34562E-06
        -0.24814E-06
        -0.53048E-05
        -0.16896E-06
        -0.40994E-05
        -0.19880E-05
        -0.67440E-06
        -0.45519E-06
        -0.83507E-05
        -0.43505E-06
        -0.41129E-07
        -0.12491E-06
        -0.20339E-06
        -0.78882E-05
        -0.35618E-05
        -0.22190E-06
        -0.15647E-05
        -0.11661E-05
        -0.20430E-06
        -0.24103E-05
        -0.86473E-05
        -0.51236E-04
        -0.40423E-04
        -0.30763E-04
        -0.16503E-04
        -0.89098E-06
        -0.42364E-05
        -0.67002E-05
        -0.10934E-04
        -0.45269E-04
        -0.15383E-04
        -0.66365E-05
        -0.10293E-04
        -0.14291E-04
        -0.15644E-04
        -0.61588E-07
        -0.24044E-04
        -0.50290E-04
        -0.27310E-03
        -0.45440E-03
        -0.75484E-03
        -0.10818E-02
        -0.10359E-02
        -0.79206E-03
        -0.72896E-03
        -0.71246E-03
        -0.28162E-03
        -0.31164E-04
        -0.48849E-05
        -0.37402E-05
        -0.63471E-06
        -0.56018E-04
        -0.22469E-03
        -0.43233E-03
        -0.72729E-03
        -0.89344E-03
        -0.68898E-03
        -0.61617E-03
        -0.60943E-03
        -0.29911E-03
        -0.80048E-04
        -0.71406E-04
        -0.21622E-04
        -0.84938E-05
        -0.73533E-05
        -0.48716E-06
        -0.12296E-04
        -0.25279E-05
        -0.15945E-05
        -0.19748E-04
        -0.85640E-05
        -0.18280E-04
        -0.48001E-05
        -0.88136E-04
        -0.31207E-04
        -0.64817E-06
        -0.88358E-04
        -0.30792E-05
        -0.35201E-06
        -0.24732E-06
        -0.53128E-05
        -0.16660E-06
        -0.41202E-05
        -0.19908E-05
        -0.67636E-06
        -0.45389E-06
        -0.84131E-05
        -0.43177E-06
        -0.42496E-07
        -0.12741E-06
        -0.19808E-06
        -0.79114E-05
        -0.35610E-05
        -0.21918E-06
        -0.15718E-05
        -0.11703E-05
        -0.19986E-06
        -0.24143E-05
        -0.86486E-05
        -0.51399E-04
        -0.40606E-04
        -0.30846E-04
        -0.16540E-04
        -0.88167E-06
        -0.42405E-05
        -0.67197E-05
        -0.10949E-04
        -0.45288E-04
        -0.15397E-04
        -0.66358E-05
        -0.10274E-04
        -0.14255E-04
        -0.15631E-04
        -0.59344E-07
        -0.23998E-04
        -0.50294E-04
        -0.27320E-03
        -0.45441E-03
        -0.75466E-03
        -0.10811E-02
        -0.10350E-02
        -0.79158E-03
        -0.72865E-03
        -0.71204E-03
        -0.28152E-03
        -0.31209E-04
        -0.48864E-05
        -0.37551E-05
        -0.62320E-06
        -0.56091E-04
        -0.22497E-03
        -0.43259E-03
        -0.72725E-03
        -0.89333E-03
        -0.68892E-03
        -0.61614E-03
        -0.60910E-03
        -0.29868E-03
        -0.79874E-04
        -0.71216E-04
        -0.21643E-04
        -0.84926E-05
        -0.73603E-05
        -0.49418E-06
        -0.12300E-04
        -0.25319E-05
        -0.15969E-05
        -0.19800E-04
        -0.85957E-05
        -0.18395E-04
        -0.48087E-05
        -0.88128E-04
        -0.31227E-04
        -0.64941E-06
        -0.88583E-04
        -0.30804E-05
        -0.35849E-06
        -0.24652E-06
        -0.53209E-05
        -0.16426E-06
        -0.41410E-05
        -0.19936E-05
        -0.67835E-06
        -0.45260E-06
        -0.84758E-05
        -0.42850E-06
        -0.43848E-07
        -0.12990E-06
        -0.19286E-06
        -0.79347E-05
        -0.35601E-05
        -0.21650E-06
        -0.15789E-05
        -0.11746E-05
        -0.19545E-06
        -0.24181E-05
        -0.86494E-05
        -0.51565E-04
        -0.40789E-04
        -0.30928E-04
        -0.16577E-04
        -0.87241E-06
        -0.42445E-05
        -0.67389E-05
        -0.10964E-04
        -0.45309E-04
        -0.15412E-04
        -0.66350E-05
        -0.10254E-04
        -0.14219E-04
        -0.15619E-04
        -0.57156E-07
        -0.23952E-04
        -0.50299E-04
        -0.27329E-03
        -0.45441E-03
        -0.75448E-03
        -0.10803E-02
        -0.10341E-02
        -0.79109E-03
        -0.72835E-03
        -0.71162E-03
        -0.28143E-03
        -0.31254E-04
        -0.48879E-05
        -0.37700E-05
        -0.61184E-06
        -0.56163E-04
        -0.22526E-03
        -0.43285E-03
        -0.72721E-03
        -0.89321E-03
        -0.68885E-03
        -0.61611E-03
        -0.60878E-03
        -0.29825E-03
        -0.79701E-04
        -0.71025E-04
        -0.21665E-04
        -0.84914E-05
        -0.73672E-05
        -0.50122E-06
        -0.12303E-04
        -0.25359E-05
        -0.15991E-05
        -0.19853E-04
        -0.86276E-05
        -0.18509E-04
        -0.48173E-05
        -0.88119E-04
        -0.31248E-04
        -0.65047E-06
        -0.88811E-04
        -0.30816E-05
        -0.36506E-06
        -0.24572E-06
        -0.53289E-05
        -0.16191E-06
        -0.41619E-05
        -0.19964E-05
        -0.68029E-06
        -0.45134E-06
        -0.85387E-05
        -0.42525E-06
        -0.45246E-07
        -0.13237E-06
        -0.18774E-06
        -0.79580E-05
        -0.35592E-05
        -0.21382E-06
        -0.15861E-05
        -0.11788E-05
        -0.19110E-06
        -0.24221E-05
        -0.86506E-05
        -0.51731E-04
        -0.40972E-04
        -0.31010E-04
        -0.16614E-04
        -0.86323E-06
        -0.42487E-05
        -0.67582E-05
        -0.10979E-04
        -0.45330E-04
        -0.15425E-04
        -0.66347E-05
        -0.10235E-04
        -0.14183E-04
        -0.15606E-04
        -0.54994E-07
        -0.23906E-04
        -0.50303E-04
        -0.27338E-03
        -0.45442E-03
        -0.75430E-03
        -0.10796E-02
        -0.10332E-02
        -0.79060E-03
        -0.72805E-03
        -0.71120E-03
        -0.28134E-03
        -0.31299E-04
        -0.48893E-05
        -0.37850E-05
        -0.60055E-06
        -0.56235E-04
        -0.22554E-03
        -0.43311E-03
        -0.72718E-03
        -0.89309E-03
        -0.68879E-03
        -0.61608E-03
        -0.60845E-03
        -0.29782E-03
        -0.79529E-04
        -0.70835E-04
        -0.21686E-04
        -0.84898E-05
        -0.73742E-05
        -0.50830E-06
        -0.12306E-04
        -0.25399E-05
        -0.16013E-05
        -0.19905E-04
        -0.86597E-05
        -0.18624E-04
        -0.48259E-05
        -0.88111E-04
        -0.31269E-04
        -0.65168E-06
        -0.89036E-04
        -0.30827E-05
        -0.37172E-06
        -0.24491E-06
        -0.53370E-05
        -0.15959E-06
        -0.41828E-05
        -0.19991E-05
        -0.68226E-06
        -0.45010E-06
        -0.86018E-05
        -0.42201E-06
        -0.46627E-07
        -0.13484E-06
        -0.18270E-06
        -0.79814E-05
        -0.35584E-05
        -0.21118E-06
        -0.15932E-05
        -0.11832E-05
        -0.18675E-06
        -0.24259E-05
        -0.86518E-05
        -0.51897E-04
        -0.41156E-04
        -0.31091E-04
        -0.16651E-04
        -0.85411E-06
        -0.42529E-05
        -0.67772E-05
        -0.10995E-04
        -0.45350E-04
        -0.15440E-04
        -0.66340E-05
        -0.10215E-04
        -0.14147E-04
        -0.15593E-04
        -0.52873E-07
        -0.23860E-04
        -0.50307E-04
        -0.27347E-03
        -0.45443E-03
        -0.75411E-03
        -0.10788E-02
        -0.10323E-02
        -0.79011E-03
        -0.72776E-03
        -0.71077E-03
        -0.28125E-03
        -0.31344E-04
        -0.48907E-05
        -0.37997E-05
        -0.58936E-06
        -0.56307E-04
        -0.22583E-03
        -0.43337E-03
        -0.72714E-03
        -0.89298E-03
        -0.68873E-03
        -0.61606E-03
        -0.60812E-03
        -0.29739E-03
        -0.79357E-04
        -0.70645E-04
        -0.21707E-04
        -0.84884E-05
        -0.73812E-05
        -0.51546E-06
        -0.12309E-04
        -0.25439E-05
        -0.16037E-05
        -0.19957E-04
        -0.86919E-05
        -0.18739E-04
        -0.48345E-05
        -0.88102E-04
        -0.31290E-04
        -0.65270E-06
        -0.89264E-04
        -0.30839E-05
        -0.37848E-06
        -0.24409E-06
        -0.53451E-05
        -0.15732E-06
        -0.42037E-05
        -0.20017E-05
        -0.68423E-06
        -0.44885E-06
        -0.86651E-05
        -0.41876E-06
        -0.48068E-07
        -0.13729E-06
        -0.17772E-06
        -0.80042E-05
        -0.35575E-05
        -0.20854E-06
        -0.16004E-05
        -0.11875E-05
        -0.18245E-06
        -0.24298E-05
        -0.86526E-05
        -0.52064E-04
        -0.41340E-04
        -0.31173E-04
        -0.16688E-04
        -0.84512E-06
        -0.42571E-05
        -0.67967E-05
        -0.11010E-04
        -0.45372E-04
        -0.15454E-04
        -0.66336E-05
        -0.10196E-04
        -0.14112E-04
        -0.15581E-04
        -0.50812E-07
        -0.23814E-04
        -0.50311E-04
        -0.27356E-03
        -0.45443E-03
        -0.75393E-03
        -0.10781E-02
        -0.10314E-02
        -0.78962E-03
        -0.72746E-03
        -0.71034E-03
        -0.28116E-03
        -0.31390E-04
        -0.48917E-05
        -0.38144E-05
        -0.57832E-06
        -0.56379E-04
        -0.22611E-03
        -0.43363E-03
        -0.72710E-03
        -0.89286E-03
        -0.68866E-03
        -0.61603E-03
        -0.60779E-03
        -0.29696E-03
        -0.79187E-04
        -0.70456E-04
        -0.21728E-04
        -0.84871E-05
        -0.73882E-05
        -0.52270E-06
        -0.12312E-04
        -0.25478E-05
        -0.16059E-05
        -0.20009E-04
        -0.87244E-05
        -0.18854E-04
        -0.48431E-05
        -0.88094E-04
        -0.31310E-04
        -0.65386E-06
        -0.89490E-04
        -0.30851E-05
        -0.38538E-06
        -0.24327E-06
        -0.53532E-05
        -0.15516E-06
        -0.42247E-05
        -0.20042E-05
        -0.68623E-06
        -0.44758E-06
        -0.87287E-05
        -0.41556E-06
        -0.49516E-07
        -0.13976E-06
        -0.17282E-06
        -0.80256E-05
        -0.35566E-05
        -0.20587E-06
        -0.16075E-05
        -0.11918E-05
        -0.17820E-06
        -0.24338E-05
        -0.86539E-05
        -0.52234E-04
        -0.41524E-04
        -0.31250E-04
        -0.16724E-04
        -0.83607E-06
        -0.42615E-05
        -0.68161E-05
        -0.11025E-04
        -0.45392E-04
        -0.15468E-04
        -0.66330E-05
        -0.10176E-04
        -0.14076E-04
        -0.15569E-04
        -0.48789E-07
        -0.23768E-04
        -0.50315E-04
        -0.27365E-03
        -0.45444E-03
        -0.75374E-03
        -0.10773E-02
        -0.10305E-02
        -0.78914E-03
        -0.72715E-03
        -0.70989E-03
        -0.28108E-03
        -0.31436E-04
        -0.48922E-05
        -0.38292E-05
        -0.56741E-06
        -0.56451E-04
        -0.22640E-03
        -0.43389E-03
        -0.72706E-03
        -0.89274E-03
        -0.68860E-03
        -0.61600E-03
        -0.60746E-03
        -0.29653E-03
        -0.79018E-04
        -0.70267E-04
        -0.21750E-04
        -0.84859E-05
        -0.73951E-05
        -0.52998E-06
        -0.12315E-04
        -0.25517E-05
        -0.16082E-05
        -0.20060E-04
        -0.87573E-05
        -0.18970E-04
        -0.48517E-05
        -0.88085E-04
        -0.31332E-04
        -0.65503E-06
        -0.89719E-04
        -0.30863E-05
        -0.39244E-06
        -0.24244E-06
        -0.53613E-05
        -0.15311E-06
        -0.42458E-05
        -0.20066E-05
        -0.68820E-06
        -0.44636E-06
        -0.87925E-05
        -0.41235E-06
        -0.51050E-07
        -0.14221E-06
        -0.16801E-06
        -0.80459E-05
        -0.35556E-05
        -0.20327E-06
        -0.16146E-05
        -0.11961E-05
        -0.17397E-06
        -0.24377E-05
        -0.86549E-05
        -0.52406E-04
        -0.41707E-04
        -0.31325E-04
        -0.16760E-04
        -0.82709E-06
        -0.42662E-05
        -0.68353E-05
        -0.11041E-04
        -0.45414E-04
        -0.15483E-04
        -0.66323E-05
        -0.10157E-04
        -0.14040E-04
        -0.15555E-04
        -0.46792E-07
        -0.23722E-04
        -0.50318E-04
        -0.27373E-03
        -0.45444E-03
        -0.75356E-03
        -0.10766E-02
        -0.10296E-02
        -0.78865E-03
        -0.72684E-03
        -0.70941E-03
        -0.28101E-03
        -0.31483E-04
        -0.48918E-05
        -0.38439E-05
        -0.55654E-06
        -0.56523E-04
        -0.22669E-03
        -0.43415E-03
        -0.72702E-03
        -0.89262E-03
        -0.68853E-03
        -0.61597E-03
        -0.60713E-03
        -0.29611E-03
        -0.78849E-04
        -0.70077E-04
        -0.21771E-04
        -0.84847E-05
        -0.74026E-05
        -0.53728E-06
        -0.12319E-04
        -0.25557E-05
        -0.16106E-05
        -0.20112E-04
        -0.87904E-05
        -0.19086E-04
        -0.48603E-05
        -0.88077E-04
        -0.31353E-04
        -0.65603E-06
        -0.89946E-04
        -0.30875E-05
        -0.39961E-06
        -0.24162E-06
        -0.53696E-05
        -0.15112E-06
        -0.42669E-05
        -0.20091E-05
        -0.69005E-06
        -0.44521E-06
        -0.88566E-05
        -0.40925E-06
        -0.52567E-07
        -0.14459E-06
        -0.16332E-06
        -0.80657E-05
        -0.35548E-05
        -0.20073E-06
        -0.16218E-05
        -0.12006E-05
        -0.16983E-06
        -0.24414E-05
        -0.86554E-05
        -0.52578E-04
        -0.41890E-04
        -0.31397E-04
        -0.16795E-04
        -0.81832E-06
        -0.42712E-05
        -0.68544E-05
        -0.11056E-04
        -0.45434E-04
        -0.15497E-04
        -0.66318E-05
        -0.10138E-04
        -0.14004E-04
        -0.15544E-04
        -0.44851E-07
        -0.23676E-04
        -0.50323E-04
        -0.27382E-03
        -0.45445E-03
        -0.75339E-03
        -0.10758E-02
        -0.10287E-02
        -0.78817E-03
        -0.72653E-03
        -0.70893E-03
        -0.28094E-03
        -0.31528E-04
        -0.48908E-05
        -0.38587E-05
        -0.54578E-06
        -0.56593E-04
        -0.22697E-03
        -0.43440E-03
        -0.72699E-03
        -0.89251E-03
        -0.68847E-03
        -0.61594E-03
        -0.60680E-03
        -0.29568E-03
        -0.78682E-04
        -0.69890E-04
        -0.21951E-04
        -0.85481E-05
        -0.74665E-05
        -0.54836E-06
        -0.12411E-04
        -0.25777E-05
        -0.16252E-05
        -0.20304E-04
        -0.88860E-05
        -0.19330E-04
        -0.49030E-05
        -0.88658E-04
        -0.31584E-04
        -0.66166E-06
        -0.90783E-04
        -0.31119E-05
        -0.40937E-06
        -0.24259E-06
        -0.54161E-05
        -0.15045E-06
        -0.43157E-05
        -0.20252E-05
        -0.69550E-06
        -0.44789E-06
        -0.89821E-05
        -0.41016E-06
        -0.54355E-07
        -0.14746E-06
        -0.16072E-06
        -0.81452E-05
        -0.35814E-05
        -0.20041E-06
        -0.16406E-05
        -0.12137E-05
        -0.16729E-06
        -0.24603E-05
        -0.87129E-05
        -0.53103E-04
        -0.42356E-04
        -0.31688E-04
        -0.16943E-04
        -0.81738E-06
        -0.43079E-05
        -0.69133E-05
        -0.11139E-04
        -0.45741E-04
        -0.15609E-04
        -0.66729E-05
        -0.10188E-04
        -0.14068E-04
        -0.15638E-04
        -0.43278E-07
        -0.23768E-04
        -0.50646E-04
        -0.27556E-03
        -0.45721E-03
        -0.75786E-03
        -0.10819E-02
        -0.10345E-02
        -0.79286E-03
        -0.73098E-03
        -0.71313E-03
        -0.28269E-03
        -0.31757E-04
        -0.49170E-05
        -0.38952E-05
        -0.53879E-06
        -0.56971E-04
        -0.22850E-03
        -0.43717E-03
        -0.73140E-03
        -0.89786E-03
        -0.69250E-03
        -0.61952E-03
        -0.61008E-03
        -0.29705E-03
        -0.78992E-04
        -0.70126E-04
        -0.48504E-04
        -0.19037E-04
        -0.16445E-04
        -0.12292E-05
        -0.25455E-04
        -0.53947E-05
        -0.36046E-05
        -0.44452E-04
        -0.19575E-04
        -0.42158E-04
        -0.10501E-04
        -0.17511E-03
        -0.64315E-04
        -0.14054E-05
        -0.18139E-03
        -0.68914E-05
        -0.91212E-06
        -0.53652E-06
        -0.11674E-04
        -0.32404E-06
        -0.88089E-05
        -0.42293E-05
        -0.14213E-05
        -0.97987E-06
        -0.19980E-04
        -0.91194E-06
        -0.11934E-06
        -0.32815E-06
        -0.35419E-06
        -0.18049E-04
        -0.79318E-05
        -0.44070E-06
        -0.36584E-05
        -0.26983E-05
        -0.32142E-06
        -0.51304E-05
        -0.18169E-04
        -0.11087E-03
        -0.91012E-04
        -0.68553E-04
        -0.35656E-04
        -0.17389E-05
        -0.92031E-05
        -0.14354E-04
        -0.22962E-04
        -0.88947E-04
        -0.31955E-04
        -0.13994E-04
        -0.21581E-04
        -0.29530E-04
        -0.31283E-04
        -0.87137E-07
        -0.36785E-04
        -0.78324E-04
        -0.42626E-03
        -0.71129E-03
        -0.11773E-02
        -0.16889E-02
        -0.16508E-02
        -0.12865E-02
        -0.11816E-02
        -0.11393E-02
        -0.45276E-03
        -0.50699E-04
        -0.80150E-05
        -0.64109E-05
        -0.85132E-06
        -0.89149E-04
        -0.35544E-03
        -0.67240E-03
        -0.11229E-02
        -0.13818E-02
        -0.10881E-02
        -0.98214E-03
        -0.96006E-03
        -0.47049E-03
        -0.12430E-03
        -0.10951E-03
  
SCALARS                      strain_zz  double 1
LOOKUP_TABLE default
         0.46416E+00
         0.44685E+00
         0.45783E+00
         0.47753E+00
        -0.13607E-08
        -0.15258E-08
        -0.14610E-08
        -0.13273E-08
         0.44626E+00
         0.45211E+00
        -0.13721E-08
        -0.13278E-08
         0.42184E+00
         0.42091E+00
        -0.16303E-08
        -0.15329E-08
         0.47464E+00
         0.42227E+00
        -0.12046E-08
        -0.13361E-08
         0.40309E+00
         0.38824E+00
         0.41189E+00
        -0.16159E-08
        -0.14111E-08
        -0.14572E-08
         0.38881E+00
         0.36715E+00
        -0.15502E-08
        -0.13073E-08
         0.47369E+00
         0.45087E+00
         0.49586E+00
        -0.13229E-08
        -0.12298E-08
        -0.11957E-08
         0.46049E+00
         0.43146E+00
        -0.13995E-08
        -0.12771E-08
         0.44898E+00
         0.42661E+00
        -0.12096E-08
        -0.10708E-08
         0.46797E+00
         0.47639E+00
        -0.13255E-08
        -0.14811E-08
         0.40869E+00
        -0.12949E-08
         0.47475E+00
        -0.15216E-08
         0.38256E+00
        -0.13675E-08
         0.37575E+00
        -0.13117E-08
         0.37586E+00
         0.40008E+00
        -0.13365E-08
        -0.13016E-08
         0.47322E+00
         0.46445E+00
        -0.13401E-08
        -0.15150E-08
         0.47871E+00
        -0.12932E-08
         0.46828E+00
        -0.14113E-08
         0.44089E+00
         0.43813E+00
        -0.13585E-08
        -0.14235E-08
         0.43195E+00
        -0.14354E-08
         0.35947E+00
        -0.11341E-08
         0.35569E+00
        -0.11008E-08
         0.35758E+00
        -0.11607E-08
         0.36804E+00
         0.37892E+00
        -0.11059E-08
        -0.11530E-08
         0.40087E+00
        -0.10738E-08
         0.46753E+00
        -0.14082E-08
         0.45710E+00
        -0.14412E-08
         0.44858E+00
         0.44387E+00
        -0.13840E-08
        -0.14002E-08
         0.44964E+00
        -0.12718E-08
         0.45375E+00
        -0.12536E-08
         0.45004E+00
        -0.13420E-08
         0.44874E+00
         0.45249E+00
        -0.13161E-08
        -0.13547E-08
         0.42821E+00
         0.43810E+00
        -0.10218E-08
        -0.96106E-09
         0.42636E+00
        -0.97568E-09
         0.43778E+00
        -0.93551E-09
         0.42652E+00
        -0.92248E-09
         0.40168E+00
        -0.87175E-09
         0.37766E+00
        -0.77446E-09
         0.36330E+00
        -0.69736E-09
         0.36184E+00
        -0.69251E-09
         0.36229E+00
        -0.75099E-09
         0.37786E+00
        -0.78927E-09
         0.40707E+00
        -0.72068E-09
         0.43923E+00
        -0.64962E-09
         0.45809E+00
        -0.64888E-09
         0.47676E+00
        -0.72529E-09
         0.48912E+00
        -0.82700E-09
         0.48868E+00
        -0.88845E-09
         0.45864E+00
        -0.95952E-09
         0.43775E+00
        -0.10280E-08
         0.43063E+00
        -0.94170E-09
         0.44182E+00
        -0.82612E-09
         0.44764E+00
        -0.82357E-09
         0.43783E+00
        -0.90108E-09
         0.43796E+00
        -0.96062E-09
         0.44536E+00
        -0.91162E-09
         0.45500E+00
        -0.88132E-09
        -0.34586E+00
        -0.35067E+00
        -0.35003E+00
        -0.34377E+00
        -0.35517E+00
        -0.34948E+00
        -0.35654E+00
        -0.35289E+00
        -0.34477E+00
        -0.34986E+00
        -0.36037E+00
        -0.36145E+00
        -0.35839E+00
        -0.35822E+00
        -0.36016E+00
        -0.34407E+00
        -0.34525E+00
        -0.34193E+00
        -0.35119E+00
        -0.34953E+00
        -0.35186E+00
        -0.35029E+00
        -0.35317E+00
        -0.35246E+00
        -0.34967E+00
        -0.34987E+00
        -0.35461E+00
        -0.35419E+00
        -0.35763E+00
        -0.35239E+00
        -0.34466E+00
        -0.35074E+00
        -0.34470E+00
        -0.34872E+00
        -0.36225E+00
        -0.35804E+00
        -0.35598E+00
        -0.35837E+00
        -0.35869E+00
        -0.36257E+00
        -0.36528E+00
        -0.35851E+00
        -0.35175E+00
        -0.35270E+00
        -0.35618E+00
        -0.36209E+00
        -0.35707E+00
        -0.35149E+00
        -0.35189E+00
        -0.35621E+00
        -0.36050E+00
        -0.35468E+00
        -0.37133E+00
        -0.36640E+00
        -0.36717E+00
        -0.36598E+00
        -0.36620E+00
        -0.36873E+00
        -0.37144E+00
        -0.37242E+00
        -0.37209E+00
        -0.37231E+00
        -0.37346E+00
        -0.36652E+00
        -0.36399E+00
        -0.36300E+00
        -0.36115E+00
        -0.35973E+00
        -0.35974E+00
        -0.36203E+00
        -0.36966E+00
        -0.36782E+00
        -0.36529E+00
        -0.36538E+00
        -0.36582E+00
        -0.36833E+00
        -0.36463E+00
        -0.36322E+00
         0.32289E-04
         0.12411E-04
         0.12712E-04
         0.12894E-04
         0.31757E-04
         0.22488E-04
         0.12099E-07
         0.17997E-04
         0.20110E-04
         0.14757E-04
        -0.37635E-05
         0.90098E-04
         0.54447E-04
        -0.52757E-05
         0.93109E-04
         0.15453E-04
         0.91956E-05
         0.91205E-05
         0.59899E-05
         0.28759E-05
         0.54677E-04
         0.52250E-04
         0.42344E-04
         0.14268E-05
         0.98032E-06
         0.60587E-07
        -0.13494E-04
        -0.19864E-04
        -0.87327E-05
         0.35942E-05
         0.11736E-04
         0.24092E-05
         0.11718E-04
         0.15023E-04
         0.43334E-04
         0.15931E-04
         0.28062E-04
         0.58849E-04
         0.33176E-04
         0.30838E-04
         0.68627E-04
         0.54187E-04
         0.55890E-04
         0.30264E-04
         0.24081E-04
         0.48452E-04
         0.22356E-04
         0.17764E-04
         0.15226E-04
         0.22172E-04
         0.46782E-04
         0.28887E-04
         0.76075E-03
         0.81206E-03
         0.87796E-03
         0.87609E-03
         0.10034E-02
         0.11605E-02
         0.10663E-02
         0.84851E-03
         0.80312E-03
         0.91176E-03
         0.87424E-03
         0.84862E-03
         0.57726E-03
         0.52743E-03
         0.62546E-03
         0.71112E-03
         0.76769E-03
         0.91755E-03
         0.85084E-03
         0.90723E-03
         0.73662E-03
         0.66115E-03
         0.74688E-03
         0.71358E-03
         0.76189E-03
         0.75474E-03
         0.31846E-04
         0.11918E-04
         0.12229E-04
         0.12463E-04
         0.31163E-04
         0.21941E-04
        -0.51675E-06
         0.17490E-04
         0.19630E-04
         0.14276E-04
        -0.43740E-05
         0.89379E-04
         0.53863E-04
        -0.59418E-05
         0.92606E-04
         0.14952E-04
         0.86427E-05
         0.86743E-05
         0.54144E-05
         0.22590E-05
         0.54066E-04
         0.51637E-04
         0.41698E-04
         0.83304E-06
         0.39268E-06
        -0.50559E-06
        -0.14071E-04
        -0.20483E-04
        -0.93723E-05
         0.29480E-05
         0.11250E-04
         0.18717E-05
         0.11249E-04
         0.14578E-04
         0.42735E-04
         0.15361E-04
         0.27488E-04
         0.58334E-04
         0.32673E-04
         0.30262E-04
         0.68009E-04
         0.53550E-04
         0.55242E-04
         0.29642E-04
         0.23480E-04
         0.47806E-04
         0.21760E-04
         0.17198E-04
         0.14678E-04
         0.21613E-04
         0.46148E-04
         0.28284E-04
         0.75908E-03
         0.81059E-03
         0.87689E-03
         0.87509E-03
         0.10020E-02
         0.11586E-02
         0.10642E-02
         0.84685E-03
         0.80149E-03
         0.90996E-03
         0.87270E-03
         0.84752E-03
         0.57618E-03
         0.52648E-03
         0.62466E-03
         0.71045E-03
         0.76705E-03
         0.91686E-03
         0.84966E-03
         0.90598E-03
         0.73538E-03
         0.66009E-03
         0.74539E-03
         0.71164E-03
         0.76002E-03
         0.75291E-03
         0.31995E-04
         0.12020E-04
         0.12342E-04
         0.12592E-04
         0.31289E-04
         0.22072E-04
        -0.39058E-06
         0.17658E-04
         0.19747E-04
         0.14419E-04
        -0.42503E-05
         0.89509E-04
         0.54023E-04
        -0.58526E-05
         0.92983E-04
         0.14868E-04
         0.86310E-05
         0.87861E-05
         0.52777E-05
         0.21361E-05
         0.53974E-04
         0.51591E-04
         0.41272E-04
         0.40449E-06
         0.18167E-06
        -0.90245E-06
        -0.13948E-04
        -0.20570E-04
        -0.96205E-05
         0.25058E-05
         0.11269E-04
         0.17484E-05
         0.11359E-04
         0.14732E-04
         0.42940E-04
         0.15495E-04
         0.27600E-04
         0.58663E-04
         0.32957E-04
         0.30393E-04
         0.68083E-04
         0.53356E-04
         0.54902E-04
         0.29228E-04
         0.23370E-04
         0.47891E-04
         0.21869E-04
         0.17323E-04
         0.14790E-04
         0.21733E-04
         0.46272E-04
         0.28382E-04
         0.75885E-03
         0.81050E-03
         0.87721E-03
         0.87535E-03
         0.10019E-02
         0.11580E-02
         0.10635E-02
         0.84665E-03
         0.80133E-03
         0.90967E-03
         0.87255E-03
         0.84758E-03
         0.57609E-03
         0.52660E-03
         0.62493E-03
         0.71061E-03
         0.76724E-03
         0.91732E-03
         0.84986E-03
         0.90622E-03
         0.73553E-03
         0.66032E-03
         0.74522E-03
         0.71099E-03
         0.75941E-03
         0.75235E-03
         0.31963E-04
         0.11982E-04
         0.12310E-04
         0.12533E-04
         0.31213E-04
         0.22013E-04
        -0.42230E-06
         0.17630E-04
         0.19631E-04
         0.14277E-04
        -0.43132E-05
         0.89431E-04
         0.54015E-04
        -0.59837E-05
         0.93100E-04
         0.14477E-04
         0.83139E-05
         0.87006E-05
         0.47763E-05
         0.16156E-05
         0.53518E-04
         0.51169E-04
         0.40297E-04
        -0.55394E-06
        -0.53094E-06
        -0.18062E-05
        -0.14101E-04
        -0.21071E-04
        -0.10411E-04
         0.13953E-05
         0.11043E-04
         0.12644E-05
         0.11276E-04
         0.14664E-04
         0.42894E-04
         0.15430E-04
         0.27544E-04
         0.58736E-04
         0.32969E-04
         0.30188E-04
         0.67779E-04
         0.52631E-04
         0.53956E-04
         0.28256E-04
         0.22876E-04
         0.47632E-04
         0.21681E-04
         0.17216E-04
         0.14672E-04
         0.21594E-04
         0.46138E-04
         0.28265E-04
         0.75814E-03
         0.81001E-03
         0.87703E-03
         0.87522E-03
         0.10015E-02
         0.11571E-02
         0.10625E-02
         0.84600E-03
         0.80073E-03
         0.90888E-03
         0.87188E-03
         0.84705E-03
         0.57543E-03
         0.52629E-03
         0.62478E-03
         0.71016E-03
         0.76679E-03
         0.91732E-03
         0.84957E-03
         0.90593E-03
         0.73522E-03
         0.66006E-03
         0.74453E-03
         0.70993E-03
         0.75846E-03
         0.75146E-03
         0.31875E-04
         0.11900E-04
         0.12247E-04
         0.12472E-04
         0.31128E-04
         0.21936E-04
        -0.48020E-06
         0.17554E-04
         0.19485E-04
         0.14123E-04
        -0.43801E-05
         0.89379E-04
         0.54000E-04
        -0.61221E-05
         0.93264E-04
         0.14221E-04
         0.80675E-05
         0.86207E-05
         0.44488E-05
         0.12384E-05
         0.53232E-04
         0.50866E-04
         0.39702E-04
        -0.11482E-05
        -0.10255E-05
        -0.23852E-05
        -0.14234E-04
        -0.21432E-04
        -0.10953E-04
         0.66477E-06
         0.10807E-04
         0.91281E-06
         0.11126E-04
         0.14567E-04
         0.42848E-04
         0.15349E-04
         0.27465E-04
         0.58843E-04
         0.33013E-04
         0.30061E-04
         0.67601E-04
         0.52166E-04
         0.53348E-04
         0.27648E-04
         0.22551E-04
         0.47466E-04
         0.21516E-04
         0.17048E-04
         0.14490E-04
         0.21409E-04
         0.45956E-04
         0.28111E-04
         0.75744E-03
         0.80953E-03
         0.87688E-03
         0.87511E-03
         0.10011E-02
         0.11563E-02
         0.10615E-02
         0.84542E-03
         0.80016E-03
         0.90819E-03
         0.87137E-03
         0.84672E-03
         0.57498E-03
         0.52605E-03
         0.62474E-03
         0.71006E-03
         0.76667E-03
         0.91747E-03
         0.84939E-03
         0.90565E-03
         0.73487E-03
         0.65978E-03
         0.74378E-03
         0.70880E-03
         0.75749E-03
         0.75058E-03
         0.31609E-04
         0.11739E-04
         0.12185E-04
         0.12544E-04
         0.31183E-04
         0.22023E-04
        -0.51632E-06
         0.17385E-04
         0.19269E-04
         0.13872E-04
        -0.43269E-05
         0.89535E-04
         0.54105E-04
        -0.61563E-05
         0.93667E-04
         0.14296E-04
         0.80253E-05
         0.87355E-05
         0.45247E-05
         0.12849E-05
         0.53339E-04
         0.50972E-04
         0.39725E-04
        -0.11607E-05
        -0.11976E-05
        -0.24668E-05
        -0.14260E-04
        -0.21475E-04
        -0.10908E-04
         0.66463E-06
         0.10521E-04
         0.72688E-06
         0.10883E-04
         0.14548E-04
         0.42960E-04
         0.15350E-04
         0.27443E-04
         0.59177E-04
         0.33308E-04
         0.30292E-04
         0.67845E-04
         0.52316E-04
         0.53444E-04
         0.27624E-04
         0.22512E-04
         0.47447E-04
         0.21375E-04
         0.16710E-04
         0.14086E-04
         0.21173E-04
         0.45868E-04
         0.28101E-04
         0.75716E-03
         0.80943E-03
         0.87709E-03
         0.87528E-03
         0.10009E-02
         0.11557E-02
         0.10609E-02
         0.84522E-03
         0.80004E-03
         0.90800E-03
         0.87141E-03
         0.84703E-03
         0.57515E-03
         0.52625E-03
         0.62515E-03
         0.71071E-03
         0.76733E-03
         0.91804E-03
         0.84945E-03
         0.90564E-03
         0.73470E-03
         0.65956E-03
         0.74318E-03
         0.70791E-03
         0.75677E-03
         0.74998E-03
         0.31183E-04
         0.11450E-04
         0.12024E-04
         0.12511E-04
         0.31100E-04
         0.22004E-04
        -0.72191E-06
         0.17012E-04
         0.18883E-04
         0.13444E-04
        -0.44708E-05
         0.89475E-04
         0.54050E-04
        -0.64085E-05
         0.93832E-04
         0.14236E-04
         0.78264E-05
         0.87066E-05
         0.44736E-05
         0.11920E-05
         0.53315E-04
         0.50942E-04
         0.39688E-04
        -0.12331E-05
        -0.14718E-05
        -0.26137E-05
        -0.14491E-04
        -0.21661E-04
        -0.10953E-04
         0.60069E-06
         0.10112E-04
         0.42161E-06
         0.10519E-04
         0.14417E-04
         0.42900E-04
         0.15227E-04
         0.27301E-04
         0.59284E-04
         0.33395E-04
         0.30345E-04
         0.67929E-04
         0.52371E-04
         0.53467E-04
         0.27547E-04
         0.22337E-04
         0.47220E-04
         0.21045E-04
         0.16204E-04
         0.13526E-04
         0.20791E-04
         0.45644E-04
         0.27980E-04
         0.75649E-03
         0.80896E-03
         0.87701E-03
         0.87521E-03
         0.10005E-02
         0.11548E-02
         0.10599E-02
         0.84468E-03
         0.79955E-03
         0.90738E-03
         0.87107E-03
         0.84707E-03
         0.57510E-03
         0.52621E-03
         0.62529E-03
         0.71117E-03
         0.76781E-03
         0.91829E-03
         0.84905E-03
         0.90522E-03
         0.73420E-03
         0.65906E-03
         0.74228E-03
         0.70677E-03
         0.75582E-03
         0.74911E-03
         0.31080E-04
         0.11342E-04
         0.11962E-04
         0.12463E-04
         0.31013E-04
         0.21929E-04
        -0.82004E-06
         0.16903E-04
         0.18793E-04
         0.13388E-04
        -0.45717E-05
         0.89389E-04
         0.53997E-04
        -0.65731E-05
         0.93966E-04
         0.14185E-04
         0.77573E-05
         0.86430E-05
         0.44272E-05
         0.11181E-05
         0.53268E-04
         0.50873E-04
         0.39635E-04
        -0.12886E-05
        -0.15270E-05
        -0.26976E-05
        -0.14585E-04
        -0.21761E-04
        -0.11041E-04
         0.54118E-06
         0.99892E-05
         0.29901E-06
         0.10393E-04
         0.14345E-04
         0.42859E-04
         0.15159E-04
         0.27214E-04
         0.59366E-04
         0.33467E-04
         0.30338E-04
         0.67919E-04
         0.52346E-04
         0.53436E-04
         0.27480E-04
         0.22235E-04
         0.47123E-04
         0.20943E-04
         0.16083E-04
         0.13371E-04
         0.20635E-04
         0.45492E-04
         0.27844E-04
         0.75578E-03
         0.80842E-03
         0.87688E-03
         0.87511E-03
         0.10000E-02
         0.11540E-02
         0.10589E-02
         0.84407E-03
         0.79894E-03
         0.90660E-03
         0.87058E-03
         0.84708E-03
         0.57498E-03
         0.52604E-03
         0.62532E-03
         0.71149E-03
         0.76814E-03
         0.91852E-03
         0.84877E-03
         0.90497E-03
         0.73397E-03
         0.65885E-03
         0.74157E-03
         0.70566E-03
         0.75482E-03
         0.74816E-03
         0.31194E-04
         0.11415E-04
         0.12023E-04
         0.12494E-04
         0.31063E-04
         0.21935E-04
        -0.73142E-06
         0.17038E-04
         0.18905E-04
         0.13593E-04
        -0.44954E-05
         0.89477E-04
         0.54108E-04
        -0.65199E-05
         0.94313E-04
         0.14308E-04
         0.78607E-05
         0.86920E-05
         0.45354E-05
         0.11986E-05
         0.53376E-04
         0.50958E-04
         0.39737E-04
        -0.11909E-05
        -0.13740E-05
        -0.26065E-05
        -0.14433E-04
        -0.21649E-04
        -0.10943E-04
         0.65056E-06
         0.10087E-04
         0.36559E-06
         0.10437E-04
         0.14378E-04
         0.42996E-04
         0.15227E-04
         0.27270E-04
         0.59672E-04
         0.33732E-04
         0.30512E-04
         0.68109E-04
         0.52503E-04
         0.53556E-04
         0.27583E-04
         0.22310E-04
         0.47212E-04
         0.21026E-04
         0.16175E-04
         0.13436E-04
         0.20666E-04
         0.45504E-04
         0.27810E-04
         0.75545E-03
         0.80827E-03
         0.87700E-03
         0.87518E-03
         0.99983E-03
         0.11534E-02
         0.10582E-02
         0.84377E-03
         0.79860E-03
         0.90613E-03
         0.87045E-03
         0.84741E-03
         0.57512E-03
         0.52614E-03
         0.62562E-03
         0.71211E-03
         0.76881E-03
         0.91912E-03
         0.84881E-03
         0.90505E-03
         0.73402E-03
         0.65896E-03
         0.74119E-03
         0.70486E-03
         0.75411E-03
         0.74751E-03
         0.31202E-04
         0.11409E-04
         0.12017E-04
         0.12466E-04
         0.31028E-04
         0.21888E-04
        -0.73211E-06
         0.17033E-04
         0.18877E-04
         0.13636E-04
        -0.45363E-05
         0.89426E-04
         0.54142E-04
        -0.66303E-05
         0.94445E-04
         0.14286E-04
         0.78230E-05
         0.86246E-05
         0.44983E-05
         0.11396E-05
         0.53361E-04
         0.50913E-04
         0.39713E-04
        -0.12273E-05
        -0.13434E-05
        -0.26416E-05
        -0.14458E-04
        -0.21661E-04
        -0.10955E-04
         0.63712E-06
         0.10060E-04
         0.32640E-06
         0.10363E-04
         0.14327E-04
         0.43006E-04
         0.15194E-04
         0.27244E-04
         0.59773E-04
         0.33856E-04
         0.30562E-04
         0.68160E-04
         0.52534E-04
         0.53533E-04
         0.27577E-04
         0.22290E-04
         0.47191E-04
         0.20984E-04
         0.16123E-04
         0.13362E-04
         0.20582E-04
         0.45421E-04
         0.27708E-04
         0.75482E-03
         0.80784E-03
         0.87687E-03
         0.87509E-03
         0.99949E-03
         0.11525E-02
         0.10572E-02
         0.84315E-03
         0.79811E-03
         0.90543E-03
         0.87000E-03
         0.84744E-03
         0.57498E-03
         0.52607E-03
         0.62576E-03
         0.71255E-03
         0.76934E-03
         0.91952E-03
         0.84865E-03
         0.90481E-03
         0.73374E-03
         0.65878E-03
         0.74061E-03
         0.70390E-03
         0.75320E-03
         0.74663E-03
         0.31170E-04
         0.11353E-04
         0.11985E-04
         0.12455E-04
         0.30961E-04
         0.21855E-04
        -0.76440E-06
         0.17008E-04
         0.18854E-04
         0.13679E-04
        -0.45827E-05
         0.89357E-04
         0.54143E-04
        -0.67283E-05
         0.94577E-04
         0.14245E-04
         0.77974E-05
         0.85830E-05
         0.44512E-05
         0.10931E-05
         0.53335E-04
         0.50869E-04
         0.39675E-04
        -0.12840E-05
        -0.13121E-05
        -0.27073E-05
        -0.14473E-04
        -0.21688E-04
        -0.10972E-04
         0.63432E-06
         0.10015E-04
         0.26367E-06
         0.10316E-04
         0.14322E-04
         0.42974E-04
         0.15139E-04
         0.27194E-04
         0.59877E-04
         0.33974E-04
         0.30618E-04
         0.68236E-04
         0.52571E-04
         0.53515E-04
         0.27549E-04
         0.22251E-04
         0.47159E-04
         0.20946E-04
         0.16078E-04
         0.13290E-04
         0.20505E-04
         0.45342E-04
         0.27633E-04
         0.75413E-03
         0.80734E-03
         0.87676E-03
         0.87507E-03
         0.99913E-03
         0.11516E-02
         0.10561E-02
         0.84255E-03
         0.79761E-03
         0.90476E-03
         0.86966E-03
         0.84747E-03
         0.57482E-03
         0.52597E-03
         0.62587E-03
         0.71293E-03
         0.76982E-03
         0.91987E-03
         0.84844E-03
         0.90459E-03
         0.73349E-03
         0.65860E-03
         0.74000E-03
         0.70289E-03
         0.75226E-03
         0.74573E-03
         0.31240E-04
         0.11376E-04
         0.12012E-04
         0.12501E-04
         0.30988E-04
         0.21888E-04
        -0.70254E-06
         0.17112E-04
         0.18924E-04
         0.13826E-04
        -0.45097E-05
         0.89417E-04
         0.54209E-04
        -0.66834E-05
         0.94912E-04
         0.14325E-04
         0.78504E-05
         0.86319E-05
         0.45192E-05
         0.11564E-05
         0.53425E-04
         0.50944E-04
         0.39747E-04
        -0.12239E-05
        -0.12049E-05
        -0.26497E-05
        -0.14373E-04
        -0.21616E-04
        -0.10863E-04
         0.75143E-06
         0.10095E-04
         0.30826E-06
         0.10372E-04
         0.14393E-04
         0.43076E-04
         0.15182E-04
         0.27213E-04
         0.60167E-04
         0.34239E-04
         0.30826E-04
         0.68436E-04
         0.52707E-04
         0.53618E-04
         0.27619E-04
         0.22299E-04
         0.47216E-04
         0.21001E-04
         0.16136E-04
         0.13326E-04
         0.20526E-04
         0.45356E-04
         0.27634E-04
         0.75374E-03
         0.80715E-03
         0.87691E-03
         0.87516E-03
         0.99878E-03
         0.11508E-02
         0.10553E-02
         0.84226E-03
         0.79733E-03
         0.90436E-03
         0.86952E-03
         0.84765E-03
         0.57490E-03
         0.52608E-03
         0.62618E-03
         0.71350E-03
         0.77041E-03
         0.92038E-03
         0.84839E-03
         0.90459E-03
         0.73349E-03
         0.65866E-03
         0.73959E-03
         0.70206E-03
         0.75156E-03
         0.74511E-03
         0.31242E-04
         0.11332E-04
         0.11982E-04
         0.12468E-04
         0.30920E-04
         0.21827E-04
        -0.74683E-06
         0.17093E-04
         0.18912E-04
         0.13855E-04
        -0.45776E-05
         0.89333E-04
         0.54166E-04
        -0.68087E-05
         0.95068E-04
         0.14297E-04
         0.78119E-05
         0.85603E-05
         0.44598E-05
         0.10880E-05
         0.53363E-04
         0.50863E-04
         0.39672E-04
        -0.12894E-05
        -0.12101E-05
        -0.27073E-05
        -0.14453E-04
        -0.21711E-04
        -0.10925E-04
         0.72555E-06
         0.10054E-04
         0.24884E-06
         0.10285E-04
         0.14347E-04
         0.43047E-04
         0.15119E-04
         0.27135E-04
         0.60262E-04
         0.34315E-04
         0.30834E-04
         0.68435E-04
         0.52671E-04
         0.53567E-04
         0.27546E-04
         0.22224E-04
         0.47159E-04
         0.20942E-04
         0.16063E-04
         0.13240E-04
         0.20444E-04
         0.45261E-04
         0.27526E-04
         0.75305E-03
         0.80666E-03
         0.87675E-03
         0.87502E-03
         0.99828E-03
         0.11499E-02
         0.10543E-02
         0.84168E-03
         0.79676E-03
         0.90362E-03
         0.86902E-03
         0.84755E-03
         0.57472E-03
         0.52591E-03
         0.62625E-03
         0.71384E-03
         0.77073E-03
         0.92062E-03
         0.84818E-03
         0.90435E-03
         0.73322E-03
         0.65853E-03
         0.73902E-03
         0.70103E-03
         0.75058E-03
         0.74419E-03
         0.31266E-04
         0.11318E-04
         0.11978E-04
         0.12466E-04
         0.30894E-04
         0.21801E-04
        -0.74339E-06
         0.17121E-04
         0.18948E-04
         0.13958E-04
        -0.45847E-05
         0.89322E-04
         0.54199E-04
        -0.68576E-05
         0.95282E-04
         0.14311E-04
         0.78341E-05
         0.85403E-05
         0.44608E-05
         0.10763E-05
         0.53365E-04
         0.50850E-04
         0.39664E-04
        -0.13017E-05
        -0.11504E-05
        -0.27243E-05
        -0.14427E-04
        -0.21725E-04
        -0.10930E-04
         0.74086E-06
         0.10040E-04
         0.22401E-06
         0.10243E-04
         0.14342E-04
         0.43073E-04
         0.15096E-04
         0.27107E-04
         0.60421E-04
         0.34441E-04
         0.30902E-04
         0.68532E-04
         0.52730E-04
         0.53585E-04
         0.27549E-04
         0.22214E-04
         0.47159E-04
         0.20930E-04
         0.16037E-04
         0.13193E-04
         0.20399E-04
         0.45214E-04
         0.27460E-04
         0.75249E-03
         0.80628E-03
         0.87669E-03
         0.87497E-03
         0.99795E-03
         0.11491E-02
         0.10534E-02
         0.84112E-03
         0.79624E-03
         0.90298E-03
         0.86874E-03
         0.84764E-03
         0.57464E-03
         0.52584E-03
         0.62637E-03
         0.71428E-03
         0.77124E-03
         0.92102E-03
         0.84804E-03
         0.90419E-03
         0.73303E-03
         0.65843E-03
         0.73850E-03
         0.70009E-03
         0.74968E-03
         0.74334E-03
         0.31422E-04
         0.11456E-04
         0.12101E-04
         0.12566E-04
         0.31014E-04
         0.21894E-04
        -0.56799E-06
         0.17304E-04
         0.19077E-04
         0.14180E-04
        -0.44146E-05
         0.89511E-04
         0.54410E-04
        -0.67413E-05
         0.95682E-04
         0.14454E-04
         0.79689E-05
         0.86373E-05
         0.46010E-05
         0.12136E-05
         0.53543E-04
         0.51000E-04
         0.39825E-04
        -0.11715E-05
        -0.94009E-06
        -0.25956E-05
        -0.14237E-04
        -0.21531E-04
        -0.10730E-04
         0.93397E-06
         0.10186E-04
         0.35350E-06
         0.10336E-04
         0.14434E-04
         0.43272E-04
         0.15228E-04
         0.27238E-04
         0.60755E-04
         0.34782E-04
         0.31171E-04
         0.68793E-04
         0.52951E-04
         0.53750E-04
         0.27724E-04
         0.22376E-04
         0.47335E-04
         0.21082E-04
         0.16177E-04
         0.13288E-04
         0.20465E-04
         0.45283E-04
         0.27502E-04
         0.75224E-03
         0.80622E-03
         0.87692E-03
         0.87516E-03
         0.99786E-03
         0.11486E-02
         0.10528E-02
         0.84085E-03
         0.79606E-03
         0.90264E-03
         0.86866E-03
         0.84799E-03
         0.57478E-03
         0.52603E-03
         0.62681E-03
         0.71501E-03
         0.77207E-03
         0.92176E-03
         0.84819E-03
         0.90435E-03
         0.73313E-03
         0.65854E-03
         0.73817E-03
         0.69940E-03
         0.74910E-03
         0.74281E-03
         0.31398E-04
         0.11416E-04
         0.12073E-04
         0.12523E-04
         0.30934E-04
         0.21833E-04
        -0.60584E-06
         0.17270E-04
         0.19047E-04
         0.14191E-04
        -0.44809E-05
         0.89446E-04
         0.54418E-04
        -0.68701E-05
         0.95811E-04
         0.14411E-04
         0.79156E-05
         0.85778E-05
         0.45202E-05
         0.11313E-05
         0.53508E-04
         0.50925E-04
         0.39783E-04
        -0.12503E-05
        -0.95747E-06
        -0.26768E-05
        -0.14307E-04
        -0.21596E-04
        -0.10730E-04
         0.92367E-06
         0.10160E-04
         0.28651E-06
         0.10273E-04
         0.14378E-04
         0.43224E-04
         0.15171E-04
         0.27197E-04
         0.60837E-04
         0.34880E-04
         0.31234E-04
         0.68831E-04
         0.52938E-04
         0.53686E-04
         0.27672E-04
         0.22312E-04
         0.47284E-04
         0.21035E-04
         0.16138E-04
         0.13212E-04
         0.20360E-04
         0.45178E-04
         0.27393E-04
         0.75148E-03
         0.80567E-03
         0.87674E-03
         0.87509E-03
         0.99751E-03
         0.11478E-02
         0.10517E-02
         0.84020E-03
         0.79547E-03
         0.90190E-03
         0.86818E-03
         0.84788E-03
         0.57458E-03
         0.52593E-03
         0.62696E-03
         0.71547E-03
         0.77253E-03
         0.92205E-03
         0.84798E-03
         0.90411E-03
         0.73289E-03
         0.65835E-03
         0.73751E-03
         0.69839E-03
         0.74819E-03
         0.74189E-03
         0.31340E-04
         0.11315E-04
         0.11983E-04
         0.12461E-04
         0.30818E-04
         0.21729E-04
        -0.67744E-06
         0.17224E-04
         0.18989E-04
         0.14129E-04
        -0.45622E-05
         0.89341E-04
         0.54376E-04
        -0.70009E-05
         0.95921E-04
         0.14353E-04
         0.78242E-05
         0.85101E-05
         0.44552E-05
         0.10884E-05
         0.53461E-04
         0.50838E-04
         0.39730E-04
        -0.13179E-05
        -0.10407E-05
        -0.27566E-05
        -0.14480E-04
        -0.21701E-04
        -0.10498E-04
         0.10683E-05
         0.10100E-04
         0.19326E-06
         0.10211E-04
         0.14341E-04
         0.43165E-04
         0.15079E-04
         0.27106E-04
         0.60855E-04
         0.34980E-04
         0.31491E-04
         0.68932E-04
         0.52918E-04
         0.53590E-04
         0.27617E-04
         0.22227E-04
         0.47195E-04
         0.20945E-04
         0.16065E-04
         0.13128E-04
         0.20268E-04
         0.45080E-04
         0.27272E-04
         0.75079E-03
         0.80517E-03
         0.87661E-03
         0.87501E-03
         0.99705E-03
         0.11468E-02
         0.10505E-02
         0.83952E-03
         0.79489E-03
         0.90127E-03
         0.86755E-03
         0.84745E-03
         0.57431E-03
         0.52578E-03
         0.62703E-03
         0.71584E-03
         0.77294E-03
         0.92233E-03
         0.84770E-03
         0.90381E-03
         0.73263E-03
         0.65817E-03
         0.73685E-03
         0.69736E-03
         0.74720E-03
         0.74093E-03
         0.31489E-04
         0.11442E-04
         0.12116E-04
         0.12581E-04
         0.30948E-04
         0.21831E-04
        -0.52181E-06
         0.17404E-04
         0.19088E-04
         0.14206E-04
        -0.44085E-05
         0.89482E-04
         0.54544E-04
        -0.68937E-05
         0.96299E-04
         0.14498E-04
         0.79231E-05
         0.86007E-05
         0.46162E-05
         0.13188E-05
         0.53612E-04
         0.50968E-04
         0.39863E-04
        -0.11775E-05
        -0.93810E-06
        -0.26162E-05
        -0.14504E-04
        -0.21580E-04
        -0.98094E-05
         0.16064E-05
         0.10227E-04
         0.32494E-06
         0.10302E-04
         0.14460E-04
         0.43376E-04
         0.15226E-04
         0.27229E-04
         0.61084E-04
         0.35345E-04
         0.32153E-04
         0.69325E-04
         0.53134E-04
         0.53695E-04
         0.27770E-04
         0.22387E-04
         0.47387E-04
         0.21104E-04
         0.16194E-04
         0.13234E-04
         0.20373E-04
         0.45186E-04
         0.27333E-04
         0.75055E-03
         0.80512E-03
         0.87690E-03
         0.87523E-03
         0.99687E-03
         0.11462E-02
         0.10499E-02
         0.83931E-03
         0.79475E-03
         0.90116E-03
         0.86716E-03
         0.84717E-03
         0.57431E-03
         0.52594E-03
         0.62737E-03
         0.71645E-03
         0.77363E-03
         0.92301E-03
         0.84790E-03
         0.90399E-03
         0.73276E-03
         0.65837E-03
         0.73662E-03
         0.69672E-03
         0.74659E-03
         0.74038E-03
         0.31071E-04
         0.10975E-04
         0.11670E-04
         0.12158E-04
         0.30392E-04
         0.21310E-04
        -0.10215E-05
         0.16911E-04
         0.18629E-04
         0.13660E-04
        -0.49803E-05
         0.88820E-04
         0.53969E-04
        -0.75482E-05
         0.95837E-04
         0.14071E-04
         0.74167E-05
         0.81563E-05
         0.41088E-05
         0.82558E-06
         0.53050E-04
         0.50392E-04
         0.39307E-04
        -0.16735E-05
        -0.14898E-05
        -0.30873E-05
        -0.15212E-04
        -0.22171E-04
        -0.10059E-04
         0.12827E-05
         0.97938E-05
        -0.16570E-06
         0.98314E-05
         0.13983E-04
         0.42800E-04
         0.14668E-04
         0.26647E-04
         0.60523E-04
         0.34918E-04
         0.31889E-04
         0.68850E-04
         0.52570E-04
         0.53097E-04
         0.27235E-04
         0.21812E-04
         0.46744E-04
         0.20538E-04
         0.15676E-04
         0.12698E-04
         0.19781E-04
         0.44513E-04
         0.26719E-04
         0.74888E-03
         0.80366E-03
         0.87575E-03
         0.87410E-03
         0.99541E-03
         0.11443E-02
         0.10479E-02
         0.83767E-03
         0.79323E-03
         0.89951E-03
         0.86547E-03
         0.84583E-03
         0.57321E-03
         0.52501E-03
         0.62660E-03
         0.71594E-03
         0.77315E-03
         0.92229E-03
         0.84661E-03
         0.90275E-03
         0.73158E-03
         0.65730E-03
         0.73507E-03
         0.69474E-03
         0.74475E-03
         0.73860E-03
         0.31357E-04
         0.11007E-04
         0.11763E-04
         0.12335E-04
         0.30551E-04
         0.21463E-04
        -0.93406E-06
         0.17262E-04
         0.18984E-04
         0.14232E-04
        -0.48175E-05
         0.88835E-04
         0.53856E-04
        -0.72179E-05
         0.96352E-04
         0.14447E-04
         0.77795E-05
         0.83876E-05
         0.43943E-05
         0.11085E-05
         0.53332E-04
         0.50587E-04
         0.39722E-04
        -0.13017E-05
        -0.88171E-06
        -0.27417E-05
        -0.14602E-04
        -0.21494E-04
        -0.94814E-05
         0.18241E-05
         0.10088E-04
         0.47171E-07
         0.99495E-05
         0.13918E-04
         0.42938E-04
         0.14622E-04
         0.26476E-04
         0.61103E-04
         0.35553E-04
         0.32374E-04
         0.69200E-04
         0.52974E-04
         0.53491E-04
         0.27631E-04
         0.22028E-04
         0.46862E-04
         0.20635E-04
         0.15905E-04
         0.12850E-04
         0.19755E-04
         0.44519E-04
         0.26677E-04
         0.74875E-03
         0.80385E-03
         0.87586E-03
         0.87387E-03
         0.99459E-03
         0.11432E-02
         0.10475E-02
         0.83774E-03
         0.79325E-03
         0.89911E-03
         0.86527E-03
         0.84627E-03
         0.57364E-03
         0.52521E-03
         0.62723E-03
         0.71703E-03
         0.77421E-03
         0.92312E-03
         0.84668E-03
         0.90262E-03
         0.73168E-03
         0.65757E-03
         0.73508E-03
         0.69447E-03
         0.74443E-03
         0.73834E-03
         0.17766E-02
         0.18313E-02
         0.18181E-02
         0.16607E-02
         0.21199E-02
         0.19716E-02
         0.19694E-02
         0.20125E-02
         0.17343E-02
         0.20154E-02
         0.21893E-02
         0.26238E-02
         0.23279E-02
         0.22583E-02
         0.27050E-02
         0.16914E-02
         0.18119E-02
         0.15849E-02
         0.18851E-02
         0.19684E-02
         0.21445E-02
         0.21583E-02
         0.20469E-02
         0.17983E-02
         0.20068E-02
         0.17212E-02
         0.22289E-02
         0.21536E-02
         0.21674E-02
         0.20785E-02
         0.17048E-02
         0.17831E-02
         0.16693E-02
         0.17461E-02
         0.23667E-02
         0.20978E-02
         0.21126E-02
         0.25376E-02
         0.24198E-02
         0.23795E-02
         0.24851E-02
         0.23366E-02
         0.22182E-02
         0.19763E-02
         0.20551E-02
         0.23848E-02
         0.21368E-02
         0.19866E-02
         0.19366E-02
         0.20187E-02
         0.22592E-02
         0.20424E-02
         0.48131E-02
         0.47705E-02
         0.49211E-02
         0.47815E-02
         0.50138E-02
         0.53499E-02
         0.52772E-02
         0.50262E-02
         0.50197E-02
         0.52437E-02
         0.50835E-02
         0.48276E-02
         0.41190E-02
         0.38694E-02
         0.40243E-02
         0.41967E-02
         0.42961E-02
         0.47526E-02
         0.49452E-02
         0.50094E-02
         0.45041E-02
         0.43024E-02
         0.45103E-02
         0.44313E-02
         0.44490E-02
         0.44454E-02
         0.18745E-01
         0.19599E-01
         0.19328E-01
         0.17707E-01
         0.21614E-01
         0.20348E-01
         0.21134E-01
         0.21298E-01
         0.18348E-01
         0.21287E-01
         0.23119E-01
         0.25865E-01
         0.23502E-01
         0.23766E-01
         0.26750E-01
         0.17994E-01
         0.19284E-01
         0.16931E-01
         0.19889E-01
         0.20881E-01
         0.21598E-01
         0.22048E-01
         0.20758E-01
         0.19160E-01
         0.21521E-01
         0.18518E-01
         0.23684E-01
         0.23294E-01
         0.23396E-01
         0.22251E-01
         0.18180E-01
         0.19081E-01
         0.17842E-01
         0.18623E-01
         0.23594E-01
         0.21706E-01
         0.21779E-01
         0.25902E-01
         0.25237E-01
         0.24940E-01
         0.25397E-01
         0.24152E-01
         0.22889E-01
         0.20277E-01
         0.21078E-01
         0.23589E-01
         0.21864E-01
         0.20608E-01
         0.20215E-01
         0.20929E-01
         0.22661E-01
         0.20989E-01
         0.37639E-01
         0.36778E-01
         0.37615E-01
         0.36497E-01
         0.37672E-01
         0.39689E-01
         0.40186E-01
         0.39821E-01
         0.40023E-01
         0.41031E-01
         0.39876E-01
         0.37602E-01
         0.33572E-01
         0.31751E-01
         0.31967E-01
         0.32468E-01
         0.32836E-01
         0.35631E-01
         0.37906E-01
         0.38118E-01
         0.35232E-01
         0.34114E-01
         0.35286E-01
         0.34998E-01
         0.34678E-01
         0.34563E-01
  
SCALARS                      strain_yz  double 1
LOOKUP_TABLE default
         0.52616E-03
        -0.16954E-03
        -0.44955E-03
        -0.23946E-03
        -0.10526E-09
        -0.29012E-10
        -0.13045E-09
        -0.99498E-10
        -0.16493E-02
         0.10967E-02
        -0.19413E-09
        -0.17091E-09
        -0.13796E-02
        -0.70023E-04
         0.13893E-09
        -0.89075E-11
         0.52368E-03
         0.17695E-02
         0.20440E-11
         0.20915E-10
        -0.88256E-03
        -0.32170E-02
        -0.35178E-02
         0.31848E-09
         0.55001E-09
         0.45974E-09
        -0.31748E-03
        -0.31080E-02
         0.22909E-09
         0.44443E-09
         0.59749E-03
         0.49980E-03
        -0.45940E-03
         0.11876E-09
         0.12124E-09
        -0.25170E-11
         0.17344E-02
         0.15824E-02
         0.21855E-09
         0.17004E-09
         0.16692E-02
         0.10177E-02
         0.16517E-09
         0.15094E-09
         0.15671E-02
         0.54836E-03
        -0.54789E-11
         0.84747E-10
         0.12982E-02
         0.39901E-10
         0.14513E-03
        -0.32317E-11
         0.72269E-04
         0.15434E-09
        -0.47159E-03
         0.89784E-10
        -0.15385E-02
         0.28825E-03
         0.24358E-11
        -0.49437E-11
         0.72398E-03
         0.26008E-02
        -0.33187E-10
        -0.12414E-09
         0.44138E-03
        -0.66989E-10
         0.18606E-02
        -0.81608E-10
        -0.14368E-02
        -0.75704E-03
        -0.10085E-10
         0.13316E-09
        -0.26154E-02
         0.29240E-09
        -0.38734E-02
         0.28312E-09
        -0.38732E-02
         0.21492E-09
        -0.32054E-02
         0.18014E-09
        -0.48206E-02
        -0.37939E-02
         0.11556E-09
        -0.25621E-10
        -0.55689E-03
        -0.28669E-11
         0.24472E-02
        -0.17959E-09
         0.56762E-02
        -0.31439E-09
         0.78080E-02
         0.47970E-02
        -0.46631E-09
        -0.37743E-09
         0.34105E-02
        -0.29299E-09
         0.30836E-02
        -0.29974E-09
         0.29802E-02
        -0.32229E-09
         0.49473E-02
         0.41401E-02
        -0.29971E-09
        -0.14361E-09
        -0.31909E-02
         0.12314E-02
         0.10538E-09
        -0.13096E-09
        -0.78163E-02
         0.35059E-09
        -0.11442E-01
         0.51282E-09
        -0.13704E-01
         0.63334E-09
        -0.15273E-01
         0.62822E-09
        -0.17054E-01
         0.49715E-09
        -0.16858E-01
         0.38474E-09
        -0.15818E-01
         0.35784E-09
        -0.14091E-01
         0.34046E-09
        -0.10657E-01
         0.21758E-09
        -0.76721E-02
         0.71835E-10
        -0.41050E-02
         0.46417E-10
         0.30587E-03
         0.69769E-10
         0.41942E-02
         0.36035E-10
         0.76850E-02
        -0.10898E-09
         0.11884E-01
        -0.30760E-09
         0.12686E-01
        -0.48032E-09
         0.13344E-01
        -0.62969E-09
         0.16814E-01
        -0.62915E-09
         0.17798E-01
        -0.54922E-09
         0.16628E-01
        -0.53527E-09
         0.13274E-01
        -0.53860E-09
         0.90261E-02
        -0.42591E-09
         0.64841E-02
        -0.25186E-09
         0.47475E-02
        -0.19474E-09
        -0.51024E-02
        -0.26757E-02
        -0.23315E-02
        -0.71114E-03
        -0.24234E-02
        -0.25363E-02
        -0.27263E-03
        -0.41488E-02
        -0.34797E-02
        -0.51790E-02
         0.27831E-02
         0.11913E-01
         0.80718E-02
         0.93549E-03
         0.11993E-01
         0.13446E-02
        -0.11953E-02
         0.76228E-03
         0.10214E-02
        -0.76851E-03
         0.71039E-03
         0.58326E-03
        -0.19752E-02
         0.16612E-03
        -0.35339E-02
         0.52273E-03
         0.27420E-04
         0.47886E-03
         0.58650E-03
        -0.27911E-02
         0.13146E-02
        -0.14505E-02
         0.95614E-03
        -0.23551E-03
         0.40329E-03
         0.21615E-02
         0.48210E-02
         0.10489E-01
         0.95916E-02
         0.81870E-02
         0.77651E-02
         0.18949E-02
        -0.15227E-02
        -0.41868E-02
        -0.69819E-02
        -0.11583E-01
        -0.75001E-02
        -0.52996E-02
        -0.56602E-02
        -0.60827E-02
        -0.72163E-02
        -0.32477E-02
         0.64060E-02
        -0.76083E-02
         0.20652E-01
         0.28454E-01
         0.36309E-01
         0.43423E-01
         0.43947E-01
         0.39853E-01
         0.37882E-01
         0.35833E-01
         0.23211E-01
         0.10015E-01
         0.43743E-02
         0.19229E-02
        -0.29320E-02
        -0.11552E-01
        -0.21238E-01
        -0.27887E-01
        -0.34395E-01
        -0.39272E-01
        -0.36744E-01
        -0.34731E-01
        -0.32350E-01
        -0.22636E-01
        -0.13103E-01
        -0.11465E-01
        -0.65527E-02
        -0.41329E-02
        -0.38244E-02
        -0.90712E-03
        -0.49672E-02
        -0.22340E-02
        -0.17715E-02
        -0.61932E-02
        -0.40613E-02
        -0.58249E-02
         0.30796E-02
         0.13328E-01
         0.78960E-02
         0.11347E-02
         0.13131E-01
         0.24850E-02
        -0.75307E-03
         0.71897E-03
         0.32406E-02
         0.62652E-03
         0.27932E-02
         0.19831E-02
        -0.11497E-02
         0.97040E-03
        -0.39224E-02
         0.97019E-03
         0.24346E-03
         0.45258E-03
        -0.72293E-03
        -0.39128E-02
         0.26781E-02
         0.70546E-03
         0.17310E-02
         0.15030E-02
        -0.71667E-03
         0.21846E-02
         0.41710E-02
         0.99798E-02
         0.88006E-02
         0.77558E-02
         0.56978E-02
        -0.14079E-02
        -0.29000E-02
        -0.36224E-02
        -0.46645E-02
        -0.95284E-02
        -0.55444E-02
        -0.36664E-02
        -0.46080E-02
        -0.54399E-02
        -0.56367E-02
        -0.42292E-03
         0.70275E-02
        -0.10052E-01
         0.23393E-01
         0.30231E-01
         0.39018E-01
         0.46822E-01
         0.45862E-01
         0.40050E-01
         0.38382E-01
         0.37975E-01
         0.23847E-01
         0.78597E-02
         0.31317E-02
         0.26835E-02
        -0.12429E-02
        -0.10543E-01
        -0.21122E-01
        -0.29397E-01
        -0.38259E-01
        -0.42424E-01
        -0.37253E-01
        -0.35220E-01
        -0.35115E-01
        -0.24724E-01
        -0.12844E-01
        -0.12161E-01
        -0.65568E-02
        -0.41336E-02
        -0.38263E-02
        -0.91378E-03
        -0.49678E-02
        -0.22358E-02
        -0.17738E-02
        -0.62036E-02
        -0.40686E-02
        -0.58466E-02
         0.30814E-02
         0.13327E-01
         0.78980E-02
         0.11347E-02
         0.13148E-01
         0.24851E-02
        -0.75992E-03
         0.71789E-03
         0.32428E-02
         0.62303E-03
         0.28001E-02
         0.19850E-02
        -0.11500E-02
         0.96993E-03
        -0.39402E-02
         0.96843E-03
         0.24633E-03
         0.45511E-03
        -0.71816E-03
        -0.39210E-02
         0.26786E-02
         0.70392E-03
         0.17348E-02
         0.15055E-02
        -0.70994E-03
         0.21860E-02
         0.41709E-02
         0.99952E-02
         0.88196E-02
         0.77648E-02
         0.57021E-02
        -0.14041E-02
        -0.29030E-02
        -0.36242E-02
        -0.46646E-02
        -0.95285E-02
        -0.55450E-02
        -0.36642E-02
        -0.46019E-02
        -0.54327E-02
        -0.56343E-02
        -0.41652E-03
         0.70209E-02
        -0.10053E-01
         0.23397E-01
         0.30231E-01
         0.39013E-01
         0.46806E-01
         0.45843E-01
         0.40038E-01
         0.38374E-01
         0.37965E-01
         0.23842E-01
         0.78633E-02
         0.31315E-02
         0.26890E-02
        -0.12327E-02
        -0.10549E-01
        -0.21132E-01
        -0.29404E-01
        -0.38258E-01
        -0.42421E-01
        -0.37251E-01
        -0.35219E-01
        -0.35106E-01
        -0.24707E-01
        -0.12830E-01
        -0.12145E-01
        -0.65609E-02
        -0.41344E-02
        -0.38283E-02
        -0.92050E-03
        -0.49684E-02
        -0.22376E-02
        -0.17760E-02
        -0.62141E-02
        -0.40759E-02
        -0.58682E-02
         0.30833E-02
         0.13326E-01
         0.79000E-02
         0.11346E-02
         0.13165E-01
         0.24853E-02
        -0.76685E-03
         0.71680E-03
         0.32450E-02
         0.61947E-03
         0.28070E-02
         0.19869E-02
        -0.11504E-02
         0.96934E-03
        -0.39578E-02
         0.96642E-03
         0.24939E-03
         0.45780E-03
        -0.71295E-03
        -0.39290E-02
         0.26790E-02
         0.70206E-03
         0.17387E-02
         0.15079E-02
        -0.70317E-03
         0.21875E-02
         0.41706E-02
         0.10011E-01
         0.88386E-02
         0.77738E-02
         0.57068E-02
        -0.13999E-02
        -0.29058E-02
        -0.36266E-02
        -0.46652E-02
        -0.95287E-02
        -0.55455E-02
        -0.36620E-02
        -0.45958E-02
        -0.54253E-02
        -0.56319E-02
        -0.41014E-03
         0.70144E-02
        -0.10053E-01
         0.23402E-01
         0.30232E-01
         0.39009E-01
         0.46790E-01
         0.45824E-01
         0.40026E-01
         0.38366E-01
         0.37954E-01
         0.23837E-01
         0.78672E-02
         0.31313E-02
         0.26945E-02
        -0.12226E-02
        -0.10555E-01
        -0.21142E-01
        -0.29411E-01
        -0.38258E-01
        -0.42419E-01
        -0.37248E-01
        -0.35217E-01
        -0.35097E-01
        -0.24689E-01
        -0.12816E-01
        -0.12129E-01
        -0.65650E-02
        -0.41352E-02
        -0.38302E-02
        -0.92726E-03
        -0.49689E-02
        -0.22394E-02
        -0.17783E-02
        -0.62244E-02
        -0.40833E-02
        -0.58896E-02
         0.30851E-02
         0.13325E-01
         0.79021E-02
         0.11346E-02
         0.13182E-01
         0.24855E-02
        -0.77389E-03
         0.71568E-03
         0.32474E-02
         0.61571E-03
         0.28142E-02
         0.19886E-02
        -0.11514E-02
         0.96838E-03
        -0.39748E-02
         0.96377E-03
         0.25256E-03
         0.46136E-03
        -0.70650E-03
        -0.39363E-02
         0.26792E-02
         0.69953E-03
         0.17425E-02
         0.15103E-02
        -0.69643E-03
         0.21889E-02
         0.41703E-02
         0.10026E-01
         0.88581E-02
         0.77835E-02
         0.57121E-02
        -0.13946E-02
        -0.29080E-02
        -0.36301E-02
        -0.46666E-02
        -0.95292E-02
        -0.55464E-02
        -0.36598E-02
        -0.45897E-02
        -0.54180E-02
        -0.56294E-02
        -0.40378E-03
         0.70078E-02
        -0.10054E-01
         0.23406E-01
         0.30232E-01
         0.39004E-01
         0.46774E-01
         0.45805E-01
         0.40014E-01
         0.38358E-01
         0.37944E-01
         0.23832E-01
         0.78719E-02
         0.31314E-02
         0.26999E-02
        -0.12123E-02
        -0.10561E-01
        -0.21153E-01
        -0.29419E-01
        -0.38257E-01
        -0.42416E-01
        -0.37246E-01
        -0.35216E-01
        -0.35088E-01
        -0.24672E-01
        -0.12802E-01
        -0.12113E-01
        -0.65691E-02
        -0.41359E-02
        -0.38321E-02
        -0.93398E-03
        -0.49695E-02
        -0.22412E-02
        -0.17805E-02
        -0.62347E-02
        -0.40906E-02
        -0.59107E-02
         0.30870E-02
         0.13324E-01
         0.79041E-02
         0.11347E-02
         0.13199E-01
         0.24857E-02
        -0.78104E-03
         0.71456E-03
         0.32499E-02
         0.61173E-03
         0.28214E-02
         0.19900E-02
        -0.11529E-02
         0.96703E-03
        -0.39911E-02
         0.96045E-03
         0.25609E-03
         0.46572E-03
        -0.69874E-03
        -0.39427E-02
         0.26792E-02
         0.69623E-03
         0.17463E-02
         0.15128E-02
        -0.68964E-03
         0.21904E-02
         0.41701E-02
         0.10042E-01
         0.88778E-02
         0.77938E-02
         0.57181E-02
        -0.13881E-02
        -0.29098E-02
        -0.36350E-02
        -0.46689E-02
        -0.95304E-02
        -0.55476E-02
        -0.36578E-02
        -0.45837E-02
        -0.54107E-02
        -0.56270E-02
        -0.39738E-03
         0.70012E-02
        -0.10055E-01
         0.23410E-01
         0.30232E-01
         0.38999E-01
         0.46758E-01
         0.45785E-01
         0.40002E-01
         0.38350E-01
         0.37933E-01
         0.23829E-01
         0.78774E-02
         0.31317E-02
         0.27053E-02
        -0.12020E-02
        -0.10568E-01
        -0.21166E-01
        -0.29428E-01
        -0.38257E-01
        -0.42413E-01
        -0.37243E-01
        -0.35214E-01
        -0.35079E-01
        -0.24654E-01
        -0.12788E-01
        -0.12097E-01
        -0.65729E-02
        -0.41364E-02
        -0.38340E-02
        -0.94078E-03
        -0.49701E-02
        -0.22430E-02
        -0.17825E-02
        -0.62446E-02
        -0.40980E-02
        -0.59312E-02
         0.30891E-02
         0.13323E-01
         0.79062E-02
         0.11349E-02
         0.13215E-01
         0.24861E-02
        -0.78835E-03
         0.71347E-03
         0.32524E-02
         0.60768E-03
         0.28286E-02
         0.19915E-02
        -0.11547E-02
         0.96554E-03
        -0.40071E-02
         0.95690E-03
         0.25988E-03
         0.47054E-03
        -0.69045E-03
        -0.39489E-02
         0.26791E-02
         0.69256E-03
         0.17502E-02
         0.15153E-02
        -0.68281E-03
         0.21920E-02
         0.41701E-02
         0.10057E-01
         0.88978E-02
         0.78045E-02
         0.57244E-02
        -0.13812E-02
        -0.29113E-02
        -0.36403E-02
        -0.46717E-02
        -0.95320E-02
        -0.55491E-02
        -0.36561E-02
        -0.45780E-02
        -0.54035E-02
        -0.56246E-02
        -0.39098E-03
         0.69946E-02
        -0.10055E-01
         0.23415E-01
         0.30232E-01
         0.38994E-01
         0.46742E-01
         0.45766E-01
         0.39990E-01
         0.38342E-01
         0.37923E-01
         0.23825E-01
         0.78832E-02
         0.31321E-02
         0.27106E-02
        -0.11917E-02
        -0.10575E-01
        -0.21180E-01
        -0.29437E-01
        -0.38256E-01
        -0.42411E-01
        -0.37241E-01
        -0.35213E-01
        -0.35070E-01
        -0.24636E-01
        -0.12774E-01
        -0.12081E-01
        -0.65764E-02
        -0.41363E-02
        -0.38359E-02
        -0.94775E-03
        -0.49707E-02
        -0.22448E-02
        -0.17840E-02
        -0.62535E-02
        -0.41056E-02
        -0.59509E-02
         0.30916E-02
         0.13322E-01
         0.79088E-02
         0.11358E-02
         0.13232E-01
         0.24865E-02
        -0.79583E-03
         0.71236E-03
         0.32549E-02
         0.60362E-03
         0.28359E-02
         0.19929E-02
        -0.11564E-02
         0.96408E-03
        -0.40227E-02
         0.95333E-03
         0.26435E-03
         0.47567E-03
        -0.68200E-03
        -0.39548E-02
         0.26788E-02
         0.68863E-03
         0.17542E-02
         0.15180E-02
        -0.67596E-03
         0.21936E-02
         0.41702E-02
         0.10073E-01
         0.89180E-02
         0.78151E-02
         0.57308E-02
        -0.13741E-02
        -0.29128E-02
        -0.36455E-02
        -0.46748E-02
        -0.95339E-02
        -0.55514E-02
        -0.36555E-02
        -0.45732E-02
        -0.53966E-02
        -0.56223E-02
        -0.38450E-03
         0.69880E-02
        -0.10056E-01
         0.23419E-01
         0.30233E-01
         0.38990E-01
         0.46726E-01
         0.45746E-01
         0.39978E-01
         0.38334E-01
         0.37912E-01
         0.23821E-01
         0.78890E-02
         0.31325E-02
         0.27159E-02
        -0.11815E-02
        -0.10581E-01
        -0.21193E-01
        -0.29446E-01
        -0.38255E-01
        -0.42408E-01
        -0.37239E-01
        -0.35212E-01
        -0.35061E-01
        -0.24619E-01
        -0.12760E-01
        -0.12065E-01
        -0.65798E-02
        -0.41360E-02
        -0.38377E-02
        -0.95483E-03
        -0.49714E-02
        -0.22466E-02
        -0.17852E-02
        -0.62620E-02
        -0.41132E-02
        -0.59701E-02
         0.30944E-02
         0.13321E-01
         0.79114E-02
         0.11368E-02
         0.13249E-01
         0.24869E-02
        -0.80340E-03
         0.71123E-03
         0.32574E-02
         0.59957E-03
         0.28432E-02
         0.19944E-02
        -0.11582E-02
         0.96267E-03
        -0.40381E-02
         0.94978E-03
         0.26899E-03
         0.48093E-03
        -0.67352E-03
        -0.39607E-02
         0.26786E-02
         0.68452E-03
         0.17583E-02
         0.15208E-02
        -0.66905E-03
         0.21955E-02
         0.41705E-02
         0.10089E-01
         0.89382E-02
         0.78258E-02
         0.57373E-02
        -0.13670E-02
        -0.29142E-02
        -0.36509E-02
        -0.46780E-02
        -0.95360E-02
        -0.55539E-02
        -0.36553E-02
        -0.45688E-02
        -0.53898E-02
        -0.56200E-02
        -0.37803E-03
         0.69814E-02
        -0.10056E-01
         0.23423E-01
         0.30233E-01
         0.38985E-01
         0.46710E-01
         0.45727E-01
         0.39966E-01
         0.38326E-01
         0.37901E-01
         0.23817E-01
         0.78948E-02
         0.31330E-02
         0.27214E-02
        -0.11712E-02
        -0.10588E-01
        -0.21207E-01
        -0.29455E-01
        -0.38254E-01
        -0.42405E-01
        -0.37237E-01
        -0.35212E-01
        -0.35052E-01
        -0.24601E-01
        -0.12745E-01
        -0.12049E-01
        -0.65832E-02
        -0.41358E-02
        -0.38396E-02
        -0.96190E-03
        -0.49720E-02
        -0.22484E-02
        -0.17864E-02
        -0.62705E-02
        -0.41209E-02
        -0.59892E-02
         0.30970E-02
         0.13321E-01
         0.79140E-02
         0.11380E-02
         0.13266E-01
         0.24874E-02
        -0.81102E-03
         0.71009E-03
         0.32599E-02
         0.59548E-03
         0.28505E-02
         0.19959E-02
        -0.11599E-02
         0.96126E-03
        -0.40535E-02
         0.94625E-03
         0.27375E-03
         0.48613E-03
        -0.66506E-03
        -0.39667E-02
         0.26783E-02
         0.68047E-03
         0.17624E-02
         0.15236E-02
        -0.66211E-03
         0.21971E-02
         0.41707E-02
         0.10106E-01
         0.89585E-02
         0.78364E-02
         0.57437E-02
        -0.13600E-02
        -0.29156E-02
        -0.36562E-02
        -0.46813E-02
        -0.95382E-02
        -0.55563E-02
        -0.36550E-02
        -0.45645E-02
        -0.53831E-02
        -0.56178E-02
        -0.37152E-03
         0.69749E-02
        -0.10057E-01
         0.23427E-01
         0.30233E-01
         0.38980E-01
         0.46695E-01
         0.45707E-01
         0.39954E-01
         0.38318E-01
         0.37890E-01
         0.23813E-01
         0.79006E-02
         0.31335E-02
         0.27269E-02
        -0.11609E-02
        -0.10595E-01
        -0.21220E-01
        -0.29464E-01
        -0.38253E-01
        -0.42402E-01
        -0.37235E-01
        -0.35211E-01
        -0.35043E-01
        -0.24583E-01
        -0.12732E-01
        -0.12033E-01
        -0.65865E-02
        -0.41354E-02
        -0.38414E-02
        -0.96893E-03
        -0.49727E-02
        -0.22502E-02
        -0.17876E-02
        -0.62790E-02
        -0.41285E-02
        -0.60083E-02
         0.30998E-02
         0.13320E-01
         0.79168E-02
         0.11390E-02
         0.13283E-01
         0.24879E-02
        -0.81867E-03
         0.70896E-03
         0.32624E-02
         0.59136E-03
         0.28577E-02
         0.19974E-02
        -0.11615E-02
         0.95986E-03
        -0.40688E-02
         0.94272E-03
         0.27838E-03
         0.49127E-03
        -0.65663E-03
        -0.39726E-02
         0.26779E-02
         0.67639E-03
         0.17664E-02
         0.15263E-02
        -0.65517E-03
         0.21989E-02
         0.41711E-02
         0.10122E-01
         0.89788E-02
         0.78471E-02
         0.57501E-02
        -0.13530E-02
        -0.29170E-02
        -0.36615E-02
        -0.46844E-02
        -0.95404E-02
        -0.55589E-02
        -0.36549E-02
        -0.45601E-02
        -0.53763E-02
        -0.56154E-02
        -0.36504E-03
         0.69682E-02
        -0.10057E-01
         0.23431E-01
         0.30233E-01
         0.38976E-01
         0.46678E-01
         0.45687E-01
         0.39941E-01
         0.38310E-01
         0.37879E-01
         0.23809E-01
         0.79063E-02
         0.31340E-02
         0.27324E-02
        -0.11506E-02
        -0.10602E-01
        -0.21233E-01
        -0.29473E-01
        -0.38252E-01
        -0.42399E-01
        -0.37233E-01
        -0.35210E-01
        -0.35033E-01
        -0.24566E-01
        -0.12718E-01
        -0.12017E-01
        -0.65898E-02
        -0.41351E-02
        -0.38432E-02
        -0.97596E-03
        -0.49733E-02
        -0.22520E-02
        -0.17889E-02
        -0.62874E-02
        -0.41361E-02
        -0.60273E-02
         0.31025E-02
         0.13319E-01
         0.79194E-02
         0.11401E-02
         0.13300E-01
         0.24884E-02
        -0.82633E-03
         0.70783E-03
         0.32649E-02
         0.58722E-03
         0.28650E-02
         0.19988E-02
        -0.11633E-02
         0.95848E-03
        -0.40842E-02
         0.93920E-03
         0.28309E-03
         0.49634E-03
        -0.64821E-03
        -0.39785E-02
         0.26777E-02
         0.67233E-03
         0.17705E-02
         0.15291E-02
        -0.64821E-03
         0.22007E-02
         0.41714E-02
         0.10138E-01
         0.89991E-02
         0.78576E-02
         0.57565E-02
        -0.13460E-02
        -0.29184E-02
        -0.36668E-02
        -0.46877E-02
        -0.95425E-02
        -0.55615E-02
        -0.36547E-02
        -0.45558E-02
        -0.53695E-02
        -0.56132E-02
        -0.35854E-03
         0.69616E-02
        -0.10058E-01
         0.23435E-01
         0.30234E-01
         0.38971E-01
         0.46662E-01
         0.45667E-01
         0.39929E-01
         0.38302E-01
         0.37868E-01
         0.23805E-01
         0.79120E-02
         0.31345E-02
         0.27378E-02
        -0.11404E-02
        -0.10609E-01
        -0.21247E-01
        -0.29481E-01
        -0.38251E-01
        -0.42397E-01
        -0.37232E-01
        -0.35209E-01
        -0.35024E-01
        -0.24548E-01
        -0.12704E-01
        -0.12001E-01
        -0.65931E-02
        -0.41348E-02
        -0.38450E-02
        -0.98305E-03
        -0.49739E-02
        -0.22537E-02
        -0.17901E-02
        -0.62958E-02
        -0.41438E-02
        -0.60464E-02
         0.31053E-02
         0.13319E-01
         0.79220E-02
         0.11412E-02
         0.13317E-01
         0.24889E-02
        -0.83400E-03
         0.70667E-03
         0.32674E-02
         0.58312E-03
         0.28722E-02
         0.20002E-02
        -0.11650E-02
         0.95711E-03
        -0.40995E-02
         0.93570E-03
         0.28770E-03
         0.50139E-03
        -0.63978E-03
        -0.39843E-02
         0.26773E-02
         0.66826E-03
         0.17745E-02
         0.15319E-02
        -0.64120E-03
         0.22024E-02
         0.41716E-02
         0.10154E-01
         0.90194E-02
         0.78682E-02
         0.57630E-02
        -0.13390E-02
        -0.29198E-02
        -0.36720E-02
        -0.46909E-02
        -0.95448E-02
        -0.55640E-02
        -0.36546E-02
        -0.45514E-02
        -0.53628E-02
        -0.56110E-02
        -0.35206E-03
         0.69549E-02
        -0.10058E-01
         0.23439E-01
         0.30234E-01
         0.38966E-01
         0.46646E-01
         0.45648E-01
         0.39917E-01
         0.38294E-01
         0.37857E-01
         0.23801E-01
         0.79177E-02
         0.31350E-02
         0.27432E-02
        -0.11300E-02
        -0.10616E-01
        -0.21260E-01
        -0.29490E-01
        -0.38250E-01
        -0.42394E-01
        -0.37230E-01
        -0.35208E-01
        -0.35015E-01
        -0.24530E-01
        -0.12690E-01
        -0.11985E-01
        -0.65964E-02
        -0.41344E-02
        -0.38469E-02
        -0.99016E-03
        -0.49746E-02
        -0.22555E-02
        -0.17914E-02
        -0.63042E-02
        -0.41515E-02
        -0.60653E-02
         0.31081E-02
         0.13318E-01
         0.79247E-02
         0.11421E-02
         0.13335E-01
         0.24893E-02
        -0.84168E-03
         0.70550E-03
         0.32699E-02
         0.57904E-03
         0.28795E-02
         0.20016E-02
        -0.11667E-02
         0.95575E-03
        -0.41148E-02
         0.93217E-03
         0.29244E-03
         0.50638E-03
        -0.63138E-03
        -0.39902E-02
         0.26770E-02
         0.66415E-03
         0.17785E-02
         0.15347E-02
        -0.63420E-03
         0.22043E-02
         0.41719E-02
         0.10170E-01
         0.90398E-02
         0.78788E-02
         0.57694E-02
        -0.13320E-02
        -0.29212E-02
        -0.36774E-02
        -0.46942E-02
        -0.95467E-02
        -0.55666E-02
        -0.36544E-02
        -0.45471E-02
        -0.53561E-02
        -0.56086E-02
        -0.34559E-03
         0.69483E-02
        -0.10059E-01
         0.23443E-01
         0.30234E-01
         0.38961E-01
         0.46630E-01
         0.45628E-01
         0.39905E-01
         0.38286E-01
         0.37846E-01
         0.23797E-01
         0.79234E-02
         0.31354E-02
         0.27487E-02
        -0.11197E-02
        -0.10623E-01
        -0.21274E-01
        -0.29499E-01
        -0.38249E-01
        -0.42391E-01
        -0.37228E-01
        -0.35208E-01
        -0.35005E-01
        -0.24513E-01
        -0.12676E-01
        -0.11969E-01
        -0.65997E-02
        -0.41342E-02
        -0.38487E-02
        -0.99726E-03
        -0.49752E-02
        -0.22573E-02
        -0.17927E-02
        -0.63125E-02
        -0.41592E-02
        -0.60843E-02
         0.31109E-02
         0.13317E-01
         0.79273E-02
         0.11432E-02
         0.13352E-01
         0.24898E-02
        -0.84939E-03
         0.70435E-03
         0.32723E-02
         0.57495E-03
         0.28868E-02
         0.20030E-02
        -0.11684E-02
         0.95439E-03
        -0.41301E-02
         0.92863E-03
         0.29706E-03
         0.51131E-03
        -0.62301E-03
        -0.39961E-02
         0.26767E-02
         0.66008E-03
         0.17826E-02
         0.15375E-02
        -0.62717E-03
         0.22060E-02
         0.41721E-02
         0.10187E-01
         0.90601E-02
         0.78893E-02
         0.57759E-02
        -0.13250E-02
        -0.29227E-02
        -0.36826E-02
        -0.46974E-02
        -0.95489E-02
        -0.55692E-02
        -0.36542E-02
        -0.45427E-02
        -0.53494E-02
        -0.56064E-02
        -0.33915E-03
         0.69416E-02
        -0.10059E-01
         0.23447E-01
         0.30234E-01
         0.38957E-01
         0.46614E-01
         0.45608E-01
         0.39892E-01
         0.38278E-01
         0.37835E-01
         0.23794E-01
         0.79292E-02
         0.31359E-02
         0.27541E-02
        -0.11095E-02
        -0.10630E-01
        -0.21287E-01
        -0.29508E-01
        -0.38248E-01
        -0.42388E-01
        -0.37226E-01
        -0.35207E-01
        -0.34996E-01
        -0.24495E-01
        -0.12662E-01
        -0.11953E-01
        -0.66030E-02
        -0.41339E-02
        -0.38505E-02
        -0.10043E-02
        -0.49758E-02
        -0.22591E-02
        -0.17939E-02
        -0.63208E-02
        -0.41669E-02
        -0.61032E-02
         0.31136E-02
         0.13317E-01
         0.79299E-02
         0.11441E-02
         0.13369E-01
         0.24903E-02
        -0.85714E-03
         0.70321E-03
         0.32748E-02
         0.57083E-03
         0.28940E-02
         0.20044E-02
        -0.11701E-02
         0.95306E-03
        -0.41454E-02
         0.92511E-03
         0.30176E-03
         0.51614E-03
        -0.61467E-03
        -0.40019E-02
         0.26764E-02
         0.65598E-03
         0.17866E-02
         0.15403E-02
        -0.62014E-03
         0.22078E-02
         0.41724E-02
         0.10203E-01
         0.90805E-02
         0.78998E-02
         0.57823E-02
        -0.13180E-02
        -0.29241E-02
        -0.36879E-02
        -0.47006E-02
        -0.95511E-02
        -0.55717E-02
        -0.36541E-02
        -0.45384E-02
        -0.53426E-02
        -0.56041E-02
        -0.33268E-03
         0.69350E-02
        -0.10060E-01
         0.23451E-01
         0.30234E-01
         0.38952E-01
         0.46598E-01
         0.45588E-01
         0.39880E-01
         0.38271E-01
         0.37824E-01
         0.23790E-01
         0.79349E-02
         0.31364E-02
         0.27596E-02
        -0.10992E-02
        -0.10636E-01
        -0.21301E-01
        -0.29517E-01
        -0.38247E-01
        -0.42386E-01
        -0.37225E-01
        -0.35206E-01
        -0.34986E-01
        -0.24478E-01
        -0.12649E-01
        -0.11937E-01
        -0.66062E-02
        -0.41335E-02
        -0.38523E-02
        -0.10114E-02
        -0.49764E-02
        -0.22609E-02
        -0.17952E-02
        -0.63292E-02
        -0.41746E-02
        -0.61221E-02
         0.31164E-02
         0.13316E-01
         0.79327E-02
         0.11452E-02
         0.13386E-01
         0.24908E-02
        -0.86492E-03
         0.70206E-03
         0.32773E-02
         0.56673E-03
         0.29013E-02
         0.20058E-02
        -0.11718E-02
         0.95174E-03
        -0.41607E-02
         0.92157E-03
         0.30633E-03
         0.52092E-03
        -0.60636E-03
        -0.40078E-02
         0.26761E-02
         0.65192E-03
         0.17906E-02
         0.15431E-02
        -0.61305E-03
         0.22096E-02
         0.41727E-02
         0.10220E-01
         0.91008E-02
         0.79101E-02
         0.57887E-02
        -0.13111E-02
        -0.29255E-02
        -0.36931E-02
        -0.47039E-02
        -0.95533E-02
        -0.55743E-02
        -0.36539E-02
        -0.45341E-02
        -0.53358E-02
        -0.56018E-02
        -0.32620E-03
         0.69283E-02
        -0.10060E-01
         0.23454E-01
         0.30235E-01
         0.38947E-01
         0.46582E-01
         0.45568E-01
         0.39868E-01
         0.38263E-01
         0.37813E-01
         0.23786E-01
         0.79406E-02
         0.31368E-02
         0.27649E-02
        -0.10889E-02
        -0.10643E-01
        -0.21314E-01
        -0.29525E-01
        -0.38246E-01
        -0.42383E-01
        -0.37223E-01
        -0.35205E-01
        -0.34977E-01
        -0.24460E-01
        -0.12635E-01
        -0.11921E-01
        -0.66094E-02
        -0.41331E-02
        -0.38542E-02
        -0.10185E-02
        -0.49771E-02
        -0.22626E-02
        -0.17965E-02
        -0.63375E-02
        -0.41824E-02
        -0.61410E-02
         0.31192E-02
         0.13315E-01
         0.79354E-02
         0.11461E-02
         0.13403E-01
         0.24913E-02
        -0.87275E-03
         0.70088E-03
         0.32798E-02
         0.56267E-03
         0.29086E-02
         0.20070E-02
        -0.11734E-02
         0.95042E-03
        -0.41759E-02
         0.91802E-03
         0.31103E-03
         0.52565E-03
        -0.59804E-03
        -0.40135E-02
         0.26757E-02
         0.64782E-03
         0.17946E-02
         0.15459E-02
        -0.60595E-03
         0.22113E-02
         0.41729E-02
         0.10236E-01
         0.91212E-02
         0.79205E-02
         0.57951E-02
        -0.13041E-02
        -0.29270E-02
        -0.36984E-02
        -0.47072E-02
        -0.95555E-02
        -0.55769E-02
        -0.36538E-02
        -0.45298E-02
        -0.53291E-02
        -0.55996E-02
        -0.31978E-03
         0.69216E-02
        -0.10060E-01
         0.23458E-01
         0.30235E-01
         0.38943E-01
         0.46566E-01
         0.45548E-01
         0.39855E-01
         0.38255E-01
         0.37801E-01
         0.23782E-01
         0.79464E-02
         0.31372E-02
         0.27703E-02
        -0.10787E-02
        -0.10650E-01
        -0.21328E-01
        -0.29534E-01
        -0.38245E-01
        -0.42380E-01
        -0.37221E-01
        -0.35204E-01
        -0.34968E-01
        -0.24442E-01
        -0.12622E-01
        -0.11905E-01
        -0.66127E-02
        -0.41328E-02
        -0.38560E-02
        -0.10256E-02
        -0.49777E-02
        -0.22644E-02
        -0.17978E-02
        -0.63456E-02
        -0.41902E-02
        -0.61599E-02
         0.31220E-02
         0.13315E-01
         0.79379E-02
         0.11471E-02
         0.13420E-01
         0.24917E-02
        -0.88066E-03
         0.69969E-03
         0.32823E-02
         0.55880E-03
         0.29158E-02
         0.20083E-02
        -0.11752E-02
         0.94908E-03
        -0.41912E-02
         0.91451E-03
         0.31568E-03
         0.53034E-03
        -0.58975E-03
        -0.40189E-02
         0.26754E-02
         0.64368E-03
         0.17986E-02
         0.15487E-02
        -0.59885E-03
         0.22132E-02
         0.41732E-02
         0.10253E-01
         0.91415E-02
         0.79303E-02
         0.58014E-02
        -0.12971E-02
        -0.29285E-02
        -0.37037E-02
        -0.47105E-02
        -0.95577E-02
        -0.55793E-02
        -0.36536E-02
        -0.45254E-02
        -0.53223E-02
        -0.55974E-02
        -0.31335E-03
         0.69149E-02
        -0.10061E-01
         0.23462E-01
         0.30235E-01
         0.38938E-01
         0.46550E-01
         0.45528E-01
         0.39843E-01
         0.38247E-01
         0.37789E-01
         0.23779E-01
         0.79523E-02
         0.31373E-02
         0.27756E-02
        -0.10684E-02
        -0.10657E-01
        -0.21341E-01
        -0.29543E-01
        -0.38244E-01
        -0.42377E-01
        -0.37220E-01
        -0.35204E-01
        -0.34958E-01
        -0.24425E-01
        -0.12608E-01
        -0.11889E-01
        -0.66159E-02
        -0.41325E-02
        -0.38578E-02
        -0.10328E-02
        -0.49783E-02
        -0.22661E-02
        -0.17990E-02
        -0.63538E-02
        -0.41981E-02
        -0.61787E-02
         0.31247E-02
         0.13314E-01
         0.79407E-02
         0.11481E-02
         0.13437E-01
         0.24922E-02
        -0.88870E-03
         0.69850E-03
         0.32848E-02
         0.55510E-03
         0.29231E-02
         0.20095E-02
        -0.11769E-02
         0.94778E-03
        -0.42065E-02
         0.91096E-03
         0.32053E-03
         0.53498E-03
        -0.58148E-03
        -0.40240E-02
         0.26750E-02
         0.63959E-03
         0.18026E-02
         0.15515E-02
        -0.59169E-03
         0.22149E-02
         0.41735E-02
         0.10270E-01
         0.91615E-02
         0.79398E-02
         0.58076E-02
        -0.12901E-02
        -0.29301E-02
        -0.37089E-02
        -0.47138E-02
        -0.95600E-02
        -0.55820E-02
        -0.36534E-02
        -0.45211E-02
        -0.53155E-02
        -0.55951E-02
        -0.30687E-03
         0.69082E-02
        -0.10061E-01
         0.23466E-01
         0.30235E-01
         0.38933E-01
         0.46534E-01
         0.45508E-01
         0.39831E-01
         0.38239E-01
         0.37776E-01
         0.23776E-01
         0.79582E-02
         0.31372E-02
         0.27810E-02
        -0.10581E-02
        -0.10664E-01
        -0.21355E-01
        -0.29552E-01
        -0.38243E-01
        -0.42374E-01
        -0.37218E-01
        -0.35203E-01
        -0.34949E-01
        -0.24407E-01
        -0.12595E-01
        -0.11873E-01
        -0.66192E-02
        -0.41322E-02
        -0.38597E-02
        -0.10398E-02
        -0.49791E-02
        -0.22679E-02
        -0.18004E-02
        -0.63620E-02
        -0.42060E-02
        -0.61975E-02
         0.31275E-02
         0.13313E-01
         0.79433E-02
         0.11490E-02
         0.13454E-01
         0.24927E-02
        -0.89678E-03
         0.69733E-03
         0.32873E-02
         0.55149E-03
         0.29304E-02
         0.20108E-02
        -0.11784E-02
         0.94657E-03
        -0.42218E-02
         0.90753E-03
         0.32525E-03
         0.53943E-03
        -0.57331E-03
        -0.40289E-02
         0.26747E-02
         0.63558E-03
         0.18066E-02
         0.15544E-02
        -0.58461E-03
         0.22166E-02
         0.41736E-02
         0.10286E-01
         0.91816E-02
         0.79489E-02
         0.58137E-02
        -0.12833E-02
        -0.29318E-02
        -0.37141E-02
        -0.47169E-02
        -0.95621E-02
        -0.55845E-02
        -0.36533E-02
        -0.45168E-02
        -0.53088E-02
        -0.55929E-02
        -0.30044E-03
         0.69014E-02
        -0.10062E-01
         0.23470E-01
         0.30236E-01
         0.38929E-01
         0.46518E-01
         0.45488E-01
         0.39819E-01
         0.38231E-01
         0.37763E-01
         0.23773E-01
         0.79639E-02
         0.31369E-02
         0.27863E-02
        -0.10479E-02
        -0.10670E-01
        -0.21368E-01
        -0.29561E-01
        -0.38242E-01
        -0.42372E-01
        -0.37216E-01
        -0.35202E-01
        -0.34939E-01
        -0.24390E-01
        -0.12581E-01
        -0.11858E-01
        -0.66446E-02
        -0.41464E-02
        -0.38752E-02
        -0.10502E-02
        -0.49959E-02
        -0.22769E-02
        -0.18079E-02
        -0.63902E-02
        -0.42276E-02
        -0.62351E-02
         0.31401E-02
         0.13352E-01
         0.79696E-02
         0.11535E-02
         0.13510E-01
         0.25018E-02
        -0.90739E-03
         0.69855E-03
         0.33005E-02
         0.55007E-03
         0.29460E-02
         0.20181E-02
        -0.11827E-02
         0.94913E-03
        -0.42502E-02
         0.90829E-03
         0.33062E-03
         0.54457E-03
        -0.56853E-03
        -0.40473E-02
         0.26839E-02
         0.63488E-03
         0.18165E-02
         0.15624E-02
        -0.58000E-03
         0.22244E-02
         0.41860E-02
         0.10333E-01
         0.92289E-02
         0.79826E-02
         0.58369E-02
        -0.12821E-02
        -0.29433E-02
        -0.37288E-02
        -0.47331E-02
        -0.95906E-02
        -0.56027E-02
        -0.36634E-02
        -0.45266E-02
        -0.53190E-02
        -0.56078E-02
        -0.29502E-03
         0.69101E-02
        -0.10087E-01
         0.23528E-01
         0.30308E-01
         0.39018E-01
         0.46617E-01
         0.45584E-01
         0.39909E-01
         0.38320E-01
         0.37848E-01
         0.23830E-01
         0.79875E-02
         0.31434E-02
         0.27979E-02
        -0.10406E-02
        -0.10700E-01
        -0.21428E-01
        -0.29636E-01
        -0.38332E-01
        -0.42470E-01
        -0.37302E-01
        -0.35283E-01
        -0.35011E-01
        -0.24431E-01
        -0.12598E-01
        -0.11870E-01
        -0.98493E-02
        -0.61696E-02
        -0.57345E-02
        -0.15682E-02
        -0.71318E-02
        -0.32839E-02
        -0.26839E-02
        -0.94249E-02
        -0.62574E-02
        -0.91785E-02
         0.45794E-02
         0.18692E-01
         0.11332E-01
         0.16752E-02
         0.19021E-01
         0.37130E-02
        -0.13505E-02
         0.10362E-02
         0.48312E-02
         0.80475E-03
         0.41954E-02
         0.29068E-02
        -0.16854E-02
         0.13998E-02
        -0.63186E-02
         0.13506E-02
         0.48814E-03
         0.80951E-03
        -0.84101E-03
        -0.60046E-02
         0.39833E-02
         0.93878E-03
         0.27054E-02
         0.23231E-02
        -0.80112E-03
         0.32017E-02
         0.60251E-02
         0.14873E-01
         0.13477E-01
         0.11697E-01
         0.84353E-02
        -0.18632E-02
        -0.42873E-02
        -0.53566E-02
        -0.67742E-02
        -0.13327E-01
        -0.79903E-02
        -0.52887E-02
        -0.65682E-02
        -0.76823E-02
        -0.79047E-02
        -0.41731E-03
         0.85496E-02
        -0.12477E-01
         0.29103E-01
         0.37601E-01
         0.48366E-01
         0.57908E-01
         0.57246E-01
         0.50541E-01
         0.48436E-01
         0.47551E-01
         0.29983E-01
         0.10037E-01
         0.39936E-02
         0.35728E-02
        -0.13019E-02
        -0.13321E-01
        -0.26597E-01
        -0.36564E-01
        -0.47235E-01
        -0.52394E-01
        -0.46517E-01
        -0.44203E-01
        -0.43694E-01
        -0.30590E-01
        -0.15724E-01
        -0.14759E-01
  
SCALARS                      strain_xz  double 1
LOOKUP_TABLE default
         0.86826E-04
        -0.59318E-03
        -0.19984E-02
         0.14219E-03
        -0.10895E-09
         0.38630E-10
         0.12917E-09
         0.25798E-10
        -0.55040E-02
        -0.37176E-02
         0.38636E-09
         0.34801E-09
         0.22378E-03
        -0.91144E-03
        -0.47651E-10
        -0.22322E-09
        -0.20685E-03
        -0.87706E-03
        -0.16124E-09
        -0.24014E-09
        -0.12355E-02
        -0.20158E-02
        -0.20081E-02
        -0.16036E-09
        -0.73945E-10
         0.12919E-09
        -0.21320E-02
        -0.16476E-02
        -0.30017E-09
        -0.23811E-09
         0.48318E-03
        -0.10300E-02
         0.10667E-03
         0.30561E-10
        -0.11810E-09
        -0.72758E-10
         0.14002E-02
         0.63897E-03
        -0.17534E-09
        -0.18669E-09
         0.27324E-02
         0.37083E-02
        -0.39552E-09
        -0.29167E-09
         0.30263E-02
         0.16358E-02
        -0.43434E-09
        -0.20906E-09
        -0.77499E-03
        -0.13123E-09
         0.20937E-02
        -0.36529E-10
        -0.76389E-03
        -0.25642E-09
         0.56187E-03
        -0.67829E-10
         0.24590E-02
         0.71178E-03
        -0.58106E-10
        -0.14045E-09
        -0.51551E-04
         0.14002E-02
         0.11622E-09
         0.79695E-10
        -0.37290E-03
        -0.11690E-10
        -0.12256E-02
         0.76891E-10
        -0.76673E-02
        -0.52263E-02
         0.48059E-09
         0.34856E-09
        -0.33212E-02
         0.25380E-09
         0.66869E-03
        -0.17556E-09
         0.20734E-02
        -0.34457E-10
         0.44159E-02
        -0.53458E-10
         0.59913E-02
         0.43627E-02
        -0.19591E-09
        -0.22406E-09
         0.40445E-02
        -0.24096E-09
         0.36671E-02
        -0.34693E-09
         0.22413E-02
        -0.22128E-09
         0.34730E-02
         0.25316E-02
        -0.94439E-10
         0.12951E-09
        -0.58503E-03
         0.15191E-09
        -0.16182E-02
         0.63786E-10
        -0.38588E-02
         0.15751E-09
        -0.56906E-02
        -0.39327E-02
         0.36319E-09
         0.37899E-09
        -0.13400E-01
        -0.15127E-01
         0.67109E-09
         0.66134E-09
        -0.13224E-01
         0.57331E-09
        -0.12324E-01
         0.42844E-09
        -0.86494E-02
         0.23545E-09
        -0.59719E-02
         0.25177E-10
        -0.21017E-02
        -0.89673E-10
         0.26185E-02
        -0.71744E-10
         0.62271E-02
        -0.70516E-10
         0.92624E-02
        -0.15902E-09
         0.12921E-01
        -0.30253E-09
         0.16737E-01
        -0.36102E-09
         0.18976E-01
        -0.34063E-09
         0.18722E-01
        -0.37041E-09
         0.17738E-01
        -0.48074E-09
         0.16293E-01
        -0.56689E-09
         0.14360E-01
        -0.52698E-09
         0.10833E-01
        -0.42828E-09
         0.61124E-02
        -0.20218E-09
         0.51684E-03
         0.38608E-10
        -0.34454E-02
         0.93733E-10
        -0.54519E-02
         0.15327E-09
        -0.80479E-02
         0.29997E-09
        -0.10613E-01
         0.49222E-09
        -0.14148E-01
         0.59138E-09
        -0.16549E-01
         0.60487E-09
        -0.15801E-02
         0.83406E-03
         0.97670E-03
        -0.19315E-02
         0.77264E-02
         0.58805E-02
         0.90564E-03
        -0.13168E-02
        -0.66370E-03
        -0.11984E-02
         0.67747E-03
         0.29434E-02
         0.60954E-02
        -0.19483E-02
        -0.23576E-02
         0.25727E-02
         0.21663E-02
        -0.99480E-03
        -0.15895E-02
        -0.17018E-02
        -0.93674E-02
        -0.99299E-02
        -0.90415E-02
        -0.28037E-02
         0.11152E-02
        -0.83152E-03
        -0.27075E-02
        -0.30323E-03
        -0.31328E-02
        -0.21227E-02
         0.23008E-02
         0.45949E-03
        -0.10843E-02
        -0.35469E-03
         0.11656E-01
         0.73392E-02
         0.66041E-02
        -0.46546E-02
        -0.26535E-02
        -0.57372E-02
        -0.11897E-01
        -0.10882E-01
        -0.10542E-01
        -0.77695E-02
        -0.56280E-02
        -0.44765E-02
         0.82893E-03
         0.34082E-02
         0.98669E-03
         0.31663E-02
         0.85610E-02
         0.70939E-02
         0.34998E-01
         0.36277E-01
         0.32501E-01
         0.27570E-01
         0.20551E-01
         0.10546E-01
        -0.63007E-03
        -0.75778E-02
        -0.11533E-01
        -0.19818E-01
        -0.32394E-01
        -0.38707E-01
        -0.35184E-01
        -0.33642E-01
        -0.35374E-01
        -0.35240E-01
        -0.32025E-01
        -0.28224E-01
        -0.14584E-01
         0.22952E-02
         0.87593E-02
         0.97629E-02
         0.16553E-01
         0.26603E-01
         0.34183E-01
         0.35800E-01
        -0.22250E-02
         0.45675E-03
        -0.86954E-03
        -0.25318E-02
         0.51935E-02
         0.44382E-02
         0.12931E-02
        -0.28228E-02
        -0.12970E-02
        -0.26836E-02
        -0.54213E-03
         0.19780E-02
         0.65071E-02
        -0.49900E-02
        -0.51688E-02
         0.43713E-02
         0.24335E-02
        -0.14576E-02
        -0.98090E-03
        -0.17226E-02
        -0.10221E-01
        -0.97412E-02
        -0.96126E-02
        -0.23250E-02
         0.13205E-02
         0.88915E-03
        -0.48220E-02
         0.64025E-03
        -0.16138E-02
        -0.22007E-02
         0.33584E-02
         0.21732E-02
        -0.21782E-02
        -0.18799E-02
         0.92621E-02
         0.51119E-02
         0.58638E-02
        -0.57319E-02
        -0.95966E-03
        -0.27823E-02
        -0.10222E-01
        -0.10515E-01
        -0.10278E-01
        -0.74315E-02
        -0.57228E-02
        -0.33485E-02
         0.36189E-02
         0.42723E-02
        -0.56475E-03
         0.67997E-03
         0.69699E-02
         0.61397E-02
         0.38725E-01
         0.39025E-01
         0.35032E-01
         0.28894E-01
         0.21559E-01
         0.99297E-02
        -0.24654E-02
        -0.79879E-02
        -0.10523E-01
        -0.19289E-01
        -0.34262E-01
        -0.40418E-01
        -0.33893E-01
        -0.32245E-01
        -0.35525E-01
        -0.36586E-01
        -0.33393E-01
        -0.31587E-01
        -0.16094E-01
         0.41830E-02
         0.92514E-02
         0.93728E-02
         0.16664E-01
         0.28853E-01
         0.36931E-01
         0.36814E-01
        -0.22292E-02
         0.45844E-03
        -0.87118E-03
        -0.25335E-02
         0.51885E-02
         0.44341E-02
         0.13013E-02
        -0.28156E-02
        -0.12984E-02
        -0.26815E-02
        -0.53116E-03
         0.19828E-02
         0.65110E-02
        -0.49777E-02
        -0.51660E-02
         0.43759E-02
         0.24389E-02
        -0.14535E-02
        -0.98042E-03
        -0.17196E-02
        -0.10220E-01
        -0.97401E-02
        -0.96119E-02
        -0.23251E-02
         0.13235E-02
         0.89064E-03
        -0.48235E-02
         0.62822E-03
        -0.16251E-02
        -0.22021E-02
         0.33633E-02
         0.21729E-02
        -0.21691E-02
        -0.18808E-02
         0.92668E-02
         0.51096E-02
         0.58619E-02
        -0.57411E-02
        -0.96885E-03
        -0.27911E-02
        -0.10228E-01
        -0.10521E-01
        -0.10278E-01
        -0.74304E-02
        -0.57208E-02
        -0.33468E-02
         0.36182E-02
         0.42737E-02
        -0.56062E-03
         0.67765E-03
         0.69654E-02
         0.61307E-02
         0.38711E-01
         0.39014E-01
         0.35028E-01
         0.28894E-01
         0.21553E-01
         0.99267E-02
        -0.24681E-02
        -0.79928E-02
        -0.10514E-01
        -0.19282E-01
        -0.34257E-01
        -0.40419E-01
        -0.33890E-01
        -0.32243E-01
        -0.35529E-01
        -0.36594E-01
        -0.33399E-01
        -0.31593E-01
        -0.16089E-01
         0.41849E-02
         0.92446E-02
         0.93690E-02
         0.16652E-01
         0.28835E-01
         0.36912E-01
         0.36798E-01
        -0.22334E-02
         0.46011E-03
        -0.87282E-03
        -0.25352E-02
         0.51833E-02
         0.44301E-02
         0.13095E-02
        -0.28085E-02
        -0.12998E-02
        -0.26792E-02
        -0.52021E-03
         0.19876E-02
         0.65149E-02
        -0.49655E-02
        -0.51632E-02
         0.43805E-02
         0.24443E-02
        -0.14495E-02
        -0.97993E-03
        -0.17167E-02
        -0.10219E-01
        -0.97390E-02
        -0.96113E-02
        -0.23252E-02
         0.13267E-02
         0.89224E-03
        -0.48249E-02
         0.61633E-03
        -0.16365E-02
        -0.22034E-02
         0.33684E-02
         0.21727E-02
        -0.21600E-02
        -0.18816E-02
         0.92715E-02
         0.51074E-02
         0.58600E-02
        -0.57503E-02
        -0.97805E-03
        -0.28000E-02
        -0.10235E-01
        -0.10527E-01
        -0.10279E-01
        -0.74295E-02
        -0.57188E-02
        -0.33451E-02
         0.36175E-02
         0.42752E-02
        -0.55640E-03
         0.67525E-03
         0.69611E-02
         0.61217E-02
         0.38698E-01
         0.39004E-01
         0.35025E-01
         0.28894E-01
         0.21546E-01
         0.99237E-02
        -0.24710E-02
        -0.79978E-02
        -0.10505E-01
        -0.19274E-01
        -0.34251E-01
        -0.40420E-01
        -0.33887E-01
        -0.32241E-01
        -0.35534E-01
        -0.36602E-01
        -0.33405E-01
        -0.31599E-01
        -0.16085E-01
         0.41868E-02
         0.92378E-02
         0.93654E-02
         0.16640E-01
         0.28817E-01
         0.36894E-01
         0.36781E-01
        -0.22377E-02
         0.46184E-03
        -0.87442E-03
        -0.25369E-02
         0.51782E-02
         0.44260E-02
         0.13177E-02
        -0.28013E-02
        -0.13009E-02
        -0.26766E-02
        -0.50929E-03
         0.19925E-02
         0.65189E-02
        -0.49532E-02
        -0.51605E-02
         0.43856E-02
         0.24500E-02
        -0.14454E-02
        -0.97951E-03
        -0.17136E-02
        -0.10219E-01
        -0.97383E-02
        -0.96113E-02
        -0.23253E-02
         0.13305E-02
         0.89422E-03
        -0.48260E-02
         0.60481E-03
        -0.16479E-02
        -0.22047E-02
         0.33738E-02
         0.21729E-02
        -0.21508E-02
        -0.18825E-02
         0.92760E-02
         0.51051E-02
         0.58581E-02
        -0.57594E-02
        -0.98721E-03
        -0.28087E-02
        -0.10242E-01
        -0.10534E-01
        -0.10281E-01
        -0.74288E-02
        -0.57166E-02
        -0.33433E-02
         0.36170E-02
         0.42766E-02
        -0.55216E-03
         0.67286E-03
         0.69565E-02
         0.61126E-02
         0.38685E-01
         0.38994E-01
         0.35022E-01
         0.28894E-01
         0.21540E-01
         0.99207E-02
        -0.24738E-02
        -0.80027E-02
        -0.10496E-01
        -0.19266E-01
        -0.34246E-01
        -0.40421E-01
        -0.33885E-01
        -0.32240E-01
        -0.35539E-01
        -0.36612E-01
        -0.33412E-01
        -0.31606E-01
        -0.16080E-01
         0.41887E-02
         0.92311E-02
         0.93617E-02
         0.16627E-01
         0.28800E-01
         0.36876E-01
         0.36765E-01
        -0.22418E-02
         0.46356E-03
        -0.87605E-03
        -0.25386E-02
         0.51732E-02
         0.44219E-02
         0.13260E-02
        -0.27941E-02
        -0.13019E-02
        -0.26735E-02
        -0.49834E-03
         0.19973E-02
         0.65229E-02
        -0.49409E-02
        -0.51577E-02
         0.43910E-02
         0.24559E-02
        -0.14413E-02
        -0.97897E-03
        -0.17105E-02
        -0.10219E-01
        -0.97377E-02
        -0.96118E-02
        -0.23255E-02
         0.13349E-02
         0.89648E-03
        -0.48270E-02
         0.59366E-03
        -0.16592E-02
        -0.22060E-02
         0.33796E-02
         0.21735E-02
        -0.21416E-02
        -0.18833E-02
         0.92807E-02
         0.51028E-02
         0.58563E-02
        -0.57685E-02
        -0.99634E-03
        -0.28176E-02
        -0.10248E-01
        -0.10541E-01
        -0.10283E-01
        -0.74283E-02
        -0.57143E-02
        -0.33414E-02
         0.36166E-02
         0.42782E-02
        -0.54796E-03
         0.67049E-03
         0.69522E-02
         0.61035E-02
         0.38672E-01
         0.38984E-01
         0.35019E-01
         0.28894E-01
         0.21533E-01
         0.99177E-02
        -0.24766E-02
        -0.80077E-02
        -0.10487E-01
        -0.19259E-01
        -0.34241E-01
        -0.40423E-01
        -0.33883E-01
        -0.32239E-01
        -0.35545E-01
        -0.36622E-01
        -0.33419E-01
        -0.31612E-01
        -0.16076E-01
         0.41906E-02
         0.92243E-02
         0.93580E-02
         0.16615E-01
         0.28782E-01
         0.36857E-01
         0.36749E-01
        -0.22459E-02
         0.46543E-03
        -0.87748E-03
        -0.25402E-02
         0.51682E-02
         0.44178E-02
         0.13342E-02
        -0.27867E-02
        -0.13029E-02
        -0.26704E-02
        -0.48739E-03
         0.20022E-02
         0.65268E-02
        -0.49286E-02
        -0.51549E-02
         0.43966E-02
         0.24619E-02
        -0.14371E-02
        -0.97842E-03
        -0.17076E-02
        -0.10219E-01
        -0.97374E-02
        -0.96125E-02
        -0.23257E-02
         0.13392E-02
         0.89881E-03
        -0.48279E-02
         0.58258E-03
        -0.16706E-02
        -0.22074E-02
         0.33853E-02
         0.21740E-02
        -0.21323E-02
        -0.18840E-02
         0.92855E-02
         0.51008E-02
         0.58545E-02
        -0.57776E-02
        -0.10055E-02
        -0.28265E-02
        -0.10255E-01
        -0.10548E-01
        -0.10285E-01
        -0.74280E-02
        -0.57122E-02
        -0.33397E-02
         0.36161E-02
         0.42798E-02
        -0.54363E-03
         0.66832E-03
         0.69479E-02
         0.60946E-02
         0.38658E-01
         0.38974E-01
         0.35016E-01
         0.28894E-01
         0.21526E-01
         0.99147E-02
        -0.24793E-02
        -0.80126E-02
        -0.10478E-01
        -0.19251E-01
        -0.34235E-01
        -0.40425E-01
        -0.33882E-01
        -0.32238E-01
        -0.35550E-01
        -0.36634E-01
        -0.33426E-01
        -0.31617E-01
        -0.16071E-01
         0.41923E-02
         0.92174E-02
         0.93543E-02
         0.16603E-01
         0.28764E-01
         0.36839E-01
         0.36732E-01
        -0.22496E-02
         0.46768E-03
        -0.87859E-03
        -0.25418E-02
         0.51632E-02
         0.44138E-02
         0.13427E-02
        -0.27792E-02
        -0.13039E-02
        -0.26674E-02
        -0.47638E-03
         0.20070E-02
         0.65308E-02
        -0.49162E-02
        -0.51520E-02
         0.44021E-02
         0.24676E-02
        -0.14330E-02
        -0.97798E-03
        -0.17047E-02
        -0.10218E-01
        -0.97371E-02
        -0.96134E-02
        -0.23260E-02
         0.13431E-02
         0.90087E-03
        -0.48289E-02
         0.57123E-03
        -0.16822E-02
        -0.22090E-02
         0.33908E-02
         0.21740E-02
        -0.21228E-02
        -0.18846E-02
         0.92904E-02
         0.50989E-02
         0.58529E-02
        -0.57867E-02
        -0.10147E-02
        -0.28355E-02
        -0.10263E-01
        -0.10555E-01
        -0.10287E-01
        -0.74278E-02
        -0.57103E-02
        -0.33382E-02
         0.36153E-02
         0.42812E-02
        -0.53893E-03
         0.66664E-03
         0.69442E-02
         0.60858E-02
         0.38645E-01
         0.38964E-01
         0.35013E-01
         0.28895E-01
         0.21520E-01
         0.99117E-02
        -0.24821E-02
        -0.80175E-02
        -0.10470E-01
        -0.19243E-01
        -0.34230E-01
        -0.40426E-01
        -0.33881E-01
        -0.32237E-01
        -0.35556E-01
        -0.36645E-01
        -0.33434E-01
        -0.31623E-01
        -0.16067E-01
         0.41938E-02
         0.92103E-02
         0.93507E-02
         0.16591E-01
         0.28747E-01
         0.36821E-01
         0.36716E-01
        -0.22531E-02
         0.47004E-03
        -0.87955E-03
        -0.25433E-02
         0.51585E-02
         0.44097E-02
         0.13512E-02
        -0.27716E-02
        -0.13050E-02
        -0.26645E-02
        -0.46535E-03
         0.20119E-02
         0.65349E-02
        -0.49039E-02
        -0.51492E-02
         0.44076E-02
         0.24731E-02
        -0.14288E-02
        -0.97746E-03
        -0.17020E-02
        -0.10218E-01
        -0.97368E-02
        -0.96142E-02
        -0.23262E-02
         0.13467E-02
         0.90279E-03
        -0.48300E-02
         0.55983E-03
        -0.16938E-02
        -0.22108E-02
         0.33960E-02
         0.21739E-02
        -0.21132E-02
        -0.18850E-02
         0.92955E-02
         0.50972E-02
         0.58516E-02
        -0.57957E-02
        -0.10239E-02
        -0.28446E-02
        -0.10270E-01
        -0.10563E-01
        -0.10290E-01
        -0.74278E-02
        -0.57086E-02
        -0.33370E-02
         0.36143E-02
         0.42825E-02
        -0.53408E-03
         0.66518E-03
         0.69405E-02
         0.60771E-02
         0.38632E-01
         0.38954E-01
         0.35009E-01
         0.28895E-01
         0.21513E-01
         0.99087E-02
        -0.24848E-02
        -0.80224E-02
        -0.10461E-01
        -0.19236E-01
        -0.34224E-01
        -0.40428E-01
        -0.33879E-01
        -0.32236E-01
        -0.35562E-01
        -0.36656E-01
        -0.33442E-01
        -0.31629E-01
        -0.16062E-01
         0.41951E-02
         0.92031E-02
         0.93471E-02
         0.16579E-01
         0.28729E-01
         0.36803E-01
         0.36699E-01
        -0.22566E-02
         0.47243E-03
        -0.88048E-03
        -0.25448E-02
         0.51536E-02
         0.44056E-02
         0.13596E-02
        -0.27640E-02
        -0.13061E-02
        -0.26617E-02
        -0.45435E-03
         0.20167E-02
         0.65390E-02
        -0.48916E-02
        -0.51463E-02
         0.44131E-02
         0.24787E-02
        -0.14247E-02
        -0.97693E-03
        -0.16992E-02
        -0.10218E-01
        -0.97366E-02
        -0.96151E-02
        -0.23265E-02
         0.13503E-02
         0.90470E-03
        -0.48311E-02
         0.54844E-03
        -0.17055E-02
        -0.22125E-02
         0.34013E-02
         0.21738E-02
        -0.21037E-02
        -0.18855E-02
         0.93006E-02
         0.50954E-02
         0.58502E-02
        -0.58048E-02
        -0.10331E-02
        -0.28535E-02
        -0.10277E-01
        -0.10570E-01
        -0.10292E-01
        -0.74278E-02
        -0.57070E-02
        -0.33357E-02
         0.36134E-02
         0.42839E-02
        -0.52923E-03
         0.66378E-03
         0.69370E-02
         0.60684E-02
         0.38618E-01
         0.38944E-01
         0.35006E-01
         0.28895E-01
         0.21506E-01
         0.99056E-02
        -0.24875E-02
        -0.80272E-02
        -0.10452E-01
        -0.19228E-01
        -0.34218E-01
        -0.40429E-01
        -0.33878E-01
        -0.32234E-01
        -0.35567E-01
        -0.36667E-01
        -0.33449E-01
        -0.31634E-01
        -0.16057E-01
         0.41964E-02
         0.91959E-02
         0.93435E-02
         0.16567E-01
         0.28712E-01
         0.36784E-01
         0.36683E-01
        -0.22601E-02
         0.47485E-03
        -0.88142E-03
        -0.25464E-02
         0.51488E-02
         0.44015E-02
         0.13681E-02
        -0.27564E-02
        -0.13072E-02
        -0.26589E-02
        -0.44335E-03
         0.20215E-02
         0.65432E-02
        -0.48794E-02
        -0.51434E-02
         0.44186E-02
         0.24843E-02
        -0.14206E-02
        -0.97640E-03
        -0.16964E-02
        -0.10218E-01
        -0.97362E-02
        -0.96159E-02
        -0.23268E-02
         0.13538E-02
         0.90661E-03
        -0.48322E-02
         0.53711E-03
        -0.17171E-02
        -0.22143E-02
         0.34066E-02
         0.21736E-02
        -0.20941E-02
        -0.18860E-02
         0.93055E-02
         0.50938E-02
         0.58488E-02
        -0.58138E-02
        -0.10424E-02
        -0.28626E-02
        -0.10284E-01
        -0.10578E-01
        -0.10295E-01
        -0.74278E-02
        -0.57053E-02
        -0.33344E-02
         0.36125E-02
         0.42853E-02
        -0.52442E-03
         0.66228E-03
         0.69333E-02
         0.60596E-02
         0.38605E-01
         0.38934E-01
         0.35003E-01
         0.28895E-01
         0.21500E-01
         0.99025E-02
        -0.24903E-02
        -0.80320E-02
        -0.10443E-01
        -0.19220E-01
        -0.34213E-01
        -0.40431E-01
        -0.33877E-01
        -0.32233E-01
        -0.35573E-01
        -0.36679E-01
        -0.33457E-01
        -0.31640E-01
        -0.16053E-01
         0.41977E-02
         0.91886E-02
         0.93399E-02
         0.16556E-01
         0.28695E-01
         0.36766E-01
         0.36667E-01
        -0.22637E-02
         0.47724E-03
        -0.88239E-03
        -0.25479E-02
         0.51440E-02
         0.43976E-02
         0.13766E-02
        -0.27488E-02
        -0.13082E-02
        -0.26561E-02
        -0.43234E-03
         0.20264E-02
         0.65473E-02
        -0.48672E-02
        -0.51405E-02
         0.44240E-02
         0.24899E-02
        -0.14165E-02
        -0.97598E-03
        -0.16936E-02
        -0.10218E-01
        -0.97359E-02
        -0.96167E-02
        -0.23272E-02
         0.13574E-02
         0.90850E-03
        -0.48334E-02
         0.52578E-03
        -0.17287E-02
        -0.22160E-02
         0.34118E-02
         0.21735E-02
        -0.20845E-02
        -0.18864E-02
         0.93106E-02
         0.50920E-02
         0.58474E-02
        -0.58228E-02
        -0.10516E-02
        -0.28716E-02
        -0.10291E-01
        -0.10585E-01
        -0.10297E-01
        -0.74277E-02
        -0.57036E-02
        -0.33332E-02
         0.36115E-02
         0.42866E-02
        -0.51956E-03
         0.66081E-03
         0.69298E-02
         0.60509E-02
         0.38592E-01
         0.38924E-01
         0.34999E-01
         0.28895E-01
         0.21493E-01
         0.98996E-02
        -0.24929E-02
        -0.80369E-02
        -0.10434E-01
        -0.19213E-01
        -0.34207E-01
        -0.40433E-01
        -0.33875E-01
        -0.32232E-01
        -0.35579E-01
        -0.36690E-01
        -0.33465E-01
        -0.31645E-01
        -0.16048E-01
         0.41990E-02
         0.91814E-02
         0.93362E-02
         0.16544E-01
         0.28677E-01
         0.36748E-01
         0.36650E-01
        -0.22672E-02
         0.47963E-03
        -0.88330E-03
        -0.25494E-02
         0.51392E-02
         0.43935E-02
         0.13851E-02
        -0.27412E-02
        -0.13093E-02
        -0.26533E-02
        -0.42135E-03
         0.20313E-02
         0.65513E-02
        -0.48550E-02
        -0.51376E-02
         0.44295E-02
         0.24954E-02
        -0.14123E-02
        -0.97548E-03
        -0.16908E-02
        -0.10218E-01
        -0.97356E-02
        -0.96176E-02
        -0.23275E-02
         0.13609E-02
         0.91045E-03
        -0.48345E-02
         0.51450E-03
        -0.17402E-02
        -0.22178E-02
         0.34171E-02
         0.21733E-02
        -0.20749E-02
        -0.18869E-02
         0.93158E-02
         0.50903E-02
         0.58459E-02
        -0.58318E-02
        -0.10609E-02
        -0.28807E-02
        -0.10298E-01
        -0.10593E-01
        -0.10300E-01
        -0.74277E-02
        -0.57020E-02
        -0.33320E-02
         0.36106E-02
         0.42880E-02
        -0.51469E-03
         0.65942E-03
         0.69262E-02
         0.60422E-02
         0.38578E-01
         0.38915E-01
         0.34996E-01
         0.28895E-01
         0.21486E-01
         0.98966E-02
        -0.24956E-02
        -0.80418E-02
        -0.10425E-01
        -0.19205E-01
        -0.34202E-01
        -0.40434E-01
        -0.33874E-01
        -0.32231E-01
        -0.35585E-01
        -0.36701E-01
        -0.33472E-01
        -0.31651E-01
        -0.16043E-01
         0.42003E-02
         0.91741E-02
         0.93326E-02
         0.16532E-01
         0.28660E-01
         0.36730E-01
         0.36634E-01
        -0.22707E-02
         0.48205E-03
        -0.88421E-03
        -0.25509E-02
         0.51343E-02
         0.43894E-02
         0.13935E-02
        -0.27336E-02
        -0.13103E-02
        -0.26504E-02
        -0.41040E-03
         0.20361E-02
         0.65554E-02
        -0.48427E-02
        -0.51347E-02
         0.44350E-02
         0.25010E-02
        -0.14082E-02
        -0.97499E-03
        -0.16880E-02
        -0.10217E-01
        -0.97353E-02
        -0.96184E-02
        -0.23278E-02
         0.13644E-02
         0.91234E-03
        -0.48356E-02
         0.50319E-03
        -0.17518E-02
        -0.22195E-02
         0.34224E-02
         0.21731E-02
        -0.20652E-02
        -0.18873E-02
         0.93208E-02
         0.50887E-02
         0.58446E-02
        -0.58407E-02
        -0.10702E-02
        -0.28898E-02
        -0.10305E-01
        -0.10600E-01
        -0.10302E-01
        -0.74278E-02
        -0.57004E-02
        -0.33305E-02
         0.36096E-02
         0.42894E-02
        -0.50980E-03
         0.65795E-03
         0.69225E-02
         0.60334E-02
         0.38565E-01
         0.38905E-01
         0.34992E-01
         0.28895E-01
         0.21480E-01
         0.98935E-02
        -0.24983E-02
        -0.80465E-02
        -0.10417E-01
        -0.19197E-01
        -0.34196E-01
        -0.40436E-01
        -0.33872E-01
        -0.32230E-01
        -0.35590E-01
        -0.36712E-01
        -0.33480E-01
        -0.31656E-01
        -0.16039E-01
         0.42016E-02
         0.91669E-02
         0.93291E-02
         0.16520E-01
         0.28643E-01
         0.36712E-01
         0.36618E-01
        -0.22743E-02
         0.48442E-03
        -0.88512E-03
        -0.25524E-02
         0.51296E-02
         0.43853E-02
         0.14019E-02
        -0.27260E-02
        -0.13114E-02
        -0.26476E-02
        -0.39947E-03
         0.20410E-02
         0.65595E-02
        -0.48305E-02
        -0.51317E-02
         0.44404E-02
         0.25065E-02
        -0.14041E-02
        -0.97460E-03
        -0.16853E-02
        -0.10217E-01
        -0.97350E-02
        -0.96193E-02
        -0.23282E-02
         0.13679E-02
         0.91424E-03
        -0.48367E-02
         0.49196E-03
        -0.17634E-02
        -0.22212E-02
         0.34277E-02
         0.21730E-02
        -0.20556E-02
        -0.18878E-02
         0.93259E-02
         0.50870E-02
         0.58432E-02
        -0.58496E-02
        -0.10795E-02
        -0.28989E-02
        -0.10312E-01
        -0.10607E-01
        -0.10305E-01
        -0.74277E-02
        -0.56987E-02
        -0.33293E-02
         0.36087E-02
         0.42907E-02
        -0.50493E-03
         0.65648E-03
         0.69189E-02
         0.60247E-02
         0.38552E-01
         0.38895E-01
         0.34989E-01
         0.28895E-01
         0.21473E-01
         0.98904E-02
        -0.25010E-02
        -0.80512E-02
        -0.10408E-01
        -0.19190E-01
        -0.34190E-01
        -0.40438E-01
        -0.33871E-01
        -0.32229E-01
        -0.35596E-01
        -0.36724E-01
        -0.33487E-01
        -0.31661E-01
        -0.16034E-01
         0.42028E-02
         0.91597E-02
         0.93255E-02
         0.16508E-01
         0.28625E-01
         0.36694E-01
         0.36601E-01
        -0.22778E-02
         0.48678E-03
        -0.88603E-03
        -0.25539E-02
         0.51248E-02
         0.43812E-02
         0.14103E-02
        -0.27184E-02
        -0.13124E-02
        -0.26448E-02
        -0.38853E-03
         0.20459E-02
         0.65636E-02
        -0.48183E-02
        -0.51288E-02
         0.44459E-02
         0.25121E-02
        -0.14000E-02
        -0.97410E-03
        -0.16825E-02
        -0.10217E-01
        -0.97347E-02
        -0.96200E-02
        -0.23285E-02
         0.13714E-02
         0.91613E-03
        -0.48378E-02
         0.48072E-03
        -0.17749E-02
        -0.22229E-02
         0.34329E-02
         0.21728E-02
        -0.20460E-02
        -0.18882E-02
         0.93309E-02
         0.50854E-02
         0.58419E-02
        -0.58584E-02
        -0.10889E-02
        -0.29080E-02
        -0.10319E-01
        -0.10615E-01
        -0.10307E-01
        -0.74277E-02
        -0.56970E-02
        -0.33281E-02
         0.36077E-02
         0.42921E-02
        -0.49998E-03
         0.65506E-03
         0.69153E-02
         0.60159E-02
         0.38538E-01
         0.38885E-01
         0.34986E-01
         0.28895E-01
         0.21466E-01
         0.98874E-02
        -0.25036E-02
        -0.80558E-02
        -0.10399E-01
        -0.19182E-01
        -0.34185E-01
        -0.40439E-01
        -0.33870E-01
        -0.32228E-01
        -0.35602E-01
        -0.36735E-01
        -0.33495E-01
        -0.31667E-01
        -0.16029E-01
         0.42040E-02
         0.91525E-02
         0.93220E-02
         0.16497E-01
         0.28608E-01
         0.36676E-01
         0.36585E-01
        -0.22813E-02
         0.48920E-03
        -0.88695E-03
        -0.25554E-02
         0.51200E-02
         0.43772E-02
         0.14187E-02
        -0.27108E-02
        -0.13134E-02
        -0.26419E-02
        -0.37760E-03
         0.20508E-02
         0.65677E-02
        -0.48062E-02
        -0.51258E-02
         0.44513E-02
         0.25176E-02
        -0.13959E-02
        -0.97362E-03
        -0.16797E-02
        -0.10217E-01
        -0.97344E-02
        -0.96209E-02
        -0.23289E-02
         0.13748E-02
         0.91803E-03
        -0.48388E-02
         0.46950E-03
        -0.17865E-02
        -0.22245E-02
         0.34381E-02
         0.21726E-02
        -0.20363E-02
        -0.18887E-02
         0.93361E-02
         0.50837E-02
         0.58405E-02
        -0.58672E-02
        -0.10982E-02
        -0.29170E-02
        -0.10326E-01
        -0.10622E-01
        -0.10310E-01
        -0.74276E-02
        -0.56954E-02
        -0.33268E-02
         0.36068E-02
         0.42935E-02
        -0.49508E-03
         0.65358E-03
         0.69117E-02
         0.60071E-02
         0.38525E-01
         0.38875E-01
         0.34982E-01
         0.28895E-01
         0.21460E-01
         0.98843E-02
        -0.25062E-02
        -0.80604E-02
        -0.10390E-01
        -0.19174E-01
        -0.34179E-01
        -0.40441E-01
        -0.33868E-01
        -0.32227E-01
        -0.35608E-01
        -0.36746E-01
        -0.33503E-01
        -0.31672E-01
        -0.16025E-01
         0.42052E-02
         0.91452E-02
         0.93184E-02
         0.16485E-01
         0.28590E-01
         0.36658E-01
         0.36569E-01
        -0.22849E-02
         0.49158E-03
        -0.88788E-03
        -0.25569E-02
         0.51153E-02
         0.43732E-02
         0.14271E-02
        -0.27032E-02
        -0.13145E-02
        -0.26389E-02
        -0.36667E-03
         0.20557E-02
         0.65718E-02
        -0.47940E-02
        -0.51227E-02
         0.44568E-02
         0.25232E-02
        -0.13918E-02
        -0.97317E-03
        -0.16769E-02
        -0.10217E-01
        -0.97340E-02
        -0.96218E-02
        -0.23293E-02
         0.13781E-02
         0.91991E-03
        -0.48398E-02
         0.45817E-03
        -0.17979E-02
        -0.22262E-02
         0.34434E-02
         0.21725E-02
        -0.20267E-02
        -0.18892E-02
         0.93413E-02
         0.50820E-02
         0.58391E-02
        -0.58759E-02
        -0.11077E-02
        -0.29262E-02
        -0.10333E-01
        -0.10629E-01
        -0.10312E-01
        -0.74276E-02
        -0.56937E-02
        -0.33255E-02
         0.36058E-02
         0.42949E-02
        -0.49020E-03
         0.65210E-03
         0.69080E-02
         0.59985E-02
         0.38511E-01
         0.38865E-01
         0.34979E-01
         0.28895E-01
         0.21453E-01
         0.98813E-02
        -0.25087E-02
        -0.80651E-02
        -0.10381E-01
        -0.19167E-01
        -0.34174E-01
        -0.40443E-01
        -0.33867E-01
        -0.32226E-01
        -0.35613E-01
        -0.36757E-01
        -0.33510E-01
        -0.31678E-01
        -0.16020E-01
         0.42064E-02
         0.91379E-02
         0.93148E-02
         0.16473E-01
         0.28573E-01
         0.36639E-01
         0.36552E-01
        -0.22884E-02
         0.49395E-03
        -0.88876E-03
        -0.25583E-02
         0.51105E-02
         0.43691E-02
         0.14355E-02
        -0.26956E-02
        -0.13154E-02
        -0.26357E-02
        -0.35576E-03
         0.20605E-02
         0.65759E-02
        -0.47817E-02
        -0.51197E-02
         0.44623E-02
         0.25287E-02
        -0.13877E-02
        -0.97284E-03
        -0.16742E-02
        -0.10217E-01
        -0.97337E-02
        -0.96227E-02
        -0.23296E-02
         0.13812E-02
         0.92187E-03
        -0.48403E-02
         0.44656E-03
        -0.18094E-02
        -0.22280E-02
         0.34487E-02
         0.21723E-02
        -0.20171E-02
        -0.18896E-02
         0.93463E-02
         0.50804E-02
         0.58377E-02
        -0.58845E-02
        -0.11174E-02
        -0.29352E-02
        -0.10340E-01
        -0.10636E-01
        -0.10314E-01
        -0.74276E-02
        -0.56920E-02
        -0.33242E-02
         0.36049E-02
         0.42963E-02
        -0.48533E-03
         0.65063E-03
         0.69046E-02
         0.59897E-02
         0.38498E-01
         0.38856E-01
         0.34976E-01
         0.28895E-01
         0.21446E-01
         0.98783E-02
        -0.25113E-02
        -0.80697E-02
        -0.10373E-01
        -0.19159E-01
        -0.34168E-01
        -0.40446E-01
        -0.33867E-01
        -0.32225E-01
        -0.35619E-01
        -0.36768E-01
        -0.33518E-01
        -0.31683E-01
        -0.16015E-01
         0.42077E-02
         0.91308E-02
         0.93112E-02
         0.16461E-01
         0.28556E-01
         0.36621E-01
         0.36536E-01
        -0.22919E-02
         0.49632E-03
        -0.88965E-03
        -0.25598E-02
         0.51056E-02
         0.43650E-02
         0.14439E-02
        -0.26880E-02
        -0.13162E-02
        -0.26321E-02
        -0.34487E-03
         0.20654E-02
         0.65800E-02
        -0.47694E-02
        -0.51165E-02
         0.44677E-02
         0.25342E-02
        -0.13836E-02
        -0.97240E-03
        -0.16715E-02
        -0.10216E-01
        -0.97332E-02
        -0.96236E-02
        -0.23299E-02
         0.13841E-02
         0.92375E-03
        -0.48405E-02
         0.43460E-03
        -0.18209E-02
        -0.22297E-02
         0.34540E-02
         0.21721E-02
        -0.20074E-02
        -0.18901E-02
         0.93515E-02
         0.50787E-02
         0.58364E-02
        -0.58929E-02
        -0.11274E-02
        -0.29442E-02
        -0.10346E-01
        -0.10642E-01
        -0.10316E-01
        -0.74276E-02
        -0.56904E-02
        -0.33230E-02
         0.36040E-02
         0.42976E-02
        -0.48041E-03
         0.64919E-03
         0.69008E-02
         0.59808E-02
         0.38485E-01
         0.38846E-01
         0.34972E-01
         0.28895E-01
         0.21440E-01
         0.98753E-02
        -0.25138E-02
        -0.80744E-02
        -0.10364E-01
        -0.19151E-01
        -0.34162E-01
        -0.40450E-01
        -0.33867E-01
        -0.32224E-01
        -0.35625E-01
        -0.36779E-01
        -0.33525E-01
        -0.31688E-01
        -0.16010E-01
         0.42089E-02
         0.91236E-02
         0.93076E-02
         0.16449E-01
         0.28538E-01
         0.36603E-01
         0.36520E-01
        -0.22955E-02
         0.49870E-03
        -0.89057E-03
        -0.25613E-02
         0.51009E-02
         0.43611E-02
         0.14522E-02
        -0.26804E-02
        -0.13169E-02
        -0.26284E-02
        -0.33407E-03
         0.20702E-02
         0.65840E-02
        -0.47570E-02
        -0.51133E-02
         0.44731E-02
         0.25396E-02
        -0.13796E-02
        -0.97193E-03
        -0.16688E-02
        -0.10216E-01
        -0.97327E-02
        -0.96243E-02
        -0.23303E-02
         0.13869E-02
         0.92562E-03
        -0.48407E-02
         0.42259E-03
        -0.18323E-02
        -0.22314E-02
         0.34592E-02
         0.21719E-02
        -0.19978E-02
        -0.18906E-02
         0.93567E-02
         0.50772E-02
         0.58350E-02
        -0.59011E-02
        -0.11375E-02
        -0.29530E-02
        -0.10351E-01
        -0.10648E-01
        -0.10318E-01
        -0.74276E-02
        -0.56887E-02
        -0.33218E-02
         0.36031E-02
         0.42991E-02
        -0.47554E-03
         0.64768E-03
         0.68974E-02
         0.59722E-02
         0.38471E-01
         0.38836E-01
         0.34969E-01
         0.28895E-01
         0.21433E-01
         0.98721E-02
        -0.25163E-02
        -0.80788E-02
        -0.10356E-01
        -0.19142E-01
        -0.34156E-01
        -0.40455E-01
        -0.33867E-01
        -0.32223E-01
        -0.35630E-01
        -0.36791E-01
        -0.33533E-01
        -0.31694E-01
        -0.16006E-01
         0.42102E-02
         0.91165E-02
         0.93040E-02
         0.16438E-01
         0.28521E-01
         0.36585E-01
         0.36503E-01
        -0.23066E-02
         0.50224E-03
        -0.89452E-03
        -0.25712E-02
         0.51117E-02
         0.43709E-02
         0.14643E-02
        -0.26824E-02
        -0.13219E-02
        -0.26340E-02
        -0.32571E-03
         0.20799E-02
         0.66072E-02
        -0.47610E-02
        -0.51261E-02
         0.44929E-02
         0.25531E-02
        -0.13804E-02
        -0.97438E-03
        -0.16711E-02
        -0.10246E-01
        -0.97616E-02
        -0.96532E-02
        -0.23381E-02
         0.13939E-02
         0.93032E-03
        -0.48567E-02
         0.41270E-03
        -0.18487E-02
        -0.22400E-02
         0.34756E-02
         0.21787E-02
        -0.19957E-02
        -0.18974E-02
         0.93893E-02
         0.50913E-02
         0.58515E-02
        -0.59274E-02
        -0.11503E-02
        -0.29702E-02
        -0.10388E-01
        -0.10686E-01
        -0.10351E-01
        -0.74495E-02
        -0.57041E-02
        -0.33298E-02
         0.36134E-02
         0.43144E-02
        -0.47272E-03
         0.64819E-03
         0.69148E-02
         0.59825E-02
         0.38551E-01
         0.38918E-01
         0.35049E-01
         0.28964E-01
         0.21478E-01
         0.98918E-02
        -0.25258E-02
        -0.81024E-02
        -0.10373E-01
        -0.19182E-01
        -0.34237E-01
        -0.40558E-01
        -0.33950E-01
        -0.32300E-01
        -0.35718E-01
        -0.36884E-01
        -0.33615E-01
        -0.31771E-01
        -0.16039E-01
         0.42224E-02
         0.91325E-02
         0.93224E-02
         0.16466E-01
         0.28573E-01
         0.36654E-01
         0.36573E-01
        -0.34207E-02
         0.74966E-03
        -0.13238E-02
        -0.38200E-02
         0.72889E-02
         0.62938E-02
         0.21788E-02
        -0.39491E-02
        -0.19544E-02
        -0.38712E-02
        -0.46807E-03
         0.29128E-02
         0.93950E-02
        -0.69016E-02
        -0.72108E-02
         0.66695E-02
         0.37789E-02
        -0.20472E-02
        -0.14255E-02
        -0.24496E-02
        -0.14564E-01
        -0.14052E-01
        -0.13762E-01
        -0.34484E-02
         0.20692E-02
         0.13847E-02
        -0.71031E-02
         0.60145E-03
        -0.27593E-02
        -0.33202E-02
         0.51616E-02
         0.32247E-02
        -0.29578E-02
        -0.28186E-02
         0.13140E-01
         0.73251E-02
         0.84226E-02
        -0.85354E-02
        -0.16856E-02
        -0.43562E-02
        -0.15010E-01
        -0.15558E-01
        -0.15063E-01
        -0.10698E-01
        -0.81622E-02
        -0.46262E-02
         0.51521E-02
         0.62361E-02
        -0.68205E-03
         0.93573E-03
         0.97443E-02
         0.85868E-02
         0.47734E-01
         0.48116E-01
         0.43350E-01
         0.35935E-01
         0.26621E-01
         0.12284E-01
        -0.31768E-02
        -0.10264E-01
        -0.13106E-01
        -0.24096E-01
        -0.43076E-01
        -0.50962E-01
        -0.43154E-01
        -0.41198E-01
        -0.44979E-01
        -0.45918E-01
        -0.41719E-01
        -0.39196E-01
        -0.19760E-01
         0.52128E-02
         0.11387E-01
         0.11677E-01
         0.20546E-01
         0.35780E-01
         0.45763E-01
         0.45498E-01
  
SCALARS                      strain_xy  double 1
LOOKUP_TABLE default
        -0.24576E-07
        -0.53517E-07
        -0.48141E-06
         0.18466E-07
        -0.56983E-20
         0.55688E-21
         0.83728E-20
         0.12754E-20
        -0.48289E-05
         0.21768E-05
         0.37270E-19
         0.29555E-19
         0.16161E-06
        -0.33386E-07
         0.32896E-20
        -0.98801E-21
         0.58645E-07
         0.81257E-06
         0.16377E-21
         0.24957E-20
        -0.56329E-06
        -0.33134E-05
        -0.36723E-05
         0.25377E-19
         0.20209E-19
        -0.29511E-19
        -0.34599E-06
        -0.25732E-05
         0.34169E-19
         0.52583E-19
        -0.15621E-06
         0.27465E-06
         0.26866E-07
        -0.18035E-20
         0.71146E-20
        -0.90999E-22
        -0.13034E-05
        -0.53268E-06
         0.19041E-19
         0.15774E-19
        -0.24304E-05
        -0.19819E-05
         0.32460E-19
         0.21876E-19
        -0.25573E-05
        -0.48615E-06
        -0.11825E-20
         0.88036E-20
         0.52183E-06
         0.26018E-20
        -0.16452E-06
        -0.58659E-22
         0.28085E-07
         0.19665E-19
         0.13408E-06
         0.30261E-20
         0.19144E-05
        -0.10576E-06
         0.70326E-22
        -0.34502E-21
         0.20189E-07
        -0.19594E-05
         0.19165E-20
         0.49158E-20
         0.89326E-07
        -0.38911E-21
         0.12298E-05
         0.31180E-20
        -0.58400E-05
        -0.20936E-05
         0.24084E-20
        -0.23063E-19
        -0.45777E-05
        -0.36875E-19
         0.12932E-05
         0.24698E-19
         0.39964E-05
         0.36797E-20
         0.70556E-05
         0.47850E-20
         0.14524E-04
         0.83965E-05
         0.11249E-19
        -0.28525E-20
         0.11617E-05
        -0.34326E-21
        -0.48376E-05
        -0.30959E-19
        -0.68139E-05
        -0.34568E-19
        -0.14446E-04
        -0.64502E-05
        -0.21882E-19
         0.24289E-19
         0.10637E-05
         0.22116E-19
         0.26669E-05
         0.95003E-20
         0.61321E-05
         0.25225E-19
         0.15000E-04
         0.86953E-05
         0.54088E-19
         0.27044E-19
        -0.22477E-04
         0.98559E-05
        -0.35141E-19
         0.43035E-19
        -0.54267E-04
        -0.99873E-19
        -0.74603E-04
        -0.10917E-18
        -0.62242E-04
        -0.74095E-19
        -0.47070E-04
        -0.78593E-20
        -0.18164E-04
         0.22152E-19
         0.22111E-04
         0.13716E-19
         0.49277E-04
         0.12538E-19
         0.65316E-04
         0.26901E-19
         0.69793E-04
         0.32708E-19
         0.66523E-04
         0.12886E-19
         0.41249E-04
         0.78565E-20
        -0.30690E-05
         0.12841E-19
        -0.40329E-04
         0.86078E-20
        -0.68377E-04
        -0.30696E-19
        -0.93169E-04
        -0.80545E-19
        -0.73682E-04
        -0.10222E-18
        -0.43149E-04
        -0.63262E-19
        -0.45758E-05
         0.12069E-19
         0.32525E-04
         0.25580E-19
         0.48266E-04
         0.40767E-19
         0.56515E-04
         0.80279E-19
         0.50685E-04
         0.10417E-18
         0.48770E-04
         0.74009E-19
         0.42026E-04
         0.58530E-19
        -0.35917E-05
         0.99275E-06
         0.10132E-05
        -0.61229E-06
         0.83179E-05
         0.66373E-05
         0.10964E-06
        -0.24286E-05
        -0.10292E-05
        -0.27618E-05
        -0.83630E-06
        -0.15547E-04
        -0.21836E-04
         0.80895E-06
         0.12542E-04
        -0.15419E-05
         0.11537E-05
         0.33823E-06
         0.72208E-06
        -0.58200E-06
         0.29592E-05
         0.25767E-05
        -0.79385E-05
         0.20707E-06
         0.17538E-05
         0.19340E-06
         0.32986E-07
         0.64525E-07
         0.81563E-06
        -0.26342E-05
        -0.13480E-05
         0.29648E-06
         0.46203E-06
        -0.37181E-07
        -0.20839E-05
        -0.70414E-05
        -0.14140E-04
         0.21669E-04
         0.11295E-04
         0.20820E-04
         0.40915E-04
         0.91509E-05
        -0.71388E-05
        -0.14462E-04
        -0.17451E-04
        -0.22986E-04
         0.27603E-05
         0.80330E-05
         0.24835E-05
         0.85532E-05
         0.27401E-04
         0.10236E-04
        -0.99123E-04
         0.12221E-03
        -0.29714E-03
        -0.34740E-03
        -0.33043E-03
        -0.20263E-03
         0.12243E-04
         0.13348E-03
         0.19313E-03
         0.31389E-03
         0.33222E-03
         0.17164E-03
         0.68196E-04
         0.28672E-04
        -0.45995E-04
        -0.18061E-03
        -0.30176E-03
        -0.34897E-03
        -0.22189E-03
         0.39895E-04
         0.14256E-03
         0.15018E-03
         0.23714E-03
         0.26648E-03
         0.19842E-03
         0.18192E-03
        -0.72448E-05
         0.93798E-06
        -0.16524E-05
        -0.11412E-05
         0.12819E-04
         0.49268E-05
         0.11382E-05
        -0.86868E-05
        -0.26174E-05
        -0.77673E-05
         0.82958E-06
        -0.13100E-04
        -0.25531E-04
         0.28135E-05
         0.33727E-04
        -0.53977E-05
         0.91063E-06
         0.52071E-06
         0.15795E-05
         0.53628E-06
         0.14187E-04
         0.95992E-05
        -0.54916E-05
         0.11211E-05
         0.25738E-05
        -0.42865E-06
         0.58333E-06
        -0.14398E-06
        -0.57969E-06
        -0.42786E-05
        -0.44693E-05
        -0.76179E-06
         0.18736E-05
         0.14040E-05
         0.32984E-05
        -0.55491E-05
        -0.12153E-04
         0.28425E-04
         0.41967E-05
         0.10723E-04
         0.28941E-04
        -0.73562E-05
        -0.14811E-04
        -0.13376E-04
        -0.13264E-04
        -0.15854E-04
         0.99701E-05
         0.77835E-05
        -0.12931E-05
         0.18380E-05
         0.19522E-04
         0.12903E-05
        -0.13527E-03
         0.19500E-03
        -0.40738E-03
        -0.43422E-03
        -0.41820E-03
        -0.23115E-03
         0.56212E-04
         0.15903E-03
         0.20077E-03
         0.36414E-03
         0.40616E-03
         0.15792E-03
         0.52758E-04
         0.43007E-04
        -0.21946E-04
        -0.19174E-03
        -0.35061E-03
        -0.46161E-03
        -0.30608E-03
         0.88218E-04
         0.17132E-03
         0.16408E-03
         0.29087E-03
         0.35459E-03
         0.23578E-03
         0.22255E-03
        -0.72630E-05
         0.94163E-06
        -0.16564E-05
        -0.11504E-05
         0.12808E-04
         0.49261E-05
         0.11469E-05
        -0.86794E-05
        -0.26250E-05
        -0.77901E-05
         0.81328E-06
        -0.13131E-04
        -0.25553E-04
         0.28066E-05
         0.33753E-04
        -0.54036E-05
         0.92092E-06
         0.51850E-06
         0.15798E-05
         0.53235E-06
         0.14220E-04
         0.96073E-05
        -0.54925E-05
         0.11206E-05
         0.25913E-05
        -0.42858E-06
         0.59038E-06
        -0.14207E-06
        -0.57992E-06
        -0.42904E-05
        -0.44766E-05
        -0.76003E-06
         0.18699E-05
         0.14069E-05
         0.32691E-05
        -0.55502E-05
        -0.12149E-04
         0.28514E-04
         0.42460E-05
         0.10769E-04
         0.28982E-04
        -0.73407E-05
        -0.14827E-04
        -0.13381E-04
        -0.13260E-04
        -0.15846E-04
         0.99692E-05
         0.77814E-05
        -0.12820E-05
         0.18293E-05
         0.19501E-04
         0.12689E-05
        -0.13510E-03
         0.19496E-03
        -0.40742E-03
        -0.43423E-03
        -0.41802E-03
        -0.23100E-03
         0.56252E-04
         0.15908E-03
         0.20055E-03
         0.36390E-03
         0.40601E-03
         0.15799E-03
         0.52749E-04
         0.43093E-04
        -0.21770E-04
        -0.19188E-03
        -0.35083E-03
        -0.46181E-03
        -0.30599E-03
         0.88253E-04
         0.17118E-03
         0.16401E-03
         0.29058E-03
         0.35412E-03
         0.23541E-03
         0.22216E-03
        -0.72813E-05
         0.94524E-06
        -0.16603E-05
        -0.11596E-05
         0.12797E-04
         0.49257E-05
         0.11556E-05
        -0.86720E-05
        -0.26324E-05
        -0.78124E-05
         0.79699E-06
        -0.13162E-04
        -0.25575E-04
         0.27994E-05
         0.33777E-04
        -0.54097E-05
         0.93139E-06
         0.51626E-06
         0.15801E-05
         0.52841E-06
         0.14255E-04
         0.96152E-05
        -0.54943E-05
         0.11200E-05
         0.26091E-05
        -0.42846E-06
         0.59790E-06
        -0.14020E-06
        -0.57976E-06
        -0.43018E-05
        -0.44840E-05
        -0.75796E-06
         0.18662E-05
         0.14098E-05
         0.32395E-05
        -0.55516E-05
        -0.12144E-04
         0.28604E-04
         0.42955E-05
         0.10816E-04
         0.29024E-04
        -0.73231E-05
        -0.14842E-04
        -0.13388E-04
        -0.13257E-04
        -0.15839E-04
         0.99683E-05
         0.77792E-05
        -0.12706E-05
         0.18204E-05
         0.19481E-04
         0.12476E-05
        -0.13493E-03
         0.19492E-03
        -0.40746E-03
        -0.43423E-03
        -0.41784E-03
        -0.23086E-03
         0.56293E-04
         0.15913E-03
         0.20034E-03
         0.36366E-03
         0.40587E-03
         0.15808E-03
         0.52741E-04
         0.43179E-04
        -0.21593E-04
        -0.19203E-03
        -0.35106E-03
        -0.46201E-03
        -0.30590E-03
         0.88288E-04
         0.17104E-03
         0.16394E-03
         0.29029E-03
         0.35365E-03
         0.23503E-03
         0.22177E-03
        -0.72996E-05
         0.94896E-06
        -0.16642E-05
        -0.11689E-05
         0.12785E-04
         0.49251E-05
         0.11644E-05
        -0.86642E-05
        -0.26396E-05
        -0.78331E-05
         0.78072E-06
        -0.13193E-04
        -0.25597E-04
         0.27926E-05
         0.33802E-04
        -0.54164E-05
         0.94213E-06
         0.51400E-06
         0.15806E-05
         0.52426E-06
         0.14290E-04
         0.96227E-05
        -0.54991E-05
         0.11189E-05
         0.26278E-05
        -0.42824E-06
         0.60564E-06
        -0.13865E-06
        -0.57850E-06
        -0.43123E-05
        -0.44915E-05
        -0.75530E-06
         0.18623E-05
         0.14127E-05
         0.32101E-05
        -0.55527E-05
        -0.12139E-04
         0.28694E-04
         0.43453E-05
         0.10863E-04
         0.29069E-04
        -0.72999E-05
        -0.14856E-04
        -0.13400E-04
        -0.13256E-04
        -0.15831E-04
         0.99686E-05
         0.77772E-05
        -0.12593E-05
         0.18115E-05
         0.19459E-04
         0.12264E-05
        -0.13476E-03
         0.19488E-03
        -0.40750E-03
        -0.43424E-03
        -0.41766E-03
        -0.23071E-03
         0.56334E-04
         0.15918E-03
         0.20013E-03
         0.36341E-03
         0.40573E-03
         0.15817E-03
         0.52738E-04
         0.43264E-04
        -0.21415E-04
        -0.19219E-03
        -0.35132E-03
        -0.46223E-03
        -0.30581E-03
         0.88323E-04
         0.17090E-03
         0.16387E-03
         0.29001E-03
         0.35319E-03
         0.23466E-03
         0.22137E-03
        -0.73178E-05
         0.95268E-06
        -0.16681E-05
        -0.11781E-05
         0.12775E-04
         0.49244E-05
         0.11731E-05
        -0.86561E-05
        -0.26464E-05
        -0.78521E-05
         0.76440E-06
        -0.13224E-04
        -0.25619E-04
         0.27858E-05
         0.33827E-04
        -0.54236E-05
         0.95314E-06
         0.51174E-06
         0.15809E-05
         0.51994E-06
         0.14326E-04
         0.96293E-05
        -0.55065E-05
         0.11174E-05
         0.26472E-05
        -0.42784E-06
         0.61422E-06
        -0.13738E-06
        -0.57609E-06
        -0.43218E-05
        -0.44992E-05
        -0.75192E-06
         0.18584E-05
         0.14157E-05
         0.31804E-05
        -0.55539E-05
        -0.12135E-04
         0.28784E-04
         0.43952E-05
         0.10912E-04
         0.29120E-04
        -0.72706E-05
        -0.14868E-04
        -0.13417E-04
        -0.13257E-04
        -0.15824E-04
         0.99696E-05
         0.77759E-05
        -0.12480E-05
         0.18026E-05
         0.19439E-04
         0.12052E-05
        -0.13458E-03
         0.19485E-03
        -0.40754E-03
        -0.43424E-03
        -0.41748E-03
        -0.23056E-03
         0.56373E-04
         0.15923E-03
         0.19992E-03
         0.36316E-03
         0.40559E-03
         0.15829E-03
         0.52741E-04
         0.43348E-04
        -0.21237E-04
        -0.19237E-03
        -0.35161E-03
        -0.46245E-03
        -0.30573E-03
         0.88357E-04
         0.17077E-03
         0.16380E-03
         0.28972E-03
         0.35272E-03
         0.23428E-03
         0.22098E-03
        -0.73352E-05
         0.95664E-06
        -0.16717E-05
        -0.11875E-05
         0.12764E-04
         0.49238E-05
         0.11817E-05
        -0.86470E-05
        -0.26531E-05
        -0.78702E-05
         0.74811E-06
        -0.13255E-04
        -0.25641E-04
         0.27793E-05
         0.33852E-04
        -0.54311E-05
         0.96437E-06
         0.50949E-06
         0.15812E-05
         0.51561E-06
         0.14363E-04
         0.96358E-05
        -0.55153E-05
         0.11158E-05
         0.26665E-05
        -0.42737E-06
         0.62343E-06
        -0.13621E-06
        -0.57316E-06
        -0.43313E-05
        -0.45066E-05
        -0.74812E-06
         0.18545E-05
         0.14186E-05
         0.31505E-05
        -0.55557E-05
        -0.12131E-04
         0.28875E-04
         0.44455E-05
         0.10961E-04
         0.29172E-04
        -0.72394E-05
        -0.14879E-04
        -0.13436E-04
        -0.13260E-04
        -0.15819E-04
         0.99708E-05
         0.77752E-05
        -0.12366E-05
         0.17944E-05
         0.19419E-04
         0.11840E-05
        -0.13441E-03
         0.19481E-03
        -0.40757E-03
        -0.43425E-03
        -0.41730E-03
        -0.23041E-03
         0.56411E-04
         0.15928E-03
         0.19971E-03
         0.36292E-03
         0.40546E-03
         0.15841E-03
         0.52746E-04
         0.43431E-04
        -0.21059E-04
        -0.19256E-03
        -0.35192E-03
        -0.46268E-03
        -0.30563E-03
         0.88387E-04
         0.17063E-03
         0.16373E-03
         0.28943E-03
         0.35225E-03
         0.23391E-03
         0.22059E-03
        -0.73512E-05
         0.96123E-06
        -0.16746E-05
        -0.11970E-05
         0.12753E-04
         0.49234E-05
         0.11902E-05
        -0.86360E-05
        -0.26601E-05
        -0.78874E-05
         0.73181E-06
        -0.13286E-04
        -0.25666E-04
         0.27745E-05
         0.33876E-04
        -0.54389E-05
         0.97578E-06
         0.50724E-06
         0.15817E-05
         0.51129E-06
         0.14400E-04
         0.96427E-05
        -0.55242E-05
         0.11142E-05
         0.26846E-05
        -0.42674E-06
         0.63429E-06
        -0.13501E-06
        -0.57005E-06
        -0.43410E-05
        -0.45135E-05
        -0.74390E-06
         0.18504E-05
         0.14215E-05
         0.31205E-05
        -0.55579E-05
        -0.12128E-04
         0.28966E-04
         0.44964E-05
         0.11011E-04
         0.29225E-04
        -0.72073E-05
        -0.14890E-04
        -0.13455E-04
        -0.13265E-04
        -0.15815E-04
         0.99726E-05
         0.77765E-05
        -0.12247E-05
         0.17876E-05
         0.19400E-04
         0.11627E-05
        -0.13424E-03
         0.19477E-03
        -0.40761E-03
        -0.43426E-03
        -0.41712E-03
        -0.23026E-03
         0.56450E-04
         0.15933E-03
         0.19950E-03
         0.36267E-03
         0.40533E-03
         0.15854E-03
         0.52752E-04
         0.43516E-04
        -0.20880E-04
        -0.19274E-03
        -0.35222E-03
        -0.46291E-03
        -0.30554E-03
         0.88411E-04
         0.17049E-03
         0.16366E-03
         0.28915E-03
         0.35178E-03
         0.23354E-03
         0.22020E-03
        -0.73665E-05
         0.96602E-06
        -0.16773E-05
        -0.12067E-05
         0.12743E-04
         0.49228E-05
         0.11986E-05
        -0.86240E-05
        -0.26672E-05
        -0.79044E-05
         0.71550E-06
        -0.13318E-04
        -0.25690E-04
         0.27700E-05
         0.33901E-04
        -0.54467E-05
         0.98730E-06
         0.50496E-06
         0.15821E-05
         0.50705E-06
         0.14436E-04
         0.96496E-05
        -0.55329E-05
         0.11127E-05
         0.27021E-05
        -0.42606E-06
         0.64557E-06
        -0.13378E-06
        -0.56687E-06
        -0.43510E-05
        -0.45200E-05
        -0.73942E-06
         0.18464E-05
         0.14245E-05
         0.30903E-05
        -0.55607E-05
        -0.12126E-04
         0.29057E-04
         0.45475E-05
         0.11062E-04
         0.29278E-04
        -0.71754E-05
        -0.14901E-04
        -0.13475E-04
        -0.13270E-04
        -0.15812E-04
         0.99746E-05
         0.77784E-05
        -0.12125E-05
         0.17815E-05
         0.19382E-04
         0.11415E-05
        -0.13407E-03
         0.19473E-03
        -0.40764E-03
        -0.43426E-03
        -0.41694E-03
        -0.23011E-03
         0.56488E-04
         0.15938E-03
         0.19929E-03
         0.36242E-03
         0.40520E-03
         0.15866E-03
         0.52757E-04
         0.43601E-04
        -0.20701E-04
        -0.19293E-03
        -0.35252E-03
        -0.46313E-03
        -0.30544E-03
         0.88434E-04
         0.17035E-03
         0.16360E-03
         0.28887E-03
         0.35132E-03
         0.23316E-03
         0.21981E-03
        -0.73818E-05
         0.97087E-06
        -0.16798E-05
        -0.12163E-05
         0.12733E-04
         0.49221E-05
         0.12069E-05
        -0.86121E-05
        -0.26744E-05
        -0.79214E-05
         0.69919E-06
        -0.13349E-04
        -0.25715E-04
         0.27659E-05
         0.33926E-04
        -0.54546E-05
         0.99891E-06
         0.50269E-06
         0.15825E-05
         0.50276E-06
         0.14473E-04
         0.96566E-05
        -0.55417E-05
         0.11112E-05
         0.27196E-05
        -0.42538E-06
         0.65715E-06
        -0.13248E-06
        -0.56360E-06
        -0.43609E-05
        -0.45266E-05
        -0.73500E-06
         0.18422E-05
         0.14274E-05
         0.30599E-05
        -0.55629E-05
        -0.12124E-04
         0.29149E-04
         0.45990E-05
         0.11111E-04
         0.29331E-04
        -0.71435E-05
        -0.14911E-04
        -0.13495E-04
        -0.13275E-04
        -0.15810E-04
         0.99764E-05
         0.77803E-05
        -0.12003E-05
         0.17755E-05
         0.19365E-04
         0.11203E-05
        -0.13389E-03
         0.19469E-03
        -0.40767E-03
        -0.43426E-03
        -0.41676E-03
        -0.22996E-03
         0.56526E-04
         0.15943E-03
         0.19908E-03
         0.36218E-03
         0.40507E-03
         0.15878E-03
         0.52764E-04
         0.43688E-04
        -0.20523E-04
        -0.19311E-03
        -0.35283E-03
        -0.46335E-03
        -0.30534E-03
         0.88456E-04
         0.17020E-03
         0.16353E-03
         0.28859E-03
         0.35085E-03
         0.23279E-03
         0.21942E-03
        -0.73971E-05
         0.97576E-06
        -0.16824E-05
        -0.12260E-05
         0.12722E-04
         0.49214E-05
         0.12153E-05
        -0.86000E-05
        -0.26815E-05
        -0.79382E-05
         0.68288E-06
        -0.13380E-04
        -0.25740E-04
         0.27614E-05
         0.33950E-04
        -0.54624E-05
         0.10106E-05
         0.50044E-06
         0.15828E-05
         0.49849E-06
         0.14510E-04
         0.96633E-05
        -0.55500E-05
         0.11098E-05
         0.27372E-05
        -0.42468E-06
         0.66842E-06
        -0.13111E-06
        -0.56025E-06
        -0.43709E-05
        -0.45330E-05
        -0.73054E-06
         0.18380E-05
         0.14304E-05
         0.30295E-05
        -0.55657E-05
        -0.12122E-04
         0.29241E-04
         0.46506E-05
         0.11162E-04
         0.29384E-04
        -0.71116E-05
        -0.14922E-04
        -0.13514E-04
        -0.13280E-04
        -0.15807E-04
         0.99784E-05
         0.77826E-05
        -0.11883E-05
         0.17693E-05
         0.19346E-04
         0.10991E-05
        -0.13372E-03
         0.19465E-03
        -0.40770E-03
        -0.43427E-03
        -0.41658E-03
        -0.22981E-03
         0.56563E-04
         0.15948E-03
         0.19887E-03
         0.36193E-03
         0.40494E-03
         0.15890E-03
         0.52770E-04
         0.43775E-04
        -0.20345E-04
        -0.19330E-03
        -0.35313E-03
        -0.46357E-03
        -0.30524E-03
         0.88478E-04
         0.17006E-03
         0.16346E-03
         0.28830E-03
         0.35039E-03
         0.23243E-03
         0.21903E-03
        -0.74123E-05
         0.98060E-06
        -0.16851E-05
        -0.12356E-05
         0.12712E-04
         0.49208E-05
         0.12237E-05
        -0.85878E-05
        -0.26887E-05
        -0.79550E-05
         0.66651E-06
        -0.13412E-04
        -0.25765E-04
         0.27572E-05
         0.33975E-04
        -0.54702E-05
         0.10223E-05
         0.49820E-06
         0.15833E-05
         0.49417E-06
         0.14546E-04
         0.96698E-05
        -0.55588E-05
         0.11083E-05
         0.27547E-05
        -0.42398E-06
         0.67990E-06
        -0.12967E-06
        -0.55680E-06
        -0.43807E-05
        -0.45395E-05
        -0.72610E-06
         0.18338E-05
         0.14333E-05
         0.29989E-05
        -0.55682E-05
        -0.12120E-04
         0.29333E-04
         0.47026E-05
         0.11212E-04
         0.29437E-04
        -0.70797E-05
        -0.14933E-04
        -0.13533E-04
        -0.13285E-04
        -0.15805E-04
         0.99805E-05
         0.77845E-05
        -0.11761E-05
         0.17631E-05
         0.19329E-04
         0.10780E-05
        -0.13354E-03
         0.19461E-03
        -0.40773E-03
        -0.43427E-03
        -0.41640E-03
        -0.22966E-03
         0.56598E-04
         0.15952E-03
         0.19866E-03
         0.36168E-03
         0.40480E-03
         0.15902E-03
         0.52776E-04
         0.43860E-04
        -0.20167E-04
        -0.19348E-03
        -0.35344E-03
        -0.46378E-03
        -0.30515E-03
         0.88498E-04
         0.16992E-03
         0.16339E-03
         0.28802E-03
         0.34992E-03
         0.23206E-03
         0.21864E-03
        -0.74275E-05
         0.98543E-06
        -0.16876E-05
        -0.12453E-05
         0.12702E-04
         0.49202E-05
         0.12320E-05
        -0.85755E-05
        -0.26959E-05
        -0.79717E-05
         0.65016E-06
        -0.13444E-04
        -0.25789E-04
         0.27529E-05
         0.33999E-04
        -0.54781E-05
         0.10341E-05
         0.49593E-06
         0.15837E-05
         0.48992E-06
         0.14583E-04
         0.96763E-05
        -0.55676E-05
         0.11069E-05
         0.27722E-05
        -0.42331E-06
         0.69113E-06
        -0.12818E-06
        -0.55321E-06
        -0.43908E-05
        -0.45460E-05
        -0.72166E-06
         0.18295E-05
         0.14363E-05
         0.29682E-05
        -0.55708E-05
        -0.12118E-04
         0.29426E-04
         0.47548E-05
         0.11263E-04
         0.29490E-04
        -0.70481E-05
        -0.14944E-04
        -0.13553E-04
        -0.13291E-04
        -0.15803E-04
         0.99823E-05
         0.77869E-05
        -0.11640E-05
         0.17572E-05
         0.19311E-04
         0.10570E-05
        -0.13337E-03
         0.19457E-03
        -0.40776E-03
        -0.43427E-03
        -0.41622E-03
        -0.22952E-03
         0.56634E-04
         0.15957E-03
         0.19846E-03
         0.36143E-03
         0.40467E-03
         0.15915E-03
         0.52782E-04
         0.43945E-04
        -0.19987E-04
        -0.19367E-03
        -0.35374E-03
        -0.46400E-03
        -0.30505E-03
         0.88520E-04
         0.16978E-03
         0.16333E-03
         0.28774E-03
         0.34946E-03
         0.23169E-03
         0.21825E-03
        -0.74429E-05
         0.99031E-06
        -0.16902E-05
        -0.12551E-05
         0.12691E-04
         0.49195E-05
         0.12404E-05
        -0.85631E-05
        -0.27030E-05
        -0.79880E-05
         0.63382E-06
        -0.13475E-04
        -0.25814E-04
         0.27483E-05
         0.34023E-04
        -0.54858E-05
         0.10460E-05
         0.49366E-06
         0.15842E-05
         0.48568E-06
         0.14620E-04
         0.96829E-05
        -0.55761E-05
         0.11055E-05
         0.27897E-05
        -0.42259E-06
         0.70268E-06
        -0.12661E-06
        -0.54958E-06
        -0.44006E-05
        -0.45525E-05
        -0.71716E-06
         0.18252E-05
         0.14392E-05
         0.29373E-05
        -0.55736E-05
        -0.12116E-04
         0.29518E-04
         0.48074E-05
         0.11314E-04
         0.29544E-04
        -0.70160E-05
        -0.14955E-04
        -0.13573E-04
        -0.13296E-04
        -0.15799E-04
         0.99844E-05
         0.77889E-05
        -0.11519E-05
         0.17511E-05
         0.19292E-04
         0.10361E-05
        -0.13320E-03
         0.19453E-03
        -0.40779E-03
        -0.43428E-03
        -0.41604E-03
        -0.22937E-03
         0.56672E-04
         0.15962E-03
         0.19825E-03
         0.36118E-03
         0.40454E-03
         0.15927E-03
         0.52788E-04
         0.44031E-04
        -0.19808E-04
        -0.19385E-03
        -0.35405E-03
        -0.46422E-03
        -0.30495E-03
         0.88541E-04
         0.16964E-03
         0.16326E-03
         0.28746E-03
         0.34900E-03
         0.23133E-03
         0.21787E-03
        -0.74582E-05
         0.99512E-06
        -0.16927E-05
        -0.12648E-05
         0.12681E-04
         0.49188E-05
         0.12488E-05
        -0.85506E-05
        -0.27102E-05
        -0.80044E-05
         0.61748E-06
        -0.13506E-04
        -0.25839E-04
         0.27440E-05
         0.34047E-04
        -0.54936E-05
         0.10579E-05
         0.49142E-06
         0.15847E-05
         0.48148E-06
         0.14656E-04
         0.96894E-05
        -0.55848E-05
         0.11041E-05
         0.28072E-05
        -0.42186E-06
         0.71393E-06
        -0.12499E-06
        -0.54588E-06
        -0.44104E-05
        -0.45589E-05
        -0.71272E-06
         0.18208E-05
         0.14422E-05
         0.29064E-05
        -0.55762E-05
        -0.12114E-04
         0.29610E-04
         0.48601E-05
         0.11364E-04
         0.29597E-04
        -0.69839E-05
        -0.14966E-04
        -0.13592E-04
        -0.13301E-04
        -0.15797E-04
         0.99864E-05
         0.77909E-05
        -0.11398E-05
         0.17450E-05
         0.19275E-04
         0.10153E-05
        -0.13302E-03
         0.19449E-03
        -0.40782E-03
        -0.43428E-03
        -0.41587E-03
        -0.22922E-03
         0.56708E-04
         0.15966E-03
         0.19804E-03
         0.36093E-03
         0.40440E-03
         0.15939E-03
         0.52794E-04
         0.44117E-04
        -0.19630E-04
        -0.19403E-03
        -0.35435E-03
        -0.46444E-03
        -0.30486E-03
         0.88561E-04
         0.16949E-03
         0.16320E-03
         0.28717E-03
         0.34853E-03
         0.23096E-03
         0.21748E-03
        -0.74735E-05
         0.99989E-06
        -0.16953E-05
        -0.12745E-05
         0.12671E-04
         0.49180E-05
         0.12572E-05
        -0.85381E-05
        -0.27174E-05
        -0.80207E-05
         0.60112E-06
        -0.13538E-04
        -0.25864E-04
         0.27393E-05
         0.34071E-04
        -0.55014E-05
         0.10699E-05
         0.48919E-06
         0.15851E-05
         0.47722E-06
         0.14693E-04
         0.96958E-05
        -0.55932E-05
         0.11027E-05
         0.28248E-05
        -0.42113E-06
         0.72538E-06
        -0.12329E-06
        -0.54211E-06
        -0.44203E-05
        -0.45653E-05
        -0.70823E-06
         0.18163E-05
         0.14451E-05
         0.28753E-05
        -0.55790E-05
        -0.12112E-04
         0.29702E-04
         0.49131E-05
         0.11415E-04
         0.29651E-04
        -0.69519E-05
        -0.14976E-04
        -0.13611E-04
        -0.13307E-04
        -0.15795E-04
         0.99881E-05
         0.77932E-05
        -0.11275E-05
         0.17390E-05
         0.19257E-04
         0.99447E-06
        -0.13285E-03
         0.19444E-03
        -0.40785E-03
        -0.43429E-03
        -0.41569E-03
        -0.22907E-03
         0.56742E-04
         0.15970E-03
         0.19783E-03
         0.36068E-03
         0.40427E-03
         0.15951E-03
         0.52799E-04
         0.44203E-04
        -0.19451E-04
        -0.19422E-03
        -0.35466E-03
        -0.46466E-03
        -0.30476E-03
         0.88581E-04
         0.16935E-03
         0.16313E-03
         0.28689E-03
         0.34807E-03
         0.23060E-03
         0.21709E-03
        -0.74888E-05
         0.10048E-05
        -0.16978E-05
        -0.12843E-05
         0.12661E-04
         0.49175E-05
         0.12655E-05
        -0.85254E-05
        -0.27246E-05
        -0.80369E-05
         0.58472E-06
        -0.13570E-04
        -0.25889E-04
         0.27349E-05
         0.34095E-04
        -0.55093E-05
         0.10820E-05
         0.48696E-06
         0.15855E-05
         0.47302E-06
         0.14730E-04
         0.97020E-05
        -0.56018E-05
         0.11014E-05
         0.28422E-05
        -0.42039E-06
         0.73653E-06
        -0.12153E-06
        -0.53826E-06
        -0.44301E-05
        -0.45718E-05
        -0.70379E-06
         0.18118E-05
         0.14481E-05
         0.28440E-05
        -0.55815E-05
        -0.12110E-04
         0.29795E-04
         0.49665E-05
         0.11466E-04
         0.29704E-04
        -0.69198E-05
        -0.14987E-04
        -0.13630E-04
        -0.13312E-04
        -0.15792E-04
         0.99902E-05
         0.77952E-05
        -0.11154E-05
         0.17329E-05
         0.19239E-04
         0.97369E-06
        -0.13268E-03
         0.19440E-03
        -0.40788E-03
        -0.43429E-03
        -0.41551E-03
        -0.22892E-03
         0.56776E-04
         0.15974E-03
         0.19762E-03
         0.36043E-03
         0.40414E-03
         0.15963E-03
         0.52805E-04
         0.44288E-04
        -0.19272E-04
        -0.19440E-03
        -0.35496E-03
        -0.46488E-03
        -0.30466E-03
         0.88601E-04
         0.16921E-03
         0.16306E-03
         0.28661E-03
         0.34761E-03
         0.23023E-03
         0.21670E-03
        -0.75041E-05
         0.10096E-05
        -0.17004E-05
        -0.12940E-05
         0.12651E-04
         0.49167E-05
         0.12740E-05
        -0.85126E-05
        -0.27317E-05
        -0.80526E-05
         0.56831E-06
        -0.13601E-04
        -0.25914E-04
         0.27301E-05
         0.34118E-04
        -0.55171E-05
         0.10942E-05
         0.48472E-06
         0.15860E-05
         0.46885E-06
         0.14766E-04
         0.97079E-05
        -0.56104E-05
         0.11000E-05
         0.28596E-05
        -0.41963E-06
         0.74797E-06
        -0.11967E-06
        -0.53428E-06
        -0.44397E-05
        -0.45782E-05
        -0.69933E-06
         0.18073E-05
         0.14512E-05
         0.28127E-05
        -0.55841E-05
        -0.12107E-04
         0.29887E-04
         0.50205E-05
         0.11517E-04
         0.29756E-04
        -0.68880E-05
        -0.14998E-04
        -0.13650E-04
        -0.13318E-04
        -0.15790E-04
         0.99923E-05
         0.77976E-05
        -0.11034E-05
         0.17268E-05
         0.19221E-04
         0.95314E-06
        -0.13250E-03
         0.19436E-03
        -0.40790E-03
        -0.43429E-03
        -0.41533E-03
        -0.22877E-03
         0.56808E-04
         0.15979E-03
         0.19741E-03
         0.36017E-03
         0.40401E-03
         0.15976E-03
         0.52809E-04
         0.44372E-04
        -0.19094E-04
        -0.19458E-03
        -0.35527E-03
        -0.46510E-03
        -0.30456E-03
         0.88621E-04
         0.16907E-03
         0.16300E-03
         0.28633E-03
         0.34715E-03
         0.22987E-03
         0.21631E-03
        -0.75194E-05
         0.10144E-05
        -0.17029E-05
        -0.13038E-05
         0.12640E-04
         0.49159E-05
         0.12823E-05
        -0.84996E-05
        -0.27387E-05
        -0.80673E-05
         0.55188E-06
        -0.13633E-04
        -0.25938E-04
         0.27256E-05
         0.34141E-04
        -0.55249E-05
         0.11066E-05
         0.48248E-06
         0.15866E-05
         0.46488E-06
         0.14803E-04
         0.97136E-05
        -0.56191E-05
         0.10986E-05
         0.28766E-05
        -0.41891E-06
         0.75924E-06
        -0.11768E-06
        -0.53024E-06
        -0.44493E-05
        -0.45846E-05
        -0.69479E-06
         0.18027E-05
         0.14542E-05
         0.27812E-05
        -0.55870E-05
        -0.12106E-04
         0.29980E-04
         0.50758E-05
         0.11566E-04
         0.29807E-04
        -0.68552E-05
        -0.15009E-04
        -0.13670E-04
        -0.13323E-04
        -0.15788E-04
         0.99941E-05
         0.77997E-05
        -0.10914E-05
         0.17207E-05
         0.19204E-04
         0.93260E-06
        -0.13233E-03
         0.19432E-03
        -0.40793E-03
        -0.43429E-03
        -0.41515E-03
        -0.22862E-03
         0.56841E-04
         0.15983E-03
         0.19721E-03
         0.35991E-03
         0.40389E-03
         0.15989E-03
         0.52810E-04
         0.44456E-04
        -0.18916E-04
        -0.19477E-03
        -0.35557E-03
        -0.46531E-03
        -0.30447E-03
         0.88641E-04
         0.16893E-03
         0.16293E-03
         0.28604E-03
         0.34668E-03
         0.22951E-03
         0.21593E-03
        -0.75347E-05
         0.10192E-05
        -0.17054E-05
        -0.13136E-05
         0.12630E-04
         0.49151E-05
         0.12907E-05
        -0.84865E-05
        -0.27455E-05
        -0.80809E-05
         0.53547E-06
        -0.13665E-04
        -0.25963E-04
         0.27210E-05
         0.34163E-04
        -0.55326E-05
         0.11191E-05
         0.48023E-06
         0.15871E-05
         0.46103E-06
         0.14839E-04
         0.97190E-05
        -0.56277E-05
         0.10973E-05
         0.28931E-05
        -0.41813E-06
         0.77095E-06
        -0.11553E-06
        -0.52613E-06
        -0.44583E-05
        -0.45910E-05
        -0.69032E-06
         0.17980E-05
         0.14572E-05
         0.27495E-05
        -0.55895E-05
        -0.12103E-04
         0.30072E-04
         0.51325E-05
         0.11616E-04
         0.29856E-04
        -0.68222E-05
        -0.15020E-04
        -0.13689E-04
        -0.13329E-04
        -0.15786E-04
         0.99962E-05
         0.78018E-05
        -0.10793E-05
         0.17147E-05
         0.19186E-04
         0.91197E-06
        -0.13215E-03
         0.19428E-03
        -0.40796E-03
        -0.43430E-03
        -0.41497E-03
        -0.22847E-03
         0.56874E-04
         0.15987E-03
         0.19700E-03
         0.35963E-03
         0.40377E-03
         0.16002E-03
         0.52809E-04
         0.44541E-04
        -0.18737E-04
        -0.19495E-03
        -0.35588E-03
        -0.46553E-03
        -0.30437E-03
         0.88660E-04
         0.16879E-03
         0.16286E-03
         0.28576E-03
         0.34622E-03
         0.22915E-03
         0.21554E-03
        -0.75501E-05
         0.10240E-05
        -0.17080E-05
        -0.13234E-05
         0.12620E-04
         0.49145E-05
         0.12991E-05
        -0.84735E-05
        -0.27523E-05
        -0.80943E-05
         0.51916E-06
        -0.13696E-04
        -0.25988E-04
         0.27160E-05
         0.34185E-04
        -0.55405E-05
         0.11317E-05
         0.47802E-06
         0.15876E-05
         0.45729E-06
         0.14876E-04
         0.97245E-05
        -0.56357E-05
         0.10960E-05
         0.29094E-05
        -0.41741E-06
         0.78233E-06
        -0.11327E-06
        -0.52199E-06
        -0.44672E-05
        -0.45975E-05
        -0.68594E-06
         0.17934E-05
         0.14602E-05
         0.27181E-05
        -0.55922E-05
        -0.12101E-04
         0.30163E-04
         0.51898E-05
         0.11664E-04
         0.29903E-04
        -0.67897E-05
        -0.15031E-04
        -0.13708E-04
        -0.13333E-04
        -0.15783E-04
         0.99984E-05
         0.78042E-05
        -0.10673E-05
         0.17085E-05
         0.19169E-04
         0.89157E-06
        -0.13198E-03
         0.19424E-03
        -0.40798E-03
        -0.43430E-03
        -0.41479E-03
        -0.22832E-03
         0.56905E-04
         0.15991E-03
         0.19680E-03
         0.35935E-03
         0.40365E-03
         0.16016E-03
         0.52804E-04
         0.44625E-04
        -0.18558E-04
        -0.19513E-03
        -0.35618E-03
        -0.46575E-03
        -0.30427E-03
         0.88682E-04
         0.16865E-03
         0.16279E-03
         0.28548E-03
         0.34577E-03
         0.22880E-03
         0.21515E-03
        -0.76201E-05
         0.10354E-05
        -0.17235E-05
        -0.13425E-05
         0.12698E-04
         0.49483E-05
         0.13163E-05
        -0.85231E-05
        -0.27785E-05
        -0.81659E-05
         0.50857E-06
        -0.13811E-04
        -0.26185E-04
         0.27309E-05
         0.34444E-04
        -0.55885E-05
         0.11518E-05
         0.47940E-06
         0.15990E-05
         0.45705E-06
         0.15010E-04
         0.97960E-05
        -0.56767E-05
         0.11033E-05
         0.29457E-05
        -0.42011E-06
         0.79847E-06
        -0.11175E-06
        -0.52263E-06
        -0.45081E-05
        -0.46378E-05
        -0.68772E-06
         0.18023E-05
         0.14739E-05
         0.27081E-05
        -0.56313E-05
        -0.12180E-04
         0.30461E-04
         0.52792E-05
         0.11791E-04
         0.30155E-04
        -0.68130E-05
        -0.15150E-04
        -0.13812E-04
        -0.13424E-04
        -0.15881E-04
         0.10067E-04
         0.78587E-05
        -0.10639E-05
         0.17143E-05
         0.19283E-04
         0.87761E-06
        -0.13260E-03
         0.19540E-03
        -0.41050E-03
        -0.43694E-03
        -0.41718E-03
        -0.22958E-03
         0.57321E-04
         0.16097E-03
         0.19788E-03
         0.36143E-03
         0.40615E-03
         0.16125E-03
         0.53105E-04
         0.44967E-04
        -0.18495E-04
        -0.19639E-03
        -0.35846E-03
        -0.46867E-03
        -0.30604E-03
         0.89268E-04
         0.16954E-03
         0.16369E-03
         0.28692E-03
         0.34742E-03
         0.22982E-03
         0.21606E-03
        -0.16846E-04
         0.23132E-05
        -0.37962E-05
        -0.29942E-05
         0.26016E-04
         0.10339E-04
         0.29262E-05
        -0.18626E-04
        -0.61138E-05
        -0.17781E-04
         0.10733E-05
        -0.27288E-04
        -0.53319E-04
         0.57903E-05
         0.68764E-04
        -0.12379E-04
         0.25522E-05
         0.10600E-05
         0.34447E-05
         0.98636E-06
         0.30580E-04
         0.20446E-04
        -0.11606E-04
         0.24139E-05
         0.65431E-05
        -0.93495E-06
         0.17365E-05
        -0.24381E-06
        -0.11621E-05
        -0.99799E-05
        -0.10278E-04
        -0.15138E-05
         0.39998E-05
         0.32739E-05
         0.52720E-05
        -0.11738E-04
        -0.25399E-04
         0.63626E-04
         0.11383E-04
         0.25530E-04
         0.63449E-04
        -0.14521E-04
        -0.32335E-04
        -0.28667E-04
        -0.27667E-04
        -0.30876E-04
         0.20604E-04
         0.16500E-04
        -0.22410E-05
         0.35968E-05
         0.38563E-04
         0.17930E-05
        -0.20538E-03
         0.30204E-03
        -0.63493E-03
        -0.67977E-03
        -0.64801E-03
        -0.35827E-03
         0.91608E-04
         0.26125E-03
         0.31972E-03
         0.57731E-03
         0.65048E-03
         0.25742E-03
         0.86608E-04
         0.73925E-04
        -0.29413E-04
        -0.30730E-03
        -0.55753E-03
        -0.72080E-03
        -0.46978E-03
         0.13748E-03
         0.26636E-03
         0.25945E-03
         0.45144E-03
         0.55032E-03
         0.36176E-03
         0.33760E-03
  
SCALARS                      strain_eq  double 1
LOOKUP_TABLE default
         0.37898E+00
         0.36485E+00
         0.37382E+00
         0.38990E+00
         0.11247E-08
         0.12471E-08
         0.12116E-08
         0.10902E-08
         0.36443E+00
         0.36917E+00
         0.12265E-08
         0.11730E-08
         0.34443E+00
         0.34368E+00
         0.13419E-08
         0.12779E-08
         0.38754E+00
         0.34479E+00
         0.10011E-08
         0.11259E-08
         0.32912E+00
         0.31702E+00
         0.33634E+00
         0.13821E-08
         0.13184E-08
         0.13113E-08
         0.31747E+00
         0.29981E+00
         0.13387E-08
         0.12159E-08
         0.38677E+00
         0.36814E+00
         0.40487E+00
         0.10894E-08
         0.10230E-08
         0.97988E-09
         0.37599E+00
         0.35229E+00
         0.11876E-08
         0.10827E-08
         0.36661E+00
         0.34835E+00
         0.11047E-08
         0.95302E-09
         0.38211E+00
         0.38898E+00
         0.11929E-08
         0.12370E-08
         0.33370E+00
         0.10691E-08
         0.38764E+00
         0.12431E-08
         0.31236E+00
         0.11688E-08
         0.30680E+00
         0.10789E-08
         0.30691E+00
         0.32666E+00
         0.10933E-08
         0.10751E-08
         0.38639E+00
         0.37924E+00
         0.11031E-08
         0.12487E-08
         0.39087E+00
         0.10588E-08
         0.38236E+00
         0.11596E-08
         0.36010E+00
         0.35779E+00
         0.12404E-08
         0.12396E-08
         0.35272E+00
         0.12544E-08
         0.29354E+00
         0.10027E-08
         0.29046E+00
         0.93329E-09
         0.29203E+00
         0.97223E-09
         0.30064E+00
         0.30946E+00
         0.94037E-09
         0.97673E-09
         0.32734E+00
         0.91986E-09
         0.38177E+00
         0.12351E-08
         0.37329E+00
         0.12577E-08
         0.36639E+00
         0.36247E+00
         0.12565E-08
         0.12326E-08
         0.36715E+00
         0.11061E-08
         0.37050E+00
         0.10830E-08
         0.36750E+00
         0.11714E-08
         0.36650E+00
         0.36952E+00
         0.12043E-08
         0.12010E-08
         0.34999E+00
         0.35814E+00
         0.11451E-08
         0.11053E-08
         0.34858E+00
         0.11121E-08
         0.35797E+00
         0.10857E-08
         0.34876E+00
         0.10845E-08
         0.32852E+00
         0.10167E-08
         0.30900E+00
         0.86030E-09
         0.29729E+00
         0.72693E-09
         0.29609E+00
         0.70504E-09
         0.29645E+00
         0.75117E-09
         0.30913E+00
         0.77489E-09
         0.33305E+00
         0.72589E-09
         0.35933E+00
         0.66251E-09
         0.37465E+00
         0.68566E-09
         0.38985E+00
         0.81275E-09
         0.39991E+00
         0.94882E-09
         0.39959E+00
         0.10113E-08
         0.37498E+00
         0.10798E-08
         0.35782E+00
         0.11348E-08
         0.35214E+00
         0.10588E-08
         0.36135E+00
         0.93215E-09
         0.36606E+00
         0.93033E-09
         0.35794E+00
         0.10237E-08
         0.35795E+00
         0.10863E-08
         0.36408E+00
         0.10512E-08
         0.37204E+00
         0.10277E-08
         0.28246E+00
         0.28634E+00
         0.28582E+00
         0.28070E+00
         0.29015E+00
         0.28544E+00
         0.29112E+00
         0.28817E+00
         0.28153E+00
         0.28572E+00
         0.29426E+00
         0.29547E+00
         0.29286E+00
         0.29250E+00
         0.29441E+00
         0.28095E+00
         0.28191E+00
         0.27919E+00
         0.28675E+00
         0.28540E+00
         0.28749E+00
         0.28624E+00
         0.28856E+00
         0.28780E+00
         0.28553E+00
         0.28567E+00
         0.28956E+00
         0.28919E+00
         0.29203E+00
         0.28776E+00
         0.28143E+00
         0.28639E+00
         0.28145E+00
         0.28473E+00
         0.29609E+00
         0.29247E+00
         0.29081E+00
         0.29290E+00
         0.29310E+00
         0.29626E+00
         0.29870E+00
         0.29300E+00
         0.28747E+00
         0.28816E+00
         0.29100E+00
         0.29599E+00
         0.29168E+00
         0.28708E+00
         0.28739E+00
         0.29095E+00
         0.29463E+00
         0.28973E+00
         0.30596E+00
         0.30221E+00
         0.30308E+00
         0.30230E+00
         0.30286E+00
         0.30546E+00
         0.30750E+00
         0.30767E+00
         0.30723E+00
         0.30764E+00
         0.30838E+00
         0.30280E+00
         0.30001E+00
         0.29893E+00
         0.29771E+00
         0.29682E+00
         0.29706E+00
         0.29913E+00
         0.30489E+00
         0.30374E+00
         0.30143E+00
         0.30122E+00
         0.30162E+00
         0.30344E+00
         0.30070E+00
         0.29973E+00
         0.79908E-02
         0.48013E-02
         0.45288E-02
         0.31055E-02
         0.82983E-02
         0.57374E-02
         0.25325E-02
         0.78591E-02
         0.49230E-02
         0.74055E-02
         0.36107E-02
         0.15559E-01
         0.11815E-01
         0.59091E-02
         0.16296E-01
         0.58062E-02
         0.29415E-02
         0.18767E-02
         0.39096E-02
         0.21166E-02
         0.12235E-01
         0.11479E-01
         0.11179E-01
         0.29091E-02
         0.47790E-02
         0.15196E-02
         0.55751E-02
         0.90550E-03
         0.20419E-02
         0.51837E-02
         0.49601E-02
         0.26383E-02
         0.32127E-02
         0.27793E-02
         0.10727E-01
         0.64192E-02
         0.83092E-02
         0.13289E-01
         0.10222E-01
         0.95145E-02
         0.13513E-01
         0.12250E-01
         0.12332E-01
         0.95463E-02
         0.85252E-02
         0.11662E-01
         0.76452E-02
         0.65008E-02
         0.53608E-02
         0.63304E-02
         0.10351E-01
         0.71064E-02
         0.45454E-01
         0.46542E-01
         0.48651E-01
         0.48298E-01
         0.51487E-01
         0.55283E-01
         0.53048E-01
         0.47167E-01
         0.45964E-01
         0.49194E-01
         0.48212E-01
         0.47555E-01
         0.39309E-01
         0.37367E-01
         0.41052E-01
         0.43973E-01
         0.45634E-01
         0.49837E-01
         0.47937E-01
         0.49236E-01
         0.44331E-01
         0.42091E-01
         0.44890E-01
         0.43883E-01
         0.45158E-01
         0.44777E-01
         0.79968E-02
         0.48023E-02
         0.45314E-02
         0.31100E-02
         0.82946E-02
         0.57341E-02
         0.25402E-02
         0.78667E-02
         0.49315E-02
         0.74273E-02
         0.36106E-02
         0.15558E-01
         0.11819E-01
         0.58952E-02
         0.16313E-01
         0.58108E-02
         0.29497E-02
         0.18719E-02
         0.39119E-02
         0.21119E-02
         0.12236E-01
         0.11478E-01
         0.11178E-01
         0.29090E-02
         0.47996E-02
         0.15193E-02
         0.55769E-02
         0.89592E-03
         0.20516E-02
         0.51928E-02
         0.49648E-02
         0.26374E-02
         0.32073E-02
         0.27818E-02
         0.10732E-01
         0.64174E-02
         0.83073E-02
         0.13310E-01
         0.10245E-01
         0.95277E-02
         0.13522E-01
         0.12256E-01
         0.12333E-01
         0.95462E-02
         0.85234E-02
         0.11662E-01
         0.76453E-02
         0.65004E-02
         0.53531E-02
         0.63218E-02
         0.10345E-01
         0.70955E-02
         0.45438E-01
         0.46531E-01
         0.48651E-01
         0.48298E-01
         0.51479E-01
         0.55265E-01
         0.53026E-01
         0.47154E-01
         0.45952E-01
         0.49179E-01
         0.48204E-01
         0.47557E-01
         0.39305E-01
         0.37365E-01
         0.41057E-01
         0.43984E-01
         0.45645E-01
         0.49847E-01
         0.47934E-01
         0.49233E-01
         0.44326E-01
         0.42088E-01
         0.44874E-01
         0.43854E-01
         0.45132E-01
         0.44753E-01
         0.80029E-02
         0.48035E-02
         0.45339E-02
         0.31144E-02
         0.82908E-02
         0.57310E-02
         0.25479E-02
         0.78742E-02
         0.49400E-02
         0.74489E-02
         0.36106E-02
         0.15558E-01
         0.11824E-01
         0.58814E-02
         0.16329E-01
         0.58156E-02
         0.29581E-02
         0.18672E-02
         0.39142E-02
         0.21073E-02
         0.12238E-01
         0.11477E-01
         0.11178E-01
         0.29089E-02
         0.48200E-02
         0.15188E-02
         0.55787E-02
         0.88668E-03
         0.20612E-02
         0.52016E-02
         0.49697E-02
         0.26366E-02
         0.32018E-02
         0.27843E-02
         0.10737E-01
         0.64157E-02
         0.83053E-02
         0.13331E-01
         0.10268E-01
         0.95410E-02
         0.13531E-01
         0.12263E-01
         0.12335E-01
         0.95464E-02
         0.85221E-02
         0.11661E-01
         0.76454E-02
         0.65000E-02
         0.53455E-02
         0.63130E-02
         0.10339E-01
         0.70846E-02
         0.45422E-01
         0.46520E-01
         0.48651E-01
         0.48299E-01
         0.51470E-01
         0.55246E-01
         0.53004E-01
         0.47142E-01
         0.45941E-01
         0.49164E-01
         0.48196E-01
         0.47559E-01
         0.39302E-01
         0.37364E-01
         0.41062E-01
         0.43995E-01
         0.45657E-01
         0.49858E-01
         0.47932E-01
         0.49230E-01
         0.44322E-01
         0.42086E-01
         0.44859E-01
         0.43825E-01
         0.45107E-01
         0.44730E-01
         0.80089E-02
         0.48046E-02
         0.45365E-02
         0.31189E-02
         0.82869E-02
         0.57277E-02
         0.25557E-02
         0.78817E-02
         0.49485E-02
         0.74701E-02
         0.36106E-02
         0.15558E-01
         0.11829E-01
         0.58676E-02
         0.16346E-01
         0.58208E-02
         0.29668E-02
         0.18624E-02
         0.39167E-02
         0.21025E-02
         0.12239E-01
         0.11477E-01
         0.11178E-01
         0.29086E-02
         0.48400E-02
         0.15181E-02
         0.55802E-02
         0.87854E-03
         0.20703E-02
         0.52096E-02
         0.49747E-02
         0.26359E-02
         0.31964E-02
         0.27868E-02
         0.10741E-01
         0.64139E-02
         0.83034E-02
         0.13352E-01
         0.10292E-01
         0.95550E-02
         0.13541E-01
         0.12270E-01
         0.12337E-01
         0.95475E-02
         0.85211E-02
         0.11661E-01
         0.76460E-02
         0.64996E-02
         0.53379E-02
         0.63043E-02
         0.10333E-01
         0.70736E-02
         0.45405E-01
         0.46509E-01
         0.48651E-01
         0.48299E-01
         0.51462E-01
         0.55228E-01
         0.52982E-01
         0.47129E-01
         0.45929E-01
         0.49149E-01
         0.48188E-01
         0.47561E-01
         0.39299E-01
         0.37363E-01
         0.41067E-01
         0.44007E-01
         0.45671E-01
         0.49870E-01
         0.47929E-01
         0.49227E-01
         0.44317E-01
         0.42083E-01
         0.44843E-01
         0.43797E-01
         0.45082E-01
         0.44706E-01
         0.80149E-02
         0.48057E-02
         0.45391E-02
         0.31234E-02
         0.82833E-02
         0.57244E-02
         0.25634E-02
         0.78892E-02
         0.49569E-02
         0.74908E-02
         0.36107E-02
         0.15557E-01
         0.11834E-01
         0.58538E-02
         0.16363E-01
         0.58264E-02
         0.29758E-02
         0.18575E-02
         0.39192E-02
         0.20976E-02
         0.12241E-01
         0.11477E-01
         0.11178E-01
         0.29082E-02
         0.48595E-02
         0.15171E-02
         0.55816E-02
         0.87144E-03
         0.20789E-02
         0.52168E-02
         0.49799E-02
         0.26353E-02
         0.31909E-02
         0.27894E-02
         0.10746E-01
         0.64121E-02
         0.83015E-02
         0.13372E-01
         0.10316E-01
         0.95696E-02
         0.13552E-01
         0.12277E-01
         0.12340E-01
         0.95495E-02
         0.85207E-02
         0.11662E-01
         0.76469E-02
         0.64995E-02
         0.53305E-02
         0.62955E-02
         0.10328E-01
         0.70627E-02
         0.45389E-01
         0.46498E-01
         0.48651E-01
         0.48299E-01
         0.51453E-01
         0.55209E-01
         0.52959E-01
         0.47117E-01
         0.45917E-01
         0.49134E-01
         0.48180E-01
         0.47564E-01
         0.39297E-01
         0.37362E-01
         0.41073E-01
         0.44021E-01
         0.45686E-01
         0.49882E-01
         0.47927E-01
         0.49224E-01
         0.44312E-01
         0.42080E-01
         0.44828E-01
         0.43768E-01
         0.45056E-01
         0.44682E-01
         0.80206E-02
         0.48065E-02
         0.45416E-02
         0.31279E-02
         0.82795E-02
         0.57211E-02
         0.25710E-02
         0.78961E-02
         0.49654E-02
         0.75109E-02
         0.36111E-02
         0.15557E-01
         0.11838E-01
         0.58400E-02
         0.16380E-01
         0.58321E-02
         0.29849E-02
         0.18527E-02
         0.39218E-02
         0.20929E-02
         0.12243E-01
         0.11477E-01
         0.11180E-01
         0.29077E-02
         0.48785E-02
         0.15159E-02
         0.55829E-02
         0.86490E-03
         0.20874E-02
         0.52238E-02
         0.49850E-02
         0.26346E-02
         0.31854E-02
         0.27919E-02
         0.10751E-01
         0.64107E-02
         0.82999E-02
         0.13393E-01
         0.10340E-01
         0.95847E-02
         0.13562E-01
         0.12284E-01
         0.12343E-01
         0.95518E-02
         0.85210E-02
         0.11663E-01
         0.76480E-02
         0.64997E-02
         0.53233E-02
         0.62870E-02
         0.10322E-01
         0.70520E-02
         0.45372E-01
         0.46486E-01
         0.48650E-01
         0.48300E-01
         0.51445E-01
         0.55190E-01
         0.52937E-01
         0.47104E-01
         0.45906E-01
         0.49119E-01
         0.48172E-01
         0.47567E-01
         0.39296E-01
         0.37361E-01
         0.41079E-01
         0.44036E-01
         0.45702E-01
         0.49894E-01
         0.47924E-01
         0.49221E-01
         0.44308E-01
         0.42078E-01
         0.44813E-01
         0.43739E-01
         0.45031E-01
         0.44658E-01
         0.80258E-02
         0.48066E-02
         0.45440E-02
         0.31324E-02
         0.82759E-02
         0.57180E-02
         0.25782E-02
         0.79020E-02
         0.49741E-02
         0.75302E-02
         0.36120E-02
         0.15557E-01
         0.11844E-01
         0.58263E-02
         0.16397E-01
         0.58379E-02
         0.29938E-02
         0.18479E-02
         0.39245E-02
         0.20882E-02
         0.12245E-01
         0.11477E-01
         0.11181E-01
         0.29074E-02
         0.48970E-02
         0.15146E-02
         0.55844E-02
         0.85853E-03
         0.20960E-02
         0.52307E-02
         0.49898E-02
         0.26333E-02
         0.31799E-02
         0.27943E-02
         0.10756E-01
         0.64095E-02
         0.82984E-02
         0.13415E-01
         0.10364E-01
         0.95998E-02
         0.13573E-01
         0.12291E-01
         0.12346E-01
         0.95543E-02
         0.85215E-02
         0.11664E-01
         0.76497E-02
         0.65005E-02
         0.53172E-02
         0.62788E-02
         0.10317E-01
         0.70413E-02
         0.45356E-01
         0.46475E-01
         0.48650E-01
         0.48300E-01
         0.51436E-01
         0.55171E-01
         0.52915E-01
         0.47092E-01
         0.45894E-01
         0.49104E-01
         0.48164E-01
         0.47571E-01
         0.39294E-01
         0.37360E-01
         0.41086E-01
         0.44050E-01
         0.45718E-01
         0.49906E-01
         0.47921E-01
         0.49218E-01
         0.44303E-01
         0.42076E-01
         0.44797E-01
         0.43711E-01
         0.45006E-01
         0.44634E-01
         0.80309E-02
         0.48066E-02
         0.45463E-02
         0.31369E-02
         0.82725E-02
         0.57147E-02
         0.25852E-02
         0.79074E-02
         0.49829E-02
         0.75491E-02
         0.36132E-02
         0.15557E-01
         0.11849E-01
         0.58127E-02
         0.16414E-01
         0.58437E-02
         0.30026E-02
         0.18430E-02
         0.39271E-02
         0.20836E-02
         0.12247E-01
         0.11477E-01
         0.11182E-01
         0.29070E-02
         0.49152E-02
         0.15131E-02
         0.55859E-02
         0.85239E-03
         0.21048E-02
         0.52377E-02
         0.49944E-02
         0.26317E-02
         0.31744E-02
         0.27967E-02
         0.10761E-01
         0.64085E-02
         0.82974E-02
         0.13436E-01
         0.10388E-01
         0.96150E-02
         0.13584E-01
         0.12299E-01
         0.12349E-01
         0.95570E-02
         0.85223E-02
         0.11666E-01
         0.76516E-02
         0.65014E-02
         0.53115E-02
         0.62709E-02
         0.10312E-01
         0.70309E-02
         0.45339E-01
         0.46464E-01
         0.48649E-01
         0.48300E-01
         0.51428E-01
         0.55153E-01
         0.52892E-01
         0.47079E-01
         0.45883E-01
         0.49089E-01
         0.48156E-01
         0.47574E-01
         0.39293E-01
         0.37360E-01
         0.41092E-01
         0.44065E-01
         0.45733E-01
         0.49917E-01
         0.47918E-01
         0.49215E-01
         0.44299E-01
         0.42074E-01
         0.44782E-01
         0.43682E-01
         0.44981E-01
         0.44611E-01
         0.80359E-02
         0.48066E-02
         0.45486E-02
         0.31414E-02
         0.82690E-02
         0.57114E-02
         0.25923E-02
         0.79128E-02
         0.49917E-02
         0.75680E-02
         0.36144E-02
         0.15557E-01
         0.11854E-01
         0.57992E-02
         0.16431E-01
         0.58495E-02
         0.30115E-02
         0.18381E-02
         0.39297E-02
         0.20790E-02
         0.12249E-01
         0.11477E-01
         0.11183E-01
         0.29067E-02
         0.49334E-02
         0.15117E-02
         0.55875E-02
         0.84643E-03
         0.21138E-02
         0.52446E-02
         0.49990E-02
         0.26302E-02
         0.31689E-02
         0.27991E-02
         0.10767E-01
         0.64074E-02
         0.82962E-02
         0.13457E-01
         0.10413E-01
         0.96300E-02
         0.13594E-01
         0.12306E-01
         0.12352E-01
         0.95597E-02
         0.85233E-02
         0.11668E-01
         0.76533E-02
         0.65024E-02
         0.53059E-02
         0.62630E-02
         0.10308E-01
         0.70203E-02
         0.45323E-01
         0.46454E-01
         0.48649E-01
         0.48300E-01
         0.51419E-01
         0.55134E-01
         0.52870E-01
         0.47066E-01
         0.45871E-01
         0.49074E-01
         0.48149E-01
         0.47577E-01
         0.39291E-01
         0.37359E-01
         0.41098E-01
         0.44080E-01
         0.45749E-01
         0.49929E-01
         0.47915E-01
         0.49212E-01
         0.44295E-01
         0.42072E-01
         0.44766E-01
         0.43654E-01
         0.44956E-01
         0.44587E-01
         0.80408E-02
         0.48066E-02
         0.45509E-02
         0.31460E-02
         0.82654E-02
         0.57081E-02
         0.25993E-02
         0.79182E-02
         0.50004E-02
         0.75868E-02
         0.36157E-02
         0.15557E-01
         0.11860E-01
         0.57857E-02
         0.16448E-01
         0.58553E-02
         0.30204E-02
         0.18333E-02
         0.39322E-02
         0.20745E-02
         0.12252E-01
         0.11477E-01
         0.11184E-01
         0.29064E-02
         0.49515E-02
         0.15103E-02
         0.55891E-02
         0.84069E-03
         0.21228E-02
         0.52516E-02
         0.50035E-02
         0.26286E-02
         0.31634E-02
         0.28016E-02
         0.10772E-01
         0.64065E-02
         0.82951E-02
         0.13479E-01
         0.10438E-01
         0.96452E-02
         0.13605E-01
         0.12314E-01
         0.12356E-01
         0.95624E-02
         0.85241E-02
         0.11670E-01
         0.76552E-02
         0.65036E-02
         0.53002E-02
         0.62550E-02
         0.10302E-01
         0.70098E-02
         0.45306E-01
         0.46443E-01
         0.48648E-01
         0.48301E-01
         0.51411E-01
         0.55115E-01
         0.52847E-01
         0.47053E-01
         0.45860E-01
         0.49059E-01
         0.48141E-01
         0.47580E-01
         0.39290E-01
         0.37358E-01
         0.41104E-01
         0.44095E-01
         0.45765E-01
         0.49941E-01
         0.47911E-01
         0.49209E-01
         0.44291E-01
         0.42070E-01
         0.44751E-01
         0.43625E-01
         0.44931E-01
         0.44563E-01
         0.80457E-02
         0.48065E-02
         0.45532E-02
         0.31505E-02
         0.82620E-02
         0.57050E-02
         0.26065E-02
         0.79236E-02
         0.50092E-02
         0.76056E-02
         0.36171E-02
         0.15557E-01
         0.11865E-01
         0.57722E-02
         0.16466E-01
         0.58611E-02
         0.30293E-02
         0.18285E-02
         0.39348E-02
         0.20698E-02
         0.12254E-01
         0.11477E-01
         0.11186E-01
         0.29062E-02
         0.49696E-02
         0.15088E-02
         0.55907E-02
         0.83509E-03
         0.21319E-02
         0.52585E-02
         0.50081E-02
         0.26270E-02
         0.31580E-02
         0.28040E-02
         0.10777E-01
         0.64054E-02
         0.82940E-02
         0.13500E-01
         0.10462E-01
         0.96601E-02
         0.13616E-01
         0.12321E-01
         0.12359E-01
         0.95650E-02
         0.85250E-02
         0.11672E-01
         0.76571E-02
         0.65046E-02
         0.52947E-02
         0.62470E-02
         0.10298E-01
         0.69993E-02
         0.45289E-01
         0.46432E-01
         0.48647E-01
         0.48301E-01
         0.51402E-01
         0.55096E-01
         0.52825E-01
         0.47041E-01
         0.45848E-01
         0.49044E-01
         0.48133E-01
         0.47583E-01
         0.39288E-01
         0.37358E-01
         0.41111E-01
         0.44109E-01
         0.45781E-01
         0.49952E-01
         0.47908E-01
         0.49206E-01
         0.44287E-01
         0.42068E-01
         0.44735E-01
         0.43597E-01
         0.44905E-01
         0.44540E-01
         0.80507E-02
         0.48065E-02
         0.45555E-02
         0.31551E-02
         0.82585E-02
         0.57017E-02
         0.26136E-02
         0.79290E-02
         0.50181E-02
         0.76244E-02
         0.36186E-02
         0.15557E-01
         0.11870E-01
         0.57588E-02
         0.16483E-01
         0.58669E-02
         0.30382E-02
         0.18236E-02
         0.39374E-02
         0.20653E-02
         0.12256E-01
         0.11477E-01
         0.11187E-01
         0.29059E-02
         0.49877E-02
         0.15075E-02
         0.55923E-02
         0.82972E-03
         0.21409E-02
         0.52654E-02
         0.50127E-02
         0.26255E-02
         0.31526E-02
         0.28064E-02
         0.10783E-01
         0.64044E-02
         0.82928E-02
         0.13521E-01
         0.10487E-01
         0.96753E-02
         0.13627E-01
         0.12329E-01
         0.12362E-01
         0.95677E-02
         0.85258E-02
         0.11674E-01
         0.76589E-02
         0.65057E-02
         0.52891E-02
         0.62391E-02
         0.10293E-01
         0.69888E-02
         0.45273E-01
         0.46421E-01
         0.48647E-01
         0.48301E-01
         0.51394E-01
         0.55077E-01
         0.52802E-01
         0.47028E-01
         0.45837E-01
         0.49028E-01
         0.48125E-01
         0.47586E-01
         0.39287E-01
         0.37357E-01
         0.41117E-01
         0.44124E-01
         0.45796E-01
         0.49964E-01
         0.47905E-01
         0.49203E-01
         0.44283E-01
         0.42066E-01
         0.44719E-01
         0.43568E-01
         0.44880E-01
         0.44516E-01
         0.80556E-02
         0.48064E-02
         0.45578E-02
         0.31597E-02
         0.82550E-02
         0.56985E-02
         0.26206E-02
         0.79344E-02
         0.50269E-02
         0.76432E-02
         0.36201E-02
         0.15557E-01
         0.11876E-01
         0.57453E-02
         0.16500E-01
         0.58727E-02
         0.30471E-02
         0.18187E-02
         0.39400E-02
         0.20607E-02
         0.12258E-01
         0.11477E-01
         0.11188E-01
         0.29057E-02
         0.50057E-02
         0.15061E-02
         0.55939E-02
         0.82450E-03
         0.21502E-02
         0.52723E-02
         0.50172E-02
         0.26239E-02
         0.31472E-02
         0.28089E-02
         0.10788E-01
         0.64035E-02
         0.82918E-02
         0.13543E-01
         0.10511E-01
         0.96904E-02
         0.13638E-01
         0.12336E-01
         0.12365E-01
         0.95705E-02
         0.85268E-02
         0.11675E-01
         0.76609E-02
         0.65068E-02
         0.52835E-02
         0.62312E-02
         0.10288E-01
         0.69782E-02
         0.45256E-01
         0.46410E-01
         0.48646E-01
         0.48301E-01
         0.51385E-01
         0.55059E-01
         0.52779E-01
         0.47015E-01
         0.45825E-01
         0.49013E-01
         0.48117E-01
         0.47589E-01
         0.39285E-01
         0.37356E-01
         0.41123E-01
         0.44138E-01
         0.45812E-01
         0.49975E-01
         0.47902E-01
         0.49200E-01
         0.44280E-01
         0.42064E-01
         0.44704E-01
         0.43540E-01
         0.44856E-01
         0.44492E-01
         0.80605E-02
         0.48064E-02
         0.45601E-02
         0.31642E-02
         0.82516E-02
         0.56952E-02
         0.26278E-02
         0.79397E-02
         0.50357E-02
         0.76619E-02
         0.36216E-02
         0.15557E-01
         0.11881E-01
         0.57319E-02
         0.16517E-01
         0.58784E-02
         0.30560E-02
         0.18139E-02
         0.39426E-02
         0.20562E-02
         0.12260E-01
         0.11477E-01
         0.11189E-01
         0.29055E-02
         0.50238E-02
         0.15047E-02
         0.55955E-02
         0.81950E-03
         0.21595E-02
         0.52792E-02
         0.50218E-02
         0.26224E-02
         0.31418E-02
         0.28113E-02
         0.10793E-01
         0.64025E-02
         0.82906E-02
         0.13564E-01
         0.10536E-01
         0.97054E-02
         0.13648E-01
         0.12343E-01
         0.12368E-01
         0.95732E-02
         0.85277E-02
         0.11677E-01
         0.76628E-02
         0.65078E-02
         0.52778E-02
         0.62233E-02
         0.10283E-01
         0.69678E-02
         0.45240E-01
         0.46399E-01
         0.48645E-01
         0.48301E-01
         0.51377E-01
         0.55040E-01
         0.52757E-01
         0.47002E-01
         0.45814E-01
         0.48997E-01
         0.48109E-01
         0.47592E-01
         0.39284E-01
         0.37356E-01
         0.41129E-01
         0.44153E-01
         0.45828E-01
         0.49987E-01
         0.47899E-01
         0.49197E-01
         0.44276E-01
         0.42062E-01
         0.44688E-01
         0.43511E-01
         0.44830E-01
         0.44469E-01
         0.80654E-02
         0.48064E-02
         0.45624E-02
         0.31689E-02
         0.82481E-02
         0.56919E-02
         0.26350E-02
         0.79451E-02
         0.50445E-02
         0.76807E-02
         0.36232E-02
         0.15557E-01
         0.11887E-01
         0.57185E-02
         0.16534E-01
         0.58842E-02
         0.30649E-02
         0.18090E-02
         0.39452E-02
         0.20515E-02
         0.12262E-01
         0.11477E-01
         0.11190E-01
         0.29052E-02
         0.50418E-02
         0.15034E-02
         0.55970E-02
         0.81464E-03
         0.21690E-02
         0.52860E-02
         0.50263E-02
         0.26208E-02
         0.31364E-02
         0.28137E-02
         0.10798E-01
         0.64017E-02
         0.82895E-02
         0.13586E-01
         0.10560E-01
         0.97204E-02
         0.13659E-01
         0.12351E-01
         0.12372E-01
         0.95758E-02
         0.85285E-02
         0.11679E-01
         0.76646E-02
         0.65089E-02
         0.52722E-02
         0.62153E-02
         0.10278E-01
         0.69572E-02
         0.45223E-01
         0.46388E-01
         0.48644E-01
         0.48302E-01
         0.51369E-01
         0.55021E-01
         0.52734E-01
         0.46989E-01
         0.45802E-01
         0.48982E-01
         0.48101E-01
         0.47596E-01
         0.39282E-01
         0.37355E-01
         0.41136E-01
         0.44168E-01
         0.45844E-01
         0.49998E-01
         0.47895E-01
         0.49194E-01
         0.44272E-01
         0.42060E-01
         0.44673E-01
         0.43482E-01
         0.44806E-01
         0.44445E-01
         0.80703E-02
         0.48062E-02
         0.45647E-02
         0.31734E-02
         0.82446E-02
         0.56888E-02
         0.26421E-02
         0.79504E-02
         0.50534E-02
         0.76994E-02
         0.36249E-02
         0.15558E-01
         0.11892E-01
         0.57051E-02
         0.16551E-01
         0.58899E-02
         0.30739E-02
         0.18042E-02
         0.39478E-02
         0.20470E-02
         0.12264E-01
         0.11477E-01
         0.11192E-01
         0.29050E-02
         0.50598E-02
         0.15020E-02
         0.55986E-02
         0.80996E-03
         0.21785E-02
         0.52929E-02
         0.50309E-02
         0.26192E-02
         0.31311E-02
         0.28162E-02
         0.10804E-01
         0.64007E-02
         0.82884E-02
         0.13607E-01
         0.10585E-01
         0.97352E-02
         0.13670E-01
         0.12358E-01
         0.12375E-01
         0.95783E-02
         0.85296E-02
         0.11681E-01
         0.76665E-02
         0.65100E-02
         0.52666E-02
         0.62074E-02
         0.10273E-01
         0.69467E-02
         0.45207E-01
         0.46377E-01
         0.48644E-01
         0.48302E-01
         0.51360E-01
         0.55002E-01
         0.52711E-01
         0.46977E-01
         0.45791E-01
         0.48966E-01
         0.48094E-01
         0.47599E-01
         0.39281E-01
         0.37354E-01
         0.41142E-01
         0.44182E-01
         0.45860E-01
         0.50010E-01
         0.47892E-01
         0.49191E-01
         0.44268E-01
         0.42058E-01
         0.44657E-01
         0.43454E-01
         0.44781E-01
         0.44421E-01
         0.80752E-02
         0.48062E-02
         0.45670E-02
         0.31781E-02
         0.82412E-02
         0.56856E-02
         0.26493E-02
         0.79558E-02
         0.50623E-02
         0.77181E-02
         0.36266E-02
         0.15558E-01
         0.11897E-01
         0.56916E-02
         0.16569E-01
         0.58957E-02
         0.30829E-02
         0.17994E-02
         0.39504E-02
         0.20424E-02
         0.12266E-01
         0.11476E-01
         0.11193E-01
         0.29049E-02
         0.50778E-02
         0.15007E-02
         0.56001E-02
         0.80537E-03
         0.21879E-02
         0.52996E-02
         0.50354E-02
         0.26177E-02
         0.31259E-02
         0.28187E-02
         0.10809E-01
         0.63997E-02
         0.82872E-02
         0.13629E-01
         0.10610E-01
         0.97501E-02
         0.13680E-01
         0.12366E-01
         0.12378E-01
         0.95812E-02
         0.85304E-02
         0.11683E-01
         0.76685E-02
         0.65111E-02
         0.52611E-02
         0.61994E-02
         0.10268E-01
         0.69363E-02
         0.45190E-01
         0.46366E-01
         0.48643E-01
         0.48302E-01
         0.51352E-01
         0.54983E-01
         0.52688E-01
         0.46964E-01
         0.45780E-01
         0.48950E-01
         0.48086E-01
         0.47602E-01
         0.39280E-01
         0.37353E-01
         0.41148E-01
         0.44197E-01
         0.45875E-01
         0.50021E-01
         0.47889E-01
         0.49188E-01
         0.44264E-01
         0.42056E-01
         0.44641E-01
         0.43425E-01
         0.44756E-01
         0.44397E-01
         0.80800E-02
         0.48062E-02
         0.45693E-02
         0.31827E-02
         0.82377E-02
         0.56823E-02
         0.26565E-02
         0.79611E-02
         0.50712E-02
         0.77366E-02
         0.36283E-02
         0.15558E-01
         0.11903E-01
         0.56781E-02
         0.16586E-01
         0.59015E-02
         0.30919E-02
         0.17946E-02
         0.39530E-02
         0.20381E-02
         0.12268E-01
         0.11476E-01
         0.11194E-01
         0.29046E-02
         0.50957E-02
         0.14994E-02
         0.56010E-02
         0.80076E-03
         0.21975E-02
         0.53061E-02
         0.50400E-02
         0.26162E-02
         0.31206E-02
         0.28212E-02
         0.10814E-01
         0.63988E-02
         0.82862E-02
         0.13650E-01
         0.10634E-01
         0.97642E-02
         0.13690E-01
         0.12372E-01
         0.12381E-01
         0.95839E-02
         0.85313E-02
         0.11685E-01
         0.76703E-02
         0.65122E-02
         0.52555E-02
         0.61915E-02
         0.10264E-01
         0.69258E-02
         0.45174E-01
         0.46355E-01
         0.48642E-01
         0.48302E-01
         0.51343E-01
         0.54964E-01
         0.52665E-01
         0.46951E-01
         0.45768E-01
         0.48934E-01
         0.48078E-01
         0.47607E-01
         0.39279E-01
         0.37353E-01
         0.41154E-01
         0.44211E-01
         0.45891E-01
         0.50033E-01
         0.47886E-01
         0.49185E-01
         0.44260E-01
         0.42054E-01
         0.44626E-01
         0.43397E-01
         0.44731E-01
         0.44374E-01
         0.80849E-02
         0.48061E-02
         0.45715E-02
         0.31873E-02
         0.82342E-02
         0.56790E-02
         0.26637E-02
         0.79663E-02
         0.50802E-02
         0.77550E-02
         0.36301E-02
         0.15558E-01
         0.11908E-01
         0.56645E-02
         0.16603E-01
         0.59072E-02
         0.31009E-02
         0.17897E-02
         0.39556E-02
         0.20337E-02
         0.12271E-01
         0.11476E-01
         0.11195E-01
         0.29045E-02
         0.51135E-02
         0.14981E-02
         0.56016E-02
         0.79610E-03
         0.22073E-02
         0.53121E-02
         0.50445E-02
         0.26146E-02
         0.31153E-02
         0.28236E-02
         0.10820E-01
         0.63979E-02
         0.82851E-02
         0.13672E-01
         0.10659E-01
         0.97782E-02
         0.13700E-01
         0.12378E-01
         0.12383E-01
         0.95865E-02
         0.85324E-02
         0.11687E-01
         0.76722E-02
         0.65133E-02
         0.52500E-02
         0.61835E-02
         0.10259E-01
         0.69152E-02
         0.45157E-01
         0.46345E-01
         0.48641E-01
         0.48302E-01
         0.51335E-01
         0.54945E-01
         0.52642E-01
         0.46938E-01
         0.45756E-01
         0.48916E-01
         0.48071E-01
         0.47613E-01
         0.39279E-01
         0.37352E-01
         0.41160E-01
         0.44226E-01
         0.45907E-01
         0.50044E-01
         0.47883E-01
         0.49182E-01
         0.44256E-01
         0.42052E-01
         0.44610E-01
         0.43369E-01
         0.44706E-01
         0.44350E-01
         0.80898E-02
         0.48061E-02
         0.45740E-02
         0.31920E-02
         0.82309E-02
         0.56760E-02
         0.26709E-02
         0.79716E-02
         0.50892E-02
         0.77733E-02
         0.36319E-02
         0.15558E-01
         0.11913E-01
         0.56509E-02
         0.16620E-01
         0.59130E-02
         0.31100E-02
         0.17849E-02
         0.39583E-02
         0.20294E-02
         0.12273E-01
         0.11476E-01
         0.11196E-01
         0.29043E-02
         0.51313E-02
         0.14968E-02
         0.56021E-02
         0.79146E-03
         0.22170E-02
         0.53181E-02
         0.50492E-02
         0.26131E-02
         0.31102E-02
         0.28262E-02
         0.10825E-01
         0.63970E-02
         0.82839E-02
         0.13694E-01
         0.10683E-01
         0.97916E-02
         0.13709E-01
         0.12384E-01
         0.12386E-01
         0.95892E-02
         0.85332E-02
         0.11689E-01
         0.76742E-02
         0.65145E-02
         0.52444E-02
         0.61756E-02
         0.10254E-01
         0.69049E-02
         0.45140E-01
         0.46334E-01
         0.48640E-01
         0.48303E-01
         0.51326E-01
         0.54926E-01
         0.52619E-01
         0.46925E-01
         0.45745E-01
         0.48899E-01
         0.48063E-01
         0.47620E-01
         0.39279E-01
         0.37352E-01
         0.41167E-01
         0.44241E-01
         0.45923E-01
         0.50056E-01
         0.47880E-01
         0.49179E-01
         0.44252E-01
         0.42050E-01
         0.44594E-01
         0.43340E-01
         0.44681E-01
         0.44327E-01
         0.82502E-02
         0.50493E-02
         0.48264E-02
         0.34819E-02
         0.84330E-02
         0.59141E-02
         0.31309E-02
         0.81695E-02
         0.53071E-02
         0.79871E-02
         0.40600E-02
         0.15750E-01
         0.12104E-01
         0.59495E-02
         0.16831E-01
         0.60965E-02
         0.34609E-02
         0.22059E-02
         0.42613E-02
         0.25903E-02
         0.12434E-01
         0.11644E-01
         0.11354E-01
         0.32628E-02
         0.54186E-02
         0.20564E-02
         0.59083E-02
         0.19273E-02
         0.28495E-02
         0.56046E-02
         0.52582E-02
         0.29977E-02
         0.34011E-02
         0.31761E-02
         0.11033E-01
         0.66403E-02
         0.84848E-02
         0.13911E-01
         0.10919E-01
         0.10025E-01
         0.13908E-01
         0.12574E-01
         0.12558E-01
         0.97538E-02
         0.87217E-02
         0.11883E-01
         0.78934E-02
         0.67338E-02
         0.54880E-02
         0.64031E-02
         0.10444E-01
         0.71147E-02
         0.45399E-01
         0.46591E-01
         0.48916E-01
         0.48570E-01
         0.51598E-01
         0.55208E-01
         0.52899E-01
         0.47207E-01
         0.46029E-01
         0.49188E-01
         0.48351E-01
         0.47900E-01
         0.39516E-01
         0.37572E-01
         0.41395E-01
         0.44482E-01
         0.46169E-01
         0.50324E-01
         0.48155E-01
         0.49457E-01
         0.44500E-01
         0.42289E-01
         0.44831E-01
         0.43564E-01
         0.44906E-01
         0.44551E-01
         0.19473E-01
         0.17538E-01
         0.17182E-01
         0.15224E-01
         0.21216E-01
         0.18526E-01
         0.17712E-01
         0.21015E-01
         0.16785E-01
         0.20842E-01
         0.19611E-01
         0.30384E-01
         0.25635E-01
         0.21067E-01
         0.32075E-01
         0.17133E-01
         0.16413E-01
         0.14076E-01
         0.17249E-01
         0.17307E-01
         0.24845E-01
         0.24467E-01
         0.23315E-01
         0.16224E-01
         0.19176E-01
         0.15284E-01
         0.21013E-01
         0.19055E-01
         0.19391E-01
         0.19821E-01
         0.16644E-01
         0.16055E-01
         0.15286E-01
         0.15780E-01
         0.24540E-01
         0.19983E-01
         0.21429E-01
         0.28972E-01
         0.25895E-01
         0.24948E-01
         0.28728E-01
         0.26764E-01
         0.26006E-01
         0.21563E-01
         0.21124E-01
         0.25225E-01
         0.20958E-01
         0.19294E-01
         0.18181E-01
         0.19284E-01
         0.23500E-01
         0.19805E-01
         0.63882E-01
         0.64786E-01
         0.67672E-01
         0.67054E-01
         0.70793E-01
         0.75661E-01
         0.73901E-01
         0.67857E-01
         0.66529E-01
         0.70091E-01
         0.68804E-01
         0.67387E-01
         0.57063E-01
         0.54338E-01
         0.58152E-01
         0.61250E-01
         0.63117E-01
         0.68402E-01
         0.66742E-01
         0.68311E-01
         0.62341E-01
         0.59696E-01
         0.62765E-01
         0.61417E-01
         0.62647E-01
         0.62031E-01
  
SCALARS                     nodal_mass  double 1
LOOKUP_TABLE default
         0.24608E-05
         0.19551E-05
         0.20945E-05
         0.35953E-05
         0.12304E-05
         0.97770E-06
         0.10472E-05
         0.17973E-05
         0.19315E-05
         0.24627E-05
         0.96570E-06
         0.12312E-05
         0.13823E-05
         0.16614E-05
         0.69133E-06
         0.83095E-06
         0.27274E-05
         0.20125E-05
         0.13635E-05
         0.10066E-05
         0.81737E-06
         0.15393E-05
         0.16929E-05
         0.40889E-06
         0.76975E-06
         0.84649E-06
         0.13859E-05
         0.17532E-05
         0.69345E-06
         0.87672E-06
         0.32470E-05
         0.25355E-05
         0.32225E-05
         0.16233E-05
         0.12675E-05
         0.16109E-05
         0.18980E-05
         0.21673E-05
         0.94902E-06
         0.10836E-05
         0.20482E-05
         0.22683E-05
         0.10242E-05
         0.11342E-05
         0.17426E-05
         0.10823E-05
         0.87140E-06
         0.54121E-06
         0.20598E-05
         0.10301E-05
         0.17103E-05
         0.85523E-06
         0.17977E-05
         0.89958E-06
         0.18362E-05
         0.91859E-06
         0.15911E-05
         0.19369E-05
         0.79575E-06
         0.96860E-06
         0.24553E-05
         0.17361E-05
         0.12277E-05
         0.86816E-06
         0.27409E-05
         0.13702E-05
         0.23792E-05
         0.11891E-05
         0.10821E-05
         0.16705E-05
         0.54106E-06
         0.83538E-06
         0.18955E-05
         0.94787E-06
         0.20026E-05
         0.10014E-05
         0.19316E-05
         0.96578E-06
         0.15181E-05
         0.75906E-06
         0.95443E-06
         0.15782E-05
         0.47723E-06
         0.78918E-06
         0.20886E-05
         0.10443E-05
         0.16867E-05
         0.84342E-06
         0.14838E-05
         0.74203E-06
         0.97224E-06
         0.16569E-05
         0.48620E-06
         0.82849E-06
         0.22482E-05
         0.11241E-05
         0.23568E-05
         0.11783E-05
         0.19018E-05
         0.95085E-06
         0.11709E-05
         0.20091E-05
         0.58544E-06
         0.10044E-05
         0.74681E-06
         0.94889E-06
         0.37348E-06
         0.47447E-06
         0.88885E-06
         0.44455E-06
         0.10466E-05
         0.52333E-06
         0.10205E-05
         0.51021E-06
         0.99108E-06
         0.49550E-06
         0.10560E-05
         0.52791E-06
         0.11142E-05
         0.55694E-06
         0.10497E-05
         0.52469E-06
         0.82085E-06
         0.41039E-06
         0.66950E-06
         0.33475E-06
         0.86397E-06
         0.43199E-06
         0.11504E-05
         0.57519E-06
         0.12637E-05
         0.63182E-06
         0.12132E-05
         0.60658E-06
         0.10948E-05
         0.54745E-06
         0.99429E-06
         0.49718E-06
         0.80759E-06
         0.40382E-06
         0.67982E-06
         0.33995E-06
         0.88797E-06
         0.44401E-06
         0.11753E-05
         0.58766E-06
         0.12140E-05
         0.60702E-06
         0.98236E-06
         0.49125E-06
         0.79766E-06
         0.39889E-06
         0.97540E-06
         0.48769E-06
         0.11548E-05
         0.57743E-06
         0.24609E-05
         0.19547E-05
         0.20946E-05
         0.35969E-05
         0.19318E-05
         0.24634E-05
         0.13815E-05
         0.16603E-05
         0.27283E-05
         0.20111E-05
         0.81658E-06
         0.15390E-05
         0.16927E-05
         0.13839E-05
         0.17528E-05
         0.32479E-05
         0.25367E-05
         0.32241E-05
         0.18980E-05
         0.21675E-05
         0.20481E-05
         0.22684E-05
         0.17424E-05
         0.10822E-05
         0.20589E-05
         0.17102E-05
         0.17950E-05
         0.18344E-05
         0.15904E-05
         0.19365E-05
         0.24555E-05
         0.17359E-05
         0.27423E-05
         0.23814E-05
         0.10820E-05
         0.16702E-05
         0.18953E-05
         0.20025E-05
         0.19317E-05
         0.15181E-05
         0.95442E-06
         0.15780E-05
         0.20884E-05
         0.16864E-05
         0.14835E-05
         0.97197E-06
         0.16567E-05
         0.22482E-05
         0.23571E-05
         0.19022E-05
         0.11709E-05
         0.20101E-05
         0.74658E-06
         0.94886E-06
         0.88841E-06
         0.10467E-05
         0.10207E-05
         0.99128E-06
         0.10565E-05
         0.11150E-05
         0.10503E-05
         0.82102E-06
         0.66954E-06
         0.86398E-06
         0.11506E-05
         0.12640E-05
         0.12133E-05
         0.10948E-05
         0.99421E-06
         0.80751E-06
         0.67970E-06
         0.88789E-06
         0.11752E-05
         0.12140E-05
         0.98215E-06
         0.79747E-06
         0.97551E-06
         0.11548E-05
         0.24611E-05
         0.19543E-05
         0.20949E-05
         0.35987E-05
         0.19321E-05
         0.24642E-05
         0.13808E-05
         0.16594E-05
         0.27293E-05
         0.20098E-05
         0.81582E-06
         0.15388E-05
         0.16927E-05
         0.13821E-05
         0.17525E-05
         0.32489E-05
         0.25379E-05
         0.32257E-05
         0.18982E-05
         0.21678E-05
         0.20480E-05
         0.22685E-05
         0.17423E-05
         0.10821E-05
         0.20580E-05
         0.17101E-05
         0.17924E-05
         0.18326E-05
         0.15898E-05
         0.19361E-05
         0.24558E-05
         0.17357E-05
         0.27438E-05
         0.23836E-05
         0.10821E-05
         0.16699E-05
         0.18951E-05
         0.20024E-05
         0.19318E-05
         0.15183E-05
         0.95445E-06
         0.15778E-05
         0.20884E-05
         0.16862E-05
         0.14831E-05
         0.97174E-06
         0.16566E-05
         0.22483E-05
         0.23575E-05
         0.19026E-05
         0.11709E-05
         0.20112E-05
         0.74636E-06
         0.94886E-06
         0.88800E-06
         0.10467E-05
         0.10210E-05
         0.99152E-06
         0.10570E-05
         0.11159E-05
         0.10509E-05
         0.82122E-06
         0.66961E-06
         0.86402E-06
         0.11507E-05
         0.12643E-05
         0.12135E-05
         0.10948E-05
         0.99417E-06
         0.80747E-06
         0.67961E-06
         0.88784E-06
         0.11752E-05
         0.12140E-05
         0.98197E-06
         0.79731E-06
         0.97565E-06
         0.11548E-05
         0.24612E-05
         0.19539E-05
         0.20950E-05
         0.36004E-05
         0.19324E-05
         0.24650E-05
         0.13801E-05
         0.16584E-05
         0.27303E-05
         0.20085E-05
         0.81504E-06
         0.15385E-05
         0.16925E-05
         0.13801E-05
         0.17521E-05
         0.32498E-05
         0.25390E-05
         0.32274E-05
         0.18982E-05
         0.21681E-05
         0.20479E-05
         0.22686E-05
         0.17421E-05
         0.10820E-05
         0.20571E-05
         0.17099E-05
         0.17897E-05
         0.18308E-05
         0.15891E-05
         0.19356E-05
         0.24561E-05
         0.17355E-05
         0.27453E-05
         0.23857E-05
         0.10820E-05
         0.16696E-05
         0.18948E-05
         0.20022E-05
         0.19320E-05
         0.15183E-05
         0.95445E-06
         0.15776E-05
         0.20883E-05
         0.16859E-05
         0.14828E-05
         0.97149E-06
         0.16564E-05
         0.22483E-05
         0.23578E-05
         0.19030E-05
         0.11710E-05
         0.20122E-05
         0.74613E-06
         0.94884E-06
         0.88756E-06
         0.10467E-05
         0.10212E-05
         0.99173E-06
         0.10574E-05
         0.11167E-05
         0.10515E-05
         0.82140E-06
         0.66966E-06
         0.86404E-06
         0.11509E-05
         0.12646E-05
         0.12136E-05
         0.10947E-05
         0.99410E-06
         0.80740E-06
         0.67950E-06
         0.88777E-06
         0.11752E-05
         0.12140E-05
         0.98177E-06
         0.79713E-06
         0.97576E-06
         0.11547E-05
         0.24613E-05
         0.19535E-05
         0.20952E-05
         0.36022E-05
         0.19327E-05
         0.24657E-05
         0.13794E-05
         0.16574E-05
         0.27313E-05
         0.20072E-05
         0.81426E-06
         0.15382E-05
         0.16924E-05
         0.13782E-05
         0.17517E-05
         0.32508E-05
         0.25402E-05
         0.32290E-05
         0.18983E-05
         0.21684E-05
         0.20479E-05
         0.22687E-05
         0.17420E-05
         0.10819E-05
         0.20563E-05
         0.17098E-05
         0.17870E-05
         0.18290E-05
         0.15884E-05
         0.19352E-05
         0.24563E-05
         0.17353E-05
         0.27467E-05
         0.23879E-05
         0.10820E-05
         0.16693E-05
         0.18946E-05
         0.20021E-05
         0.19321E-05
         0.15184E-05
         0.95445E-06
         0.15773E-05
         0.20882E-05
         0.16857E-05
         0.14824E-05
         0.97124E-06
         0.16563E-05
         0.22484E-05
         0.23582E-05
         0.19034E-05
         0.11710E-05
         0.20132E-05
         0.74590E-06
         0.94883E-06
         0.88713E-06
         0.10468E-05
         0.10215E-05
         0.99194E-06
         0.10579E-05
         0.11175E-05
         0.10521E-05
         0.82159E-06
         0.66972E-06
         0.86406E-06
         0.11510E-05
         0.12649E-05
         0.12138E-05
         0.10947E-05
         0.99404E-06
         0.80734E-06
         0.67940E-06
         0.88771E-06
         0.11752E-05
         0.12140E-05
         0.98157E-06
         0.79696E-06
         0.97588E-06
         0.11547E-05
         0.24615E-05
         0.19531E-05
         0.20954E-05
         0.36039E-05
         0.19331E-05
         0.24665E-05
         0.13787E-05
         0.16564E-05
         0.27322E-05
         0.20059E-05
         0.81349E-06
         0.15380E-05
         0.16923E-05
         0.13763E-05
         0.17514E-05
         0.32518E-05
         0.25414E-05
         0.32306E-05
         0.18984E-05
         0.21687E-05
         0.20478E-05
         0.22688E-05
         0.17418E-05
         0.10818E-05
         0.20554E-05
         0.17096E-05
         0.17843E-05
         0.18272E-05
         0.15878E-05
         0.19347E-05
         0.24566E-05
         0.17351E-05
         0.27482E-05
         0.23901E-05
         0.10820E-05
         0.16690E-05
         0.18943E-05
         0.20019E-05
         0.19322E-05
         0.15185E-05
         0.95446E-06
         0.15771E-05
         0.20881E-05
         0.16855E-05
         0.14821E-05
         0.97100E-06
         0.16562E-05
         0.22484E-05
         0.23586E-05
         0.19038E-05
         0.11710E-05
         0.20142E-05
         0.74568E-06
         0.94882E-06
         0.88671E-06
         0.10468E-05
         0.10217E-05
         0.99216E-06
         0.10583E-05
         0.11183E-05
         0.10528E-05
         0.82178E-06
         0.66977E-06
         0.86408E-06
         0.11512E-05
         0.12652E-05
         0.12139E-05
         0.10947E-05
         0.99398E-06
         0.80728E-06
         0.67930E-06
         0.88766E-06
         0.11752E-05
         0.12140E-05
         0.98138E-06
         0.79679E-06
         0.97601E-06
         0.11547E-05
         0.24616E-05
         0.19527E-05
         0.20956E-05
         0.36056E-05
         0.19334E-05
         0.24672E-05
         0.13779E-05
         0.16554E-05
         0.27332E-05
         0.20046E-05
         0.81271E-06
         0.15377E-05
         0.16922E-05
         0.13744E-05
         0.17510E-05
         0.32527E-05
         0.25425E-05
         0.32322E-05
         0.18984E-05
         0.21689E-05
         0.20477E-05
         0.22689E-05
         0.17416E-05
         0.10816E-05
         0.20545E-05
         0.17095E-05
         0.17817E-05
         0.18254E-05
         0.15871E-05
         0.19343E-05
         0.24568E-05
         0.17349E-05
         0.27496E-05
         0.23922E-05
         0.10820E-05
         0.16686E-05
         0.18941E-05
         0.20018E-05
         0.19324E-05
         0.15186E-05
         0.95446E-06
         0.15769E-05
         0.20880E-05
         0.16852E-05
         0.14817E-05
         0.97074E-06
         0.16560E-05
         0.22484E-05
         0.23589E-05
         0.19042E-05
         0.11710E-05
         0.20152E-05
         0.74544E-06
         0.94880E-06
         0.88627E-06
         0.10469E-05
         0.10219E-05
         0.99237E-06
         0.10588E-05
         0.11191E-05
         0.10534E-05
         0.82196E-06
         0.66982E-06
         0.86410E-06
         0.11513E-05
         0.12654E-05
         0.12140E-05
         0.10947E-05
         0.99391E-06
         0.80721E-06
         0.67919E-06
         0.88759E-06
         0.11751E-05
         0.12140E-05
         0.98118E-06
         0.79661E-06
         0.97612E-06
         0.11546E-05
         0.24618E-05
         0.19523E-05
         0.20957E-05
         0.36073E-05
         0.19337E-05
         0.24680E-05
         0.13772E-05
         0.16545E-05
         0.27341E-05
         0.20033E-05
         0.81194E-06
         0.15374E-05
         0.16921E-05
         0.13725E-05
         0.17506E-05
         0.32537E-05
         0.25437E-05
         0.32339E-05
         0.18985E-05
         0.21692E-05
         0.20476E-05
         0.22690E-05
         0.17414E-05
         0.10815E-05
         0.20536E-05
         0.17093E-05
         0.17790E-05
         0.18236E-05
         0.15864E-05
         0.19339E-05
         0.24571E-05
         0.17347E-05
         0.27511E-05
         0.23944E-05
         0.10820E-05
         0.16683E-05
         0.18938E-05
         0.20016E-05
         0.19325E-05
         0.15186E-05
         0.95446E-06
         0.15767E-05
         0.20878E-05
         0.16850E-05
         0.14814E-05
         0.97050E-06
         0.16559E-05
         0.22484E-05
         0.23593E-05
         0.19046E-05
         0.11711E-05
         0.20162E-05
         0.74522E-06
         0.94878E-06
         0.88584E-06
         0.10469E-05
         0.10222E-05
         0.99258E-06
         0.10593E-05
         0.11199E-05
         0.10540E-05
         0.82215E-06
         0.66988E-06
         0.86413E-06
         0.11515E-05
         0.12657E-05
         0.12142E-05
         0.10946E-05
         0.99385E-06
         0.80715E-06
         0.67909E-06
         0.88752E-06
         0.11751E-05
         0.12140E-05
         0.98098E-06
         0.79643E-06
         0.97624E-06
         0.11546E-05
         0.24619E-05
         0.19519E-05
         0.20959E-05
         0.36091E-05
         0.19340E-05
         0.24688E-05
         0.13765E-05
         0.16535E-05
         0.27351E-05
         0.20020E-05
         0.81117E-06
         0.15372E-05
         0.16920E-05
         0.13706E-05
         0.17503E-05
         0.32546E-05
         0.25448E-05
         0.32355E-05
         0.18986E-05
         0.21695E-05
         0.20475E-05
         0.22691E-05
         0.17413E-05
         0.10814E-05
         0.20527E-05
         0.17092E-05
         0.17763E-05
         0.18219E-05
         0.15858E-05
         0.19334E-05
         0.24573E-05
         0.17345E-05
         0.27525E-05
         0.23966E-05
         0.10820E-05
         0.16680E-05
         0.18936E-05
         0.20015E-05
         0.19326E-05
         0.15187E-05
         0.95447E-06
         0.15765E-05
         0.20878E-05
         0.16848E-05
         0.14810E-05
         0.97025E-06
         0.16557E-05
         0.22485E-05
         0.23597E-05
         0.19050E-05
         0.11711E-05
         0.20172E-05
         0.74499E-06
         0.94877E-06
         0.88541E-06
         0.10469E-05
         0.10224E-05
         0.99280E-06
         0.10597E-05
         0.11207E-05
         0.10546E-05
         0.82234E-06
         0.66994E-06
         0.86415E-06
         0.11517E-05
         0.12660E-05
         0.12143E-05
         0.10946E-05
         0.99379E-06
         0.80709E-06
         0.67898E-06
         0.88746E-06
         0.11751E-05
         0.12140E-05
         0.98079E-06
         0.79626E-06
         0.97636E-06
         0.11546E-05
         0.24621E-05
         0.19515E-05
         0.20961E-05
         0.36108E-05
         0.19343E-05
         0.24695E-05
         0.13758E-05
         0.16525E-05
         0.27361E-05
         0.20006E-05
         0.81039E-06
         0.15369E-05
         0.16919E-05
         0.13686E-05
         0.17499E-05
         0.32556E-05
         0.25460E-05
         0.32371E-05
         0.18986E-05
         0.21697E-05
         0.20474E-05
         0.22692E-05
         0.17411E-05
         0.10813E-05
         0.20519E-05
         0.17091E-05
         0.17736E-05
         0.18201E-05
         0.15851E-05
         0.19330E-05
         0.24575E-05
         0.17342E-05
         0.27540E-05
         0.23987E-05
         0.10820E-05
         0.16677E-05
         0.18933E-05
         0.20014E-05
         0.19328E-05
         0.15188E-05
         0.95448E-06
         0.15763E-05
         0.20876E-05
         0.16845E-05
         0.14807E-05
         0.97000E-06
         0.16556E-05
         0.22485E-05
         0.23600E-05
         0.19053E-05
         0.11711E-05
         0.20182E-05
         0.74476E-06
         0.94875E-06
         0.88498E-06
         0.10470E-05
         0.10227E-05
         0.99301E-06
         0.10602E-05
         0.11215E-05
         0.10553E-05
         0.82252E-06
         0.66999E-06
         0.86417E-06
         0.11518E-05
         0.12663E-05
         0.12145E-05
         0.10946E-05
         0.99373E-06
         0.80702E-06
         0.67888E-06
         0.88740E-06
         0.11751E-05
         0.12140E-05
         0.98058E-06
         0.79608E-06
         0.97648E-06
         0.11546E-05
         0.24622E-05
         0.19511E-05
         0.20963E-05
         0.36125E-05
         0.19346E-05
         0.24703E-05
         0.13751E-05
         0.16515E-05
         0.27370E-05
         0.19993E-05
         0.80962E-06
         0.15366E-05
         0.16917E-05
         0.13667E-05
         0.17495E-05
         0.32565E-05
         0.25471E-05
         0.32388E-05
         0.18987E-05
         0.21700E-05
         0.20473E-05
         0.22693E-05
         0.17409E-05
         0.10812E-05
         0.20510E-05
         0.17089E-05
         0.17710E-05
         0.18183E-05
         0.15844E-05
         0.19325E-05
         0.24578E-05
         0.17340E-05
         0.27554E-05
         0.24009E-05
         0.10820E-05
         0.16674E-05
         0.18931E-05
         0.20012E-05
         0.19329E-05
         0.15189E-05
         0.95448E-06
         0.15760E-05
         0.20875E-05
         0.16843E-05
         0.14803E-05
         0.96975E-06
         0.16555E-05
         0.22485E-05
         0.23604E-05
         0.19057E-05
         0.11712E-05
         0.20192E-05
         0.74453E-06
         0.94874E-06
         0.88455E-06
         0.10470E-05
         0.10229E-05
         0.99322E-06
         0.10606E-05
         0.11223E-05
         0.10559E-05
         0.82270E-06
         0.67004E-06
         0.86419E-06
         0.11520E-05
         0.12666E-05
         0.12146E-05
         0.10945E-05
         0.99366E-06
         0.80696E-06
         0.67877E-06
         0.88733E-06
         0.11751E-05
         0.12140E-05
         0.98038E-06
         0.79590E-06
         0.97660E-06
         0.11545E-05
         0.24623E-05
         0.19507E-05
         0.20964E-05
         0.36142E-05
         0.19349E-05
         0.24710E-05
         0.13743E-05
         0.16505E-05
         0.27380E-05
         0.19980E-05
         0.80885E-06
         0.15364E-05
         0.16916E-05
         0.13648E-05
         0.17492E-05
         0.32575E-05
         0.25483E-05
         0.32404E-05
         0.18988E-05
         0.21703E-05
         0.20473E-05
         0.22694E-05
         0.17407E-05
         0.10811E-05
         0.20501E-05
         0.17088E-05
         0.17683E-05
         0.18165E-05
         0.15837E-05
         0.19321E-05
         0.24580E-05
         0.17338E-05
         0.27569E-05
         0.24031E-05
         0.10820E-05
         0.16670E-05
         0.18928E-05
         0.20011E-05
         0.19330E-05
         0.15189E-05
         0.95448E-06
         0.15758E-05
         0.20874E-05
         0.16840E-05
         0.14800E-05
         0.96950E-06
         0.16553E-05
         0.22485E-05
         0.23608E-05
         0.19061E-05
         0.11712E-05
         0.20202E-05
         0.74430E-06
         0.94872E-06
         0.88412E-06
         0.10470E-05
         0.10231E-05
         0.99344E-06
         0.10611E-05
         0.11231E-05
         0.10565E-05
         0.82289E-06
         0.67009E-06
         0.86422E-06
         0.11521E-05
         0.12669E-05
         0.12147E-05
         0.10945E-05
         0.99360E-06
         0.80690E-06
         0.67867E-06
         0.88727E-06
         0.11750E-05
         0.12140E-05
         0.98019E-06
         0.79573E-06
         0.97672E-06
         0.11545E-05
         0.24625E-05
         0.19503E-05
         0.20966E-05
         0.36160E-05
         0.19352E-05
         0.24718E-05
         0.13736E-05
         0.16496E-05
         0.27389E-05
         0.19967E-05
         0.80807E-06
         0.15361E-05
         0.16915E-05
         0.13629E-05
         0.17488E-05
         0.32584E-05
         0.25495E-05
         0.32420E-05
         0.18988E-05
         0.21705E-05
         0.20472E-05
         0.22695E-05
         0.17406E-05
         0.10810E-05
         0.20492E-05
         0.17086E-05
         0.17656E-05
         0.18147E-05
         0.15831E-05
         0.19317E-05
         0.24583E-05
         0.17336E-05
         0.27583E-05
         0.24053E-05
         0.10820E-05
         0.16667E-05
         0.18926E-05
         0.20009E-05
         0.19331E-05
         0.15190E-05
         0.95449E-06
         0.15756E-05
         0.20873E-05
         0.16838E-05
         0.14796E-05
         0.96925E-06
         0.16552E-05
         0.22486E-05
         0.23611E-05
         0.19065E-05
         0.11712E-05
         0.20212E-05
         0.74407E-06
         0.94870E-06
         0.88368E-06
         0.10471E-05
         0.10234E-05
         0.99365E-06
         0.10616E-05
         0.11239E-05
         0.10571E-05
         0.82307E-06
         0.67014E-06
         0.86424E-06
         0.11523E-05
         0.12672E-05
         0.12149E-05
         0.10945E-05
         0.99354E-06
         0.80683E-06
         0.67856E-06
         0.88721E-06
         0.11750E-05
         0.12140E-05
         0.97999E-06
         0.79555E-06
         0.97684E-06
         0.11545E-05
         0.24626E-05
         0.19499E-05
         0.20968E-05
         0.36177E-05
         0.19355E-05
         0.24725E-05
         0.13729E-05
         0.16486E-05
         0.27399E-05
         0.19954E-05
         0.80730E-06
         0.15358E-05
         0.16914E-05
         0.13610E-05
         0.17484E-05
         0.32594E-05
         0.25506E-05
         0.32437E-05
         0.18989E-05
         0.21708E-05
         0.20471E-05
         0.22696E-05
         0.17404E-05
         0.10808E-05
         0.20483E-05
         0.17085E-05
         0.17629E-05
         0.18129E-05
         0.15824E-05
         0.19312E-05
         0.24585E-05
         0.17334E-05
         0.27598E-05
         0.24074E-05
         0.10820E-05
         0.16664E-05
         0.18923E-05
         0.20008E-05
         0.19333E-05
         0.15191E-05
         0.95449E-06
         0.15754E-05
         0.20872E-05
         0.16835E-05
         0.14793E-05
         0.96901E-06
         0.16550E-05
         0.22486E-05
         0.23615E-05
         0.19069E-05
         0.11713E-05
         0.20222E-05
         0.74384E-06
         0.94869E-06
         0.88325E-06
         0.10471E-05
         0.10236E-05
         0.99386E-06
         0.10620E-05
         0.11247E-05
         0.10577E-05
         0.82326E-06
         0.67020E-06
         0.86426E-06
         0.11524E-05
         0.12674E-05
         0.12150E-05
         0.10944E-05
         0.99348E-06
         0.80677E-06
         0.67846E-06
         0.88714E-06
         0.11750E-05
         0.12140E-05
         0.97979E-06
         0.79538E-06
         0.97696E-06
         0.11544E-05
         0.24628E-05
         0.19495E-05
         0.20970E-05
         0.36194E-05
         0.19358E-05
         0.24733E-05
         0.13722E-05
         0.16476E-05
         0.27409E-05
         0.19941E-05
         0.80652E-06
         0.15355E-05
         0.16913E-05
         0.13591E-05
         0.17481E-05
         0.32604E-05
         0.25518E-05
         0.32453E-05
         0.18990E-05
         0.21711E-05
         0.20470E-05
         0.22697E-05
         0.17402E-05
         0.10807E-05
         0.20474E-05
         0.17084E-05
         0.17603E-05
         0.18111E-05
         0.15817E-05
         0.19308E-05
         0.24588E-05
         0.17332E-05
         0.27613E-05
         0.24096E-05
         0.10819E-05
         0.16661E-05
         0.18921E-05
         0.20006E-05
         0.19334E-05
         0.15192E-05
         0.95450E-06
         0.15752E-05
         0.20871E-05
         0.16833E-05
         0.14789E-05
         0.96876E-06
         0.16549E-05
         0.22486E-05
         0.23619E-05
         0.19073E-05
         0.11713E-05
         0.20232E-05
         0.74362E-06
         0.94868E-06
         0.88282E-06
         0.10472E-05
         0.10238E-05
         0.99408E-06
         0.10625E-05
         0.11255E-05
         0.10584E-05
         0.82345E-06
         0.67025E-06
         0.86428E-06
         0.11526E-05
         0.12677E-05
         0.12152E-05
         0.10944E-05
         0.99342E-06
         0.80671E-06
         0.67836E-06
         0.88709E-06
         0.11750E-05
         0.12140E-05
         0.97959E-06
         0.79521E-06
         0.97708E-06
         0.11544E-05
         0.24629E-05
         0.19491E-05
         0.20972E-05
         0.36212E-05
         0.19361E-05
         0.24741E-05
         0.13715E-05
         0.16466E-05
         0.27418E-05
         0.19928E-05
         0.80575E-06
         0.15353E-05
         0.16912E-05
         0.13572E-05
         0.17477E-05
         0.32613E-05
         0.25529E-05
         0.32469E-05
         0.18990E-05
         0.21714E-05
         0.20469E-05
         0.22698E-05
         0.17400E-05
         0.10806E-05
         0.20466E-05
         0.17082E-05
         0.17576E-05
         0.18093E-05
         0.15810E-05
         0.19303E-05
         0.24590E-05
         0.17330E-05
         0.27627E-05
         0.24118E-05
         0.10819E-05
         0.16658E-05
         0.18919E-05
         0.20005E-05
         0.19335E-05
         0.15192E-05
         0.95450E-06
         0.15750E-05
         0.20870E-05
         0.16831E-05
         0.14786E-05
         0.96851E-06
         0.16548E-05
         0.22487E-05
         0.23622E-05
         0.19077E-05
         0.11713E-05
         0.20242E-05
         0.74339E-06
         0.94866E-06
         0.88239E-06
         0.10472E-05
         0.10241E-05
         0.99429E-06
         0.10630E-05
         0.11263E-05
         0.10590E-05
         0.82363E-06
         0.67030E-06
         0.86430E-06
         0.11527E-05
         0.12680E-05
         0.12153E-05
         0.10944E-05
         0.99335E-06
         0.80665E-06
         0.67825E-06
         0.88702E-06
         0.11749E-05
         0.12140E-05
         0.97939E-06
         0.79503E-06
         0.97720E-06
         0.11544E-05
         0.24631E-05
         0.19487E-05
         0.20973E-05
         0.36229E-05
         0.19364E-05
         0.24748E-05
         0.13707E-05
         0.16456E-05
         0.27428E-05
         0.19915E-05
         0.80498E-06
         0.15350E-05
         0.16911E-05
         0.13553E-05
         0.17473E-05
         0.32623E-05
         0.25541E-05
         0.32486E-05
         0.18991E-05
         0.21716E-05
         0.20468E-05
         0.22699E-05
         0.17399E-05
         0.10805E-05
         0.20457E-05
         0.17081E-05
         0.17549E-05
         0.18075E-05
         0.15804E-05
         0.19299E-05
         0.24592E-05
         0.17328E-05
         0.27642E-05
         0.24140E-05
         0.10819E-05
         0.16654E-05
         0.18916E-05
         0.20003E-05
         0.19337E-05
         0.15193E-05
         0.95450E-06
         0.15748E-05
         0.20869E-05
         0.16828E-05
         0.14782E-05
         0.96826E-06
         0.16546E-05
         0.22487E-05
         0.23626E-05
         0.19081E-05
         0.11714E-05
         0.20253E-05
         0.74316E-06
         0.94864E-06
         0.88196E-06
         0.10472E-05
         0.10243E-05
         0.99450E-06
         0.10634E-05
         0.11271E-05
         0.10596E-05
         0.82381E-06
         0.67036E-06
         0.86432E-06
         0.11529E-05
         0.12683E-05
         0.12154E-05
         0.10943E-05
         0.99329E-06
         0.80658E-06
         0.67815E-06
         0.88696E-06
         0.11749E-05
         0.12140E-05
         0.97919E-06
         0.79485E-06
         0.97732E-06
         0.11544E-05
         0.24632E-05
         0.19483E-05
         0.20975E-05
         0.36246E-05
         0.19368E-05
         0.24756E-05
         0.13700E-05
         0.16447E-05
         0.27437E-05
         0.19902E-05
         0.80421E-06
         0.15347E-05
         0.16910E-05
         0.13534E-05
         0.17470E-05
         0.32632E-05
         0.25552E-05
         0.32502E-05
         0.18992E-05
         0.21719E-05
         0.20467E-05
         0.22700E-05
         0.17397E-05
         0.10804E-05
         0.20448E-05
         0.17079E-05
         0.17523E-05
         0.18057E-05
         0.15797E-05
         0.19295E-05
         0.24595E-05
         0.17326E-05
         0.27656E-05
         0.24161E-05
         0.10819E-05
         0.16651E-05
         0.18914E-05
         0.20002E-05
         0.19338E-05
         0.15194E-05
         0.95451E-06
         0.15745E-05
         0.20868E-05
         0.16826E-05
         0.14779E-05
         0.96801E-06
         0.16545E-05
         0.22487E-05
         0.23630E-05
         0.19085E-05
         0.11714E-05
         0.20263E-05
         0.74293E-06
         0.94863E-06
         0.88153E-06
         0.10473E-05
         0.10245E-05
         0.99472E-06
         0.10639E-05
         0.11279E-05
         0.10602E-05
         0.82400E-06
         0.67041E-06
         0.86435E-06
         0.11530E-05
         0.12686E-05
         0.12156E-05
         0.10943E-05
         0.99323E-06
         0.80652E-06
         0.67804E-06
         0.88690E-06
         0.11749E-05
         0.12140E-05
         0.97900E-06
         0.79468E-06
         0.97744E-06
         0.11543E-05
         0.24633E-05
         0.19479E-05
         0.20977E-05
         0.36264E-05
         0.19371E-05
         0.24763E-05
         0.13693E-05
         0.16437E-05
         0.27447E-05
         0.19888E-05
         0.80343E-06
         0.15345E-05
         0.16908E-05
         0.13515E-05
         0.17466E-05
         0.32642E-05
         0.25564E-05
         0.32518E-05
         0.18992E-05
         0.21722E-05
         0.20466E-05
         0.22701E-05
         0.17395E-05
         0.10803E-05
         0.20439E-05
         0.17078E-05
         0.17496E-05
         0.18039E-05
         0.15790E-05
         0.19290E-05
         0.24597E-05
         0.17323E-05
         0.27671E-05
         0.24183E-05
         0.10819E-05
         0.16648E-05
         0.18911E-05
         0.20001E-05
         0.19339E-05
         0.15195E-05
         0.95452E-06
         0.15743E-05
         0.20867E-05
         0.16823E-05
         0.14775E-05
         0.96776E-06
         0.16543E-05
         0.22487E-05
         0.23633E-05
         0.19089E-05
         0.11714E-05
         0.20273E-05
         0.74270E-06
         0.94861E-06
         0.88109E-06
         0.10473E-05
         0.10248E-05
         0.99493E-06
         0.10643E-05
         0.11287E-05
         0.10609E-05
         0.82418E-06
         0.67046E-06
         0.86437E-06
         0.11532E-05
         0.12689E-05
         0.12157E-05
         0.10943E-05
         0.99316E-06
         0.80646E-06
         0.67794E-06
         0.88683E-06
         0.11749E-05
         0.12140E-05
         0.97879E-06
         0.79450E-06
         0.97755E-06
         0.11543E-05
         0.24635E-05
         0.19475E-05
         0.20979E-05
         0.36281E-05
         0.19374E-05
         0.24771E-05
         0.13686E-05
         0.16427E-05
         0.27456E-05
         0.19875E-05
         0.80266E-06
         0.15342E-05
         0.16907E-05
         0.13496E-05
         0.17463E-05
         0.32651E-05
         0.25575E-05
         0.32534E-05
         0.18993E-05
         0.21724E-05
         0.20466E-05
         0.22702E-05
         0.17393E-05
         0.10802E-05
         0.20430E-05
         0.17076E-05
         0.17469E-05
         0.18021E-05
         0.15784E-05
         0.19286E-05
         0.24600E-05
         0.17321E-05
         0.27685E-05
         0.24205E-05
         0.10819E-05
         0.16645E-05
         0.18909E-05
         0.19999E-05
         0.19341E-05
         0.15195E-05
         0.95452E-06
         0.15741E-05
         0.20866E-05
         0.16821E-05
         0.14772E-05
         0.96751E-06
         0.16542E-05
         0.22488E-05
         0.23637E-05
         0.19092E-05
         0.11715E-05
         0.20283E-05
         0.74247E-06
         0.94860E-06
         0.88066E-06
         0.10473E-05
         0.10250E-05
         0.99514E-06
         0.10648E-05
         0.11295E-05
         0.10615E-05
         0.82437E-06
         0.67052E-06
         0.86439E-06
         0.11533E-05
         0.12691E-05
         0.12159E-05
         0.10942E-05
         0.99310E-06
         0.80639E-06
         0.67783E-06
         0.88676E-06
         0.11748E-05
         0.12140E-05
         0.97859E-06
         0.79433E-06
         0.97767E-06
         0.11543E-05
         0.24636E-05
         0.19471E-05
         0.20980E-05
         0.36298E-05
         0.19377E-05
         0.24779E-05
         0.13679E-05
         0.16417E-05
         0.27466E-05
         0.19862E-05
         0.80189E-06
         0.15339E-05
         0.16906E-05
         0.13477E-05
         0.17459E-05
         0.32661E-05
         0.25587E-05
         0.32551E-05
         0.18994E-05
         0.21727E-05
         0.20465E-05
         0.22703E-05
         0.17392E-05
         0.10800E-05
         0.20421E-05
         0.17075E-05
         0.17443E-05
         0.18003E-05
         0.15777E-05
         0.19281E-05
         0.24602E-05
         0.17319E-05
         0.27700E-05
         0.24227E-05
         0.10819E-05
         0.16642E-05
         0.18906E-05
         0.19998E-05
         0.19342E-05
         0.15196E-05
         0.95453E-06
         0.15739E-05
         0.20865E-05
         0.16819E-05
         0.14768E-05
         0.96727E-06
         0.16541E-05
         0.22488E-05
         0.23640E-05
         0.19096E-05
         0.11715E-05
         0.20293E-05
         0.74225E-06
         0.94859E-06
         0.88023E-06
         0.10474E-05
         0.10253E-05
         0.99535E-06
         0.10653E-05
         0.11303E-05
         0.10621E-05
         0.82456E-06
         0.67057E-06
         0.86441E-06
         0.11535E-05
         0.12694E-05
         0.12160E-05
         0.10942E-05
         0.99304E-06
         0.80633E-06
         0.67773E-06
         0.88671E-06
         0.11748E-05
         0.12140E-05
         0.97840E-06
         0.79415E-06
         0.97780E-06
         0.11542E-05
         0.24637E-05
         0.19466E-05
         0.20982E-05
         0.36315E-05
         0.19380E-05
         0.24786E-05
         0.13671E-05
         0.16407E-05
         0.27475E-05
         0.19849E-05
         0.80110E-06
         0.15336E-05
         0.16905E-05
         0.13457E-05
         0.17455E-05
         0.32669E-05
         0.25598E-05
         0.32567E-05
         0.18994E-05
         0.21729E-05
         0.20464E-05
         0.22703E-05
         0.17390E-05
         0.10799E-05
         0.20412E-05
         0.17073E-05
         0.17416E-05
         0.17985E-05
         0.15770E-05
         0.19277E-05
         0.24604E-05
         0.17317E-05
         0.27714E-05
         0.24248E-05
         0.10819E-05
         0.16638E-05
         0.18903E-05
         0.19996E-05
         0.19343E-05
         0.15196E-05
         0.95451E-06
         0.15737E-05
         0.20864E-05
         0.16816E-05
         0.14765E-05
         0.96700E-06
         0.16539E-05
         0.22488E-05
         0.23644E-05
         0.19100E-05
         0.11715E-05
         0.20303E-05
         0.74200E-06
         0.94855E-06
         0.87978E-06
         0.10474E-05
         0.10255E-05
         0.99555E-06
         0.10657E-05
         0.11311E-05
         0.10627E-05
         0.82472E-06
         0.67061E-06
         0.86442E-06
         0.11536E-05
         0.12697E-05
         0.12161E-05
         0.10941E-05
         0.99295E-06
         0.80625E-06
         0.67761E-06
         0.88662E-06
         0.11748E-05
         0.12140E-05
         0.97818E-06
         0.79396E-06
         0.97790E-06
         0.11542E-05
         0.24639E-05
         0.19463E-05
         0.20984E-05
         0.36333E-05
         0.19383E-05
         0.24794E-05
         0.13664E-05
         0.16398E-05
         0.27485E-05
         0.19836E-05
         0.80034E-06
         0.15334E-05
         0.16904E-05
         0.13439E-05
         0.17452E-05
         0.32679E-05
         0.25610E-05
         0.32583E-05
         0.18995E-05
         0.21732E-05
         0.20463E-05
         0.22704E-05
         0.17388E-05
         0.10798E-05
         0.20404E-05
         0.17072E-05
         0.17389E-05
         0.17967E-05
         0.15763E-05
         0.19272E-05
         0.24607E-05
         0.17315E-05
         0.27729E-05
         0.24270E-05
         0.10819E-05
         0.16635E-05
         0.18901E-05
         0.19995E-05
         0.19345E-05
         0.15197E-05
         0.95453E-06
         0.15735E-05
         0.20863E-05
         0.16814E-05
         0.14761E-05
         0.96677E-06
         0.16538E-05
         0.22488E-05
         0.23647E-05
         0.19104E-05
         0.11716E-05
         0.20313E-05
         0.74179E-06
         0.94855E-06
         0.87936E-06
         0.10475E-05
         0.10257E-05
         0.99577E-06
         0.10662E-05
         0.11319E-05
         0.10633E-05
         0.82492E-06
         0.67068E-06
         0.86446E-06
         0.11538E-05
         0.12700E-05
         0.12163E-05
         0.10941E-05
         0.99291E-06
         0.80620E-06
         0.67752E-06
         0.88657E-06
         0.11748E-05
         0.12140E-05
         0.97800E-06
         0.79380E-06
         0.97803E-06
         0.11542E-05
         0.12320E-05
         0.97306E-06
         0.10493E-05
         0.18171E-05
         0.96926E-06
         0.12399E-05
         0.68306E-06
         0.81967E-06
         0.13745E-05
         0.99152E-06
         0.39999E-06
         0.76665E-06
         0.84519E-06
         0.67148E-06
         0.87252E-06
         0.16343E-05
         0.12808E-05
         0.16296E-05
         0.94981E-06
         0.10867E-05
         0.10232E-05
         0.11353E-05
         0.86940E-06
         0.53990E-06
         0.10200E-05
         0.85360E-06
         0.86884E-06
         0.89793E-06
         0.78802E-06
         0.96354E-06
         0.12305E-05
         0.86572E-06
         0.13869E-05
         0.12141E-05
         0.54095E-06
         0.83170E-06
         0.94503E-06
         0.99975E-06
         0.96729E-06
         0.75992E-06
         0.47728E-06
         0.78670E-06
         0.10432E-05
         0.84065E-06
         0.73800E-06
         0.48334E-06
         0.82688E-06
         0.11245E-05
         0.11825E-05
         0.95534E-06
         0.58581E-06
         0.10159E-05
         0.37085E-06
         0.47429E-06
         0.43959E-06
         0.52375E-06
         0.51294E-06
         0.49796E-06
         0.53322E-06
         0.56619E-06
         0.53185E-06
         0.41252E-06
         0.33536E-06
         0.43225E-06
         0.57696E-06
         0.63509E-06
         0.60820E-06
         0.54708E-06
         0.49646E-06
         0.40310E-06
         0.33875E-06
         0.44329E-06
         0.58740E-06
         0.60700E-06
         0.48897E-06
         0.39687E-06
         0.48906E-06
         0.57710E-06
  
SCALARS                 Poissons_ratio  double 1
LOOKUP_TABLE default
         0.30000E+00
         0.30000E+00
         0.30000E+00
         0.30000E+00
         0.30000E+00
         0.30000E+00
         0.30000E+00
         0.30000E+00
         0.30000E+00
         0.30000E+00
         0.30000E+00
         0.30000E+00
         0.30000E+00
         0.30000E+00
         0.30000E+00
         0.30000E+00
         0.30000E+00
         0.30000E+00
         0.30000E+00
         0.30000E+00
         0.30000E+00
         0.30000E+00
         0.30000E+00
         0.30000E+00
         0.30000E+00
         0.30000E+00
         0.30000E+00
         0.30000E+00
         0.30000E+00
         0.30000E+00
         0.30000E+00
         0.30000E+00
         0.30000E+00
         0.30000E+00
         0.30000E+00
         0.30000E+00
         0.30000E+00
         0.30000E+00
         0.30000E+00
         0.30000E+00
         0.30000E+00
         0.30000E+00
         0.30000E+00
         0.30000E+00
         0.30000E+00
         0.30000E+00
         0.30000E+00
         0.30000E+00
         0.30000E+00
         0.30000E+00
         0.30000E+00
         0.30000E+00
         0.30000E+00
         0.30000E+00
         0.30000E+00
         0.30000E+00
         0.30000E+00
         0.30000E+00
         0.30000E+00
         0.30000E+00
         0.30000E+00
         0.30000E+00
         0.30000E+00
         0.30000E+00
         0.30000E+00
         0.30000E+00
         0.30000E+00
         0.30000E+00
         0.30000E+00
         0.30000E+00
         0.30000E+00
         0.30000E+00
         0.30000E+00
         0.30000E+00
         0.30000E+00
         0.30000E+00
         0.30000E+00
         0.30000E+00
         0.30000E+00
         0.30000E+00
         0.30000E+00
         0.30000E+00
         0.30000E+00
         0.30000E+00
         0.30000E+00
         0.30000E+00
         0.30000E+00
         0.30000E+00
         0.30000E+00
         0.30000E+00
         0.30000E+00
         0.30000E+00
         0.30000E+00
         0.30000E+00
         0.30000E+00
         0.30000E+00
         0.30000E+00
         0.30000E+00
         0.30000E+00
         0.30000E+00
         0.30000E+00
         0.30000E+00
         0.30000E+00
         0.30000E+00
         0.30000E+00
         0.30000E+00
         0.30000E+00
         0.30000E+00
         0.30000E+00
         0.30000E+00
         0.30000E+00
         0.30000E+00
         0.30000E+00
         0.30000E+00
         0.30000E+00
         0.30000E+00
         0.30000E+00
         0.30000E+00
         0.30000E+00
         0.30000E+00
         0.30000E+00
         0.30000E+00
         0.30000E+00
         0.30000E+00
         0.30000E+00
         0.30000E+00
         0.30000E+00
         0.30000E+00
         0.30000E+00
         0.30000E+00
         0.30000E+00
         0.30000E+00
         0.30000E+00
         0.30000E+00
         0.30000E+00
         0.30000E+00
         0.30000E+00
         0.30000E+00
         0.30000E+00
         0.30000E+00
         0.30000E+00
         0.30000E+00
         0.30000E+00
         0.30000E+00
         0.30000E+00
         0.30000E+00
         0.30000E+00
         0.30000E+00
         0.30000E+00
         0.30000E+00
         0.30000E+00
         0.30000E+00
         0.30000E+00
         0.30000E+00
         0.30000E+00
         0.30000E+00
         0.30000E+00
         0.30000E+00
         0.30000E+00
         0.30000E+00
         0.30000E+00
         0.30000E+00
         0.30000E+00
         0.30000E+00
         0.30000E+00
         0.30000E+00
         0.30000E+00
         0.30000E+00
         0.30000E+00
         0.30000E+00
         0.30000E+00
         0.30000E+00
         0.30000E+00
         0.30000E+00
         0.30000E+00
         0.30000E+00
         0.30000E+00
         0.30000E+00
         0.30000E+00
         0.30000E+00
         0.30000E+00
         0.30000E+00
         0.30000E+00
         0.30000E+00
         0.30000E+00
         0.30000E+00
         0.30000E+00
         0.30000E+00
         0.30000E+00
         0.30000E+00
         0.30000E+00
         0.30000E+00
         0.30000E+00
         0.30000E+00
         0.30000E+00
         0.30000E+00
         0.30000E+00
         0.30000E+00
         0.30000E+00
         0.30000E+00
         0.30000E+00
         0.30000E+00
         0.30000E+00
         0.30000E+00
         0.30000E+00
         0.30000E+00
         0.30000E+00
         0.30000E+00
         0.30000E+00
         0.30000E+00
         0.30000E+00
         0.30000E+00
         0.30000E+00
         0.30000E+00
         0.30000E+00
         0.30000E+00
         0.30000E+00
         0.30000E+00
         0.30000E+00
         0.30000E+00
         0.30000E+00
         0.30000E+00
         0.30000E+00
         0.30000E+00
         0.30000E+00
         0.30000E+00
         0.30000E+00
         0.30000E+00
         0.30000E+00
         0.30000E+00
         0.30000E+00
         0.30000E+00
         0.30000E+00
         0.30000E+00
         0.30000E+00
         0.30000E+00
         0.30000E+00
         0.30000E+00
         0.30000E+00
         0.30000E+00
         0.30000E+00
         0.30000E+00
         0.30000E+00
         0.30000E+00
         0.30000E+00
         0.30000E+00
         0.30000E+00
         0.30000E+00
         0.30000E+00
         0.30000E+00
         0.30000E+00
         0.30000E+00
         0.30000E+00
         0.30000E+00
         0.30000E+00
         0.30000E+00
         0.30000E+00
         0.30000E+00
         0.30000E+00
         0.30000E+00
         0.30000E+00
         0.30000E+00
         0.30000E+00
         0.30000E+00
         0.30000E+00
         0.30000E+00
         0.30000E+00
         0.30000E+00
         0.30000E+00
         0.30000E+00
         0.30000E+00
         0.30000E+00
         0.30000E+00
         0.30000E+00
         0.30000E+00
         0.30000E+00
         0.30000E+00
         0.30000E+00
         0.30000E+00
         0.30000E+00
         0.30000E+00
         0.30000E+00
         0.30000E+00
         0.30000E+00
         0.30000E+00
         0.30000E+00
         0.30000E+00
         0.30000E+00
         0.30000E+00
         0.30000E+00
         0.30000E+00
         0.30000E+00
         0.30000E+00
         0.30000E+00
         0.30000E+00
         0.30000E+00
         0.30000E+00
         0.30000E+00
         0.30000E+00
         0.30000E+00
         0.30000E+00
         0.30000E+00
         0.30000E+00
         0.30000E+00
         0.30000E+00
         0.30000E+00
         0.30000E+00
         0.30000E+00
         0.30000E+00
         0.30000E+00
         0.30000E+00
         0.30000E+00
         0.30000E+00
         0.30000E+00
         0.30000E+00
         0.30000E+00
         0.30000E+00
         0.30000E+00
         0.30000E+00
         0.30000E+00
         0.30000E+00
         0.30000E+00
         0.30000E+00
         0.30000E+00
         0.30000E+00
         0.30000E+00
         0.30000E+00
         0.30000E+00
         0.30000E+00
         0.30000E+00
         0.30000E+00
         0.30000E+00
         0.30000E+00
         0.30000E+00
         0.30000E+00
         0.30000E+00
         0.30000E+00
         0.30000E+00
         0.30000E+00
         0.30000E+00
         0.30000E+00
         0.30000E+00
         0.30000E+00
         0.30000E+00
         0.30000E+00
         0.30000E+00
         0.30000E+00
         0.30000E+00
         0.30000E+00
         0.30000E+00
         0.30000E+00
         0.30000E+00
         0.30000E+00
         0.30000E+00
         0.30000E+00
         0.30000E+00
         0.30000E+00
         0.30000E+00
         0.30000E+00
         0.30000E+00
         0.30000E+00
         0.30000E+00
         0.30000E+00
         0.30000E+00
         0.30000E+00
         0.30000E+00
         0.30000E+00
         0.30000E+00
         0.30000E+00
         0.30000E+00
         0.30000E+00
         0.30000E+00
         0.30000E+00
         0.30000E+00
         0.30000E+00
         0.30000E+00
         0.30000E+00
         0.30000E+00
         0.30000E+00
         0.30000E+00
         0.30000E+00
         0.30000E+00
         0.30000E+00
         0.30000E+00
         0.30000E+00
         0.30000E+00
         0.30000E+00
         0.30000E+00
         0.30000E+00
         0.30000E+00
         0.30000E+00
         0.30000E+00
         0.30000E+00
         0.30000E+00
         0.30000E+00
         0.30000E+00
         0.30000E+00
         0.30000E+00
         0.30000E+00
         0.30000E+00
         0.30000E+00
         0.30000E+00
         0.30000E+00
         0.30000E+00
         0.30000E+00
         0.30000E+00
         0.30000E+00
         0.30000E+00
         0.30000E+00
         0.30000E+00
         0.30000E+00
         0.30000E+00
         0.30000E+00
         0.30000E+00
         0.30000E+00
         0.30000E+00
         0.30000E+00
         0.30000E+00
         0.30000E+00
         0.30000E+00
         0.30000E+00
         0.30000E+00
         0.30000E+00
         0.30000E+00
         0.30000E+00
         0.30000E+00
         0.30000E+00
         0.30000E+00
         0.30000E+00
         0.30000E+00
         0.30000E+00
         0.30000E+00
         0.30000E+00
         0.30000E+00
         0.30000E+00
         0.30000E+00
         0.30000E+00
         0.30000E+00
         0.30000E+00
         0.30000E+00
         0.30000E+00
         0.30000E+00
         0.30000E+00
         0.30000E+00
         0.30000E+00
         0.30000E+00
         0.30000E+00
         0.30000E+00
         0.30000E+00
         0.30000E+00
         0.30000E+00
         0.30000E+00
         0.30000E+00
         0.30000E+00
         0.30000E+00
         0.30000E+00
         0.30000E+00
         0.30000E+00
         0.30000E+00
         0.30000E+00
         0.30000E+00
         0.30000E+00
         0.30000E+00
         0.30000E+00
         0.30000E+00
         0.30000E+00
         0.30000E+00
         0.30000E+00
         0.30000E+00
         0.30000E+00
         0.30000E+00
         0.30000E+00
         0.30000E+00
         0.30000E+00
         0.30000E+00
         0.30000E+00
         0.30000E+00
         0.30000E+00
         0.30000E+00
         0.30000E+00
         0.30000E+00
         0.30000E+00
         0.30000E+00
         0.30000E+00
         0.30000E+00
         0.30000E+00
         0.30000E+00
         0.30000E+00
         0.30000E+00
         0.30000E+00
         0.30000E+00
         0.30000E+00
         0.30000E+00
         0.30000E+00
         0.30000E+00
         0.30000E+00
         0.30000E+00
         0.30000E+00
         0.30000E+00
         0.30000E+00
         0.30000E+00
         0.30000E+00
         0.30000E+00
         0.30000E+00
         0.30000E+00
         0.30000E+00
         0.30000E+00
         0.30000E+00
         0.30000E+00
         0.30000E+00
         0.30000E+00
         0.30000E+00
         0.30000E+00
         0.30000E+00
         0.30000E+00
         0.30000E+00
         0.30000E+00
         0.30000E+00
         0.30000E+00
         0.30000E+00
         0.30000E+00
         0.30000E+00
         0.30000E+00
         0.30000E+00
         0.30000E+00
         0.30000E+00
         0.30000E+00
         0.30000E+00
         0.30000E+00
         0.30000E+00
         0.30000E+00
         0.30000E+00
         0.30000E+00
         0.30000E+00
         0.30000E+00
         0.30000E+00
         0.30000E+00
         0.30000E+00
         0.30000E+00
         0.30000E+00
         0.30000E+00
         0.30000E+00
         0.30000E+00
         0.30000E+00
         0.30000E+00
         0.30000E+00
         0.30000E+00
         0.30000E+00
         0.30000E+00
         0.30000E+00
         0.30000E+00
         0.30000E+00
         0.30000E+00
         0.30000E+00
         0.30000E+00
         0.30000E+00
         0.30000E+00
         0.30000E+00
         0.30000E+00
         0.30000E+00
         0.30000E+00
         0.30000E+00
         0.30000E+00
         0.30000E+00
         0.30000E+00
         0.30000E+00
         0.30000E+00
         0.30000E+00
         0.30000E+00
         0.30000E+00
         0.30000E+00
         0.30000E+00
         0.30000E+00
         0.30000E+00
         0.30000E+00
         0.30000E+00
         0.30000E+00
         0.30000E+00
         0.30000E+00
         0.30000E+00
         0.30000E+00
         0.30000E+00
         0.30000E+00
         0.30000E+00
         0.30000E+00
         0.30000E+00
         0.30000E+00
         0.30000E+00
         0.30000E+00
         0.30000E+00
         0.30000E+00
         0.30000E+00
         0.30000E+00
         0.30000E+00
         0.30000E+00
         0.30000E+00
         0.30000E+00
         0.30000E+00
         0.30000E+00
         0.30000E+00
         0.30000E+00
         0.30000E+00
         0.30000E+00
         0.30000E+00
         0.30000E+00
         0.30000E+00
         0.30000E+00
         0.30000E+00
         0.30000E+00
         0.30000E+00
         0.30000E+00
         0.30000E+00
         0.30000E+00
         0.30000E+00
         0.30000E+00
         0.30000E+00
         0.30000E+00
         0.30000E+00
         0.30000E+00
         0.30000E+00
         0.30000E+00
         0.30000E+00
         0.30000E+00
         0.30000E+00
         0.30000E+00
         0.30000E+00
         0.30000E+00
         0.30000E+00
         0.30000E+00
         0.30000E+00
         0.30000E+00
         0.30000E+00
         0.30000E+00
         0.30000E+00
         0.30000E+00
         0.30000E+00
         0.30000E+00
         0.30000E+00
         0.30000E+00
         0.30000E+00
         0.30000E+00
         0.30000E+00
         0.30000E+00
         0.30000E+00
         0.30000E+00
         0.30000E+00
         0.30000E+00
         0.30000E+00
         0.30000E+00
         0.30000E+00
         0.30000E+00
         0.30000E+00
         0.30000E+00
         0.30000E+00
         0.30000E+00
         0.30000E+00
         0.30000E+00
         0.30000E+00
         0.30000E+00
         0.30000E+00
         0.30000E+00
         0.30000E+00
         0.30000E+00
         0.30000E+00
         0.30000E+00
         0.30000E+00
         0.30000E+00
         0.30000E+00
         0.30000E+00
         0.30000E+00
         0.30000E+00
         0.30000E+00
         0.30000E+00
         0.30000E+00
         0.30000E+00
         0.30000E+00
         0.30000E+00
         0.30000E+00
         0.30000E+00
         0.30000E+00
         0.30000E+00
         0.30000E+00
         0.30000E+00
         0.30000E+00
         0.30000E+00
         0.30000E+00
         0.30000E+00
         0.30000E+00
         0.30000E+00
         0.30000E+00
         0.30000E+00
         0.30000E+00
         0.30000E+00
         0.30000E+00
         0.30000E+00
         0.30000E+00
         0.30000E+00
         0.30000E+00
         0.30000E+00
         0.30000E+00
         0.30000E+00
         0.30000E+00
         0.30000E+00
         0.30000E+00
         0.30000E+00
         0.30000E+00
         0.30000E+00
         0.30000E+00
         0.30000E+00
         0.30000E+00
         0.30000E+00
         0.30000E+00
         0.30000E+00
         0.30000E+00
         0.30000E+00
         0.30000E+00
         0.30000E+00
         0.30000E+00
         0.30000E+00
         0.30000E+00
         0.30000E+00
         0.30000E+00
         0.30000E+00
         0.30000E+00
         0.30000E+00
         0.30000E+00
         0.30000E+00
         0.30000E+00
         0.30000E+00
         0.30000E+00
         0.30000E+00
         0.30000E+00
         0.30000E+00
         0.30000E+00
         0.30000E+00
         0.30000E+00
         0.30000E+00
         0.30000E+00
         0.30000E+00
         0.30000E+00
         0.30000E+00
         0.30000E+00
         0.30000E+00
         0.30000E+00
         0.30000E+00
         0.30000E+00
         0.30000E+00
         0.30000E+00
         0.30000E+00
         0.30000E+00
         0.30000E+00
         0.30000E+00
         0.30000E+00
         0.30000E+00
         0.30000E+00
         0.30000E+00
         0.30000E+00
         0.30000E+00
         0.30000E+00
         0.30000E+00
         0.30000E+00
         0.30000E+00
         0.30000E+00
         0.30000E+00
         0.30000E+00
         0.30000E+00
         0.30000E+00
         0.30000E+00
         0.30000E+00
         0.30000E+00
         0.30000E+00
         0.30000E+00
         0.30000E+00
         0.30000E+00
         0.30000E+00
         0.30000E+00
         0.30000E+00
         0.30000E+00
         0.30000E+00
         0.30000E+00
         0.30000E+00
         0.30000E+00
         0.30000E+00
         0.30000E+00
         0.30000E+00
         0.30000E+00
         0.30000E+00
         0.30000E+00
         0.30000E+00
         0.30000E+00
         0.30000E+00
         0.30000E+00
         0.30000E+00
         0.30000E+00
         0.30000E+00
         0.30000E+00
         0.30000E+00
         0.30000E+00
         0.30000E+00
         0.30000E+00
         0.30000E+00
         0.30000E+00
         0.30000E+00
         0.30000E+00
         0.30000E+00
         0.30000E+00
         0.30000E+00
         0.30000E+00
         0.30000E+00
         0.30000E+00
         0.30000E+00
         0.30000E+00
         0.30000E+00
         0.30000E+00
         0.30000E+00
         0.30000E+00
         0.30000E+00
         0.30000E+00
         0.30000E+00
         0.30000E+00
         0.30000E+00
         0.30000E+00
         0.30000E+00
         0.30000E+00
         0.30000E+00
         0.30000E+00
         0.30000E+00
         0.30000E+00
         0.30000E+00
         0.30000E+00
         0.30000E+00
         0.30000E+00
         0.30000E+00
         0.30000E+00
         0.30000E+00
         0.30000E+00
         0.30000E+00
         0.30000E+00
         0.30000E+00
         0.30000E+00
         0.30000E+00
         0.30000E+00
         0.30000E+00
         0.30000E+00
         0.30000E+00
         0.30000E+00
         0.30000E+00
         0.30000E+00
         0.30000E+00
         0.30000E+00
         0.30000E+00
         0.30000E+00
         0.30000E+00
         0.30000E+00
         0.30000E+00
         0.30000E+00
         0.30000E+00
         0.30000E+00
         0.30000E+00
         0.30000E+00
         0.30000E+00
         0.30000E+00
         0.30000E+00
         0.30000E+00
         0.30000E+00
         0.30000E+00
         0.30000E+00
         0.30000E+00
         0.30000E+00
         0.30000E+00
         0.30000E+00
         0.30000E+00
         0.30000E+00
         0.30000E+00
         0.30000E+00
         0.30000E+00
         0.30000E+00
         0.30000E+00
         0.30000E+00
         0.30000E+00
         0.30000E+00
         0.30000E+00
         0.30000E+00
         0.30000E+00
         0.30000E+00
         0.30000E+00
         0.30000E+00
         0.30000E+00
         0.30000E+00
         0.30000E+00
         0.30000E+00
         0.30000E+00
         0.30000E+00
         0.30000E+00
         0.30000E+00
         0.30000E+00
         0.30000E+00
         0.30000E+00
         0.30000E+00
         0.30000E+00
         0.30000E+00
         0.30000E+00
         0.30000E+00
         0.30000E+00
         0.30000E+00
         0.30000E+00
         0.30000E+00
         0.30000E+00
         0.30000E+00
         0.30000E+00
         0.30000E+00
         0.30000E+00
         0.30000E+00
         0.30000E+00
         0.30000E+00
         0.30000E+00
         0.30000E+00
         0.30000E+00
         0.30000E+00
         0.30000E+00
         0.30000E+00
         0.30000E+00
         0.30000E+00
         0.30000E+00
         0.30000E+00
         0.30000E+00
         0.30000E+00
         0.30000E+00
         0.30000E+00
         0.30000E+00
         0.30000E+00
         0.30000E+00
         0.30000E+00
         0.30000E+00
         0.30000E+00
         0.30000E+00
         0.30000E+00
         0.30000E+00
         0.30000E+00
         0.30000E+00
         0.30000E+00
         0.30000E+00
         0.30000E+00
         0.30000E+00
         0.30000E+00
         0.30000E+00
         0.30000E+00
         0.30000E+00
         0.30000E+00
         0.30000E+00
         0.30000E+00
         0.30000E+00
         0.30000E+00
         0.30000E+00
         0.30000E+00
         0.30000E+00
         0.30000E+00
         0.30000E+00
         0.30000E+00
         0.30000E+00
         0.30000E+00
         0.30000E+00
         0.30000E+00
         0.30000E+00
         0.30000E+00
         0.30000E+00
         0.30000E+00
         0.30000E+00
         0.30000E+00
         0.30000E+00
         0.30000E+00
         0.30000E+00
         0.30000E+00
         0.30000E+00
         0.30000E+00
         0.30000E+00
         0.30000E+00
         0.30000E+00
         0.30000E+00
         0.30000E+00
         0.30000E+00
         0.30000E+00
         0.30000E+00
         0.30000E+00
         0.30000E+00
         0.30000E+00
         0.30000E+00
         0.30000E+00
         0.30000E+00
         0.30000E+00
         0.30000E+00
         0.30000E+00
         0.30000E+00
         0.30000E+00
         0.30000E+00
         0.30000E+00
         0.30000E+00
         0.30000E+00
         0.30000E+00
         0.30000E+00
         0.30000E+00
         0.30000E+00
         0.30000E+00
         0.30000E+00
         0.30000E+00
         0.30000E+00
         0.30000E+00
         0.30000E+00
         0.30000E+00
         0.30000E+00
         0.30000E+00
         0.30000E+00
         0.30000E+00
         0.30000E+00
         0.30000E+00
         0.30000E+00
         0.30000E+00
         0.30000E+00
         0.30000E+00
         0.30000E+00
         0.30000E+00
         0.30000E+00
         0.30000E+00
         0.30000E+00
         0.30000E+00
         0.30000E+00
         0.30000E+00
         0.30000E+00
         0.30000E+00
         0.30000E+00
         0.30000E+00
         0.30000E+00
         0.30000E+00
         0.30000E+00
         0.30000E+00
         0.30000E+00
         0.30000E+00
         0.30000E+00
         0.30000E+00
         0.30000E+00
         0.30000E+00
         0.30000E+00
         0.30000E+00
         0.30000E+00
         0.30000E+00
         0.30000E+00
         0.30000E+00
         0.30000E+00
         0.30000E+00
         0.30000E+00
         0.30000E+00
         0.30000E+00
         0.30000E+00
         0.30000E+00
         0.30000E+00
         0.30000E+00
         0.30000E+00
         0.30000E+00
         0.30000E+00
         0.30000E+00
         0.30000E+00
         0.30000E+00
         0.30000E+00
         0.30000E+00
         0.30000E+00
         0.30000E+00
         0.30000E+00
         0.30000E+00
         0.30000E+00
         0.30000E+00
         0.30000E+00
         0.30000E+00
         0.30000E+00
         0.30000E+00
         0.30000E+00
         0.30000E+00
         0.30000E+00
         0.30000E+00
         0.30000E+00
         0.30000E+00
         0.30000E+00
         0.30000E+00
         0.30000E+00
         0.30000E+00
         0.30000E+00
         0.30000E+00
         0.30000E+00
         0.30000E+00
         0.30000E+00
         0.30000E+00
         0.30000E+00
         0.30000E+00
         0.30000E+00
         0.30000E+00
         0.30000E+00
         0.30000E+00
         0.30000E+00
         0.30000E+00
         0.30000E+00
         0.30000E+00
         0.30000E+00
         0.30000E+00
         0.30000E+00
         0.30000E+00
         0.30000E+00
         0.30000E+00
         0.30000E+00
         0.30000E+00
         0.30000E+00
         0.30000E+00
         0.30000E+00
         0.30000E+00
         0.30000E+00
         0.30000E+00
         0.30000E+00
         0.30000E+00
         0.30000E+00
         0.30000E+00
         0.30000E+00
         0.30000E+00
         0.30000E+00
         0.30000E+00
         0.30000E+00
         0.30000E+00
         0.30000E+00
         0.30000E+00
         0.30000E+00
         0.30000E+00
         0.30000E+00
         0.30000E+00
         0.30000E+00
         0.30000E+00
         0.30000E+00
         0.30000E+00
         0.30000E+00
         0.30000E+00
         0.30000E+00
         0.30000E+00
         0.30000E+00
         0.30000E+00
         0.30000E+00
         0.30000E+00
         0.30000E+00
         0.30000E+00
         0.30000E+00
         0.30000E+00
         0.30000E+00
         0.30000E+00
         0.30000E+00
         0.30000E+00
         0.30000E+00
         0.30000E+00
         0.30000E+00
         0.30000E+00
         0.30000E+00
         0.30000E+00
         0.30000E+00
         0.30000E+00
         0.30000E+00
         0.30000E+00
         0.30000E+00
         0.30000E+00
         0.30000E+00
         0.30000E+00
         0.30000E+00
         0.30000E+00
         0.30000E+00
         0.30000E+00
         0.30000E+00
         0.30000E+00
         0.30000E+00
         0.30000E+00
         0.30000E+00
         0.30000E+00
         0.30000E+00
         0.30000E+00
         0.30000E+00
         0.30000E+00
         0.30000E+00
         0.30000E+00
         0.30000E+00
         0.30000E+00
         0.30000E+00
         0.30000E+00
         0.30000E+00
         0.30000E+00
         0.30000E+00
         0.30000E+00
         0.30000E+00
         0.30000E+00
         0.30000E+00
         0.30000E+00
         0.30000E+00
         0.30000E+00
         0.30000E+00
         0.30000E+00
         0.30000E+00
         0.30000E+00
         0.30000E+00
         0.30000E+00
         0.30000E+00
         0.30000E+00
         0.30000E+00
         0.30000E+00
         0.30000E+00
         0.30000E+00
         0.30000E+00
         0.30000E+00
         0.30000E+00
         0.30000E+00
         0.30000E+00
         0.30000E+00
         0.30000E+00
         0.30000E+00
         0.30000E+00
         0.30000E+00
         0.30000E+00
         0.30000E+00
         0.30000E+00
         0.30000E+00
         0.30000E+00
         0.30000E+00
         0.30000E+00
         0.30000E+00
         0.30000E+00
         0.30000E+00
         0.30000E+00
         0.30000E+00
         0.30000E+00
         0.30000E+00
         0.30000E+00
         0.30000E+00
         0.30000E+00
         0.30000E+00
         0.30000E+00
         0.30000E+00
         0.30000E+00
         0.30000E+00
         0.30000E+00
         0.30000E+00
         0.30000E+00
         0.30000E+00
         0.30000E+00
         0.30000E+00
         0.30000E+00
         0.30000E+00
         0.30000E+00
         0.30000E+00
         0.30000E+00
         0.30000E+00
         0.30000E+00
         0.30000E+00
         0.30000E+00
         0.30000E+00
         0.30000E+00
         0.30000E+00
         0.30000E+00
         0.30000E+00
         0.30000E+00
         0.30000E+00
         0.30000E+00
         0.30000E+00
         0.30000E+00
         0.30000E+00
         0.30000E+00
         0.30000E+00
         0.30000E+00
         0.30000E+00
         0.30000E+00
         0.30000E+00
         0.30000E+00
         0.30000E+00
         0.30000E+00
         0.30000E+00
         0.30000E+00
         0.30000E+00
         0.30000E+00
         0.30000E+00
         0.30000E+00
         0.30000E+00
         0.30000E+00
         0.30000E+00
         0.30000E+00
         0.30000E+00
         0.30000E+00
         0.30000E+00
         0.30000E+00
         0.30000E+00
         0.30000E+00
         0.30000E+00
         0.30000E+00
         0.30000E+00
         0.30000E+00
         0.30000E+00
         0.30000E+00
         0.30000E+00
         0.30000E+00
         0.30000E+00
         0.30000E+00
         0.30000E+00
         0.30000E+00
         0.30000E+00
         0.30000E+00
         0.30000E+00
         0.30000E+00
         0.30000E+00
         0.30000E+00
         0.30000E+00
         0.30000E+00
         0.30000E+00
         0.30000E+00
         0.30000E+00
         0.30000E+00
         0.30000E+00
         0.30000E+00
         0.30000E+00
         0.30000E+00
         0.30000E+00
         0.30000E+00
         0.30000E+00
         0.30000E+00
         0.30000E+00
         0.30000E+00
         0.30000E+00
         0.30000E+00
         0.30000E+00
         0.30000E+00
         0.30000E+00
         0.30000E+00
         0.30000E+00
         0.30000E+00
         0.30000E+00
         0.30000E+00
         0.30000E+00
         0.30000E+00
         0.30000E+00
         0.30000E+00
         0.30000E+00
         0.30000E+00
         0.30000E+00
         0.30000E+00
         0.30000E+00
         0.30000E+00
         0.30000E+00
         0.30000E+00
         0.30000E+00
         0.30000E+00
         0.30000E+00
         0.30000E+00
         0.30000E+00
         0.30000E+00
         0.30000E+00
         0.30000E+00
         0.30000E+00
         0.30000E+00
         0.30000E+00
         0.30000E+00
         0.30000E+00
         0.30000E+00
         0.30000E+00
         0.30000E+00
         0.30000E+00
         0.30000E+00
         0.30000E+00
         0.30000E+00
         0.30000E+00
         0.30000E+00
         0.30000E+00
         0.30000E+00
         0.30000E+00
         0.30000E+00
         0.30000E+00
         0.30000E+00
         0.30000E+00
         0.30000E+00
         0.30000E+00
         0.30000E+00
         0.30000E+00
         0.30000E+00
         0.30000E+00
         0.30000E+00
         0.30000E+00
         0.30000E+00
         0.30000E+00
         0.30000E+00
         0.30000E+00
         0.30000E+00
         0.30000E+00
         0.30000E+00
         0.30000E+00
         0.30000E+00
         0.30000E+00
         0.30000E+00
         0.30000E+00
         0.30000E+00
         0.30000E+00
         0.30000E+00
         0.30000E+00
         0.30000E+00
         0.30000E+00
         0.30000E+00
         0.30000E+00
         0.30000E+00
         0.30000E+00
         0.30000E+00
         0.30000E+00
         0.30000E+00
         0.30000E+00
         0.30000E+00
         0.30000E+00
         0.30000E+00
         0.30000E+00
         0.30000E+00
         0.30000E+00
         0.30000E+00
         0.30000E+00
         0.30000E+00
         0.30000E+00
         0.30000E+00
         0.30000E+00
         0.30000E+00
         0.30000E+00
         0.30000E+00
         0.30000E+00
         0.30000E+00
         0.30000E+00
         0.30000E+00
         0.30000E+00
         0.30000E+00
         0.30000E+00
         0.30000E+00
         0.30000E+00
         0.30000E+00
         0.30000E+00
         0.30000E+00
         0.30000E+00
         0.30000E+00
         0.30000E+00
         0.30000E+00
         0.30000E+00
         0.30000E+00
         0.30000E+00
         0.30000E+00
         0.30000E+00
         0.30000E+00
         0.30000E+00
         0.30000E+00
         0.30000E+00
         0.30000E+00
         0.30000E+00
         0.30000E+00
         0.30000E+00
         0.30000E+00
         0.30000E+00
         0.30000E+00
         0.30000E+00
         0.30000E+00
         0.30000E+00
         0.30000E+00
         0.30000E+00
         0.30000E+00
         0.30000E+00
         0.30000E+00
         0.30000E+00
         0.30000E+00
         0.30000E+00
         0.30000E+00
         0.30000E+00
         0.30000E+00
         0.30000E+00
         0.30000E+00
         0.30000E+00
         0.30000E+00
         0.30000E+00
         0.30000E+00
         0.30000E+00
         0.30000E+00
         0.30000E+00
         0.30000E+00
         0.30000E+00
         0.30000E+00
         0.30000E+00
         0.30000E+00
         0.30000E+00
         0.30000E+00
         0.30000E+00
         0.30000E+00
         0.30000E+00
         0.30000E+00
         0.30000E+00
         0.30000E+00
         0.30000E+00
         0.30000E+00
         0.30000E+00
         0.30000E+00
         0.30000E+00
         0.30000E+00
         0.30000E+00
         0.30000E+00
         0.30000E+00
         0.30000E+00
         0.30000E+00
         0.30000E+00
         0.30000E+00
         0.30000E+00
         0.30000E+00
         0.30000E+00
         0.30000E+00
         0.30000E+00
         0.30000E+00
         0.30000E+00
         0.30000E+00
         0.30000E+00
         0.30000E+00
         0.30000E+00
         0.30000E+00
         0.30000E+00
         0.30000E+00
         0.30000E+00
         0.30000E+00
         0.30000E+00
         0.30000E+00
         0.30000E+00
         0.30000E+00
         0.30000E+00
         0.30000E+00
         0.30000E+00
         0.30000E+00
         0.30000E+00
         0.30000E+00
         0.30000E+00
         0.30000E+00
         0.30000E+00
         0.30000E+00
         0.30000E+00
         0.30000E+00
         0.30000E+00
         0.30000E+00
         0.30000E+00
         0.30000E+00
         0.30000E+00
         0.30000E+00
         0.30000E+00
         0.30000E+00
         0.30000E+00
         0.30000E+00
         0.30000E+00
         0.30000E+00
         0.30000E+00
         0.30000E+00
         0.30000E+00
         0.30000E+00
         0.30000E+00
         0.30000E+00
         0.30000E+00
         0.30000E+00
         0.30000E+00
         0.30000E+00
         0.30000E+00
         0.30000E+00
         0.30000E+00
         0.30000E+00
         0.30000E+00
         0.30000E+00
         0.30000E+00
         0.30000E+00
         0.30000E+00
         0.30000E+00
         0.30000E+00
         0.30000E+00
         0.30000E+00
         0.30000E+00
         0.30000E+00
         0.30000E+00
         0.30000E+00
         0.30000E+00
         0.30000E+00
         0.30000E+00
         0.30000E+00
         0.30000E+00
         0.30000E+00
         0.30000E+00
         0.30000E+00
         0.30000E+00
         0.30000E+00
         0.30000E+00
         0.30000E+00
         0.30000E+00
         0.30000E+00
         0.30000E+00
         0.30000E+00
         0.30000E+00
         0.30000E+00
         0.30000E+00
         0.30000E+00
         0.30000E+00
         0.30000E+00
         0.30000E+00
         0.30000E+00
         0.30000E+00
         0.30000E+00
         0.30000E+00
         0.30000E+00
         0.30000E+00
         0.30000E+00
         0.30000E+00
         0.30000E+00
         0.30000E+00
         0.30000E+00
         0.30000E+00
         0.30000E+00
         0.30000E+00
         0.30000E+00
         0.30000E+00
         0.30000E+00
         0.30000E+00
         0.30000E+00
         0.30000E+00
         0.30000E+00
         0.30000E+00
         0.30000E+00
         0.30000E+00
         0.30000E+00
         0.30000E+00
         0.30000E+00
         0.30000E+00
         0.30000E+00
         0.30000E+00
         0.30000E+00
         0.30000E+00
         0.30000E+00
         0.30000E+00
         0.30000E+00
         0.30000E+00
         0.30000E+00
         0.30000E+00
         0.30000E+00
         0.30000E+00
         0.30000E+00
         0.30000E+00
         0.30000E+00
         0.30000E+00
         0.30000E+00
         0.30000E+00
         0.30000E+00
         0.30000E+00
         0.30000E+00
         0.30000E+00
         0.30000E+00
         0.30000E+00
         0.30000E+00
         0.30000E+00
         0.30000E+00
         0.30000E+00
         0.30000E+00
         0.30000E+00
         0.30000E+00
         0.30000E+00
         0.30000E+00
         0.30000E+00
         0.30000E+00
         0.30000E+00
         0.30000E+00
         0.30000E+00
         0.30000E+00
         0.30000E+00
         0.30000E+00
         0.30000E+00
         0.30000E+00
         0.30000E+00
         0.30000E+00
         0.30000E+00
         0.30000E+00
         0.30000E+00
         0.30000E+00
         0.30000E+00
         0.30000E+00
         0.30000E+00
         0.30000E+00
         0.30000E+00
         0.30000E+00
         0.30000E+00
         0.30000E+00
         0.30000E+00
         0.30000E+00
         0.30000E+00
         0.30000E+00
         0.30000E+00
         0.30000E+00
         0.30000E+00
         0.30000E+00
         0.30000E+00
         0.30000E+00
         0.30000E+00
         0.30000E+00
         0.30000E+00
         0.30000E+00
         0.30000E+00
         0.30000E+00
         0.30000E+00
         0.30000E+00
         0.30000E+00
         0.30000E+00
         0.30000E+00
         0.30000E+00
         0.30000E+00
         0.30000E+00
         0.30000E+00
         0.30000E+00
         0.30000E+00
         0.30000E+00
         0.30000E+00
         0.30000E+00
         0.30000E+00
         0.30000E+00
         0.30000E+00
         0.30000E+00
         0.30000E+00
         0.30000E+00
         0.30000E+00
         0.30000E+00
         0.30000E+00
         0.30000E+00
         0.30000E+00
         0.30000E+00
         0.30000E+00
         0.30000E+00
         0.30000E+00
         0.30000E+00
         0.30000E+00
         0.30000E+00
         0.30000E+00
         0.30000E+00
         0.30000E+00
         0.30000E+00
         0.30000E+00
         0.30000E+00
         0.30000E+00
         0.30000E+00
         0.30000E+00
         0.30000E+00
         0.30000E+00
         0.30000E+00
         0.30000E+00
         0.30000E+00
         0.30000E+00
         0.30000E+00
         0.30000E+00
         0.30000E+00
         0.30000E+00
         0.30000E+00
         0.30000E+00
         0.30000E+00
         0.30000E+00
         0.30000E+00
         0.30000E+00
         0.30000E+00
         0.30000E+00
         0.30000E+00
         0.30000E+00
         0.30000E+00
         0.30000E+00
         0.30000E+00
         0.30000E+00
         0.30000E+00
         0.30000E+00
         0.30000E+00
         0.30000E+00
         0.30000E+00
         0.30000E+00
         0.30000E+00
         0.30000E+00
         0.30000E+00
         0.30000E+00
         0.30000E+00
         0.30000E+00
         0.30000E+00
         0.30000E+00
         0.30000E+00
         0.30000E+00
         0.30000E+00
         0.30000E+00
         0.30000E+00
         0.30000E+00
         0.30000E+00
         0.30000E+00
         0.30000E+00
         0.30000E+00
         0.30000E+00
         0.30000E+00
         0.30000E+00
         0.30000E+00
         0.30000E+00
         0.30000E+00
         0.30000E+00
         0.30000E+00
         0.30000E+00
         0.30000E+00
         0.30000E+00
         0.30000E+00
         0.30000E+00
         0.30000E+00
         0.30000E+00
         0.30000E+00
         0.30000E+00
         0.30000E+00
         0.30000E+00
         0.30000E+00
         0.30000E+00
         0.30000E+00
         0.30000E+00
         0.30000E+00
         0.30000E+00
         0.30000E+00
         0.30000E+00
         0.30000E+00
         0.30000E+00
         0.30000E+00
         0.30000E+00
         0.30000E+00
         0.30000E+00
         0.30000E+00
         0.30000E+00
         0.30000E+00
         0.30000E+00
         0.30000E+00
         0.30000E+00
         0.30000E+00
         0.30000E+00
         0.30000E+00
         0.30000E+00
         0.30000E+00
         0.30000E+00
         0.30000E+00
         0.30000E+00
         0.30000E+00
         0.30000E+00
         0.30000E+00
         0.30000E+00
         0.30000E+00
         0.30000E+00
         0.30000E+00
         0.30000E+00
         0.30000E+00
         0.30000E+00
         0.30000E+00
         0.30000E+00
         0.30000E+00
         0.30000E+00
         0.30000E+00
         0.30000E+00
         0.30000E+00
         0.30000E+00
         0.30000E+00
         0.30000E+00
         0.30000E+00
         0.30000E+00
         0.30000E+00
         0.30000E+00
         0.30000E+00
         0.30000E+00
         0.30000E+00
         0.30000E+00
         0.30000E+00
         0.30000E+00
         0.30000E+00
         0.30000E+00
         0.30000E+00
         0.30000E+00
         0.30000E+00
         0.30000E+00
         0.30000E+00
         0.30000E+00
         0.30000E+00
         0.30000E+00
         0.30000E+00
         0.30000E+00
         0.30000E+00
         0.30000E+00
         0.30000E+00
         0.30000E+00
         0.30000E+00
         0.30000E+00
         0.30000E+00
         0.30000E+00
         0.30000E+00
         0.30000E+00
         0.30000E+00
         0.30000E+00
         0.30000E+00
         0.30000E+00
         0.30000E+00
         0.30000E+00
         0.30000E+00
         0.30000E+00
         0.30000E+00
         0.30000E+00
         0.30000E+00
         0.30000E+00
         0.30000E+00
         0.30000E+00
         0.30000E+00
         0.30000E+00
         0.30000E+00
         0.30000E+00
         0.30000E+00
         0.30000E+00
         0.30000E+00
         0.30000E+00
         0.30000E+00
         0.30000E+00
         0.30000E+00
         0.30000E+00
         0.30000E+00
         0.30000E+00
         0.30000E+00
         0.30000E+00
         0.30000E+00
         0.30000E+00
         0.30000E+00
         0.30000E+00
         0.30000E+00
         0.30000E+00
         0.30000E+00
         0.30000E+00
         0.30000E+00
         0.30000E+00
         0.30000E+00
         0.30000E+00
         0.30000E+00
         0.30000E+00
         0.30000E+00
         0.30000E+00
         0.30000E+00
         0.30000E+00
         0.30000E+00
         0.30000E+00
         0.30000E+00
         0.30000E+00
         0.30000E+00
         0.30000E+00
         0.30000E+00
         0.30000E+00
         0.30000E+00
         0.30000E+00
         0.30000E+00
         0.30000E+00
         0.30000E+00
         0.30000E+00
         0.30000E+00
  
SCALARS                 Youngs_modulus  double 1
LOOKUP_TABLE default
         0.78200E+11
         0.78200E+11
         0.78200E+11
         0.78200E+11
         0.78200E+11
         0.78200E+11
         0.78200E+11
         0.78200E+11
         0.78200E+11
         0.78200E+11
         0.78200E+11
         0.78200E+11
         0.78200E+11
         0.78200E+11
         0.78200E+11
         0.78200E+11
         0.78200E+11
         0.78200E+11
         0.78200E+11
         0.78200E+11
         0.78200E+11
         0.78200E+11
         0.78200E+11
         0.78200E+11
         0.78200E+11
         0.78200E+11
         0.78200E+11
         0.78200E+11
         0.78200E+11
         0.78200E+11
         0.78200E+11
         0.78200E+11
         0.78200E+11
         0.78200E+11
         0.78200E+11
         0.78200E+11
         0.78200E+11
         0.78200E+11
         0.78200E+11
         0.78200E+11
         0.78200E+11
         0.78200E+11
         0.78200E+11
         0.78200E+11
         0.78200E+11
         0.78200E+11
         0.78200E+11
         0.78200E+11
         0.78200E+11
         0.78200E+11
         0.78200E+11
         0.78200E+11
         0.78200E+11
         0.78200E+11
         0.78200E+11
         0.78200E+11
         0.78200E+11
         0.78200E+11
         0.78200E+11
         0.78200E+11
         0.78200E+11
         0.78200E+11
         0.78200E+11
         0.78200E+11
         0.78200E+11
         0.78200E+11
         0.78200E+11
         0.78200E+11
         0.78200E+11
         0.78200E+11
         0.78200E+11
         0.78200E+11
         0.78200E+11
         0.78200E+11
         0.78200E+11
         0.78200E+11
         0.78200E+11
         0.78200E+11
         0.78200E+11
         0.78200E+11
         0.78200E+11
         0.78200E+11
         0.78200E+11
         0.78200E+11
         0.78200E+11
         0.78200E+11
         0.78200E+11
         0.78200E+11
         0.78200E+11
         0.78200E+11
         0.78200E+11
         0.78200E+11
         0.78200E+11
         0.78200E+11
         0.78200E+11
         0.78200E+11
         0.78200E+11
         0.78200E+11
         0.78200E+11
         0.78200E+11
         0.78200E+11
         0.78200E+11
         0.78200E+11
         0.78200E+11
         0.78200E+11
         0.78200E+11
         0.78200E+11
         0.78200E+11
         0.78200E+11
         0.78200E+11
         0.78200E+11
         0.78200E+11
         0.78200E+11
         0.78200E+11
         0.78200E+11
         0.78200E+11
         0.78200E+11
         0.78200E+11
         0.78200E+11
         0.78200E+11
         0.78200E+11
         0.78200E+11
         0.78200E+11
         0.78200E+11
         0.78200E+11
         0.78200E+11
         0.78200E+11
         0.78200E+11
         0.78200E+11
         0.78200E+11
         0.78200E+11
         0.78200E+11
         0.78200E+11
         0.78200E+11
         0.78200E+11
         0.78200E+11
         0.78200E+11
         0.78200E+11
         0.78200E+11
         0.78200E+11
         0.78200E+11
         0.78200E+11
         0.78200E+11
         0.78200E+11
         0.78200E+11
         0.78200E+11
         0.78200E+11
         0.78200E+11
         0.78200E+11
         0.78200E+11
         0.78200E+11
         0.78200E+11
         0.78200E+11
         0.78200E+11
         0.78200E+11
         0.78200E+11
         0.78200E+11
         0.78200E+11
         0.78200E+11
         0.78200E+11
         0.78200E+11
         0.78200E+11
         0.78200E+11
         0.78200E+11
         0.78200E+11
         0.78200E+11
         0.78200E+11
         0.78200E+11
         0.78200E+11
         0.78200E+11
         0.78200E+11
         0.78200E+11
         0.78200E+11
         0.78200E+11
         0.78200E+11
         0.78200E+11
         0.78200E+11
         0.78200E+11
         0.78200E+11
         0.78200E+11
         0.78200E+11
         0.78200E+11
         0.78200E+11
         0.78200E+11
         0.78200E+11
         0.78200E+11
         0.78200E+11
         0.78200E+11
         0.78200E+11
         0.78200E+11
         0.78200E+11
         0.78200E+11
         0.78200E+11
         0.78200E+11
         0.78200E+11
         0.78200E+11
         0.78200E+11
         0.78200E+11
         0.78200E+11
         0.78200E+11
         0.78200E+11
         0.78200E+11
         0.78200E+11
         0.78200E+11
         0.78200E+11
         0.78200E+11
         0.78200E+11
         0.78200E+11
         0.78200E+11
         0.78200E+11
         0.78200E+11
         0.78200E+11
         0.78200E+11
         0.78200E+11
         0.78200E+11
         0.78200E+11
         0.78200E+11
         0.78200E+11
         0.78200E+11
         0.78200E+11
         0.78200E+11
         0.78200E+11
         0.78200E+11
         0.78200E+11
         0.78200E+11
         0.78200E+11
         0.78200E+11
         0.78200E+11
         0.78200E+11
         0.78200E+11
         0.78200E+11
         0.78200E+11
         0.78200E+11
         0.78200E+11
         0.78200E+11
         0.78200E+11
         0.78200E+11
         0.78200E+11
         0.78200E+11
         0.78200E+11
         0.78200E+11
         0.78200E+11
         0.78200E+11
         0.78200E+11
         0.78200E+11
         0.78200E+11
         0.78200E+11
         0.78200E+11
         0.78200E+11
         0.78200E+11
         0.78200E+11
         0.78200E+11
         0.78200E+11
         0.78200E+11
         0.78200E+11
         0.78200E+11
         0.78200E+11
         0.78200E+11
         0.78200E+11
         0.78200E+11
         0.78200E+11
         0.78200E+11
         0.78200E+11
         0.78200E+11
         0.78200E+11
         0.78200E+11
         0.78200E+11
         0.78200E+11
         0.78200E+11
         0.78200E+11
         0.78200E+11
         0.78200E+11
         0.78200E+11
         0.78200E+11
         0.78200E+11
         0.78200E+11
         0.78200E+11
         0.78200E+11
         0.78200E+11
         0.78200E+11
         0.78200E+11
         0.78200E+11
         0.78200E+11
         0.78200E+11
         0.78200E+11
         0.78200E+11
         0.78200E+11
         0.78200E+11
         0.78200E+11
         0.78200E+11
         0.78200E+11
         0.78200E+11
         0.78200E+11
         0.78200E+11
         0.78200E+11
         0.78200E+11
         0.78200E+11
         0.78200E+11
         0.78200E+11
         0.78200E+11
         0.78200E+11
         0.78200E+11
         0.78200E+11
         0.78200E+11
         0.78200E+11
         0.78200E+11
         0.78200E+11
         0.78200E+11
         0.78200E+11
         0.78200E+11
         0.78200E+11
         0.78200E+11
         0.78200E+11
         0.78200E+11
         0.78200E+11
         0.78200E+11
         0.78200E+11
         0.78200E+11
         0.78200E+11
         0.78200E+11
         0.78200E+11
         0.78200E+11
         0.78200E+11
         0.78200E+11
         0.78200E+11
         0.78200E+11
         0.78200E+11
         0.78200E+11
         0.78200E+11
         0.78200E+11
         0.78200E+11
         0.78200E+11
         0.78200E+11
         0.78200E+11
         0.78200E+11
         0.78200E+11
         0.78200E+11
         0.78200E+11
         0.78200E+11
         0.78200E+11
         0.78200E+11
         0.78200E+11
         0.78200E+11
         0.78200E+11
         0.78200E+11
         0.78200E+11
         0.78200E+11
         0.78200E+11
         0.78200E+11
         0.78200E+11
         0.78200E+11
         0.78200E+11
         0.78200E+11
         0.78200E+11
         0.78200E+11
         0.78200E+11
         0.78200E+11
         0.78200E+11
         0.78200E+11
         0.78200E+11
         0.78200E+11
         0.78200E+11
         0.78200E+11
         0.78200E+11
         0.78200E+11
         0.78200E+11
         0.78200E+11
         0.78200E+11
         0.78200E+11
         0.78200E+11
         0.78200E+11
         0.78200E+11
         0.78200E+11
         0.78200E+11
         0.78200E+11
         0.78200E+11
         0.78200E+11
         0.78200E+11
         0.78200E+11
         0.78200E+11
         0.78200E+11
         0.78200E+11
         0.78200E+11
         0.78200E+11
         0.78200E+11
         0.78200E+11
         0.78200E+11
         0.78200E+11
         0.78200E+11
         0.78200E+11
         0.78200E+11
         0.78200E+11
         0.78200E+11
         0.78200E+11
         0.78200E+11
         0.78200E+11
         0.78200E+11
         0.78200E+11
         0.78200E+11
         0.78200E+11
         0.78200E+11
         0.78200E+11
         0.78200E+11
         0.78200E+11
         0.78200E+11
         0.78200E+11
         0.78200E+11
         0.78200E+11
         0.78200E+11
         0.78200E+11
         0.78200E+11
         0.78200E+11
         0.78200E+11
         0.78200E+11
         0.78200E+11
         0.78200E+11
         0.78200E+11
         0.78200E+11
         0.78200E+11
         0.78200E+11
         0.78200E+11
         0.78200E+11
         0.78200E+11
         0.78200E+11
         0.78200E+11
         0.78200E+11
         0.78200E+11
         0.78200E+11
         0.78200E+11
         0.78200E+11
         0.78200E+11
         0.78200E+11
         0.78200E+11
         0.78200E+11
         0.78200E+11
         0.78200E+11
         0.78200E+11
         0.78200E+11
         0.78200E+11
         0.78200E+11
         0.78200E+11
         0.78200E+11
         0.78200E+11
         0.78200E+11
         0.78200E+11
         0.78200E+11
         0.78200E+11
         0.78200E+11
         0.78200E+11
         0.78200E+11
         0.78200E+11
         0.78200E+11
         0.78200E+11
         0.78200E+11
         0.78200E+11
         0.78200E+11
         0.78200E+11
         0.78200E+11
         0.78200E+11
         0.78200E+11
         0.78200E+11
         0.78200E+11
         0.78200E+11
         0.78200E+11
         0.78200E+11
         0.78200E+11
         0.78200E+11
         0.78200E+11
         0.78200E+11
         0.78200E+11
         0.78200E+11
         0.78200E+11
         0.78200E+11
         0.78200E+11
         0.78200E+11
         0.78200E+11
         0.78200E+11
         0.78200E+11
         0.78200E+11
         0.78200E+11
         0.78200E+11
         0.78200E+11
         0.78200E+11
         0.78200E+11
         0.78200E+11
         0.78200E+11
         0.78200E+11
         0.78200E+11
         0.78200E+11
         0.78200E+11
         0.78200E+11
         0.78200E+11
         0.78200E+11
         0.78200E+11
         0.78200E+11
         0.78200E+11
         0.78200E+11
         0.78200E+11
         0.78200E+11
         0.78200E+11
         0.78200E+11
         0.78200E+11
         0.78200E+11
         0.78200E+11
         0.78200E+11
         0.78200E+11
         0.78200E+11
         0.78200E+11
         0.78200E+11
         0.78200E+11
         0.78200E+11
         0.78200E+11
         0.78200E+11
         0.78200E+11
         0.78200E+11
         0.78200E+11
         0.78200E+11
         0.78200E+11
         0.78200E+11
         0.78200E+11
         0.78200E+11
         0.78200E+11
         0.78200E+11
         0.78200E+11
         0.78200E+11
         0.78200E+11
         0.78200E+11
         0.78200E+11
         0.78200E+11
         0.78200E+11
         0.78200E+11
         0.78200E+11
         0.78200E+11
         0.78200E+11
         0.78200E+11
         0.78200E+11
         0.78200E+11
         0.78200E+11
         0.78200E+11
         0.78200E+11
         0.78200E+11
         0.78200E+11
         0.78200E+11
         0.78200E+11
         0.78200E+11
         0.78200E+11
         0.78200E+11
         0.78200E+11
         0.78200E+11
         0.78200E+11
         0.78200E+11
         0.78200E+11
         0.78200E+11
         0.78200E+11
         0.78200E+11
         0.78200E+11
         0.78200E+11
         0.78200E+11
         0.78200E+11
         0.78200E+11
         0.78200E+11
         0.78200E+11
         0.78200E+11
         0.78200E+11
         0.78200E+11
         0.78200E+11
         0.78200E+11
         0.78200E+11
         0.78200E+11
         0.78200E+11
         0.78200E+11
         0.78200E+11
         0.78200E+11
         0.78200E+11
         0.78200E+11
         0.78200E+11
         0.78200E+11
         0.78200E+11
         0.78200E+11
         0.78200E+11
         0.78200E+11
         0.78200E+11
         0.78200E+11
         0.78200E+11
         0.78200E+11
         0.78200E+11
         0.78200E+11
         0.78200E+11
         0.78200E+11
         0.78200E+11
         0.78200E+11
         0.78200E+11
         0.78200E+11
         0.78200E+11
         0.78200E+11
         0.78200E+11
         0.78200E+11
         0.78200E+11
         0.78200E+11
         0.78200E+11
         0.78200E+11
         0.78200E+11
         0.78200E+11
         0.78200E+11
         0.78200E+11
         0.78200E+11
         0.78200E+11
         0.78200E+11
         0.78200E+11
         0.78200E+11
         0.78200E+11
         0.78200E+11
         0.78200E+11
         0.78200E+11
         0.78200E+11
         0.78200E+11
         0.78200E+11
         0.78200E+11
         0.78200E+11
         0.78200E+11
         0.78200E+11
         0.78200E+11
         0.78200E+11
         0.78200E+11
         0.78200E+11
         0.78200E+11
         0.78200E+11
         0.78200E+11
         0.78200E+11
         0.78200E+11
         0.78200E+11
         0.78200E+11
         0.78200E+11
         0.78200E+11
         0.78200E+11
         0.78200E+11
         0.78200E+11
         0.78200E+11
         0.78200E+11
         0.78200E+11
         0.78200E+11
         0.78200E+11
         0.78200E+11
         0.78200E+11
         0.78200E+11
         0.78200E+11
         0.78200E+11
         0.78200E+11
         0.78200E+11
         0.78200E+11
         0.78200E+11
         0.78200E+11
         0.78200E+11
         0.78200E+11
         0.78200E+11
         0.78200E+11
         0.78200E+11
         0.78200E+11
         0.78200E+11
         0.78200E+11
         0.78200E+11
         0.78200E+11
         0.78200E+11
         0.78200E+11
         0.78200E+11
         0.78200E+11
         0.78200E+11
         0.78200E+11
         0.78200E+11
         0.78200E+11
         0.78200E+11
         0.78200E+11
         0.78200E+11
         0.78200E+11
         0.78200E+11
         0.78200E+11
         0.78200E+11
         0.78200E+11
         0.78200E+11
         0.78200E+11
         0.78200E+11
         0.78200E+11
         0.78200E+11
         0.78200E+11
         0.78200E+11
         0.78200E+11
         0.78200E+11
         0.78200E+11
         0.78200E+11
         0.78200E+11
         0.78200E+11
         0.78200E+11
         0.78200E+11
         0.78200E+11
         0.78200E+11
         0.78200E+11
         0.78200E+11
         0.78200E+11
         0.78200E+11
         0.78200E+11
         0.78200E+11
         0.78200E+11
         0.78200E+11
         0.78200E+11
         0.78200E+11
         0.78200E+11
         0.78200E+11
         0.78200E+11
         0.78200E+11
         0.78200E+11
         0.78200E+11
         0.78200E+11
         0.78200E+11
         0.78200E+11
         0.78200E+11
         0.78200E+11
         0.78200E+11
         0.78200E+11
         0.78200E+11
         0.78200E+11
         0.78200E+11
         0.78200E+11
         0.78200E+11
         0.78200E+11
         0.78200E+11
         0.78200E+11
         0.78200E+11
         0.78200E+11
         0.78200E+11
         0.78200E+11
         0.78200E+11
         0.78200E+11
         0.78200E+11
         0.78200E+11
         0.78200E+11
         0.78200E+11
         0.78200E+11
         0.78200E+11
         0.78200E+11
         0.78200E+11
         0.78200E+11
         0.78200E+11
         0.78200E+11
         0.78200E+11
         0.78200E+11
         0.78200E+11
         0.78200E+11
         0.78200E+11
         0.78200E+11
         0.78200E+11
         0.78200E+11
         0.78200E+11
         0.78200E+11
         0.78200E+11
         0.78200E+11
         0.78200E+11
         0.78200E+11
         0.78200E+11
         0.78200E+11
         0.78200E+11
         0.78200E+11
         0.78200E+11
         0.78200E+11
         0.78200E+11
         0.78200E+11
         0.78200E+11
         0.78200E+11
         0.78200E+11
         0.78200E+11
         0.78200E+11
         0.78200E+11
         0.78200E+11
         0.78200E+11
         0.78200E+11
         0.78200E+11
         0.78200E+11
         0.78200E+11
         0.78200E+11
         0.78200E+11
         0.78200E+11
         0.78200E+11
         0.78200E+11
         0.78200E+11
         0.78200E+11
         0.78200E+11
         0.78200E+11
         0.78200E+11
         0.78200E+11
         0.78200E+11
         0.78200E+11
         0.78200E+11
         0.78200E+11
         0.78200E+11
         0.78200E+11
         0.78200E+11
         0.78200E+11
         0.78200E+11
         0.78200E+11
         0.78200E+11
         0.78200E+11
         0.78200E+11
         0.78200E+11
         0.78200E+11
         0.78200E+11
         0.78200E+11
         0.78200E+11
         0.78200E+11
         0.78200E+11
         0.78200E+11
         0.78200E+11
         0.78200E+11
         0.78200E+11
         0.78200E+11
         0.78200E+11
         0.78200E+11
         0.78200E+11
         0.78200E+11
         0.78200E+11
         0.78200E+11
         0.78200E+11
         0.78200E+11
         0.78200E+11
         0.78200E+11
         0.78200E+11
         0.78200E+11
         0.78200E+11
         0.78200E+11
         0.78200E+11
         0.78200E+11
         0.78200E+11
         0.78200E+11
         0.78200E+11
         0.78200E+11
         0.78200E+11
         0.78200E+11
         0.78200E+11
         0.78200E+11
         0.78200E+11
         0.78200E+11
         0.78200E+11
         0.78200E+11
         0.78200E+11
         0.78200E+11
         0.78200E+11
         0.78200E+11
         0.78200E+11
         0.78200E+11
         0.78200E+11
         0.78200E+11
         0.78200E+11
         0.78200E+11
         0.78200E+11
         0.78200E+11
         0.78200E+11
         0.78200E+11
         0.78200E+11
         0.78200E+11
         0.78200E+11
         0.78200E+11
         0.78200E+11
         0.78200E+11
         0.78200E+11
         0.78200E+11
         0.78200E+11
         0.78200E+11
         0.78200E+11
         0.78200E+11
         0.78200E+11
         0.78200E+11
         0.78200E+11
         0.78200E+11
         0.78200E+11
         0.78200E+11
         0.78200E+11
         0.78200E+11
         0.78200E+11
         0.78200E+11
         0.78200E+11
         0.78200E+11
         0.78200E+11
         0.78200E+11
         0.78200E+11
         0.78200E+11
         0.78200E+11
         0.78200E+11
         0.78200E+11
         0.78200E+11
         0.78200E+11
         0.78200E+11
         0.78200E+11
         0.78200E+11
         0.78200E+11
         0.78200E+11
         0.78200E+11
         0.78200E+11
         0.78200E+11
         0.78200E+11
         0.78200E+11
         0.78200E+11
         0.78200E+11
         0.78200E+11
         0.78200E+11
         0.78200E+11
         0.78200E+11
         0.78200E+11
         0.78200E+11
         0.78200E+11
         0.78200E+11
         0.78200E+11
         0.78200E+11
         0.78200E+11
         0.78200E+11
         0.78200E+11
         0.78200E+11
         0.78200E+11
         0.78200E+11
         0.78200E+11
         0.78200E+11
         0.78200E+11
         0.78200E+11
         0.78200E+11
         0.78200E+11
         0.78200E+11
         0.78200E+11
         0.78200E+11
         0.78200E+11
         0.78200E+11
         0.78200E+11
         0.78200E+11
         0.78200E+11
         0.78200E+11
         0.78200E+11
         0.78200E+11
         0.78200E+11
         0.78200E+11
         0.78200E+11
         0.78200E+11
         0.78200E+11
         0.78200E+11
         0.78200E+11
         0.78200E+11
         0.78200E+11
         0.78200E+11
         0.78200E+11
         0.78200E+11
         0.78200E+11
         0.78200E+11
         0.78200E+11
         0.78200E+11
         0.78200E+11
         0.78200E+11
         0.78200E+11
         0.78200E+11
         0.78200E+11
         0.78200E+11
         0.78200E+11
         0.78200E+11
         0.78200E+11
         0.78200E+11
         0.78200E+11
         0.78200E+11
         0.78200E+11
         0.78200E+11
         0.78200E+11
         0.78200E+11
         0.78200E+11
         0.78200E+11
         0.78200E+11
         0.78200E+11
         0.78200E+11
         0.78200E+11
         0.78200E+11
         0.78200E+11
         0.78200E+11
         0.78200E+11
         0.78200E+11
         0.78200E+11
         0.78200E+11
         0.78200E+11
         0.78200E+11
         0.78200E+11
         0.78200E+11
         0.78200E+11
         0.78200E+11
         0.78200E+11
         0.78200E+11
         0.78200E+11
         0.78200E+11
         0.78200E+11
         0.78200E+11
         0.78200E+11
         0.78200E+11
         0.78200E+11
         0.78200E+11
         0.78200E+11
         0.78200E+11
         0.78200E+11
         0.78200E+11
         0.78200E+11
         0.78200E+11
         0.78200E+11
         0.78200E+11
         0.78200E+11
         0.78200E+11
         0.78200E+11
         0.78200E+11
         0.78200E+11
         0.78200E+11
         0.78200E+11
         0.78200E+11
         0.78200E+11
         0.78200E+11
         0.78200E+11
         0.78200E+11
         0.78200E+11
         0.78200E+11
         0.78200E+11
         0.78200E+11
         0.78200E+11
         0.78200E+11
         0.78200E+11
         0.78200E+11
         0.78200E+11
         0.78200E+11
         0.78200E+11
         0.78200E+11
         0.78200E+11
         0.78200E+11
         0.78200E+11
         0.78200E+11
         0.78200E+11
         0.78200E+11
         0.78200E+11
         0.78200E+11
         0.78200E+11
         0.78200E+11
         0.78200E+11
         0.78200E+11
         0.78200E+11
         0.78200E+11
         0.78200E+11
         0.78200E+11
         0.78200E+11
         0.78200E+11
         0.78200E+11
         0.78200E+11
         0.78200E+11
         0.78200E+11
         0.78200E+11
         0.78200E+11
         0.78200E+11
         0.78200E+11
         0.78200E+11
         0.78200E+11
         0.78200E+11
         0.78200E+11
         0.78200E+11
         0.78200E+11
         0.78200E+11
         0.78200E+11
         0.78200E+11
         0.78200E+11
         0.78200E+11
         0.78200E+11
         0.78200E+11
         0.78200E+11
         0.78200E+11
         0.78200E+11
         0.78200E+11
         0.78200E+11
         0.78200E+11
         0.78200E+11
         0.78200E+11
         0.78200E+11
         0.78200E+11
         0.78200E+11
         0.78200E+11
         0.78200E+11
         0.78200E+11
         0.78200E+11
         0.78200E+11
         0.78200E+11
         0.78200E+11
         0.78200E+11
         0.78200E+11
         0.78200E+11
         0.78200E+11
         0.78200E+11
         0.78200E+11
         0.78200E+11
         0.78200E+11
         0.78200E+11
         0.78200E+11
         0.78200E+11
         0.78200E+11
         0.78200E+11
         0.78200E+11
         0.78200E+11
         0.78200E+11
         0.78200E+11
         0.78200E+11
         0.78200E+11
         0.78200E+11
         0.78200E+11
         0.78200E+11
         0.78200E+11
         0.78200E+11
         0.78200E+11
         0.78200E+11
         0.78200E+11
         0.78200E+11
         0.78200E+11
         0.78200E+11
         0.78200E+11
         0.78200E+11
         0.78200E+11
         0.78200E+11
         0.78200E+11
         0.78200E+11
         0.78200E+11
         0.78200E+11
         0.78200E+11
         0.78200E+11
         0.78200E+11
         0.78200E+11
         0.78200E+11
         0.78200E+11
         0.78200E+11
         0.78200E+11
         0.78200E+11
         0.78200E+11
         0.78200E+11
         0.78200E+11
         0.78200E+11
         0.78200E+11
         0.78200E+11
         0.78200E+11
         0.78200E+11
         0.78200E+11
         0.78200E+11
         0.78200E+11
         0.78200E+11
         0.78200E+11
         0.78200E+11
         0.78200E+11
         0.78200E+11
         0.78200E+11
         0.78200E+11
         0.78200E+11
         0.78200E+11
         0.78200E+11
         0.78200E+11
         0.78200E+11
         0.78200E+11
         0.78200E+11
         0.78200E+11
         0.78200E+11
         0.78200E+11
         0.78200E+11
         0.78200E+11
         0.78200E+11
         0.78200E+11
         0.78200E+11
         0.78200E+11
         0.78200E+11
         0.78200E+11
         0.78200E+11
         0.78200E+11
         0.78200E+11
         0.78200E+11
         0.78200E+11
         0.78200E+11
         0.78200E+11
         0.78200E+11
         0.78200E+11
         0.78200E+11
         0.78200E+11
         0.78200E+11
         0.78200E+11
         0.78200E+11
         0.78200E+11
         0.78200E+11
         0.78200E+11
         0.78200E+11
         0.78200E+11
         0.78200E+11
         0.78200E+11
         0.78200E+11
         0.78200E+11
         0.78200E+11
         0.78200E+11
         0.78200E+11
         0.78200E+11
         0.78200E+11
         0.78200E+11
         0.78200E+11
         0.78200E+11
         0.78200E+11
         0.78200E+11
         0.78200E+11
         0.78200E+11
         0.78200E+11
         0.78200E+11
         0.78200E+11
         0.78200E+11
         0.78200E+11
         0.78200E+11
         0.78200E+11
         0.78200E+11
         0.78200E+11
         0.78200E+11
         0.78200E+11
         0.78200E+11
         0.78200E+11
         0.78200E+11
         0.78200E+11
         0.78200E+11
         0.78200E+11
         0.78200E+11
         0.78200E+11
         0.78200E+11
         0.78200E+11
         0.78200E+11
         0.78200E+11
         0.78200E+11
         0.78200E+11
         0.78200E+11
         0.78200E+11
         0.78200E+11
         0.78200E+11
         0.78200E+11
         0.78200E+11
         0.78200E+11
         0.78200E+11
         0.78200E+11
         0.78200E+11
         0.78200E+11
         0.78200E+11
         0.78200E+11
         0.78200E+11
         0.78200E+11
         0.78200E+11
         0.78200E+11
         0.78200E+11
         0.78200E+11
         0.78200E+11
         0.78200E+11
         0.78200E+11
         0.78200E+11
         0.78200E+11
         0.78200E+11
         0.78200E+11
         0.78200E+11
         0.78200E+11
         0.78200E+11
         0.78200E+11
         0.78200E+11
         0.78200E+11
         0.78200E+11
         0.78200E+11
         0.78200E+11
         0.78200E+11
         0.78200E+11
         0.78200E+11
         0.78200E+11
         0.78200E+11
         0.78200E+11
         0.78200E+11
         0.78200E+11
         0.78200E+11
         0.78200E+11
         0.78200E+11
         0.78200E+11
         0.78200E+11
         0.78200E+11
         0.78200E+11
         0.78200E+11
         0.78200E+11
         0.78200E+11
         0.78200E+11
         0.78200E+11
         0.78200E+11
         0.78200E+11
         0.78200E+11
         0.78200E+11
         0.78200E+11
         0.78200E+11
         0.78200E+11
         0.78200E+11
         0.78200E+11
         0.78200E+11
         0.78200E+11
         0.78200E+11
         0.78200E+11
         0.78200E+11
         0.78200E+11
         0.78200E+11
         0.78200E+11
         0.78200E+11
         0.78200E+11
         0.78200E+11
         0.78200E+11
         0.78200E+11
         0.78200E+11
         0.78200E+11
         0.78200E+11
         0.78200E+11
         0.78200E+11
         0.78200E+11
         0.78200E+11
         0.78200E+11
         0.78200E+11
         0.78200E+11
         0.78200E+11
         0.78200E+11
         0.78200E+11
         0.78200E+11
         0.78200E+11
         0.78200E+11
         0.78200E+11
         0.78200E+11
         0.78200E+11
         0.78200E+11
         0.78200E+11
         0.78200E+11
         0.78200E+11
         0.78200E+11
         0.78200E+11
         0.78200E+11
         0.78200E+11
         0.78200E+11
         0.78200E+11
         0.78200E+11
         0.78200E+11
         0.78200E+11
         0.78200E+11
         0.78200E+11
         0.78200E+11
         0.78200E+11
         0.78200E+11
         0.78200E+11
         0.78200E+11
         0.78200E+11
         0.78200E+11
         0.78200E+11
         0.78200E+11
         0.78200E+11
         0.78200E+11
         0.78200E+11
         0.78200E+11
         0.78200E+11
         0.78200E+11
         0.78200E+11
         0.78200E+11
         0.78200E+11
         0.78200E+11
         0.78200E+11
         0.78200E+11
         0.78200E+11
         0.78200E+11
         0.78200E+11
         0.78200E+11
         0.78200E+11
         0.78200E+11
         0.78200E+11
         0.78200E+11
         0.78200E+11
         0.78200E+11
         0.78200E+11
         0.78200E+11
         0.78200E+11
         0.78200E+11
         0.78200E+11
         0.78200E+11
         0.78200E+11
         0.78200E+11
         0.78200E+11
         0.78200E+11
         0.78200E+11
         0.78200E+11
         0.78200E+11
         0.78200E+11
         0.78200E+11
         0.78200E+11
         0.78200E+11
         0.78200E+11
         0.78200E+11
         0.78200E+11
         0.78200E+11
         0.78200E+11
         0.78200E+11
         0.78200E+11
         0.78200E+11
         0.78200E+11
         0.78200E+11
         0.78200E+11
         0.78200E+11
         0.78200E+11
         0.78200E+11
         0.78200E+11
         0.78200E+11
         0.78200E+11
         0.78200E+11
         0.78200E+11
         0.78200E+11
         0.78200E+11
         0.78200E+11
         0.78200E+11
         0.78200E+11
         0.78200E+11
         0.78200E+11
         0.78200E+11
         0.78200E+11
         0.78200E+11
         0.78200E+11
         0.78200E+11
         0.78200E+11
         0.78200E+11
         0.78200E+11
         0.78200E+11
         0.78200E+11
         0.78200E+11
         0.78200E+11
         0.78200E+11
         0.78200E+11
         0.78200E+11
         0.78200E+11
         0.78200E+11
         0.78200E+11
         0.78200E+11
         0.78200E+11
         0.78200E+11
         0.78200E+11
         0.78200E+11
         0.78200E+11
         0.78200E+11
         0.78200E+11
         0.78200E+11
         0.78200E+11
         0.78200E+11
         0.78200E+11
         0.78200E+11
         0.78200E+11
         0.78200E+11
         0.78200E+11
         0.78200E+11
         0.78200E+11
         0.78200E+11
         0.78200E+11
         0.78200E+11
         0.78200E+11
         0.78200E+11
         0.78200E+11
         0.78200E+11
         0.78200E+11
         0.78200E+11
         0.78200E+11
         0.78200E+11
         0.78200E+11
         0.78200E+11
         0.78200E+11
         0.78200E+11
         0.78200E+11
         0.78200E+11
         0.78200E+11
         0.78200E+11
         0.78200E+11
         0.78200E+11
         0.78200E+11
         0.78200E+11
         0.78200E+11
         0.78200E+11
         0.78200E+11
         0.78200E+11
         0.78200E+11
         0.78200E+11
         0.78200E+11
         0.78200E+11
         0.78200E+11
         0.78200E+11
         0.78200E+11
         0.78200E+11
         0.78200E+11
         0.78200E+11
         0.78200E+11
         0.78200E+11
         0.78200E+11
         0.78200E+11
         0.78200E+11
         0.78200E+11
         0.78200E+11
         0.78200E+11
         0.78200E+11
         0.78200E+11
         0.78200E+11
         0.78200E+11
         0.78200E+11
         0.78200E+11
         0.78200E+11
         0.78200E+11
         0.78200E+11
         0.78200E+11
         0.78200E+11
         0.78200E+11
         0.78200E+11
         0.78200E+11
         0.78200E+11
         0.78200E+11
         0.78200E+11
         0.78200E+11
         0.78200E+11
         0.78200E+11
         0.78200E+11
         0.78200E+11
         0.78200E+11
         0.78200E+11
         0.78200E+11
         0.78200E+11
         0.78200E+11
         0.78200E+11
         0.78200E+11
         0.78200E+11
         0.78200E+11
         0.78200E+11
         0.78200E+11
         0.78200E+11
         0.78200E+11
         0.78200E+11
         0.78200E+11
         0.78200E+11
         0.78200E+11
         0.78200E+11
         0.78200E+11
         0.78200E+11
         0.78200E+11
         0.78200E+11
         0.78200E+11
         0.78200E+11
         0.78200E+11
         0.78200E+11
         0.78200E+11
         0.78200E+11
         0.78200E+11
         0.78200E+11
         0.78200E+11
         0.78200E+11
         0.78200E+11
         0.78200E+11
         0.78200E+11
         0.78200E+11
         0.78200E+11
         0.78200E+11
         0.78200E+11
         0.78200E+11
         0.78200E+11
         0.78200E+11
         0.78200E+11
         0.78200E+11
         0.78200E+11
         0.78200E+11
         0.78200E+11
         0.78200E+11
         0.78200E+11
         0.78200E+11
         0.78200E+11
         0.78200E+11
         0.78200E+11
         0.78200E+11
         0.78200E+11
         0.78200E+11
         0.78200E+11
         0.78200E+11
         0.78200E+11
         0.78200E+11
         0.78200E+11
         0.78200E+11
         0.78200E+11
         0.78200E+11
         0.78200E+11
         0.78200E+11
         0.78200E+11
         0.78200E+11
         0.78200E+11
         0.78200E+11
         0.78200E+11
         0.78200E+11
         0.78200E+11
         0.78200E+11
         0.78200E+11
         0.78200E+11
         0.78200E+11
         0.78200E+11
         0.78200E+11
         0.78200E+11
         0.78200E+11
         0.78200E+11
         0.78200E+11
         0.78200E+11
         0.78200E+11
         0.78200E+11
         0.78200E+11
         0.78200E+11
         0.78200E+11
         0.78200E+11
         0.78200E+11
         0.78200E+11
         0.78200E+11
         0.78200E+11
         0.78200E+11
         0.78200E+11
         0.78200E+11
         0.78200E+11
         0.78200E+11
         0.78200E+11
         0.78200E+11
         0.78200E+11
         0.78200E+11
         0.78200E+11
         0.78200E+11
         0.78200E+11
         0.78200E+11
         0.78200E+11
         0.78200E+11
         0.78200E+11
         0.78200E+11
         0.78200E+11
         0.78200E+11
         0.78200E+11
         0.78200E+11
         0.78200E+11
         0.78200E+11
         0.78200E+11
         0.78200E+11
         0.78200E+11
         0.78200E+11
         0.78200E+11
         0.78200E+11
         0.78200E+11
         0.78200E+11
         0.78200E+11
         0.78200E+11
         0.78200E+11
         0.78200E+11
         0.78200E+11
         0.78200E+11
         0.78200E+11
         0.78200E+11
         0.78200E+11
         0.78200E+11
         0.78200E+11
         0.78200E+11
         0.78200E+11
         0.78200E+11
         0.78200E+11
         0.78200E+11
         0.78200E+11
         0.78200E+11
         0.78200E+11
         0.78200E+11
         0.78200E+11
         0.78200E+11
         0.78200E+11
         0.78200E+11
         0.78200E+11
         0.78200E+11
         0.78200E+11
         0.78200E+11
         0.78200E+11
         0.78200E+11
         0.78200E+11
         0.78200E+11
         0.78200E+11
         0.78200E+11
         0.78200E+11
         0.78200E+11
         0.78200E+11
         0.78200E+11
         0.78200E+11
         0.78200E+11
         0.78200E+11
         0.78200E+11
         0.78200E+11
         0.78200E+11
         0.78200E+11
         0.78200E+11
         0.78200E+11
         0.78200E+11
         0.78200E+11
         0.78200E+11
         0.78200E+11
         0.78200E+11
         0.78200E+11
         0.78200E+11
         0.78200E+11
         0.78200E+11
         0.78200E+11
         0.78200E+11
         0.78200E+11
         0.78200E+11
         0.78200E+11
         0.78200E+11
         0.78200E+11
         0.78200E+11
         0.78200E+11
         0.78200E+11
         0.78200E+11
         0.78200E+11
         0.78200E+11
         0.78200E+11
         0.78200E+11
         0.78200E+11
         0.78200E+11
         0.78200E+11
         0.78200E+11
         0.78200E+11
         0.78200E+11
         0.78200E+11
         0.78200E+11
         0.78200E+11
         0.78200E+11
         0.78200E+11
         0.78200E+11
         0.78200E+11
         0.78200E+11
         0.78200E+11
         0.78200E+11
         0.78200E+11
         0.78200E+11
         0.78200E+11
         0.78200E+11
         0.78200E+11
         0.78200E+11
         0.78200E+11
         0.78200E+11
         0.78200E+11
         0.78200E+11
         0.78200E+11
         0.78200E+11
         0.78200E+11
         0.78200E+11
         0.78200E+11
         0.78200E+11
         0.78200E+11
         0.78200E+11
         0.78200E+11
         0.78200E+11
         0.78200E+11
         0.78200E+11
         0.78200E+11
         0.78200E+11
         0.78200E+11
         0.78200E+11
         0.78200E+11
         0.78200E+11
         0.78200E+11
         0.78200E+11
         0.78200E+11
         0.78200E+11
         0.78200E+11
         0.78200E+11
         0.78200E+11
         0.78200E+11
         0.78200E+11
         0.78200E+11
         0.78200E+11
         0.78200E+11
         0.78200E+11
         0.78200E+11
         0.78200E+11
         0.78200E+11
         0.78200E+11
         0.78200E+11
         0.78200E+11
         0.78200E+11
         0.78200E+11
         0.78200E+11
         0.78200E+11
         0.78200E+11
         0.78200E+11
         0.78200E+11
         0.78200E+11
         0.78200E+11
         0.78200E+11
         0.78200E+11
         0.78200E+11
         0.78200E+11
         0.78200E+11
         0.78200E+11
         0.78200E+11
         0.78200E+11
         0.78200E+11
         0.78200E+11
         0.78200E+11
         0.78200E+11
         0.78200E+11
         0.78200E+11
         0.78200E+11
         0.78200E+11
         0.78200E+11
         0.78200E+11
         0.78200E+11
         0.78200E+11
         0.78200E+11
         0.78200E+11
         0.78200E+11
         0.78200E+11
         0.78200E+11
         0.78200E+11
         0.78200E+11
         0.78200E+11
         0.78200E+11
         0.78200E+11
         0.78200E+11
         0.78200E+11
         0.78200E+11
         0.78200E+11
         0.78200E+11
         0.78200E+11
         0.78200E+11
         0.78200E+11
         0.78200E+11
         0.78200E+11
         0.78200E+11
         0.78200E+11
         0.78200E+11
         0.78200E+11
         0.78200E+11
         0.78200E+11
         0.78200E+11
         0.78200E+11
         0.78200E+11
         0.78200E+11
         0.78200E+11
         0.78200E+11
         0.78200E+11
         0.78200E+11
         0.78200E+11
         0.78200E+11
         0.78200E+11
         0.78200E+11
         0.78200E+11
         0.78200E+11
         0.78200E+11
         0.78200E+11
         0.78200E+11
         0.78200E+11
         0.78200E+11
         0.78200E+11
         0.78200E+11
         0.78200E+11
         0.78200E+11
         0.78200E+11
         0.78200E+11
         0.78200E+11
         0.78200E+11
         0.78200E+11
         0.78200E+11
         0.78200E+11
         0.78200E+11
         0.78200E+11
         0.78200E+11
         0.78200E+11
         0.78200E+11
         0.78200E+11
         0.78200E+11
         0.78200E+11
         0.78200E+11
         0.78200E+11
         0.78200E+11
         0.78200E+11
         0.78200E+11
         0.78200E+11
         0.78200E+11
         0.78200E+11
         0.78200E+11
         0.78200E+11
         0.78200E+11
         0.78200E+11
         0.78200E+11
         0.78200E+11
         0.78200E+11
         0.78200E+11
         0.78200E+11
         0.78200E+11
         0.78200E+11
         0.78200E+11
         0.78200E+11
         0.78200E+11
         0.78200E+11
         0.78200E+11
         0.78200E+11
         0.78200E+11
         0.78200E+11
         0.78200E+11
         0.78200E+11
         0.78200E+11
         0.78200E+11
         0.78200E+11
         0.78200E+11
         0.78200E+11
         0.78200E+11
         0.78200E+11
         0.78200E+11
         0.78200E+11
         0.78200E+11
         0.78200E+11
         0.78200E+11
         0.78200E+11
         0.78200E+11
         0.78200E+11
         0.78200E+11
         0.78200E+11
         0.78200E+11
         0.78200E+11
         0.78200E+11
         0.78200E+11
         0.78200E+11
         0.78200E+11
         0.78200E+11
         0.78200E+11
         0.78200E+11
         0.78200E+11
         0.78200E+11
         0.78200E+11
         0.78200E+11
         0.78200E+11
         0.78200E+11
         0.78200E+11
         0.78200E+11
         0.78200E+11
         0.78200E+11
         0.78200E+11
         0.78200E+11
         0.78200E+11
         0.78200E+11
         0.78200E+11
         0.78200E+11
         0.78200E+11
         0.78200E+11
         0.78200E+11
         0.78200E+11
         0.78200E+11
         0.78200E+11
         0.78200E+11
         0.78200E+11
         0.78200E+11
         0.78200E+11
         0.78200E+11
         0.78200E+11
         0.78200E+11
  
SCALARS                        density  double 1
LOOKUP_TABLE default
         0.27000E+04
         0.27000E+04
         0.27000E+04
         0.27000E+04
         0.27000E+04
         0.27000E+04
         0.27000E+04
         0.27000E+04
         0.27000E+04
         0.27000E+04
         0.27000E+04
         0.27000E+04
         0.27000E+04
         0.27000E+04
         0.27000E+04
         0.27000E+04
         0.27000E+04
         0.27000E+04
         0.27000E+04
         0.27000E+04
         0.27000E+04
         0.27000E+04
         0.27000E+04
         0.27000E+04
         0.27000E+04
         0.27000E+04
         0.27000E+04
         0.27000E+04
         0.27000E+04
         0.27000E+04
         0.27000E+04
         0.27000E+04
         0.27000E+04
         0.27000E+04
         0.27000E+04
         0.27000E+04
         0.27000E+04
         0.27000E+04
         0.27000E+04
         0.27000E+04
         0.27000E+04
         0.27000E+04
         0.27000E+04
         0.27000E+04
         0.27000E+04
         0.27000E+04
         0.27000E+04
         0.27000E+04
         0.27000E+04
         0.27000E+04
         0.27000E+04
         0.27000E+04
         0.27000E+04
         0.27000E+04
         0.27000E+04
         0.27000E+04
         0.27000E+04
         0.27000E+04
         0.27000E+04
         0.27000E+04
         0.27000E+04
         0.27000E+04
         0.27000E+04
         0.27000E+04
         0.27000E+04
         0.27000E+04
         0.27000E+04
         0.27000E+04
         0.27000E+04
         0.27000E+04
         0.27000E+04
         0.27000E+04
         0.27000E+04
         0.27000E+04
         0.27000E+04
         0.27000E+04
         0.27000E+04
         0.27000E+04
         0.27000E+04
         0.27000E+04
         0.27000E+04
         0.27000E+04
         0.27000E+04
         0.27000E+04
         0.27000E+04
         0.27000E+04
         0.27000E+04
         0.27000E+04
         0.27000E+04
         0.27000E+04
         0.27000E+04
         0.27000E+04
         0.27000E+04
         0.27000E+04
         0.27000E+04
         0.27000E+04
         0.27000E+04
         0.27000E+04
         0.27000E+04
         0.27000E+04
         0.27000E+04
         0.27000E+04
         0.27000E+04
         0.27000E+04
         0.27000E+04
         0.27000E+04
         0.27000E+04
         0.27000E+04
         0.27000E+04
         0.27000E+04
         0.27000E+04
         0.27000E+04
         0.27000E+04
         0.27000E+04
         0.27000E+04
         0.27000E+04
         0.27000E+04
         0.27000E+04
         0.27000E+04
         0.27000E+04
         0.27000E+04
         0.27000E+04
         0.27000E+04
         0.27000E+04
         0.27000E+04
         0.27000E+04
         0.27000E+04
         0.27000E+04
         0.27000E+04
         0.27000E+04
         0.27000E+04
         0.27000E+04
         0.27000E+04
         0.27000E+04
         0.27000E+04
         0.27000E+04
         0.27000E+04
         0.27000E+04
         0.27000E+04
         0.27000E+04
         0.27000E+04
         0.27000E+04
         0.27000E+04
         0.27000E+04
         0.27000E+04
         0.27000E+04
         0.27000E+04
         0.27000E+04
         0.27000E+04
         0.27000E+04
         0.27000E+04
         0.27000E+04
         0.27000E+04
         0.27000E+04
         0.27000E+04
         0.27000E+04
         0.27000E+04
         0.27000E+04
         0.27000E+04
         0.27000E+04
         0.27000E+04
         0.27000E+04
         0.27000E+04
         0.27000E+04
         0.27000E+04
         0.27000E+04
         0.27000E+04
         0.27000E+04
         0.27000E+04
         0.27000E+04
         0.27000E+04
         0.27000E+04
         0.27000E+04
         0.27000E+04
         0.27000E+04
         0.27000E+04
         0.27000E+04
         0.27000E+04
         0.27000E+04
         0.27000E+04
         0.27000E+04
         0.27000E+04
         0.27000E+04
         0.27000E+04
         0.27000E+04
         0.27000E+04
         0.27000E+04
         0.27000E+04
         0.27000E+04
         0.27000E+04
         0.27000E+04
         0.27000E+04
         0.27000E+04
         0.27000E+04
         0.27000E+04
         0.27000E+04
         0.27000E+04
         0.27000E+04
         0.27000E+04
         0.27000E+04
         0.27000E+04
         0.27000E+04
         0.27000E+04
         0.27000E+04
         0.27000E+04
         0.27000E+04
         0.27000E+04
         0.27000E+04
         0.27000E+04
         0.27000E+04
         0.27000E+04
         0.27000E+04
         0.27000E+04
         0.27000E+04
         0.27000E+04
         0.27000E+04
         0.27000E+04
         0.27000E+04
         0.27000E+04
         0.27000E+04
         0.27000E+04
         0.27000E+04
         0.27000E+04
         0.27000E+04
         0.27000E+04
         0.27000E+04
         0.27000E+04
         0.27000E+04
         0.27000E+04
         0.27000E+04
         0.27000E+04
         0.27000E+04
         0.27000E+04
         0.27000E+04
         0.27000E+04
         0.27000E+04
         0.27000E+04
         0.27000E+04
         0.27000E+04
         0.27000E+04
         0.27000E+04
         0.27000E+04
         0.27000E+04
         0.27000E+04
         0.27000E+04
         0.27000E+04
         0.27000E+04
         0.27000E+04
         0.27000E+04
         0.27000E+04
         0.27000E+04
         0.27000E+04
         0.27000E+04
         0.27000E+04
         0.27000E+04
         0.27000E+04
         0.27000E+04
         0.27000E+04
         0.27000E+04
         0.27000E+04
         0.27000E+04
         0.27000E+04
         0.27000E+04
         0.27000E+04
         0.27000E+04
         0.27000E+04
         0.27000E+04
         0.27000E+04
         0.27000E+04
         0.27000E+04
         0.27000E+04
         0.27000E+04
         0.27000E+04
         0.27000E+04
         0.27000E+04
         0.27000E+04
         0.27000E+04
         0.27000E+04
         0.27000E+04
         0.27000E+04
         0.27000E+04
         0.27000E+04
         0.27000E+04
         0.27000E+04
         0.27000E+04
         0.27000E+04
         0.27000E+04
         0.27000E+04
         0.27000E+04
         0.27000E+04
         0.27000E+04
         0.27000E+04
         0.27000E+04
         0.27000E+04
         0.27000E+04
         0.27000E+04
         0.27000E+04
         0.27000E+04
         0.27000E+04
         0.27000E+04
         0.27000E+04
         0.27000E+04
         0.27000E+04
         0.27000E+04
         0.27000E+04
         0.27000E+04
         0.27000E+04
         0.27000E+04
         0.27000E+04
         0.27000E+04
         0.27000E+04
         0.27000E+04
         0.27000E+04
         0.27000E+04
         0.27000E+04
         0.27000E+04
         0.27000E+04
         0.27000E+04
         0.27000E+04
         0.27000E+04
         0.27000E+04
         0.27000E+04
         0.27000E+04
         0.27000E+04
         0.27000E+04
         0.27000E+04
         0.27000E+04
         0.27000E+04
         0.27000E+04
         0.27000E+04
         0.27000E+04
         0.27000E+04
         0.27000E+04
         0.27000E+04
         0.27000E+04
         0.27000E+04
         0.27000E+04
         0.27000E+04
         0.27000E+04
         0.27000E+04
         0.27000E+04
         0.27000E+04
         0.27000E+04
         0.27000E+04
         0.27000E+04
         0.27000E+04
         0.27000E+04
         0.27000E+04
         0.27000E+04
         0.27000E+04
         0.27000E+04
         0.27000E+04
         0.27000E+04
         0.27000E+04
         0.27000E+04
         0.27000E+04
         0.27000E+04
         0.27000E+04
         0.27000E+04
         0.27000E+04
         0.27000E+04
         0.27000E+04
         0.27000E+04
         0.27000E+04
         0.27000E+04
         0.27000E+04
         0.27000E+04
         0.27000E+04
         0.27000E+04
         0.27000E+04
         0.27000E+04
         0.27000E+04
         0.27000E+04
         0.27000E+04
         0.27000E+04
         0.27000E+04
         0.27000E+04
         0.27000E+04
         0.27000E+04
         0.27000E+04
         0.27000E+04
         0.27000E+04
         0.27000E+04
         0.27000E+04
         0.27000E+04
         0.27000E+04
         0.27000E+04
         0.27000E+04
         0.27000E+04
         0.27000E+04
         0.27000E+04
         0.27000E+04
         0.27000E+04
         0.27000E+04
         0.27000E+04
         0.27000E+04
         0.27000E+04
         0.27000E+04
         0.27000E+04
         0.27000E+04
         0.27000E+04
         0.27000E+04
         0.27000E+04
         0.27000E+04
         0.27000E+04
         0.27000E+04
         0.27000E+04
         0.27000E+04
         0.27000E+04
         0.27000E+04
         0.27000E+04
         0.27000E+04
         0.27000E+04
         0.27000E+04
         0.27000E+04
         0.27000E+04
         0.27000E+04
         0.27000E+04
         0.27000E+04
         0.27000E+04
         0.27000E+04
         0.27000E+04
         0.27000E+04
         0.27000E+04
         0.27000E+04
         0.27000E+04
         0.27000E+04
         0.27000E+04
         0.27000E+04
         0.27000E+04
         0.27000E+04
         0.27000E+04
         0.27000E+04
         0.27000E+04
         0.27000E+04
         0.27000E+04
         0.27000E+04
         0.27000E+04
         0.27000E+04
         0.27000E+04
         0.27000E+04
         0.27000E+04
         0.27000E+04
         0.27000E+04
         0.27000E+04
         0.27000E+04
         0.27000E+04
         0.27000E+04
         0.27000E+04
         0.27000E+04
         0.27000E+04
         0.27000E+04
         0.27000E+04
         0.27000E+04
         0.27000E+04
         0.27000E+04
         0.27000E+04
         0.27000E+04
         0.27000E+04
         0.27000E+04
         0.27000E+04
         0.27000E+04
         0.27000E+04
         0.27000E+04
         0.27000E+04
         0.27000E+04
         0.27000E+04
         0.27000E+04
         0.27000E+04
         0.27000E+04
         0.27000E+04
         0.27000E+04
         0.27000E+04
         0.27000E+04
         0.27000E+04
         0.27000E+04
         0.27000E+04
         0.27000E+04
         0.27000E+04
         0.27000E+04
         0.27000E+04
         0.27000E+04
         0.27000E+04
         0.27000E+04
         0.27000E+04
         0.27000E+04
         0.27000E+04
         0.27000E+04
         0.27000E+04
         0.27000E+04
         0.27000E+04
         0.27000E+04
         0.27000E+04
         0.27000E+04
         0.27000E+04
         0.27000E+04
         0.27000E+04
         0.27000E+04
         0.27000E+04
         0.27000E+04
         0.27000E+04
         0.27000E+04
         0.27000E+04
         0.27000E+04
         0.27000E+04
         0.27000E+04
         0.27000E+04
         0.27000E+04
         0.27000E+04
         0.27000E+04
         0.27000E+04
         0.27000E+04
         0.27000E+04
         0.27000E+04
         0.27000E+04
         0.27000E+04
         0.27000E+04
         0.27000E+04
         0.27000E+04
         0.27000E+04
         0.27000E+04
         0.27000E+04
         0.27000E+04
         0.27000E+04
         0.27000E+04
         0.27000E+04
         0.27000E+04
         0.27000E+04
         0.27000E+04
         0.27000E+04
         0.27000E+04
         0.27000E+04
         0.27000E+04
         0.27000E+04
         0.27000E+04
         0.27000E+04
         0.27000E+04
         0.27000E+04
         0.27000E+04
         0.27000E+04
         0.27000E+04
         0.27000E+04
         0.27000E+04
         0.27000E+04
         0.27000E+04
         0.27000E+04
         0.27000E+04
         0.27000E+04
         0.27000E+04
         0.27000E+04
         0.27000E+04
         0.27000E+04
         0.27000E+04
         0.27000E+04
         0.27000E+04
         0.27000E+04
         0.27000E+04
         0.27000E+04
         0.27000E+04
         0.27000E+04
         0.27000E+04
         0.27000E+04
         0.27000E+04
         0.27000E+04
         0.27000E+04
         0.27000E+04
         0.27000E+04
         0.27000E+04
         0.27000E+04
         0.27000E+04
         0.27000E+04
         0.27000E+04
         0.27000E+04
         0.27000E+04
         0.27000E+04
         0.27000E+04
         0.27000E+04
         0.27000E+04
         0.27000E+04
         0.27000E+04
         0.27000E+04
         0.27000E+04
         0.27000E+04
         0.27000E+04
         0.27000E+04
         0.27000E+04
         0.27000E+04
         0.27000E+04
         0.27000E+04
         0.27000E+04
         0.27000E+04
         0.27000E+04
         0.27000E+04
         0.27000E+04
         0.27000E+04
         0.27000E+04
         0.27000E+04
         0.27000E+04
         0.27000E+04
         0.27000E+04
         0.27000E+04
         0.27000E+04
         0.27000E+04
         0.27000E+04
         0.27000E+04
         0.27000E+04
         0.27000E+04
         0.27000E+04
         0.27000E+04
         0.27000E+04
         0.27000E+04
         0.27000E+04
         0.27000E+04
         0.27000E+04
         0.27000E+04
         0.27000E+04
         0.27000E+04
         0.27000E+04
         0.27000E+04
         0.27000E+04
         0.27000E+04
         0.27000E+04
         0.27000E+04
         0.27000E+04
         0.27000E+04
         0.27000E+04
         0.27000E+04
         0.27000E+04
         0.27000E+04
         0.27000E+04
         0.27000E+04
         0.27000E+04
         0.27000E+04
         0.27000E+04
         0.27000E+04
         0.27000E+04
         0.27000E+04
         0.27000E+04
         0.27000E+04
         0.27000E+04
         0.27000E+04
         0.27000E+04
         0.27000E+04
         0.27000E+04
         0.27000E+04
         0.27000E+04
         0.27000E+04
         0.27000E+04
         0.27000E+04
         0.27000E+04
         0.27000E+04
         0.27000E+04
         0.27000E+04
         0.27000E+04
         0.27000E+04
         0.27000E+04
         0.27000E+04
         0.27000E+04
         0.27000E+04
         0.27000E+04
         0.27000E+04
         0.27000E+04
         0.27000E+04
         0.27000E+04
         0.27000E+04
         0.27000E+04
         0.27000E+04
         0.27000E+04
         0.27000E+04
         0.27000E+04
         0.27000E+04
         0.27000E+04
         0.27000E+04
         0.27000E+04
         0.27000E+04
         0.27000E+04
         0.27000E+04
         0.27000E+04
         0.27000E+04
         0.27000E+04
         0.27000E+04
         0.27000E+04
         0.27000E+04
         0.27000E+04
         0.27000E+04
         0.27000E+04
         0.27000E+04
         0.27000E+04
         0.27000E+04
         0.27000E+04
         0.27000E+04
         0.27000E+04
         0.27000E+04
         0.27000E+04
         0.27000E+04
         0.27000E+04
         0.27000E+04
         0.27000E+04
         0.27000E+04
         0.27000E+04
         0.27000E+04
         0.27000E+04
         0.27000E+04
         0.27000E+04
         0.27000E+04
         0.27000E+04
         0.27000E+04
         0.27000E+04
         0.27000E+04
         0.27000E+04
         0.27000E+04
         0.27000E+04
         0.27000E+04
         0.27000E+04
         0.27000E+04
         0.27000E+04
         0.27000E+04
         0.27000E+04
         0.27000E+04
         0.27000E+04
         0.27000E+04
         0.27000E+04
         0.27000E+04
         0.27000E+04
         0.27000E+04
         0.27000E+04
         0.27000E+04
         0.27000E+04
         0.27000E+04
         0.27000E+04
         0.27000E+04
         0.27000E+04
         0.27000E+04
         0.27000E+04
         0.27000E+04
         0.27000E+04
         0.27000E+04
         0.27000E+04
         0.27000E+04
         0.27000E+04
         0.27000E+04
         0.27000E+04
         0.27000E+04
         0.27000E+04
         0.27000E+04
         0.27000E+04
         0.27000E+04
         0.27000E+04
         0.27000E+04
         0.27000E+04
         0.27000E+04
         0.27000E+04
         0.27000E+04
         0.27000E+04
         0.27000E+04
         0.27000E+04
         0.27000E+04
         0.27000E+04
         0.27000E+04
         0.27000E+04
         0.27000E+04
         0.27000E+04
         0.27000E+04
         0.27000E+04
         0.27000E+04
         0.27000E+04
         0.27000E+04
         0.27000E+04
         0.27000E+04
         0.27000E+04
         0.27000E+04
         0.27000E+04
         0.27000E+04
         0.27000E+04
         0.27000E+04
         0.27000E+04
         0.27000E+04
         0.27000E+04
         0.27000E+04
         0.27000E+04
         0.27000E+04
         0.27000E+04
         0.27000E+04
         0.27000E+04
         0.27000E+04
         0.27000E+04
         0.27000E+04
         0.27000E+04
         0.27000E+04
         0.27000E+04
         0.27000E+04
         0.27000E+04
         0.27000E+04
         0.27000E+04
         0.27000E+04
         0.27000E+04
         0.27000E+04
         0.27000E+04
         0.27000E+04
         0.27000E+04
         0.27000E+04
         0.27000E+04
         0.27000E+04
         0.27000E+04
         0.27000E+04
         0.27000E+04
         0.27000E+04
         0.27000E+04
         0.27000E+04
         0.27000E+04
         0.27000E+04
         0.27000E+04
         0.27000E+04
         0.27000E+04
         0.27000E+04
         0.27000E+04
         0.27000E+04
         0.27000E+04
         0.27000E+04
         0.27000E+04
         0.27000E+04
         0.27000E+04
         0.27000E+04
         0.27000E+04
         0.27000E+04
         0.27000E+04
         0.27000E+04
         0.27000E+04
         0.27000E+04
         0.27000E+04
         0.27000E+04
         0.27000E+04
         0.27000E+04
         0.27000E+04
         0.27000E+04
         0.27000E+04
         0.27000E+04
         0.27000E+04
         0.27000E+04
         0.27000E+04
         0.27000E+04
         0.27000E+04
         0.27000E+04
         0.27000E+04
         0.27000E+04
         0.27000E+04
         0.27000E+04
         0.27000E+04
         0.27000E+04
         0.27000E+04
         0.27000E+04
         0.27000E+04
         0.27000E+04
         0.27000E+04
         0.27000E+04
         0.27000E+04
         0.27000E+04
         0.27000E+04
         0.27000E+04
         0.27000E+04
         0.27000E+04
         0.27000E+04
         0.27000E+04
         0.27000E+04
         0.27000E+04
         0.27000E+04
         0.27000E+04
         0.27000E+04
         0.27000E+04
         0.27000E+04
         0.27000E+04
         0.27000E+04
         0.27000E+04
         0.27000E+04
         0.27000E+04
         0.27000E+04
         0.27000E+04
         0.27000E+04
         0.27000E+04
         0.27000E+04
         0.27000E+04
         0.27000E+04
         0.27000E+04
         0.27000E+04
         0.27000E+04
         0.27000E+04
         0.27000E+04
         0.27000E+04
         0.27000E+04
         0.27000E+04
         0.27000E+04
         0.27000E+04
         0.27000E+04
         0.27000E+04
         0.27000E+04
         0.27000E+04
         0.27000E+04
         0.27000E+04
         0.27000E+04
         0.27000E+04
         0.27000E+04
         0.27000E+04
         0.27000E+04
         0.27000E+04
         0.27000E+04
         0.27000E+04
         0.27000E+04
         0.27000E+04
         0.27000E+04
         0.27000E+04
         0.27000E+04
         0.27000E+04
         0.27000E+04
         0.27000E+04
         0.27000E+04
         0.27000E+04
         0.27000E+04
         0.27000E+04
         0.27000E+04
         0.27000E+04
         0.27000E+04
         0.27000E+04
         0.27000E+04
         0.27000E+04
         0.27000E+04
         0.27000E+04
         0.27000E+04
         0.27000E+04
         0.27000E+04
         0.27000E+04
         0.27000E+04
         0.27000E+04
         0.27000E+04
         0.27000E+04
         0.27000E+04
         0.27000E+04
         0.27000E+04
         0.27000E+04
         0.27000E+04
         0.27000E+04
         0.27000E+04
         0.27000E+04
         0.27000E+04
         0.27000E+04
         0.27000E+04
         0.27000E+04
         0.27000E+04
         0.27000E+04
         0.27000E+04
         0.27000E+04
         0.27000E+04
         0.27000E+04
         0.27000E+04
         0.27000E+04
         0.27000E+04
         0.27000E+04
         0.27000E+04
         0.27000E+04
         0.27000E+04
         0.27000E+04
         0.27000E+04
         0.27000E+04
         0.27000E+04
         0.27000E+04
         0.27000E+04
         0.27000E+04
         0.27000E+04
         0.27000E+04
         0.27000E+04
         0.27000E+04
         0.27000E+04
         0.27000E+04
         0.27000E+04
         0.27000E+04
         0.27000E+04
         0.27000E+04
         0.27000E+04
         0.27000E+04
         0.27000E+04
         0.27000E+04
         0.27000E+04
         0.27000E+04
         0.27000E+04
         0.27000E+04
         0.27000E+04
         0.27000E+04
         0.27000E+04
         0.27000E+04
         0.27000E+04
         0.27000E+04
         0.27000E+04
         0.27000E+04
         0.27000E+04
         0.27000E+04
         0.27000E+04
         0.27000E+04
         0.27000E+04
         0.27000E+04
         0.27000E+04
         0.27000E+04
         0.27000E+04
         0.27000E+04
         0.27000E+04
         0.27000E+04
         0.27000E+04
         0.27000E+04
         0.27000E+04
         0.27000E+04
         0.27000E+04
         0.27000E+04
         0.27000E+04
         0.27000E+04
         0.27000E+04
         0.27000E+04
         0.27000E+04
         0.27000E+04
         0.27000E+04
         0.27000E+04
         0.27000E+04
         0.27000E+04
         0.27000E+04
         0.27000E+04
         0.27000E+04
         0.27000E+04
         0.27000E+04
         0.27000E+04
         0.27000E+04
         0.27000E+04
         0.27000E+04
         0.27000E+04
         0.27000E+04
         0.27000E+04
         0.27000E+04
         0.27000E+04
         0.27000E+04
         0.27000E+04
         0.27000E+04
         0.27000E+04
         0.27000E+04
         0.27000E+04
         0.27000E+04
         0.27000E+04
         0.27000E+04
         0.27000E+04
         0.27000E+04
         0.27000E+04
         0.27000E+04
         0.27000E+04
         0.27000E+04
         0.27000E+04
         0.27000E+04
         0.27000E+04
         0.27000E+04
         0.27000E+04
         0.27000E+04
         0.27000E+04
         0.27000E+04
         0.27000E+04
         0.27000E+04
         0.27000E+04
         0.27000E+04
         0.27000E+04
         0.27000E+04
         0.27000E+04
         0.27000E+04
         0.27000E+04
         0.27000E+04
         0.27000E+04
         0.27000E+04
         0.27000E+04
         0.27000E+04
         0.27000E+04
         0.27000E+04
         0.27000E+04
         0.27000E+04
         0.27000E+04
         0.27000E+04
         0.27000E+04
         0.27000E+04
         0.27000E+04
         0.27000E+04
         0.27000E+04
         0.27000E+04
         0.27000E+04
         0.27000E+04
         0.27000E+04
         0.27000E+04
         0.27000E+04
         0.27000E+04
         0.27000E+04
         0.27000E+04
         0.27000E+04
         0.27000E+04
         0.27000E+04
         0.27000E+04
         0.27000E+04
         0.27000E+04
         0.27000E+04
         0.27000E+04
         0.27000E+04
         0.27000E+04
         0.27000E+04
         0.27000E+04
         0.27000E+04
         0.27000E+04
         0.27000E+04
         0.27000E+04
         0.27000E+04
         0.27000E+04
         0.27000E+04
         0.27000E+04
         0.27000E+04
         0.27000E+04
         0.27000E+04
         0.27000E+04
         0.27000E+04
         0.27000E+04
         0.27000E+04
         0.27000E+04
         0.27000E+04
         0.27000E+04
         0.27000E+04
         0.27000E+04
         0.27000E+04
         0.27000E+04
         0.27000E+04
         0.27000E+04
         0.27000E+04
         0.27000E+04
         0.27000E+04
         0.27000E+04
         0.27000E+04
         0.27000E+04
         0.27000E+04
         0.27000E+04
         0.27000E+04
         0.27000E+04
         0.27000E+04
         0.27000E+04
         0.27000E+04
         0.27000E+04
         0.27000E+04
         0.27000E+04
         0.27000E+04
         0.27000E+04
         0.27000E+04
         0.27000E+04
         0.27000E+04
         0.27000E+04
         0.27000E+04
         0.27000E+04
         0.27000E+04
         0.27000E+04
         0.27000E+04
         0.27000E+04
         0.27000E+04
         0.27000E+04
         0.27000E+04
         0.27000E+04
         0.27000E+04
         0.27000E+04
         0.27000E+04
         0.27000E+04
         0.27000E+04
         0.27000E+04
         0.27000E+04
         0.27000E+04
         0.27000E+04
         0.27000E+04
         0.27000E+04
         0.27000E+04
         0.27000E+04
         0.27000E+04
         0.27000E+04
         0.27000E+04
         0.27000E+04
         0.27000E+04
         0.27000E+04
         0.27000E+04
         0.27000E+04
         0.27000E+04
         0.27000E+04
         0.27000E+04
         0.27000E+04
         0.27000E+04
         0.27000E+04
         0.27000E+04
         0.27000E+04
         0.27000E+04
         0.27000E+04
         0.27000E+04
         0.27000E+04
         0.27000E+04
         0.27000E+04
         0.27000E+04
         0.27000E+04
         0.27000E+04
         0.27000E+04
         0.27000E+04
         0.27000E+04
         0.27000E+04
         0.27000E+04
         0.27000E+04
         0.27000E+04
         0.27000E+04
         0.27000E+04
         0.27000E+04
         0.27000E+04
         0.27000E+04
         0.27000E+04
         0.27000E+04
         0.27000E+04
         0.27000E+04
         0.27000E+04
         0.27000E+04
         0.27000E+04
         0.27000E+04
         0.27000E+04
         0.27000E+04
         0.27000E+04
         0.27000E+04
         0.27000E+04
         0.27000E+04
         0.27000E+04
         0.27000E+04
         0.27000E+04
         0.27000E+04
         0.27000E+04
         0.27000E+04
         0.27000E+04
         0.27000E+04
         0.27000E+04
         0.27000E+04
         0.27000E+04
         0.27000E+04
         0.27000E+04
         0.27000E+04
         0.27000E+04
         0.27000E+04
         0.27000E+04
         0.27000E+04
         0.27000E+04
         0.27000E+04
         0.27000E+04
         0.27000E+04
         0.27000E+04
         0.27000E+04
         0.27000E+04
         0.27000E+04
         0.27000E+04
         0.27000E+04
         0.27000E+04
         0.27000E+04
         0.27000E+04
         0.27000E+04
         0.27000E+04
         0.27000E+04
         0.27000E+04
         0.27000E+04
         0.27000E+04
         0.27000E+04
         0.27000E+04
         0.27000E+04
         0.27000E+04
         0.27000E+04
         0.27000E+04
         0.27000E+04
         0.27000E+04
         0.27000E+04
         0.27000E+04
         0.27000E+04
         0.27000E+04
         0.27000E+04
         0.27000E+04
         0.27000E+04
         0.27000E+04
         0.27000E+04
         0.27000E+04
         0.27000E+04
         0.27000E+04
         0.27000E+04
         0.27000E+04
         0.27000E+04
         0.27000E+04
         0.27000E+04
         0.27000E+04
         0.27000E+04
         0.27000E+04
         0.27000E+04
         0.27000E+04
         0.27000E+04
         0.27000E+04
         0.27000E+04
         0.27000E+04
         0.27000E+04
         0.27000E+04
         0.27000E+04
         0.27000E+04
         0.27000E+04
         0.27000E+04
         0.27000E+04
         0.27000E+04
         0.27000E+04
         0.27000E+04
         0.27000E+04
         0.27000E+04
         0.27000E+04
         0.27000E+04
         0.27000E+04
         0.27000E+04
         0.27000E+04
         0.27000E+04
         0.27000E+04
         0.27000E+04
         0.27000E+04
         0.27000E+04
         0.27000E+04
         0.27000E+04
         0.27000E+04
         0.27000E+04
         0.27000E+04
         0.27000E+04
         0.27000E+04
         0.27000E+04
         0.27000E+04
         0.27000E+04
         0.27000E+04
         0.27000E+04
         0.27000E+04
         0.27000E+04
         0.27000E+04
         0.27000E+04
         0.27000E+04
         0.27000E+04
         0.27000E+04
         0.27000E+04
         0.27000E+04
         0.27000E+04
         0.27000E+04
         0.27000E+04
         0.27000E+04
         0.27000E+04
         0.27000E+04
         0.27000E+04
         0.27000E+04
         0.27000E+04
         0.27000E+04
         0.27000E+04
         0.27000E+04
         0.27000E+04
         0.27000E+04
         0.27000E+04
         0.27000E+04
         0.27000E+04
         0.27000E+04
         0.27000E+04
         0.27000E+04
         0.27000E+04
         0.27000E+04
         0.27000E+04
         0.27000E+04
         0.27000E+04
         0.27000E+04
         0.27000E+04
         0.27000E+04
         0.27000E+04
         0.27000E+04
         0.27000E+04
         0.27000E+04
         0.27000E+04
         0.27000E+04
         0.27000E+04
         0.27000E+04
         0.27000E+04
         0.27000E+04
         0.27000E+04
         0.27000E+04
         0.27000E+04
         0.27000E+04
         0.27000E+04
         0.27000E+04
         0.27000E+04
         0.27000E+04
         0.27000E+04
         0.27000E+04
         0.27000E+04
         0.27000E+04
         0.27000E+04
         0.27000E+04
         0.27000E+04
         0.27000E+04
         0.27000E+04
         0.27000E+04
         0.27000E+04
         0.27000E+04
         0.27000E+04
         0.27000E+04
         0.27000E+04
         0.27000E+04
         0.27000E+04
         0.27000E+04
         0.27000E+04
         0.27000E+04
         0.27000E+04
         0.27000E+04
         0.27000E+04
         0.27000E+04
         0.27000E+04
         0.27000E+04
         0.27000E+04
         0.27000E+04
         0.27000E+04
         0.27000E+04
         0.27000E+04
         0.27000E+04
         0.27000E+04
         0.27000E+04
         0.27000E+04
         0.27000E+04
         0.27000E+04
         0.27000E+04
         0.27000E+04
         0.27000E+04
         0.27000E+04
         0.27000E+04
         0.27000E+04
         0.27000E+04
         0.27000E+04
         0.27000E+04
         0.27000E+04
         0.27000E+04
         0.27000E+04
         0.27000E+04
         0.27000E+04
         0.27000E+04
         0.27000E+04
         0.27000E+04
         0.27000E+04
         0.27000E+04
         0.27000E+04
         0.27000E+04
         0.27000E+04
         0.27000E+04
         0.27000E+04
         0.27000E+04
         0.27000E+04
         0.27000E+04
         0.27000E+04
         0.27000E+04
         0.27000E+04
         0.27000E+04
         0.27000E+04
         0.27000E+04
         0.27000E+04
         0.27000E+04
         0.27000E+04
         0.27000E+04
         0.27000E+04
         0.27000E+04
         0.27000E+04
         0.27000E+04
         0.27000E+04
         0.27000E+04
         0.27000E+04
         0.27000E+04
         0.27000E+04
         0.27000E+04
         0.27000E+04
         0.27000E+04
         0.27000E+04
         0.27000E+04
         0.27000E+04
         0.27000E+04
         0.27000E+04
         0.27000E+04
         0.27000E+04
         0.27000E+04
         0.27000E+04
         0.27000E+04
         0.27000E+04
         0.27000E+04
         0.27000E+04
         0.27000E+04
         0.27000E+04
         0.27000E+04
         0.27000E+04
         0.27000E+04
         0.27000E+04
         0.27000E+04
         0.27000E+04
         0.27000E+04
         0.27000E+04
         0.27000E+04
         0.27000E+04
         0.27000E+04
         0.27000E+04
         0.27000E+04
         0.27000E+04
         0.27000E+04
         0.27000E+04
         0.27000E+04
         0.27000E+04
         0.27000E+04
         0.27000E+04
         0.27000E+04
         0.27000E+04
         0.27000E+04
         0.27000E+04
         0.27000E+04
         0.27000E+04
         0.27000E+04
         0.27000E+04
         0.27000E+04
         0.27000E+04
         0.27000E+04
         0.27000E+04
         0.27000E+04
         0.27000E+04
         0.27000E+04
         0.27000E+04
         0.27000E+04
         0.27000E+04
         0.27000E+04
         0.27000E+04
         0.27000E+04
         0.27000E+04
         0.27000E+04
         0.27000E+04
         0.27000E+04
         0.27000E+04
         0.27000E+04
         0.27000E+04
         0.27000E+04
         0.27000E+04
         0.27000E+04
         0.27000E+04
         0.27000E+04
         0.27000E+04
         0.27000E+04
         0.27000E+04
         0.27000E+04
         0.27000E+04
         0.27000E+04
         0.27000E+04
         0.27000E+04
         0.27000E+04
         0.27000E+04
         0.27000E+04
         0.27000E+04
         0.27000E+04
         0.27000E+04
         0.27000E+04
         0.27000E+04
         0.27000E+04
         0.27000E+04
         0.27000E+04
         0.27000E+04
         0.27000E+04
         0.27000E+04
         0.27000E+04
         0.27000E+04
         0.27000E+04
         0.27000E+04
         0.27000E+04
         0.27000E+04
         0.27000E+04
         0.27000E+04
         0.27000E+04
         0.27000E+04
         0.27000E+04
         0.27000E+04
         0.27000E+04
         0.27000E+04
         0.27000E+04
         0.27000E+04
         0.27000E+04
         0.27000E+04
         0.27000E+04
         0.27000E+04
         0.27000E+04
         0.27000E+04
         0.27000E+04
         0.27000E+04
         0.27000E+04
         0.27000E+04
         0.27000E+04
         0.27000E+04
         0.27000E+04
         0.27000E+04
         0.27000E+04
         0.27000E+04
         0.27000E+04
         0.27000E+04
         0.27000E+04
         0.27000E+04
         0.27000E+04
         0.27000E+04
         0.27000E+04
         0.27000E+04
         0.27000E+04
         0.27000E+04
         0.27000E+04
         0.27000E+04
         0.27000E+04
         0.27000E+04
         0.27000E+04
         0.27000E+04
         0.27000E+04
         0.27000E+04
         0.27000E+04
         0.27000E+04
         0.27000E+04
         0.27000E+04
         0.27000E+04
         0.27000E+04
         0.27000E+04
         0.27000E+04
         0.27000E+04
         0.27000E+04
         0.27000E+04
         0.27000E+04
         0.27000E+04
         0.27000E+04
         0.27000E+04
         0.27000E+04
         0.27000E+04
         0.27000E+04
         0.27000E+04
         0.27000E+04
         0.27000E+04
         0.27000E+04
         0.27000E+04
         0.27000E+04
         0.27000E+04
         0.27000E+04
         0.27000E+04
         0.27000E+04
         0.27000E+04
         0.27000E+04
         0.27000E+04
         0.27000E+04
         0.27000E+04
         0.27000E+04
         0.27000E+04
         0.27000E+04
         0.27000E+04
         0.27000E+04
         0.27000E+04
         0.27000E+04
         0.27000E+04
         0.27000E+04
         0.27000E+04
         0.27000E+04
         0.27000E+04
         0.27000E+04
         0.27000E+04
         0.27000E+04
         0.27000E+04
         0.27000E+04
         0.27000E+04
         0.27000E+04
         0.27000E+04
         0.27000E+04
         0.27000E+04
         0.27000E+04
         0.27000E+04
         0.27000E+04
         0.27000E+04
         0.27000E+04
         0.27000E+04
         0.27000E+04
         0.27000E+04
         0.27000E+04
         0.27000E+04
         0.27000E+04
         0.27000E+04
         0.27000E+04
         0.27000E+04
         0.27000E+04
         0.27000E+04
         0.27000E+04
         0.27000E+04
         0.27000E+04
         0.27000E+04
         0.27000E+04
         0.27000E+04
         0.27000E+04
         0.27000E+04
         0.27000E+04
         0.27000E+04
         0.27000E+04
         0.27000E+04
         0.27000E+04
         0.27000E+04
         0.27000E+04
         0.27000E+04
         0.27000E+04
         0.27000E+04
         0.27000E+04
         0.27000E+04
         0.27000E+04
         0.27000E+04
         0.27000E+04
         0.27000E+04
         0.27000E+04
         0.27000E+04
         0.27000E+04
         0.27000E+04
         0.27000E+04
         0.27000E+04
         0.27000E+04
         0.27000E+04
         0.27000E+04
         0.27000E+04
         0.27000E+04
         0.27000E+04
         0.27000E+04
         0.27000E+04
         0.27000E+04
         0.27000E+04
         0.27000E+04
         0.27000E+04
         0.27000E+04
         0.27000E+04
         0.27000E+04
         0.27000E+04
         0.27000E+04
         0.27000E+04
         0.27000E+04
         0.27000E+04
         0.27000E+04
         0.27000E+04
         0.27000E+04
         0.27000E+04
         0.27000E+04
         0.27000E+04
         0.27000E+04
         0.27000E+04
         0.27000E+04
         0.27000E+04
         0.27000E+04
         0.27000E+04
         0.27000E+04
         0.27000E+04
         0.27000E+04
         0.27000E+04
         0.27000E+04
         0.27000E+04
         0.27000E+04
         0.27000E+04
         0.27000E+04
         0.27000E+04
         0.27000E+04
         0.27000E+04
         0.27000E+04
         0.27000E+04
         0.27000E+04
         0.27000E+04
         0.27000E+04
         0.27000E+04
         0.27000E+04
         0.27000E+04
         0.27000E+04
         0.27000E+04
         0.27000E+04
         0.27000E+04
         0.27000E+04
         0.27000E+04
         0.27000E+04
         0.27000E+04
         0.27000E+04
         0.27000E+04
         0.27000E+04
         0.27000E+04
         0.27000E+04
         0.27000E+04
         0.27000E+04
         0.27000E+04
         0.27000E+04
         0.27000E+04
         0.27000E+04
         0.27000E+04
         0.27000E+04
         0.27000E+04
         0.27000E+04
         0.27000E+04
         0.27000E+04
         0.27000E+04
         0.27000E+04
         0.27000E+04
         0.27000E+04
         0.27000E+04
         0.27000E+04
         0.27000E+04
         0.27000E+04
         0.27000E+04
         0.27000E+04
         0.27000E+04
         0.27000E+04
         0.27000E+04
         0.27000E+04
         0.27000E+04
         0.27000E+04
         0.27000E+04
         0.27000E+04
         0.27000E+04
         0.27000E+04
         0.27000E+04
         0.27000E+04
         0.27000E+04
         0.27000E+04
         0.27000E+04
         0.27000E+04
         0.27000E+04
         0.27000E+04
         0.27000E+04
         0.27000E+04
         0.27000E+04
         0.27000E+04
         0.27000E+04
         0.27000E+04
         0.27000E+04
         0.27000E+04
         0.27000E+04
         0.27000E+04
         0.27000E+04
         0.27000E+04
         0.27000E+04
         0.27000E+04
         0.27000E+04
         0.27000E+04
         0.27000E+04
         0.27000E+04
         0.27000E+04
         0.27000E+04
         0.27000E+04
         0.27000E+04
         0.27000E+04
         0.27000E+04
         0.27000E+04
         0.27000E+04
         0.27000E+04
         0.27000E+04
         0.27000E+04
         0.27000E+04
         0.27000E+04
         0.27000E+04
         0.27000E+04
         0.27000E+04
         0.27000E+04
         0.27000E+04
         0.27000E+04
         0.27000E+04
         0.27000E+04
         0.27000E+04
         0.27000E+04
         0.27000E+04
         0.27000E+04
         0.27000E+04
         0.27000E+04
         0.27000E+04
         0.27000E+04
         0.27000E+04
         0.27000E+04
         0.27000E+04
         0.27000E+04
         0.27000E+04
         0.27000E+04
         0.27000E+04
         0.27000E+04
         0.27000E+04
         0.27000E+04
         0.27000E+04
         0.27000E+04
         0.27000E+04
         0.27000E+04
         0.27000E+04
         0.27000E+04
         0.27000E+04
         0.27000E+04
         0.27000E+04
         0.27000E+04
         0.27000E+04
         0.27000E+04
         0.27000E+04
         0.27000E+04
         0.27000E+04
         0.27000E+04
         0.27000E+04
         0.27000E+04
         0.27000E+04
         0.27000E+04
         0.27000E+04
         0.27000E+04
         0.27000E+04
         0.27000E+04
         0.27000E+04
         0.27000E+04
         0.27000E+04
         0.27000E+04
         0.27000E+04
         0.27000E+04
         0.27000E+04
         0.27000E+04
         0.27000E+04
         0.27000E+04
         0.27000E+04
         0.27000E+04
         0.27000E+04
         0.27000E+04
         0.27000E+04
         0.27000E+04
         0.27000E+04
         0.27000E+04
         0.27000E+04
         0.27000E+04
         0.27000E+04
         0.27000E+04
         0.27000E+04
         0.27000E+04
         0.27000E+04
         0.27000E+04
         0.27000E+04
         0.27000E+04
         0.27000E+04
         0.27000E+04
         0.27000E+04
         0.27000E+04
         0.27000E+04
         0.27000E+04
         0.27000E+04
         0.27000E+04
         0.27000E+04
         0.27000E+04
         0.27000E+04
         0.27000E+04
         0.27000E+04
         0.27000E+04
         0.27000E+04
         0.27000E+04
         0.27000E+04
         0.27000E+04
         0.27000E+04
         0.27000E+04
         0.27000E+04
         0.27000E+04
         0.27000E+04
         0.27000E+04
         0.27000E+04
         0.27000E+04
