# vtk DataFile Version 2.0
               (MEGA VTK FILE)
ASCII
DATASET UNSTRUCTURED_GRID
POINTS       1950    double
  0.10378E-02  0.67292E-03 -0.14356E-01
  0.17452E-02  0.12308E-02 -0.14350E-01
  0.23177E-02  0.59151E-03 -0.14349E-01
  0.16698E-02 -0.33775E-03 -0.14360E-01
  0.10379E-02  0.67237E-03 -0.11750E-01
  0.17453E-02  0.12301E-02 -0.11750E-01
  0.23178E-02  0.59098E-03 -0.11750E-01
  0.16700E-02 -0.33851E-03 -0.11750E-01
  0.30377E-02  0.14882E-03 -0.14339E-01
  0.27791E-02 -0.67643E-03 -0.14351E-01
  0.30377E-02  0.14846E-03 -0.11750E-01
  0.27788E-02 -0.67692E-03 -0.11750E-01
  0.12850E-02  0.18412E-02 -0.14344E-01
  0.65139E-03  0.14576E-02 -0.14352E-01
  0.12851E-02  0.18410E-02 -0.11750E-01
  0.65164E-03  0.14566E-02 -0.11750E-01
  0.12757E-03  0.29933E-03 -0.14357E-01
 -0.12822E-03  0.11672E-02 -0.14358E-01
  0.12783E-03  0.29819E-03 -0.11750E-01
 -0.12804E-03  0.11655E-02 -0.11750E-01
  0.94500E-03  0.22748E-02 -0.14340E-01
  0.11327E-02  0.28286E-02 -0.14335E-01
  0.17490E-02  0.24238E-02 -0.14337E-01
  0.94533E-03  0.22746E-02 -0.11750E-01
  0.11330E-02  0.28291E-02 -0.11750E-01
  0.17494E-02  0.24236E-02 -0.11750E-01
  0.40588E-03  0.21685E-02 -0.14350E-01
  0.39779E-03  0.29366E-02 -0.14347E-01
  0.40594E-03  0.21684E-02 -0.11750E-01
  0.39781E-03  0.29369E-02 -0.11750E-01
 -0.76303E-03 -0.10033E-02 -0.14361E-01
 -0.86604E-03  0.78969E-04 -0.14364E-01
  0.46119E-03 -0.70318E-03 -0.14359E-01
 -0.76268E-03 -0.10032E-02 -0.11750E-01
 -0.86593E-03  0.78160E-04 -0.11750E-01
  0.46164E-03 -0.70391E-03 -0.11750E-01
 -0.18300E-02 -0.71196E-03 -0.14350E-01
 -0.18440E-02  0.82749E-04 -0.14361E-01
 -0.18297E-02 -0.71210E-03 -0.11750E-01
 -0.18441E-02  0.82626E-04 -0.11750E-01
 -0.27238E-02 -0.77865E-03 -0.14346E-01
 -0.28028E-02  0.40713E-04 -0.14356E-01
 -0.27238E-02 -0.77882E-03 -0.11750E-01
 -0.28031E-02  0.40439E-04 -0.11750E-01
 -0.25365E-02 -0.15195E-02 -0.14337E-01
 -0.19287E-02 -0.13230E-02 -0.14342E-01
 -0.25363E-02 -0.15195E-02 -0.11750E-01
 -0.19283E-02 -0.13231E-02 -0.11750E-01
 -0.99363E-03  0.98847E-03 -0.14365E-01
 -0.99377E-03  0.98712E-03 -0.11750E-01
 -0.14380E-02 -0.17325E-02 -0.14348E-01
 -0.14377E-02 -0.17325E-02 -0.11750E-01
 -0.31574E-03  0.20220E-02 -0.14360E-01
 -0.31594E-03  0.20217E-02 -0.11750E-01
 -0.11068E-02  0.18615E-02 -0.14364E-01
 -0.11071E-02  0.18616E-02 -0.11750E-01
 -0.18845E-02  0.17175E-02 -0.14354E-01
 -0.18713E-02  0.90940E-03 -0.14362E-01
 -0.18846E-02  0.17175E-02 -0.11750E-01
 -0.18714E-02  0.90916E-03 -0.11750E-01
 -0.15871E-03 -0.19800E-02 -0.14358E-01
 -0.94089E-03 -0.23489E-02 -0.14348E-01
 -0.15844E-03 -0.19800E-02 -0.11750E-01
 -0.94029E-03 -0.23489E-02 -0.11750E-01
  0.78856E-03 -0.17074E-02 -0.14358E-01
  0.78922E-03 -0.17074E-02 -0.11750E-01
  0.17211E-02 -0.14894E-02 -0.14354E-01
  0.17211E-02 -0.14892E-02 -0.11750E-01
  0.32050E-02  0.76036E-03 -0.14323E-01
  0.28046E-02  0.12477E-02 -0.14335E-01
  0.32047E-02  0.75936E-03 -0.11750E-01
  0.28047E-02  0.12473E-02 -0.11750E-01
  0.23059E-02  0.18665E-02 -0.14340E-01
  0.23060E-02  0.18664E-02 -0.11750E-01
 -0.40614E-03  0.29038E-02 -0.14353E-01
 -0.40627E-03  0.29049E-02 -0.11750E-01
 -0.12092E-02  0.27207E-02 -0.14352E-01
 -0.12092E-02  0.27212E-02 -0.11750E-01
 -0.19448E-02  0.24642E-02 -0.14340E-01
 -0.19448E-02  0.24645E-02 -0.11750E-01
 -0.25029E-02  0.22359E-02 -0.14327E-01
 -0.26371E-02  0.16503E-02 -0.14344E-01
 -0.25029E-02  0.22359E-02 -0.11750E-01
 -0.26372E-02  0.16503E-02 -0.11750E-01
 -0.27671E-02  0.87493E-03 -0.14357E-01
 -0.27674E-02  0.87466E-03 -0.11750E-01
 -0.21123E-02 -0.21373E-02 -0.14338E-01
 -0.21122E-02 -0.21373E-02 -0.11750E-01
 -0.16087E-02 -0.26931E-02 -0.14334E-01
 -0.16087E-02 -0.26931E-02 -0.11750E-01
 -0.11939E-02 -0.31291E-02 -0.14321E-01
 -0.58641E-03 -0.30382E-02 -0.14338E-01
 -0.11937E-02 -0.31291E-02 -0.11750E-01
 -0.58606E-03 -0.30382E-02 -0.11750E-01
  0.20912E-03 -0.28748E-02 -0.14349E-01
  0.20952E-03 -0.28748E-02 -0.11750E-01
  0.10586E-02 -0.26423E-02 -0.14348E-01
  0.10589E-02 -0.26420E-02 -0.11750E-01
  0.18413E-02 -0.23707E-02 -0.14339E-01
  0.18413E-02 -0.23705E-02 -0.11750E-01
  0.24544E-02 -0.21445E-02 -0.14326E-01
  0.26022E-02 -0.15105E-02 -0.14341E-01
  0.24543E-02 -0.21439E-02 -0.11750E-01
  0.26021E-02 -0.15106E-02 -0.11750E-01
  0.37964E-02  0.93572E-03 -0.14289E-01
  0.39100E-02  0.00000E+00 -0.14295E-01
  0.37964E-02  0.93572E-03 -0.11750E-01
  0.39100E-02  0.00000E+00 -0.11750E-01
  0.34621E-02  0.18171E-02 -0.14294E-01
  0.34621E-02  0.18171E-02 -0.11750E-01
  0.29267E-02  0.25928E-02 -0.14290E-01
  0.29267E-02  0.25928E-02 -0.11750E-01
  0.22211E-02  0.32179E-02 -0.14290E-01
  0.22211E-02  0.32179E-02 -0.11750E-01
  0.13865E-02  0.36559E-02 -0.14289E-01
  0.13865E-02  0.36559E-02 -0.11750E-01
  0.47130E-03  0.38815E-02 -0.14293E-01
  0.47130E-03  0.38815E-02 -0.11750E-01
 -0.47130E-03  0.38815E-02 -0.14294E-01
 -0.47130E-03  0.38815E-02 -0.11750E-01
 -0.13865E-02  0.36559E-02 -0.14293E-01
 -0.13865E-02  0.36559E-02 -0.11750E-01
 -0.22211E-02  0.32179E-02 -0.14293E-01
 -0.22211E-02  0.32179E-02 -0.11750E-01
 -0.29267E-02  0.25928E-02 -0.14288E-01
 -0.29267E-02  0.25928E-02 -0.11750E-01
 -0.34621E-02  0.18171E-02 -0.14294E-01
 -0.34621E-02  0.18171E-02 -0.11750E-01
 -0.37964E-02  0.93572E-03 -0.14297E-01
 -0.37964E-02  0.93572E-03 -0.11750E-01
 -0.39100E-02  0.22152E-17 -0.14296E-01
 -0.39100E-02 -0.47884E-18 -0.11750E-01
 -0.37964E-02 -0.93572E-03 -0.14293E-01
 -0.37964E-02 -0.93572E-03 -0.11750E-01
 -0.34621E-02 -0.18171E-02 -0.14291E-01
 -0.34621E-02 -0.18171E-02 -0.11750E-01
 -0.29267E-02 -0.25928E-02 -0.14289E-01
 -0.29267E-02 -0.25928E-02 -0.11750E-01
 -0.22211E-02 -0.32179E-02 -0.14293E-01
 -0.22211E-02 -0.32179E-02 -0.11750E-01
 -0.13865E-02 -0.36559E-02 -0.14289E-01
 -0.13865E-02 -0.36559E-02 -0.11750E-01
 -0.47130E-03 -0.38815E-02 -0.14295E-01
 -0.47130E-03 -0.38815E-02 -0.11750E-01
  0.47130E-03 -0.38815E-02 -0.14293E-01
  0.47130E-03 -0.38815E-02 -0.11750E-01
  0.13865E-02 -0.36559E-02 -0.14291E-01
  0.13865E-02 -0.36559E-02 -0.11750E-01
  0.22211E-02 -0.32179E-02 -0.14295E-01
  0.22211E-02 -0.32179E-02 -0.11750E-01
  0.29267E-02 -0.25928E-02 -0.14290E-01
  0.29267E-02 -0.25928E-02 -0.11750E-01
  0.34621E-02 -0.18171E-02 -0.14295E-01
  0.34621E-02 -0.18171E-02 -0.11750E-01
  0.37964E-02 -0.93572E-03 -0.14295E-01
  0.37964E-02 -0.93572E-03 -0.11750E-01
  0.10376E-02  0.67348E-03 -0.14845E-01
  0.17450E-02  0.12314E-02 -0.14844E-01
  0.23175E-02  0.59203E-03 -0.14844E-01
  0.16696E-02 -0.33700E-03 -0.14845E-01
  0.30377E-02  0.14918E-03 -0.14842E-01
  0.27795E-02 -0.67594E-03 -0.14844E-01
  0.12849E-02  0.18414E-02 -0.14843E-01
  0.65115E-03  0.14586E-02 -0.14844E-01
  0.12731E-03  0.30048E-03 -0.14845E-01
 -0.12841E-03  0.11690E-02 -0.14845E-01
  0.94467E-03  0.22749E-02 -0.14843E-01
  0.11323E-02  0.28282E-02 -0.14842E-01
  0.17487E-02  0.24239E-02 -0.14842E-01
  0.40583E-03  0.21685E-02 -0.14844E-01
  0.39777E-03  0.29364E-02 -0.14844E-01
 -0.76338E-03 -0.10035E-02 -0.14845E-01
 -0.86615E-03  0.79778E-04 -0.14846E-01
  0.46074E-03 -0.70245E-03 -0.14845E-01
 -0.18303E-02 -0.71182E-03 -0.14844E-01
 -0.18439E-02  0.82873E-04 -0.14846E-01
 -0.27238E-02 -0.77848E-03 -0.14843E-01
 -0.28025E-02  0.40986E-04 -0.14845E-01
 -0.25366E-02 -0.15194E-02 -0.14842E-01
 -0.19292E-02 -0.13228E-02 -0.14843E-01
 -0.99349E-03  0.98983E-03 -0.14846E-01
 -0.14384E-02 -0.17324E-02 -0.14844E-01
 -0.31554E-03  0.20223E-02 -0.14846E-01
 -0.11064E-02  0.18614E-02 -0.14846E-01
 -0.18845E-02  0.17175E-02 -0.14845E-01
 -0.18712E-02  0.90964E-03 -0.14846E-01
 -0.15899E-03 -0.19800E-02 -0.14845E-01
 -0.94149E-03 -0.23489E-02 -0.14844E-01
  0.78790E-03 -0.17074E-02 -0.14845E-01
  0.17210E-02 -0.14896E-02 -0.14844E-01
  0.32053E-02  0.76137E-03 -0.14840E-01
  0.28046E-02  0.12481E-02 -0.14842E-01
  0.23058E-02  0.18665E-02 -0.14842E-01
 -0.40600E-03  0.29027E-02 -0.14845E-01
 -0.12092E-02  0.27202E-02 -0.14844E-01
 -0.19447E-02  0.24640E-02 -0.14842E-01
 -0.25028E-02  0.22359E-02 -0.14841E-01
 -0.26370E-02  0.16503E-02 -0.14843E-01
 -0.27668E-02  0.87519E-03 -0.14845E-01
 -0.21125E-02 -0.21373E-02 -0.14842E-01
 -0.16088E-02 -0.26932E-02 -0.14841E-01
 -0.11940E-02 -0.31291E-02 -0.14840E-01
 -0.58676E-03 -0.30382E-02 -0.14842E-01
  0.20871E-03 -0.28748E-02 -0.14844E-01
  0.10583E-02 -0.26426E-02 -0.14844E-01
  0.18413E-02 -0.23709E-02 -0.14842E-01
  0.24545E-02 -0.21450E-02 -0.14841E-01
  0.26022E-02 -0.15104E-02 -0.14843E-01
  0.37964E-02  0.93572E-03 -0.14836E-01
  0.39100E-02  0.00000E+00 -0.14837E-01
  0.34621E-02  0.18171E-02 -0.14837E-01
  0.29267E-02  0.25928E-02 -0.14837E-01
  0.22211E-02  0.32179E-02 -0.14837E-01
  0.13865E-02  0.36559E-02 -0.14837E-01
  0.47130E-03  0.38815E-02 -0.14837E-01
 -0.47130E-03  0.38815E-02 -0.14837E-01
 -0.13865E-02  0.36559E-02 -0.14837E-01
 -0.22211E-02  0.32179E-02 -0.14837E-01
 -0.29267E-02  0.25928E-02 -0.14836E-01
 -0.34621E-02  0.18171E-02 -0.14837E-01
 -0.37964E-02  0.93572E-03 -0.14838E-01
 -0.39100E-02 -0.47884E-18 -0.14838E-01
 -0.37964E-02 -0.93572E-03 -0.14837E-01
 -0.34621E-02 -0.18171E-02 -0.14837E-01
 -0.29267E-02 -0.25928E-02 -0.14837E-01
 -0.22211E-02 -0.32179E-02 -0.14837E-01
 -0.13865E-02 -0.36559E-02 -0.14837E-01
 -0.47130E-03 -0.38815E-02 -0.14838E-01
  0.47130E-03 -0.38815E-02 -0.14838E-01
  0.13865E-02 -0.36559E-02 -0.14837E-01
  0.22211E-02 -0.32179E-02 -0.14837E-01
  0.29267E-02 -0.25928E-02 -0.14837E-01
  0.34621E-02 -0.18171E-02 -0.14837E-01
  0.37964E-02 -0.93572E-03 -0.14838E-01
  0.10375E-02  0.67403E-03 -0.13986E-01
  0.17448E-02  0.12321E-02 -0.13986E-01
  0.23174E-02  0.59255E-03 -0.13986E-01
  0.16694E-02 -0.33624E-03 -0.13986E-01
  0.30377E-02  0.14955E-03 -0.13986E-01
  0.27798E-02 -0.67544E-03 -0.13986E-01
  0.12848E-02  0.18415E-02 -0.13986E-01
  0.65090E-03  0.14596E-02 -0.13986E-01
  0.12705E-03  0.30163E-03 -0.13986E-01
 -0.12859E-03  0.11707E-02 -0.13986E-01
  0.94434E-03  0.22750E-02 -0.13986E-01
  0.11320E-02  0.28277E-02 -0.13986E-01
  0.17483E-02  0.24241E-02 -0.13986E-01
  0.40577E-03  0.21685E-02 -0.13986E-01
  0.39776E-03  0.29361E-02 -0.13986E-01
 -0.76374E-03 -0.10036E-02 -0.13986E-01
 -0.86626E-03  0.80588E-04 -0.13986E-01
  0.46029E-03 -0.70173E-03 -0.13986E-01
 -0.18306E-02 -0.71168E-03 -0.13986E-01
 -0.18438E-02  0.82996E-04 -0.13986E-01
 -0.27238E-02 -0.77831E-03 -0.13986E-01
 -0.28022E-02  0.41259E-04 -0.13986E-01
 -0.25368E-02 -0.15194E-02 -0.13986E-01
 -0.19296E-02 -0.13227E-02 -0.13986E-01
 -0.99334E-03  0.99119E-03 -0.13986E-01
 -0.14387E-02 -0.17324E-02 -0.13986E-01
 -0.31534E-03  0.20226E-02 -0.13986E-01
 -0.11061E-02  0.18613E-02 -0.13986E-01
 -0.18844E-02  0.17175E-02 -0.13986E-01
 -0.18710E-02  0.90988E-03 -0.13986E-01
 -0.15926E-03 -0.19801E-02 -0.13986E-01
 -0.94209E-03 -0.23490E-02 -0.13986E-01
  0.78724E-03 -0.17074E-02 -0.13986E-01
  0.17210E-02 -0.14899E-02 -0.13986E-01
  0.32056E-02  0.76237E-03 -0.13986E-01
  0.28046E-02  0.12485E-02 -0.13986E-01
  0.23057E-02  0.18666E-02 -0.13986E-01
 -0.40586E-03  0.29017E-02 -0.13986E-01
 -0.12092E-02  0.27198E-02 -0.13986E-01
 -0.19447E-02  0.24638E-02 -0.13986E-01
 -0.25028E-02  0.22359E-02 -0.13986E-01
 -0.26369E-02  0.16503E-02 -0.13986E-01
 -0.27665E-02  0.87545E-03 -0.13986E-01
 -0.21126E-02 -0.21374E-02 -0.13986E-01
 -0.16088E-02 -0.26932E-02 -0.13986E-01
 -0.11941E-02 -0.31291E-02 -0.13986E-01
 -0.58711E-03 -0.30382E-02 -0.13986E-01
  0.20830E-03 -0.28748E-02 -0.13986E-01
  0.10580E-02 -0.26428E-02 -0.13986E-01
  0.18414E-02 -0.23711E-02 -0.13986E-01
  0.24546E-02 -0.21456E-02 -0.13986E-01
  0.26023E-02 -0.15103E-02 -0.13986E-01
  0.37964E-02  0.93572E-03 -0.13986E-01
  0.39100E-02  0.00000E+00 -0.13986E-01
  0.34621E-02  0.18171E-02 -0.13986E-01
  0.29267E-02  0.25928E-02 -0.13986E-01
  0.22211E-02  0.32179E-02 -0.13986E-01
  0.13865E-02  0.36559E-02 -0.13986E-01
  0.47130E-03  0.38815E-02 -0.13986E-01
 -0.47130E-03  0.38815E-02 -0.13986E-01
 -0.13865E-02  0.36559E-02 -0.13986E-01
 -0.22211E-02  0.32179E-02 -0.13986E-01
 -0.29267E-02  0.25928E-02 -0.13986E-01
 -0.34621E-02  0.18171E-02 -0.13986E-01
 -0.37964E-02  0.93572E-03 -0.13986E-01
 -0.39100E-02  0.39516E-17 -0.13986E-01
 -0.37964E-02 -0.93572E-03 -0.13986E-01
 -0.34621E-02 -0.18171E-02 -0.13986E-01
 -0.29267E-02 -0.25928E-02 -0.13986E-01
 -0.22211E-02 -0.32179E-02 -0.13986E-01
 -0.13865E-02 -0.36559E-02 -0.13986E-01
 -0.47130E-03 -0.38815E-02 -0.13986E-01
  0.47130E-03 -0.38815E-02 -0.13986E-01
  0.13865E-02 -0.36559E-02 -0.13986E-01
  0.22211E-02 -0.32179E-02 -0.13986E-01
  0.29267E-02 -0.25928E-02 -0.13986E-01
  0.34621E-02 -0.18171E-02 -0.13986E-01
  0.37964E-02 -0.93572E-03 -0.13986E-01
  0.10374E-02  0.67459E-03 -0.13007E-01
  0.17446E-02  0.12328E-02 -0.13007E-01
  0.23173E-02  0.59308E-03 -0.13007E-01
  0.16692E-02 -0.33549E-03 -0.13007E-01
  0.30376E-02  0.14991E-03 -0.13007E-01
  0.27801E-02 -0.67495E-03 -0.13007E-01
  0.12847E-02  0.18417E-02 -0.13007E-01
  0.65065E-03  0.14606E-02 -0.13007E-01
  0.12678E-03  0.30278E-03 -0.13007E-01
 -0.12878E-03  0.11725E-02 -0.13007E-01
  0.94401E-03  0.22752E-02 -0.13007E-01
  0.11316E-02  0.28273E-02 -0.13007E-01
  0.17479E-02  0.24242E-02 -0.13007E-01
  0.40572E-03  0.21686E-02 -0.13007E-01
  0.39774E-03  0.29359E-02 -0.13007E-01
 -0.76409E-03 -0.10038E-02 -0.13007E-01
 -0.86637E-03  0.81397E-04 -0.13007E-01
  0.45985E-03 -0.70100E-03 -0.13007E-01
 -0.18309E-02 -0.71154E-03 -0.13007E-01
 -0.18437E-02  0.83120E-04 -0.13007E-01
 -0.27237E-02 -0.77814E-03 -0.13007E-01
 -0.28020E-02  0.41533E-04 -0.13007E-01
 -0.25369E-02 -0.15193E-02 -0.13007E-01
 -0.19300E-02 -0.13227E-02 -0.13007E-01
 -0.99320E-03  0.99254E-03 -0.13007E-01
 -0.14391E-02 -0.17324E-02 -0.13007E-01
 -0.31514E-03  0.20228E-02 -0.13007E-01
 -0.11057E-02  0.18611E-02 -0.13007E-01
 -0.18844E-02  0.17175E-02 -0.13007E-01
 -0.18709E-02  0.91012E-03 -0.13007E-01
 -0.15954E-03 -0.19801E-02 -0.13007E-01
 -0.94269E-03 -0.23490E-02 -0.13007E-01
  0.78658E-03 -0.17074E-02 -0.13007E-01
  0.17209E-02 -0.14901E-02 -0.13007E-01
  0.32060E-02  0.76338E-03 -0.13007E-01
  0.28046E-02  0.12490E-02 -0.13007E-01
  0.23056E-02  0.18666E-02 -0.13007E-01
 -0.40572E-03  0.29006E-02 -0.13007E-01
 -0.12092E-02  0.27193E-02 -0.13007E-01
 -0.19446E-02  0.24636E-02 -0.13007E-01
 -0.25028E-02  0.22359E-02 -0.13007E-01
 -0.26368E-02  0.16503E-02 -0.13007E-01
 -0.27662E-02  0.87571E-03 -0.13007E-01
 -0.21128E-02 -0.21374E-02 -0.13007E-01
 -0.16088E-02 -0.26932E-02 -0.13007E-01
 -0.11942E-02 -0.31291E-02 -0.13007E-01
 -0.58746E-03 -0.30382E-02 -0.13007E-01
  0.20790E-03 -0.28748E-02 -0.13007E-01
  0.10577E-02 -0.26431E-02 -0.13007E-01
  0.18414E-02 -0.23713E-02 -0.13007E-01
  0.24548E-02 -0.21461E-02 -0.13007E-01
  0.26024E-02 -0.15102E-02 -0.13007E-01
  0.37964E-02  0.93572E-03 -0.13007E-01
  0.39100E-02  0.00000E+00 -0.13007E-01
  0.34621E-02  0.18171E-02 -0.13007E-01
  0.29267E-02  0.25928E-02 -0.13007E-01
  0.22211E-02  0.32179E-02 -0.13007E-01
  0.13865E-02  0.36559E-02 -0.13007E-01
  0.47130E-03  0.38815E-02 -0.13007E-01
 -0.47130E-03  0.38815E-02 -0.13007E-01
 -0.13865E-02  0.36559E-02 -0.13007E-01
 -0.22211E-02  0.32179E-02 -0.13007E-01
 -0.29267E-02  0.25928E-02 -0.13007E-01
 -0.34621E-02  0.18171E-02 -0.13007E-01
 -0.37964E-02  0.93572E-03 -0.13007E-01
 -0.39100E-02 -0.47884E-18 -0.13007E-01
 -0.37964E-02 -0.93572E-03 -0.13007E-01
 -0.34621E-02 -0.18171E-02 -0.13007E-01
 -0.29267E-02 -0.25928E-02 -0.13007E-01
 -0.22211E-02 -0.32179E-02 -0.13007E-01
 -0.13865E-02 -0.36559E-02 -0.13007E-01
 -0.47130E-03 -0.38815E-02 -0.13007E-01
  0.47130E-03 -0.38815E-02 -0.13007E-01
  0.13865E-02 -0.36559E-02 -0.13007E-01
  0.22211E-02 -0.32179E-02 -0.13007E-01
  0.29267E-02 -0.25928E-02 -0.13007E-01
  0.34621E-02 -0.18171E-02 -0.13007E-01
  0.37964E-02 -0.93572E-03 -0.13007E-01
  0.10373E-02  0.67514E-03 -0.12028E-01
  0.17445E-02  0.12334E-02 -0.12028E-01
  0.23172E-02  0.59360E-03 -0.12028E-01
  0.16689E-02 -0.33474E-03 -0.12028E-01
  0.30376E-02  0.15027E-03 -0.12028E-01
  0.27805E-02 -0.67446E-03 -0.12028E-01
  0.12846E-02  0.18419E-02 -0.12028E-01
  0.65041E-03  0.14616E-02 -0.12028E-01
  0.12652E-03  0.30393E-03 -0.12028E-01
 -0.12896E-03  0.11742E-02 -0.12028E-01
  0.94367E-03  0.22753E-02 -0.12028E-01
  0.11313E-02  0.28269E-02 -0.12028E-01
  0.17475E-02  0.24244E-02 -0.12028E-01
  0.40566E-03  0.21686E-02 -0.12028E-01
  0.39772E-03  0.29356E-02 -0.12028E-01
 -0.76444E-03 -0.10039E-02 -0.12028E-01
 -0.86648E-03  0.82206E-04 -0.12028E-01
  0.45940E-03 -0.70028E-03 -0.12028E-01
 -0.18312E-02 -0.71140E-03 -0.12028E-01
 -0.18436E-02  0.83243E-04 -0.12028E-01
 -0.27237E-02 -0.77797E-03 -0.12028E-01
 -0.28017E-02  0.41806E-04 -0.12028E-01
 -0.25371E-02 -0.15193E-02 -0.12028E-01
 -0.19305E-02 -0.13226E-02 -0.12028E-01
 -0.99305E-03  0.99390E-03 -0.12028E-01
 -0.14394E-02 -0.17323E-02 -0.12028E-01
 -0.31494E-03  0.20231E-02 -0.12028E-01
 -0.11054E-02  0.18610E-02 -0.12028E-01
 -0.18843E-02  0.17175E-02 -0.12028E-01
 -0.18708E-02  0.91036E-03 -0.12028E-01
 -0.15981E-03 -0.19801E-02 -0.12028E-01
 -0.94328E-03 -0.23490E-02 -0.12028E-01
  0.78592E-03 -0.17074E-02 -0.12028E-01
  0.17209E-02 -0.14904E-02 -0.12028E-01
  0.32063E-02  0.76439E-03 -0.12028E-01
  0.28045E-02  0.12494E-02 -0.12028E-01
  0.23055E-02  0.18666E-02 -0.12028E-01
 -0.40558E-03  0.28995E-02 -0.12028E-01
 -0.12092E-02  0.27188E-02 -0.12028E-01
 -0.19446E-02  0.24633E-02 -0.12028E-01
 -0.25027E-02  0.22359E-02 -0.12028E-01
 -0.26367E-02  0.16503E-02 -0.12028E-01
 -0.27658E-02  0.87597E-03 -0.12028E-01
 -0.21129E-02 -0.21374E-02 -0.12028E-01
 -0.16089E-02 -0.26932E-02 -0.12028E-01
 -0.11943E-02 -0.31291E-02 -0.12028E-01
 -0.58781E-03 -0.30382E-02 -0.12028E-01
  0.20749E-03 -0.28748E-02 -0.12028E-01
  0.10574E-02 -0.26434E-02 -0.12028E-01
  0.18415E-02 -0.23715E-02 -0.12028E-01
  0.24549E-02 -0.21467E-02 -0.12028E-01
  0.26025E-02 -0.15101E-02 -0.12028E-01
  0.37964E-02  0.93572E-03 -0.12028E-01
  0.39100E-02  0.00000E+00 -0.12028E-01
  0.34621E-02  0.18171E-02 -0.12028E-01
  0.29267E-02  0.25928E-02 -0.12028E-01
  0.22211E-02  0.32179E-02 -0.12028E-01
  0.13865E-02  0.36559E-02 -0.12028E-01
  0.47130E-03  0.38815E-02 -0.12028E-01
 -0.47130E-03  0.38815E-02 -0.12028E-01
 -0.13865E-02  0.36559E-02 -0.12028E-01
 -0.22211E-02  0.32179E-02 -0.12028E-01
 -0.29267E-02  0.25928E-02 -0.12028E-01
 -0.34621E-02  0.18171E-02 -0.12028E-01
 -0.37964E-02  0.93572E-03 -0.12028E-01
 -0.39100E-02 -0.47884E-18 -0.12028E-01
 -0.37964E-02 -0.93572E-03 -0.12028E-01
 -0.34621E-02 -0.18171E-02 -0.12028E-01
 -0.29267E-02 -0.25928E-02 -0.12028E-01
 -0.22211E-02 -0.32179E-02 -0.12028E-01
 -0.13865E-02 -0.36559E-02 -0.12028E-01
 -0.47130E-03 -0.38815E-02 -0.12028E-01
  0.47130E-03 -0.38815E-02 -0.12028E-01
  0.13865E-02 -0.36559E-02 -0.12028E-01
  0.22211E-02 -0.32179E-02 -0.12028E-01
  0.29267E-02 -0.25928E-02 -0.12028E-01
  0.34621E-02 -0.18171E-02 -0.12028E-01
  0.37964E-02 -0.93572E-03 -0.12028E-01
  0.10372E-02  0.67570E-03 -0.11049E-01
  0.17443E-02  0.12341E-02 -0.11049E-01
  0.23171E-02  0.59412E-03 -0.11049E-01
  0.16687E-02 -0.33398E-03 -0.11049E-01
  0.30376E-02  0.15064E-03 -0.11049E-01
  0.27808E-02 -0.67396E-03 -0.11049E-01
  0.12845E-02  0.18421E-02 -0.11049E-01
  0.65016E-03  0.14626E-02 -0.11049E-01
  0.12626E-03  0.30507E-03 -0.11049E-01
 -0.12915E-03  0.11760E-02 -0.11049E-01
  0.94334E-03  0.22754E-02 -0.11049E-01
  0.11310E-02  0.28264E-02 -0.11049E-01
  0.17471E-02  0.24245E-02 -0.11049E-01
  0.40561E-03  0.21686E-02 -0.11049E-01
  0.39770E-03  0.29353E-02 -0.11049E-01
 -0.76480E-03 -0.10040E-02 -0.11049E-01
 -0.86659E-03  0.83015E-04 -0.11049E-01
  0.45895E-03 -0.69955E-03 -0.11049E-01
 -0.18315E-02 -0.71126E-03 -0.11049E-01
 -0.18435E-02  0.83367E-04 -0.11049E-01
 -0.27237E-02 -0.77780E-03 -0.11049E-01
 -0.28014E-02  0.42080E-04 -0.11049E-01
 -0.25372E-02 -0.15192E-02 -0.11049E-01
 -0.19309E-02 -0.13224E-02 -0.11049E-01
 -0.99291E-03  0.99526E-03 -0.11049E-01
 -0.14398E-02 -0.17323E-02 -0.11049E-01
 -0.31474E-03  0.20234E-02 -0.11049E-01
 -0.11051E-02  0.18609E-02 -0.11049E-01
 -0.18843E-02  0.17175E-02 -0.11049E-01
 -0.18706E-02  0.91060E-03 -0.11049E-01
 -0.16009E-03 -0.19801E-02 -0.11049E-01
 -0.94388E-03 -0.23490E-02 -0.11049E-01
  0.78526E-03 -0.17074E-02 -0.11049E-01
  0.17208E-02 -0.14906E-02 -0.11049E-01
  0.32066E-02  0.76539E-03 -0.11049E-01
  0.28045E-02  0.12498E-02 -0.11049E-01
  0.23053E-02  0.18667E-02 -0.11049E-01
 -0.40545E-03  0.28984E-02 -0.11049E-01
 -0.12092E-02  0.27184E-02 -0.11049E-01
 -0.19446E-02  0.24631E-02 -0.11049E-01
 -0.25027E-02  0.22359E-02 -0.11049E-01
 -0.26366E-02  0.16503E-02 -0.11049E-01
 -0.27655E-02  0.87623E-03 -0.11049E-01
 -0.21130E-02 -0.21374E-02 -0.11049E-01
 -0.16089E-02 -0.26932E-02 -0.11049E-01
 -0.11944E-02 -0.31291E-02 -0.11049E-01
 -0.58816E-03 -0.30382E-02 -0.11049E-01
  0.20709E-03 -0.28748E-02 -0.11049E-01
  0.10571E-02 -0.26436E-02 -0.11049E-01
  0.18415E-02 -0.23717E-02 -0.11049E-01
  0.24550E-02 -0.21472E-02 -0.11049E-01
  0.26025E-02 -0.15100E-02 -0.11049E-01
  0.37964E-02  0.93572E-03 -0.11049E-01
  0.39100E-02  0.00000E+00 -0.11049E-01
  0.34621E-02  0.18171E-02 -0.11049E-01
  0.29267E-02  0.25928E-02 -0.11049E-01
  0.22211E-02  0.32179E-02 -0.11049E-01
  0.13865E-02  0.36559E-02 -0.11049E-01
  0.47130E-03  0.38815E-02 -0.11049E-01
 -0.47130E-03  0.38815E-02 -0.11049E-01
 -0.13865E-02  0.36559E-02 -0.11049E-01
 -0.22211E-02  0.32179E-02 -0.11049E-01
 -0.29267E-02  0.25928E-02 -0.11049E-01
 -0.34621E-02  0.18171E-02 -0.11049E-01
 -0.37964E-02  0.93572E-03 -0.11049E-01
 -0.39100E-02 -0.47884E-18 -0.11049E-01
 -0.37964E-02 -0.93572E-03 -0.11049E-01
 -0.34621E-02 -0.18171E-02 -0.11049E-01
 -0.29267E-02 -0.25928E-02 -0.11049E-01
 -0.22211E-02 -0.32179E-02 -0.11049E-01
 -0.13865E-02 -0.36559E-02 -0.11049E-01
 -0.47130E-03 -0.38815E-02 -0.11049E-01
  0.47130E-03 -0.38815E-02 -0.11049E-01
  0.13865E-02 -0.36559E-02 -0.11049E-01
  0.22211E-02 -0.32179E-02 -0.11049E-01
  0.29267E-02 -0.25928E-02 -0.11049E-01
  0.34621E-02 -0.18171E-02 -0.11049E-01
  0.37964E-02 -0.93572E-03 -0.11049E-01
  0.10371E-02  0.67625E-03 -0.10069E-01
  0.17441E-02  0.12348E-02 -0.10069E-01
  0.23169E-02  0.59465E-03 -0.10069E-01
  0.16685E-02 -0.33323E-03 -0.10069E-01
  0.30376E-02  0.15100E-03 -0.10069E-01
  0.27812E-02 -0.67347E-03 -0.10069E-01
  0.12844E-02  0.18423E-02 -0.10069E-01
  0.64992E-03  0.14636E-02 -0.10069E-01
  0.12600E-03  0.30622E-03 -0.10069E-01
 -0.12933E-03  0.11777E-02 -0.10069E-01
  0.94301E-03  0.22755E-02 -0.10069E-01
  0.11306E-02  0.28260E-02 -0.10069E-01
  0.17467E-02  0.24247E-02 -0.10069E-01
  0.40556E-03  0.21687E-02 -0.10069E-01
  0.39769E-03  0.29351E-02 -0.10069E-01
 -0.76515E-03 -0.10042E-02 -0.10069E-01
 -0.86670E-03  0.83825E-04 -0.10069E-01
  0.45850E-03 -0.69882E-03 -0.10069E-01
 -0.18318E-02 -0.71112E-03 -0.10069E-01
 -0.18434E-02  0.83490E-04 -0.10069E-01
 -0.27236E-02 -0.77763E-03 -0.10069E-01
 -0.28011E-02  0.42353E-04 -0.10069E-01
 -0.25374E-02 -0.15192E-02 -0.10069E-01
 -0.19313E-02 -0.13223E-02 -0.10069E-01
 -0.99277E-03  0.99661E-03 -0.10069E-01
 -0.14401E-02 -0.17322E-02 -0.10069E-01
 -0.31454E-03  0.20237E-02 -0.10069E-01
 -0.11047E-02  0.18607E-02 -0.10069E-01
 -0.18842E-02  0.17175E-02 -0.10069E-01
 -0.18705E-02  0.91084E-03 -0.10069E-01
 -0.16036E-03 -0.19801E-02 -0.10069E-01
 -0.94448E-03 -0.23491E-02 -0.10069E-01
  0.78460E-03 -0.17074E-02 -0.10069E-01
  0.17208E-02 -0.14909E-02 -0.10069E-01
  0.32070E-02  0.76640E-03 -0.10069E-01
  0.28045E-02  0.12503E-02 -0.10069E-01
  0.23052E-02  0.18667E-02 -0.10069E-01
 -0.40531E-03  0.28974E-02 -0.10069E-01
 -0.12092E-02  0.27179E-02 -0.10069E-01
 -0.19445E-02  0.24629E-02 -0.10069E-01
 -0.25027E-02  0.22359E-02 -0.10069E-01
 -0.26366E-02  0.16503E-02 -0.10069E-01
 -0.27652E-02  0.87650E-03 -0.10069E-01
 -0.21132E-02 -0.21374E-02 -0.10069E-01
 -0.16090E-02 -0.26933E-02 -0.10069E-01
 -0.11946E-02 -0.31291E-02 -0.10069E-01
 -0.58851E-03 -0.30382E-02 -0.10069E-01
  0.20668E-03 -0.28749E-02 -0.10069E-01
  0.10567E-02 -0.26439E-02 -0.10069E-01
  0.18416E-02 -0.23719E-02 -0.10069E-01
  0.24551E-02 -0.21478E-02 -0.10069E-01
  0.26026E-02 -0.15099E-02 -0.10069E-01
  0.37964E-02  0.93572E-03 -0.10069E-01
  0.39100E-02  0.00000E+00 -0.10069E-01
  0.34621E-02  0.18171E-02 -0.10069E-01
  0.29267E-02  0.25928E-02 -0.10069E-01
  0.22211E-02  0.32179E-02 -0.10069E-01
  0.13865E-02  0.36559E-02 -0.10069E-01
  0.47130E-03  0.38815E-02 -0.10069E-01
 -0.47130E-03  0.38815E-02 -0.10069E-01
 -0.13865E-02  0.36559E-02 -0.10069E-01
 -0.22211E-02  0.32179E-02 -0.10069E-01
 -0.29267E-02  0.25928E-02 -0.10069E-01
 -0.34621E-02  0.18171E-02 -0.10069E-01
 -0.37964E-02  0.93572E-03 -0.10069E-01
 -0.39100E-02 -0.47884E-18 -0.10069E-01
 -0.37964E-02 -0.93572E-03 -0.10069E-01
 -0.34621E-02 -0.18171E-02 -0.10069E-01
 -0.29267E-02 -0.25928E-02 -0.10069E-01
 -0.22211E-02 -0.32179E-02 -0.10069E-01
 -0.13865E-02 -0.36559E-02 -0.10069E-01
 -0.47130E-03 -0.38815E-02 -0.10069E-01
  0.47130E-03 -0.38815E-02 -0.10069E-01
  0.13865E-02 -0.36559E-02 -0.10069E-01
  0.22211E-02 -0.32179E-02 -0.10069E-01
  0.29267E-02 -0.25928E-02 -0.10069E-01
  0.34621E-02 -0.18171E-02 -0.10069E-01
  0.37964E-02 -0.93572E-03 -0.10069E-01
  0.10370E-02  0.67680E-03 -0.90903E-02
  0.17439E-02  0.12354E-02 -0.90903E-02
  0.23168E-02  0.59517E-03 -0.90903E-02
  0.16683E-02 -0.33247E-03 -0.90903E-02
  0.30375E-02  0.15136E-03 -0.90903E-02
  0.27815E-02 -0.67298E-03 -0.90903E-02
  0.12843E-02  0.18425E-02 -0.90903E-02
  0.64967E-03  0.14646E-02 -0.90903E-02
  0.12573E-03  0.30737E-03 -0.90903E-02
 -0.12952E-03  0.11795E-02 -0.90903E-02
  0.94268E-03  0.22757E-02 -0.90903E-02
  0.11303E-02  0.28255E-02 -0.90903E-02
  0.17463E-02  0.24248E-02 -0.90903E-02
  0.40550E-03  0.21687E-02 -0.90903E-02
  0.39767E-03  0.29348E-02 -0.90903E-02
 -0.76551E-03 -0.10043E-02 -0.90903E-02
 -0.86680E-03  0.84634E-04 -0.90903E-02
  0.45806E-03 -0.69810E-03 -0.90903E-02
 -0.18321E-02 -0.71098E-03 -0.90903E-02
 -0.18433E-02  0.83614E-04 -0.90903E-02
 -0.27236E-02 -0.77746E-03 -0.90903E-02
 -0.28009E-02  0.42626E-04 -0.90903E-02
 -0.25375E-02 -0.15191E-02 -0.90903E-02
 -0.19317E-02 -0.13223E-02 -0.90903E-02
 -0.99262E-03  0.99797E-03 -0.90903E-02
 -0.14405E-02 -0.17322E-02 -0.90903E-02
 -0.31434E-03  0.20240E-02 -0.90903E-02
 -0.11044E-02  0.18606E-02 -0.90903E-02
 -0.18842E-02  0.17175E-02 -0.90903E-02
 -0.18704E-02  0.91108E-03 -0.90903E-02
 -0.16064E-03 -0.19802E-02 -0.90903E-02
 -0.94508E-03 -0.23491E-02 -0.90903E-02
  0.78394E-03 -0.17074E-02 -0.90903E-02
  0.17208E-02 -0.14911E-02 -0.90903E-02
  0.32073E-02  0.76740E-03 -0.90903E-02
  0.28045E-02  0.12507E-02 -0.90903E-02
  0.23051E-02  0.18668E-02 -0.90903E-02
 -0.40517E-03  0.28963E-02 -0.90903E-02
 -0.12092E-02  0.27174E-02 -0.90903E-02
 -0.19445E-02  0.24627E-02 -0.90903E-02
 -0.25026E-02  0.22358E-02 -0.90903E-02
 -0.26365E-02  0.16503E-02 -0.90903E-02
 -0.27649E-02  0.87676E-03 -0.90903E-02
 -0.21133E-02 -0.21374E-02 -0.90903E-02
 -0.16090E-02 -0.26933E-02 -0.90903E-02
 -0.11947E-02 -0.31291E-02 -0.90903E-02
 -0.58886E-03 -0.30382E-02 -0.90903E-02
  0.20627E-03 -0.28749E-02 -0.90903E-02
  0.10564E-02 -0.26442E-02 -0.90903E-02
  0.18416E-02 -0.23721E-02 -0.90903E-02
  0.24553E-02 -0.21483E-02 -0.90903E-02
  0.26027E-02 -0.15097E-02 -0.90903E-02
  0.37964E-02  0.93572E-03 -0.90903E-02
  0.39100E-02  0.00000E+00 -0.90903E-02
  0.34621E-02  0.18171E-02 -0.90903E-02
  0.29267E-02  0.25928E-02 -0.90903E-02
  0.22211E-02  0.32179E-02 -0.90903E-02
  0.13865E-02  0.36559E-02 -0.90903E-02
  0.47130E-03  0.38815E-02 -0.90903E-02
 -0.47130E-03  0.38815E-02 -0.90903E-02
 -0.13865E-02  0.36559E-02 -0.90903E-02
 -0.22211E-02  0.32179E-02 -0.90903E-02
 -0.29267E-02  0.25928E-02 -0.90903E-02
 -0.34621E-02  0.18171E-02 -0.90903E-02
 -0.37964E-02  0.93572E-03 -0.90903E-02
 -0.39100E-02 -0.47884E-18 -0.90903E-02
 -0.37964E-02 -0.93572E-03 -0.90903E-02
 -0.34621E-02 -0.18171E-02 -0.90903E-02
 -0.29267E-02 -0.25928E-02 -0.90903E-02
 -0.22211E-02 -0.32179E-02 -0.90903E-02
 -0.13865E-02 -0.36559E-02 -0.90903E-02
 -0.47130E-03 -0.38815E-02 -0.90903E-02
  0.47130E-03 -0.38815E-02 -0.90903E-02
  0.13865E-02 -0.36559E-02 -0.90903E-02
  0.22211E-02 -0.32179E-02 -0.90903E-02
  0.29267E-02 -0.25928E-02 -0.90903E-02
  0.34621E-02 -0.18171E-02 -0.90903E-02
  0.37964E-02 -0.93572E-03 -0.90903E-02
  0.10368E-02  0.67736E-03 -0.81111E-02
  0.17438E-02  0.12361E-02 -0.81111E-02
  0.23167E-02  0.59570E-03 -0.81111E-02
  0.16681E-02 -0.33172E-03 -0.81111E-02
  0.30375E-02  0.15173E-03 -0.81111E-02
  0.27819E-02 -0.67248E-03 -0.81111E-02
  0.12842E-02  0.18427E-02 -0.81111E-02
  0.64943E-03  0.14656E-02 -0.81111E-02
  0.12547E-03  0.30852E-03 -0.81111E-02
 -0.12970E-03  0.11812E-02 -0.81111E-02
  0.94235E-03  0.22758E-02 -0.81111E-02
  0.11300E-02  0.28251E-02 -0.81111E-02
  0.17459E-02  0.24249E-02 -0.81111E-02
  0.40545E-03  0.21688E-02 -0.81111E-02
  0.39766E-03  0.29345E-02 -0.81111E-02
 -0.76586E-03 -0.10044E-02 -0.81111E-02
 -0.86691E-03  0.85443E-04 -0.81111E-02
  0.45761E-03 -0.69737E-03 -0.81111E-02
 -0.18324E-02 -0.71084E-03 -0.81111E-02
 -0.18432E-02  0.83737E-04 -0.81111E-02
 -0.27236E-02 -0.77729E-03 -0.81111E-02
 -0.28006E-02  0.42899E-04 -0.81111E-02
 -0.25377E-02 -0.15191E-02 -0.81111E-02
 -0.19322E-02 -0.13222E-02 -0.81111E-02
 -0.99248E-03  0.99932E-03 -0.81111E-02
 -0.14408E-02 -0.17322E-02 -0.81111E-02
 -0.31414E-03  0.20243E-02 -0.81111E-02
 -0.11040E-02  0.18605E-02 -0.81111E-02
 -0.18841E-02  0.17175E-02 -0.81111E-02
 -0.18703E-02  0.91132E-03 -0.81111E-02
 -0.16091E-03 -0.19802E-02 -0.81111E-02
 -0.94568E-03 -0.23491E-02 -0.81111E-02
  0.78328E-03 -0.17074E-02 -0.81111E-02
  0.17207E-02 -0.14914E-02 -0.81111E-02
  0.32076E-02  0.76841E-03 -0.81111E-02
  0.28044E-02  0.12511E-02 -0.81111E-02
  0.23050E-02  0.18668E-02 -0.81111E-02
 -0.40503E-03  0.28952E-02 -0.81111E-02
 -0.12092E-02  0.27170E-02 -0.81111E-02
 -0.19445E-02  0.24624E-02 -0.81111E-02
 -0.25026E-02  0.22358E-02 -0.81111E-02
 -0.26364E-02  0.16503E-02 -0.81111E-02
 -0.27646E-02  0.87702E-03 -0.81111E-02
 -0.21134E-02 -0.21374E-02 -0.81111E-02
 -0.16091E-02 -0.26933E-02 -0.81111E-02
 -0.11948E-02 -0.31291E-02 -0.81111E-02
 -0.58921E-03 -0.30382E-02 -0.81111E-02
  0.20587E-03 -0.28749E-02 -0.81111E-02
  0.10561E-02 -0.26444E-02 -0.81111E-02
  0.18416E-02 -0.23723E-02 -0.81111E-02
  0.24554E-02 -0.21489E-02 -0.81111E-02
  0.26027E-02 -0.15096E-02 -0.81111E-02
  0.37964E-02  0.93572E-03 -0.81111E-02
  0.39100E-02  0.00000E+00 -0.81111E-02
  0.34621E-02  0.18171E-02 -0.81111E-02
  0.29267E-02  0.25928E-02 -0.81111E-02
  0.22211E-02  0.32179E-02 -0.81111E-02
  0.13865E-02  0.36559E-02 -0.81111E-02
  0.47130E-03  0.38815E-02 -0.81111E-02
 -0.47130E-03  0.38815E-02 -0.81111E-02
 -0.13865E-02  0.36559E-02 -0.81111E-02
 -0.22211E-02  0.32179E-02 -0.81111E-02
 -0.29267E-02  0.25928E-02 -0.81111E-02
 -0.34621E-02  0.18171E-02 -0.81111E-02
 -0.37964E-02  0.93572E-03 -0.81111E-02
 -0.39100E-02 -0.47884E-18 -0.81111E-02
 -0.37964E-02 -0.93572E-03 -0.81111E-02
 -0.34621E-02 -0.18171E-02 -0.81111E-02
 -0.29267E-02 -0.25928E-02 -0.81111E-02
 -0.22211E-02 -0.32179E-02 -0.81111E-02
 -0.13865E-02 -0.36559E-02 -0.81111E-02
 -0.47130E-03 -0.38815E-02 -0.81111E-02
  0.47130E-03 -0.38815E-02 -0.81111E-02
  0.13865E-02 -0.36559E-02 -0.81111E-02
  0.22211E-02 -0.32179E-02 -0.81111E-02
  0.29267E-02 -0.25928E-02 -0.81111E-02
  0.34621E-02 -0.18171E-02 -0.81111E-02
  0.37964E-02 -0.93572E-03 -0.81111E-02
  0.10367E-02  0.67791E-03 -0.71319E-02
  0.17436E-02  0.12368E-02 -0.71319E-02
  0.23166E-02  0.59622E-03 -0.71319E-02
  0.16679E-02 -0.33096E-03 -0.71319E-02
  0.30375E-02  0.15209E-03 -0.71319E-02
  0.27822E-02 -0.67199E-03 -0.71319E-02
  0.12841E-02  0.18429E-02 -0.71319E-02
  0.64918E-03  0.14666E-02 -0.71319E-02
  0.12521E-03  0.30967E-03 -0.71319E-02
 -0.12989E-03  0.11830E-02 -0.71319E-02
  0.94202E-03  0.22759E-02 -0.71319E-02
  0.11296E-02  0.28247E-02 -0.71319E-02
  0.17455E-02  0.24251E-02 -0.71319E-02
  0.40539E-03  0.21688E-02 -0.71319E-02
  0.39764E-03  0.29343E-02 -0.71319E-02
 -0.76621E-03 -0.10046E-02 -0.71319E-02
 -0.86702E-03  0.86253E-04 -0.71319E-02
  0.45716E-03 -0.69665E-03 -0.71319E-02
 -0.18326E-02 -0.71070E-03 -0.71319E-02
 -0.18431E-02  0.83861E-04 -0.71319E-02
 -0.27235E-02 -0.77712E-03 -0.71319E-02
 -0.28003E-02  0.43173E-04 -0.71319E-02
 -0.25379E-02 -0.15190E-02 -0.71319E-02
 -0.19326E-02 -0.13220E-02 -0.71319E-02
 -0.99233E-03  0.10007E-02 -0.71319E-02
 -0.14412E-02 -0.17321E-02 -0.71319E-02
 -0.31394E-03  0.20245E-02 -0.71319E-02
 -0.11037E-02  0.18603E-02 -0.71319E-02
 -0.18841E-02  0.17175E-02 -0.71319E-02
 -0.18701E-02  0.91156E-03 -0.71319E-02
 -0.16119E-03 -0.19802E-02 -0.71319E-02
 -0.94628E-03 -0.23491E-02 -0.71319E-02
  0.78262E-03 -0.17074E-02 -0.71319E-02
  0.17207E-02 -0.14916E-02 -0.71319E-02
  0.32079E-02  0.76941E-03 -0.71319E-02
  0.28044E-02  0.12515E-02 -0.71319E-02
  0.23049E-02  0.18668E-02 -0.71319E-02
 -0.40490E-03  0.28942E-02 -0.71319E-02
 -0.12093E-02  0.27165E-02 -0.71319E-02
 -0.19444E-02  0.24622E-02 -0.71319E-02
 -0.25026E-02  0.22358E-02 -0.71319E-02
 -0.26363E-02  0.16503E-02 -0.71319E-02
 -0.27643E-02  0.87728E-03 -0.71319E-02
 -0.21136E-02 -0.21374E-02 -0.71319E-02
 -0.16091E-02 -0.26933E-02 -0.71319E-02
 -0.11949E-02 -0.31291E-02 -0.71319E-02
 -0.58956E-03 -0.30382E-02 -0.71319E-02
  0.20546E-03 -0.28749E-02 -0.71319E-02
  0.10558E-02 -0.26447E-02 -0.71319E-02
  0.18417E-02 -0.23725E-02 -0.71319E-02
  0.24555E-02 -0.21494E-02 -0.71319E-02
  0.26028E-02 -0.15095E-02 -0.71319E-02
  0.37964E-02  0.93572E-03 -0.71319E-02
  0.39100E-02  0.00000E+00 -0.71319E-02
  0.34621E-02  0.18171E-02 -0.71319E-02
  0.29267E-02  0.25928E-02 -0.71319E-02
  0.22211E-02  0.32179E-02 -0.71319E-02
  0.13865E-02  0.36559E-02 -0.71319E-02
  0.47130E-03  0.38815E-02 -0.71319E-02
 -0.47130E-03  0.38815E-02 -0.71319E-02
 -0.13865E-02  0.36559E-02 -0.71319E-02
 -0.22211E-02  0.32179E-02 -0.71319E-02
 -0.29267E-02  0.25928E-02 -0.71319E-02
 -0.34621E-02  0.18171E-02 -0.71319E-02
 -0.37964E-02  0.93572E-03 -0.71319E-02
 -0.39100E-02 -0.47884E-18 -0.71319E-02
 -0.37964E-02 -0.93572E-03 -0.71319E-02
 -0.34621E-02 -0.18171E-02 -0.71319E-02
 -0.29267E-02 -0.25928E-02 -0.71319E-02
 -0.22211E-02 -0.32179E-02 -0.71319E-02
 -0.13865E-02 -0.36559E-02 -0.71319E-02
 -0.47130E-03 -0.38815E-02 -0.71319E-02
  0.47130E-03 -0.38815E-02 -0.71319E-02
  0.13865E-02 -0.36559E-02 -0.71319E-02
  0.22211E-02 -0.32179E-02 -0.71319E-02
  0.29267E-02 -0.25928E-02 -0.71319E-02
  0.34621E-02 -0.18171E-02 -0.71319E-02
  0.37964E-02 -0.93572E-03 -0.71319E-02
  0.10366E-02  0.67847E-03 -0.61528E-02
  0.17434E-02  0.12374E-02 -0.61528E-02
  0.23164E-02  0.59674E-03 -0.61528E-02
  0.16677E-02 -0.33021E-03 -0.61528E-02
  0.30375E-02  0.15245E-03 -0.61528E-02
  0.27825E-02 -0.67150E-03 -0.61528E-02
  0.12840E-02  0.18430E-02 -0.61528E-02
  0.64894E-03  0.14676E-02 -0.61528E-02
  0.12495E-03  0.31081E-03 -0.61528E-02
 -0.13007E-03  0.11847E-02 -0.61528E-02
  0.94169E-03  0.22761E-02 -0.61528E-02
  0.11293E-02  0.28242E-02 -0.61528E-02
  0.17451E-02  0.24252E-02 -0.61528E-02
  0.40534E-03  0.21688E-02 -0.61528E-02
  0.39762E-03  0.29340E-02 -0.61528E-02
 -0.76657E-03 -0.10047E-02 -0.61528E-02
 -0.86713E-03  0.87062E-04 -0.61528E-02
  0.45671E-03 -0.69592E-03 -0.61528E-02
 -0.18329E-02 -0.71056E-03 -0.61528E-02
 -0.18430E-02  0.83985E-04 -0.61528E-02
 -0.27235E-02 -0.77695E-03 -0.61528E-02
 -0.28001E-02  0.43446E-04 -0.61528E-02
 -0.25380E-02 -0.15190E-02 -0.61528E-02
 -0.19330E-02 -0.13219E-02 -0.61528E-02
 -0.99219E-03  0.10020E-02 -0.61528E-02
 -0.14415E-02 -0.17321E-02 -0.61528E-02
 -0.31374E-03  0.20248E-02 -0.61528E-02
 -0.11033E-02  0.18602E-02 -0.61528E-02
 -0.18840E-02  0.17175E-02 -0.61528E-02
 -0.18700E-02  0.91180E-03 -0.61528E-02
 -0.16146E-03 -0.19803E-02 -0.61528E-02
 -0.94687E-03 -0.23491E-02 -0.61528E-02
  0.78195E-03 -0.17073E-02 -0.61528E-02
  0.17207E-02 -0.14919E-02 -0.61528E-02
  0.32083E-02  0.77042E-03 -0.61528E-02
  0.28044E-02  0.12520E-02 -0.61528E-02
  0.23048E-02  0.18669E-02 -0.61528E-02
 -0.40476E-03  0.28931E-02 -0.61528E-02
 -0.12093E-02  0.27160E-02 -0.61528E-02
 -0.19444E-02  0.24620E-02 -0.61528E-02
 -0.25026E-02  0.22358E-02 -0.61528E-02
 -0.26362E-02  0.16503E-02 -0.61528E-02
 -0.27640E-02  0.87754E-03 -0.61528E-02
 -0.21137E-02 -0.21374E-02 -0.61528E-02
 -0.16091E-02 -0.26933E-02 -0.61528E-02
 -0.11950E-02 -0.31291E-02 -0.61528E-02
 -0.58991E-03 -0.30382E-02 -0.61528E-02
  0.20505E-03 -0.28749E-02 -0.61528E-02
  0.10555E-02 -0.26450E-02 -0.61528E-02
  0.18417E-02 -0.23727E-02 -0.61528E-02
  0.24556E-02 -0.21500E-02 -0.61528E-02
  0.26029E-02 -0.15094E-02 -0.61528E-02
  0.37964E-02  0.93572E-03 -0.61528E-02
  0.39100E-02  0.00000E+00 -0.61528E-02
  0.34621E-02  0.18171E-02 -0.61528E-02
  0.29267E-02  0.25928E-02 -0.61528E-02
  0.22211E-02  0.32179E-02 -0.61528E-02
  0.13865E-02  0.36559E-02 -0.61528E-02
  0.47130E-03  0.38815E-02 -0.61528E-02
 -0.47130E-03  0.38815E-02 -0.61528E-02
 -0.13865E-02  0.36559E-02 -0.61528E-02
 -0.22211E-02  0.32179E-02 -0.61528E-02
 -0.29267E-02  0.25928E-02 -0.61528E-02
 -0.34621E-02  0.18171E-02 -0.61528E-02
 -0.37964E-02  0.93572E-03 -0.61528E-02
 -0.39100E-02  0.39516E-17 -0.61528E-02
 -0.37964E-02 -0.93572E-03 -0.61528E-02
 -0.34621E-02 -0.18171E-02 -0.61528E-02
 -0.29267E-02 -0.25928E-02 -0.61528E-02
 -0.22211E-02 -0.32179E-02 -0.61528E-02
 -0.13865E-02 -0.36559E-02 -0.61528E-02
 -0.47130E-03 -0.38815E-02 -0.61528E-02
  0.47130E-03 -0.38815E-02 -0.61528E-02
  0.13865E-02 -0.36559E-02 -0.61528E-02
  0.22211E-02 -0.32179E-02 -0.61528E-02
  0.29267E-02 -0.25928E-02 -0.61528E-02
  0.34621E-02 -0.18171E-02 -0.61528E-02
  0.37964E-02 -0.93572E-03 -0.61528E-02
  0.10365E-02  0.67902E-03 -0.51736E-02
  0.17432E-02  0.12381E-02 -0.51736E-02
  0.23163E-02  0.59727E-03 -0.51736E-02
  0.16675E-02 -0.32945E-03 -0.51736E-02
  0.30374E-02  0.15282E-03 -0.51736E-02
  0.27829E-02 -0.67100E-03 -0.51736E-02
  0.12839E-02  0.18432E-02 -0.51736E-02
  0.64869E-03  0.14686E-02 -0.51736E-02
  0.12468E-03  0.31196E-03 -0.51736E-02
 -0.13026E-03  0.11865E-02 -0.51736E-02
  0.94135E-03  0.22762E-02 -0.51736E-02
  0.11289E-02  0.28238E-02 -0.51736E-02
  0.17447E-02  0.24254E-02 -0.51736E-02
  0.40528E-03  0.21688E-02 -0.51736E-02
  0.39760E-03  0.29337E-02 -0.51736E-02
 -0.76692E-03 -0.10049E-02 -0.51736E-02
 -0.86724E-03  0.87871E-04 -0.51736E-02
  0.45626E-03 -0.69519E-03 -0.51736E-02
 -0.18332E-02 -0.71042E-03 -0.51736E-02
 -0.18430E-02  0.84108E-04 -0.51736E-02
 -0.27235E-02 -0.77678E-03 -0.51736E-02
 -0.27998E-02  0.43720E-04 -0.51736E-02
 -0.25382E-02 -0.15189E-02 -0.51736E-02
 -0.19334E-02 -0.13219E-02 -0.51736E-02
 -0.99205E-03  0.10034E-02 -0.51736E-02
 -0.14419E-02 -0.17320E-02 -0.51736E-02
 -0.31354E-03  0.20251E-02 -0.51736E-02
 -0.11030E-02  0.18601E-02 -0.51736E-02
 -0.18840E-02  0.17175E-02 -0.51736E-02
 -0.18699E-02  0.91204E-03 -0.51736E-02
 -0.16174E-03 -0.19803E-02 -0.51736E-02
 -0.94747E-03 -0.23492E-02 -0.51736E-02
  0.78129E-03 -0.17073E-02 -0.51736E-02
  0.17206E-02 -0.14921E-02 -0.51736E-02
  0.32086E-02  0.77142E-03 -0.51736E-02
  0.28044E-02  0.12524E-02 -0.51736E-02
  0.23047E-02  0.18669E-02 -0.51736E-02
 -0.40462E-03  0.28920E-02 -0.51736E-02
 -0.12093E-02  0.27155E-02 -0.51736E-02
 -0.19444E-02  0.24618E-02 -0.51736E-02
 -0.25025E-02  0.22358E-02 -0.51736E-02
 -0.26361E-02  0.16503E-02 -0.51736E-02
 -0.27637E-02  0.87781E-03 -0.51736E-02
 -0.21139E-02 -0.21374E-02 -0.51736E-02
 -0.16092E-02 -0.26934E-02 -0.51736E-02
 -0.11951E-02 -0.31291E-02 -0.51736E-02
 -0.59025E-03 -0.30382E-02 -0.51736E-02
  0.20465E-03 -0.28749E-02 -0.51736E-02
  0.10552E-02 -0.26452E-02 -0.51736E-02
  0.18418E-02 -0.23729E-02 -0.51736E-02
  0.24558E-02 -0.21505E-02 -0.51736E-02
  0.26030E-02 -0.15093E-02 -0.51736E-02
  0.37964E-02  0.93572E-03 -0.51736E-02
  0.39100E-02  0.00000E+00 -0.51736E-02
  0.34621E-02  0.18171E-02 -0.51736E-02
  0.29267E-02  0.25928E-02 -0.51736E-02
  0.22211E-02  0.32179E-02 -0.51736E-02
  0.13865E-02  0.36559E-02 -0.51736E-02
  0.47130E-03  0.38815E-02 -0.51736E-02
 -0.47130E-03  0.38815E-02 -0.51736E-02
 -0.13865E-02  0.36559E-02 -0.51736E-02
 -0.22211E-02  0.32179E-02 -0.51736E-02
 -0.29267E-02  0.25928E-02 -0.51736E-02
 -0.34621E-02  0.18171E-02 -0.51736E-02
 -0.37964E-02  0.93572E-03 -0.51736E-02
 -0.39100E-02 -0.47884E-18 -0.51736E-02
 -0.37964E-02 -0.93572E-03 -0.51736E-02
 -0.34621E-02 -0.18171E-02 -0.51736E-02
 -0.29267E-02 -0.25928E-02 -0.51736E-02
 -0.22211E-02 -0.32179E-02 -0.51736E-02
 -0.13865E-02 -0.36559E-02 -0.51736E-02
 -0.47130E-03 -0.38815E-02 -0.51736E-02
  0.47130E-03 -0.38815E-02 -0.51736E-02
  0.13865E-02 -0.36559E-02 -0.51736E-02
  0.22211E-02 -0.32179E-02 -0.51736E-02
  0.29267E-02 -0.25928E-02 -0.51736E-02
  0.34621E-02 -0.18171E-02 -0.51736E-02
  0.37964E-02 -0.93572E-03 -0.51736E-02
  0.10364E-02  0.67958E-03 -0.41944E-02
  0.17430E-02  0.12387E-02 -0.41944E-02
  0.23162E-02  0.59779E-03 -0.41944E-02
  0.16672E-02 -0.32870E-03 -0.41944E-02
  0.30374E-02  0.15318E-03 -0.41944E-02
  0.27832E-02 -0.67051E-03 -0.41944E-02
  0.12838E-02  0.18434E-02 -0.41944E-02
  0.64845E-03  0.14696E-02 -0.41944E-02
  0.12442E-03  0.31311E-03 -0.41944E-02
 -0.13044E-03  0.11882E-02 -0.41944E-02
  0.94102E-03  0.22763E-02 -0.41944E-02
  0.11286E-02  0.28233E-02 -0.41944E-02
  0.17443E-02  0.24255E-02 -0.41944E-02
  0.40523E-03  0.21689E-02 -0.41944E-02
  0.39759E-03  0.29335E-02 -0.41944E-02
 -0.76727E-03 -0.10050E-02 -0.41944E-02
 -0.86735E-03  0.88681E-04 -0.41944E-02
  0.45582E-03 -0.69447E-03 -0.41944E-02
 -0.18335E-02 -0.71028E-03 -0.41944E-02
 -0.18429E-02  0.84232E-04 -0.41944E-02
 -0.27235E-02 -0.77661E-03 -0.41944E-02
 -0.27995E-02  0.43993E-04 -0.41944E-02
 -0.25383E-02 -0.15189E-02 -0.41944E-02
 -0.19339E-02 -0.13218E-02 -0.41944E-02
 -0.99190E-03  0.10048E-02 -0.41944E-02
 -0.14422E-02 -0.17320E-02 -0.41944E-02
 -0.31334E-03  0.20254E-02 -0.41944E-02
 -0.11026E-02  0.18599E-02 -0.41944E-02
 -0.18839E-02  0.17175E-02 -0.41944E-02
 -0.18697E-02  0.91228E-03 -0.41944E-02
 -0.16201E-03 -0.19803E-02 -0.41944E-02
 -0.94807E-03 -0.23492E-02 -0.41944E-02
  0.78063E-03 -0.17073E-02 -0.41944E-02
  0.17206E-02 -0.14923E-02 -0.41944E-02
  0.32089E-02  0.77243E-03 -0.41944E-02
  0.28043E-02  0.12528E-02 -0.41944E-02
  0.23046E-02  0.18670E-02 -0.41944E-02
 -0.40448E-03  0.28910E-02 -0.41944E-02
 -0.12093E-02  0.27151E-02 -0.41944E-02
 -0.19443E-02  0.24615E-02 -0.41944E-02
 -0.25025E-02  0.22358E-02 -0.41944E-02
 -0.26360E-02  0.16503E-02 -0.41944E-02
 -0.27633E-02  0.87807E-03 -0.41944E-02
 -0.21140E-02 -0.21374E-02 -0.41944E-02
 -0.16092E-02 -0.26934E-02 -0.41944E-02
 -0.11953E-02 -0.31291E-02 -0.41944E-02
 -0.59060E-03 -0.30382E-02 -0.41944E-02
  0.20424E-03 -0.28749E-02 -0.41944E-02
  0.10549E-02 -0.26455E-02 -0.41944E-02
  0.18418E-02 -0.23732E-02 -0.41944E-02
  0.24559E-02 -0.21511E-02 -0.41944E-02
  0.26030E-02 -0.15092E-02 -0.41944E-02
  0.37964E-02  0.93572E-03 -0.41944E-02
  0.39100E-02  0.00000E+00 -0.41944E-02
  0.34621E-02  0.18171E-02 -0.41944E-02
  0.29267E-02  0.25928E-02 -0.41944E-02
  0.22211E-02  0.32179E-02 -0.41944E-02
  0.13865E-02  0.36559E-02 -0.41944E-02
  0.47130E-03  0.38815E-02 -0.41944E-02
 -0.47130E-03  0.38815E-02 -0.41944E-02
 -0.13865E-02  0.36559E-02 -0.41944E-02
 -0.22211E-02  0.32179E-02 -0.41944E-02
 -0.29267E-02  0.25928E-02 -0.41944E-02
 -0.34621E-02  0.18171E-02 -0.41944E-02
 -0.37964E-02  0.93572E-03 -0.41944E-02
 -0.39100E-02  0.22152E-17 -0.41944E-02
 -0.37964E-02 -0.93572E-03 -0.41944E-02
 -0.34621E-02 -0.18171E-02 -0.41944E-02
 -0.29267E-02 -0.25928E-02 -0.41944E-02
 -0.22211E-02 -0.32179E-02 -0.41944E-02
 -0.13865E-02 -0.36559E-02 -0.41944E-02
 -0.47130E-03 -0.38815E-02 -0.41944E-02
  0.47130E-03 -0.38815E-02 -0.41944E-02
  0.13865E-02 -0.36559E-02 -0.41944E-02
  0.22211E-02 -0.32179E-02 -0.41944E-02
  0.29267E-02 -0.25928E-02 -0.41944E-02
  0.34621E-02 -0.18171E-02 -0.41944E-02
  0.37964E-02 -0.93572E-03 -0.41944E-02
  0.10363E-02  0.68013E-03 -0.32153E-02
  0.17429E-02  0.12394E-02 -0.32153E-02
  0.23161E-02  0.59831E-03 -0.32153E-02
  0.16670E-02 -0.32794E-03 -0.32153E-02
  0.30374E-02  0.15354E-03 -0.32153E-02
  0.27836E-02 -0.67002E-03 -0.32153E-02
  0.12837E-02  0.18436E-02 -0.32153E-02
  0.64820E-03  0.14706E-02 -0.32153E-02
  0.12416E-03  0.31426E-03 -0.32153E-02
 -0.13063E-03  0.11900E-02 -0.32153E-02
  0.94069E-03  0.22765E-02 -0.32153E-02
  0.11282E-02  0.28229E-02 -0.32153E-02
  0.17439E-02  0.24257E-02 -0.32153E-02
  0.40518E-03  0.21689E-02 -0.32153E-02
  0.39757E-03  0.29332E-02 -0.32153E-02
 -0.76763E-03 -0.10051E-02 -0.32153E-02
 -0.86746E-03  0.89490E-04 -0.32153E-02
  0.45537E-03 -0.69374E-03 -0.32153E-02
 -0.18338E-02 -0.71013E-03 -0.32153E-02
 -0.18428E-02  0.84355E-04 -0.32153E-02
 -0.27234E-02 -0.77644E-03 -0.32153E-02
 -0.27992E-02  0.44266E-04 -0.32153E-02
 -0.25385E-02 -0.15188E-02 -0.32153E-02
 -0.19343E-02 -0.13216E-02 -0.32153E-02
 -0.99176E-03  0.10061E-02 -0.32153E-02
 -0.14425E-02 -0.17320E-02 -0.32153E-02
 -0.31314E-03  0.20257E-02 -0.32153E-02
 -0.11023E-02  0.18598E-02 -0.32153E-02
 -0.18839E-02  0.17175E-02 -0.32153E-02
 -0.18696E-02  0.91252E-03 -0.32153E-02
 -0.16229E-03 -0.19803E-02 -0.32153E-02
 -0.94867E-03 -0.23492E-02 -0.32153E-02
  0.77997E-03 -0.17073E-02 -0.32153E-02
  0.17205E-02 -0.14926E-02 -0.32153E-02
  0.32092E-02  0.77343E-03 -0.32153E-02
  0.28043E-02  0.12533E-02 -0.32153E-02
  0.23044E-02  0.18670E-02 -0.32153E-02
 -0.40434E-03  0.28899E-02 -0.32153E-02
 -0.12093E-02  0.27146E-02 -0.32153E-02
 -0.19443E-02  0.24613E-02 -0.32153E-02
 -0.25025E-02  0.22358E-02 -0.32153E-02
 -0.26359E-02  0.16503E-02 -0.32153E-02
 -0.27630E-02  0.87833E-03 -0.32153E-02
 -0.21141E-02 -0.21374E-02 -0.32153E-02
 -0.16093E-02 -0.26934E-02 -0.32153E-02
 -0.11954E-02 -0.31291E-02 -0.32153E-02
 -0.59095E-03 -0.30382E-02 -0.32153E-02
  0.20384E-03 -0.28750E-02 -0.32153E-02
  0.10546E-02 -0.26458E-02 -0.32153E-02
  0.18419E-02 -0.23734E-02 -0.32153E-02
  0.24560E-02 -0.21516E-02 -0.32153E-02
  0.26031E-02 -0.15091E-02 -0.32153E-02
  0.37964E-02  0.93572E-03 -0.32153E-02
  0.39100E-02  0.00000E+00 -0.32153E-02
  0.34621E-02  0.18171E-02 -0.32153E-02
  0.29267E-02  0.25928E-02 -0.32153E-02
  0.22211E-02  0.32179E-02 -0.32153E-02
  0.13865E-02  0.36559E-02 -0.32153E-02
  0.47130E-03  0.38815E-02 -0.32153E-02
 -0.47130E-03  0.38815E-02 -0.32153E-02
 -0.13865E-02  0.36559E-02 -0.32153E-02
 -0.22211E-02  0.32179E-02 -0.32153E-02
 -0.29267E-02  0.25928E-02 -0.32153E-02
 -0.34621E-02  0.18171E-02 -0.32153E-02
 -0.37964E-02  0.93572E-03 -0.32153E-02
 -0.39100E-02 -0.47884E-18 -0.32153E-02
 -0.37964E-02 -0.93572E-03 -0.32153E-02
 -0.34621E-02 -0.18171E-02 -0.32153E-02
 -0.29267E-02 -0.25928E-02 -0.32153E-02
 -0.22211E-02 -0.32179E-02 -0.32153E-02
 -0.13865E-02 -0.36559E-02 -0.32153E-02
 -0.47130E-03 -0.38815E-02 -0.32153E-02
  0.47130E-03 -0.38815E-02 -0.32153E-02
  0.13865E-02 -0.36559E-02 -0.32153E-02
  0.22211E-02 -0.32179E-02 -0.32153E-02
  0.29267E-02 -0.25928E-02 -0.32153E-02
  0.34621E-02 -0.18171E-02 -0.32153E-02
  0.37964E-02 -0.93572E-03 -0.32153E-02
  0.10362E-02  0.68068E-03 -0.22361E-02
  0.17427E-02  0.12401E-02 -0.22361E-02
  0.23160E-02  0.59884E-03 -0.22361E-02
  0.16668E-02 -0.32719E-03 -0.22361E-02
  0.30373E-02  0.15391E-03 -0.22361E-02
  0.27839E-02 -0.66953E-03 -0.22361E-02
  0.12836E-02  0.18438E-02 -0.22361E-02
  0.64796E-03  0.14716E-02 -0.22361E-02
  0.12390E-03  0.31541E-03 -0.22361E-02
 -0.13082E-03  0.11917E-02 -0.22361E-02
  0.94036E-03  0.22766E-02 -0.22361E-02
  0.11279E-02  0.28225E-02 -0.22361E-02
  0.17435E-02  0.24258E-02 -0.22361E-02
  0.40512E-03  0.21690E-02 -0.22361E-02
  0.39755E-03  0.29330E-02 -0.22361E-02
 -0.76798E-03 -0.10053E-02 -0.22361E-02
 -0.86756E-03  0.90299E-04 -0.22361E-02
  0.45492E-03 -0.69302E-03 -0.22361E-02
 -0.18341E-02 -0.70999E-03 -0.22361E-02
 -0.18427E-02  0.84479E-04 -0.22361E-02
 -0.27234E-02 -0.77627E-03 -0.22361E-02
 -0.27990E-02  0.44540E-04 -0.22361E-02
 -0.25386E-02 -0.15188E-02 -0.22361E-02
 -0.19347E-02 -0.13215E-02 -0.22361E-02
 -0.99161E-03  0.10075E-02 -0.22361E-02
 -0.14429E-02 -0.17319E-02 -0.22361E-02
 -0.31294E-03  0.20260E-02 -0.22361E-02
 -0.11019E-02  0.18597E-02 -0.22361E-02
 -0.18838E-02  0.17175E-02 -0.22361E-02
 -0.18695E-02  0.91276E-03 -0.22361E-02
 -0.16256E-03 -0.19804E-02 -0.22361E-02
 -0.94927E-03 -0.23493E-02 -0.22361E-02
  0.77931E-03 -0.17073E-02 -0.22361E-02
  0.17205E-02 -0.14928E-02 -0.22361E-02
  0.32096E-02  0.77444E-03 -0.22361E-02
  0.28043E-02  0.12537E-02 -0.22361E-02
  0.23043E-02  0.18670E-02 -0.22361E-02
 -0.40420E-03  0.28888E-02 -0.22361E-02
 -0.12093E-02  0.27141E-02 -0.22361E-02
 -0.19443E-02  0.24611E-02 -0.22361E-02
 -0.25024E-02  0.22358E-02 -0.22361E-02
 -0.26358E-02  0.16503E-02 -0.22361E-02
 -0.27627E-02  0.87859E-03 -0.22361E-02
 -0.21143E-02 -0.21374E-02 -0.22361E-02
 -0.16093E-02 -0.26934E-02 -0.22361E-02
 -0.11955E-02 -0.31291E-02 -0.22361E-02
 -0.59130E-03 -0.30382E-02 -0.22361E-02
  0.20343E-03 -0.28750E-02 -0.22361E-02
  0.10543E-02 -0.26460E-02 -0.22361E-02
  0.18419E-02 -0.23736E-02 -0.22361E-02
  0.24561E-02 -0.21521E-02 -0.22361E-02
  0.26032E-02 -0.15090E-02 -0.22361E-02
  0.37964E-02  0.93572E-03 -0.22361E-02
  0.39100E-02  0.00000E+00 -0.22361E-02
  0.34621E-02  0.18171E-02 -0.22361E-02
  0.29267E-02  0.25928E-02 -0.22361E-02
  0.22211E-02  0.32179E-02 -0.22361E-02
  0.13865E-02  0.36559E-02 -0.22361E-02
  0.47130E-03  0.38815E-02 -0.22361E-02
 -0.47130E-03  0.38815E-02 -0.22361E-02
 -0.13865E-02  0.36559E-02 -0.22361E-02
 -0.22211E-02  0.32179E-02 -0.22361E-02
 -0.29267E-02  0.25928E-02 -0.22361E-02
 -0.34621E-02  0.18171E-02 -0.22361E-02
 -0.37964E-02  0.93572E-03 -0.22361E-02
 -0.39100E-02  0.22152E-17 -0.22361E-02
 -0.37964E-02 -0.93572E-03 -0.22361E-02
 -0.34621E-02 -0.18171E-02 -0.22361E-02
 -0.29267E-02 -0.25928E-02 -0.22361E-02
 -0.22211E-02 -0.32179E-02 -0.22361E-02
 -0.13865E-02 -0.36559E-02 -0.22361E-02
 -0.47130E-03 -0.38815E-02 -0.22361E-02
  0.47130E-03 -0.38815E-02 -0.22361E-02
  0.13865E-02 -0.36559E-02 -0.22361E-02
  0.22211E-02 -0.32179E-02 -0.22361E-02
  0.29267E-02 -0.25928E-02 -0.22361E-02
  0.34621E-02 -0.18171E-02 -0.22361E-02
  0.37964E-02 -0.93572E-03 -0.22361E-02
  0.10360E-02  0.68124E-03 -0.12569E-02
  0.17425E-02  0.12407E-02 -0.12569E-02
  0.23158E-02  0.59936E-03 -0.12569E-02
  0.16666E-02 -0.32643E-03 -0.12569E-02
  0.30373E-02  0.15427E-03 -0.12569E-02
  0.27842E-02 -0.66903E-03 -0.12569E-02
  0.12835E-02  0.18440E-02 -0.12569E-02
  0.64771E-03  0.14727E-02 -0.12569E-02
  0.12363E-03  0.31656E-03 -0.12569E-02
 -0.13100E-03  0.11935E-02 -0.12569E-02
  0.94003E-03  0.22767E-02 -0.12569E-02
  0.11276E-02  0.28220E-02 -0.12569E-02
  0.17432E-02  0.24260E-02 -0.12569E-02
  0.40507E-03  0.21690E-02 -0.12569E-02
  0.39754E-03  0.29327E-02 -0.12569E-02
 -0.76834E-03 -0.10054E-02 -0.12569E-02
 -0.86767E-03  0.91108E-04 -0.12569E-02
  0.45447E-03 -0.69229E-03 -0.12569E-02
 -0.18344E-02 -0.70985E-03 -0.12569E-02
 -0.18426E-02  0.84602E-04 -0.12569E-02
 -0.27234E-02 -0.77610E-03 -0.12569E-02
 -0.27987E-02  0.44813E-04 -0.12569E-02
 -0.25388E-02 -0.15187E-02 -0.12569E-02
 -0.19352E-02 -0.13215E-02 -0.12569E-02
 -0.99147E-03  0.10088E-02 -0.12569E-02
 -0.14433E-02 -0.17319E-02 -0.12569E-02
 -0.31274E-03  0.20262E-02 -0.12569E-02
 -0.11016E-02  0.18595E-02 -0.12569E-02
 -0.18838E-02  0.17175E-02 -0.12569E-02
 -0.18694E-02  0.91300E-03 -0.12569E-02
 -0.16284E-03 -0.19804E-02 -0.12569E-02
 -0.94986E-03 -0.23493E-02 -0.12569E-02
  0.77865E-03 -0.17073E-02 -0.12569E-02
  0.17205E-02 -0.14931E-02 -0.12569E-02
  0.32099E-02  0.77544E-03 -0.12569E-02
  0.28042E-02  0.12541E-02 -0.12569E-02
  0.23042E-02  0.18671E-02 -0.12569E-02
 -0.40407E-03  0.28877E-02 -0.12569E-02
 -0.12093E-02  0.27137E-02 -0.12569E-02
 -0.19442E-02  0.24609E-02 -0.12569E-02
 -0.25024E-02  0.22358E-02 -0.12569E-02
 -0.26358E-02  0.16503E-02 -0.12569E-02
 -0.27624E-02  0.87885E-03 -0.12569E-02
 -0.21144E-02 -0.21374E-02 -0.12569E-02
 -0.16094E-02 -0.26934E-02 -0.12569E-02
 -0.11956E-02 -0.31291E-02 -0.12569E-02
 -0.59165E-03 -0.30382E-02 -0.12569E-02
  0.20302E-03 -0.28750E-02 -0.12569E-02
  0.10540E-02 -0.26463E-02 -0.12569E-02
  0.18419E-02 -0.23738E-02 -0.12569E-02
  0.24563E-02 -0.21527E-02 -0.12569E-02
  0.26033E-02 -0.15088E-02 -0.12569E-02
  0.37964E-02  0.93572E-03 -0.12569E-02
  0.39100E-02  0.00000E+00 -0.12569E-02
  0.34621E-02  0.18171E-02 -0.12569E-02
  0.29267E-02  0.25928E-02 -0.12569E-02
  0.22211E-02  0.32179E-02 -0.12569E-02
  0.13865E-02  0.36559E-02 -0.12569E-02
  0.47130E-03  0.38815E-02 -0.12569E-02
 -0.47130E-03  0.38815E-02 -0.12569E-02
 -0.13865E-02  0.36559E-02 -0.12569E-02
 -0.22211E-02  0.32179E-02 -0.12569E-02
 -0.29267E-02  0.25928E-02 -0.12569E-02
 -0.34621E-02  0.18171E-02 -0.12569E-02
 -0.37964E-02  0.93572E-03 -0.12569E-02
 -0.39100E-02 -0.47884E-18 -0.12569E-02
 -0.37964E-02 -0.93572E-03 -0.12569E-02
 -0.34621E-02 -0.18171E-02 -0.12569E-02
 -0.29267E-02 -0.25928E-02 -0.12569E-02
 -0.22211E-02 -0.32179E-02 -0.12569E-02
 -0.13865E-02 -0.36559E-02 -0.12569E-02
 -0.47130E-03 -0.38815E-02 -0.12569E-02
  0.47130E-03 -0.38815E-02 -0.12569E-02
  0.13865E-02 -0.36559E-02 -0.12569E-02
  0.22211E-02 -0.32179E-02 -0.12569E-02
  0.29267E-02 -0.25928E-02 -0.12569E-02
  0.34621E-02 -0.18171E-02 -0.12569E-02
  0.37964E-02 -0.93572E-03 -0.12569E-02
  0.10359E-02  0.68179E-03 -0.27777E-03
  0.17423E-02  0.12414E-02 -0.27777E-03
  0.23157E-02  0.59988E-03 -0.27777E-03
  0.16664E-02 -0.32568E-03 -0.27777E-03
  0.30373E-02  0.15463E-03 -0.27777E-03
  0.27846E-02 -0.66854E-03 -0.27777E-03
  0.12834E-02  0.18442E-02 -0.27777E-03
  0.64747E-03  0.14736E-02 -0.27777E-03
  0.12337E-03  0.31770E-03 -0.27777E-03
 -0.13118E-03  0.11952E-02 -0.27777E-03
  0.93970E-03  0.22768E-02 -0.27777E-03
  0.11272E-02  0.28216E-02 -0.27777E-03
  0.17428E-02  0.24261E-02 -0.27777E-03
  0.40501E-03  0.21690E-02 -0.27777E-03
  0.39752E-03  0.29324E-02 -0.27777E-03
 -0.76869E-03 -0.10056E-02 -0.27777E-03
 -0.86778E-03  0.91918E-04 -0.27777E-03
  0.45402E-03 -0.69156E-03 -0.27777E-03
 -0.18347E-02 -0.70971E-03 -0.27777E-03
 -0.18425E-02  0.84726E-04 -0.27777E-03
 -0.27234E-02 -0.77593E-03 -0.27777E-03
 -0.27984E-02  0.45086E-04 -0.27777E-03
 -0.25389E-02 -0.15187E-02 -0.27777E-03
 -0.19356E-02 -0.13213E-02 -0.27777E-03
 -0.99133E-03  0.10102E-02 -0.27777E-03
 -0.14436E-02 -0.17318E-02 -0.27777E-03
 -0.31254E-03  0.20265E-02 -0.27777E-03
 -0.11013E-02  0.18594E-02 -0.27777E-03
 -0.18837E-02  0.17175E-02 -0.27777E-03
 -0.18692E-02  0.91324E-03 -0.27777E-03
 -0.16311E-03 -0.19804E-02 -0.27777E-03
 -0.95046E-03 -0.23493E-02 -0.27777E-03
  0.77799E-03 -0.17073E-02 -0.27777E-03
  0.17204E-02 -0.14933E-02 -0.27777E-03
  0.32102E-02  0.77645E-03 -0.27777E-03
  0.28042E-02  0.12545E-02 -0.27777E-03
  0.23041E-02  0.18671E-02 -0.27777E-03
 -0.40393E-03  0.28867E-02 -0.27777E-03
 -0.12093E-02  0.27132E-02 -0.27777E-03
 -0.19442E-02  0.24606E-02 -0.27777E-03
 -0.25024E-02  0.22358E-02 -0.27777E-03
 -0.26357E-02  0.16503E-02 -0.27777E-03
 -0.27621E-02  0.87912E-03 -0.27777E-03
 -0.21146E-02 -0.21374E-02 -0.27777E-03
 -0.16094E-02 -0.26935E-02 -0.27777E-03
 -0.11957E-02 -0.31291E-02 -0.27777E-03
 -0.59200E-03 -0.30381E-02 -0.27777E-03
  0.20262E-03 -0.28750E-02 -0.27777E-03
  0.10536E-02 -0.26466E-02 -0.27777E-03
  0.18420E-02 -0.23740E-02 -0.27777E-03
  0.24564E-02 -0.21533E-02 -0.27777E-03
  0.26033E-02 -0.15087E-02 -0.27777E-03
  0.37964E-02  0.93572E-03 -0.27777E-03
  0.39100E-02  0.00000E+00 -0.27777E-03
  0.34621E-02  0.18171E-02 -0.27777E-03
  0.29267E-02  0.25928E-02 -0.27777E-03
  0.22211E-02  0.32179E-02 -0.27777E-03
  0.13865E-02  0.36559E-02 -0.27777E-03
  0.47130E-03  0.38815E-02 -0.27777E-03
 -0.47130E-03  0.38815E-02 -0.27777E-03
 -0.13865E-02  0.36559E-02 -0.27777E-03
 -0.22211E-02  0.32179E-02 -0.27777E-03
 -0.29267E-02  0.25928E-02 -0.27777E-03
 -0.34621E-02  0.18171E-02 -0.27777E-03
 -0.37964E-02  0.93572E-03 -0.27777E-03
 -0.39100E-02 -0.47884E-18 -0.27777E-03
 -0.37964E-02 -0.93572E-03 -0.27777E-03
 -0.34621E-02 -0.18171E-02 -0.27777E-03
 -0.29267E-02 -0.25928E-02 -0.27777E-03
 -0.22211E-02 -0.32179E-02 -0.27777E-03
 -0.13865E-02 -0.36559E-02 -0.27777E-03
 -0.47130E-03 -0.38815E-02 -0.27777E-03
  0.47130E-03 -0.38815E-02 -0.27777E-03
  0.13865E-02 -0.36559E-02 -0.27777E-03
  0.22211E-02 -0.32179E-02 -0.27777E-03
  0.29267E-02 -0.25928E-02 -0.27777E-03
  0.34621E-02 -0.18171E-02 -0.27777E-03
  0.37964E-02 -0.93572E-03 -0.27777E-03
  0.10358E-02  0.68235E-03  0.70140E-03
  0.17422E-02  0.12421E-02  0.70140E-03
  0.23156E-02  0.60041E-03  0.70140E-03
  0.16662E-02 -0.32493E-03  0.70140E-03
  0.30373E-02  0.15500E-03  0.70140E-03
  0.27849E-02 -0.66805E-03  0.70140E-03
  0.12833E-02  0.18444E-02  0.70140E-03
  0.64722E-03  0.14747E-02  0.70140E-03
  0.12311E-03  0.31885E-03  0.70140E-03
 -0.13137E-03  0.11970E-02  0.70140E-03
  0.93937E-03  0.22770E-02  0.70140E-03
  0.11269E-02  0.28211E-02  0.70140E-03
  0.17424E-02  0.24262E-02  0.70140E-03
  0.40496E-03  0.21691E-02  0.70140E-03
  0.39750E-03  0.29322E-02  0.70140E-03
 -0.76904E-03 -0.10057E-02  0.70140E-03
 -0.86789E-03  0.92727E-04  0.70140E-03
  0.45358E-03 -0.69084E-03  0.70140E-03
 -0.18350E-02 -0.70957E-03  0.70140E-03
 -0.18424E-02  0.84849E-04  0.70140E-03
 -0.27233E-02 -0.77576E-03  0.70140E-03
 -0.27981E-02  0.45359E-04  0.70140E-03
 -0.25391E-02 -0.15186E-02  0.70140E-03
 -0.19360E-02 -0.13212E-02  0.70140E-03
 -0.99118E-03  0.10115E-02  0.70140E-03
 -0.14440E-02 -0.17318E-02  0.70140E-03
 -0.31234E-03  0.20268E-02  0.70140E-03
 -0.11009E-02  0.18593E-02  0.70140E-03
 -0.18836E-02  0.17175E-02  0.70140E-03
 -0.18691E-02  0.91347E-03  0.70140E-03
 -0.16339E-03 -0.19804E-02  0.70140E-03
 -0.95106E-03 -0.23493E-02  0.70140E-03
  0.77733E-03 -0.17073E-02  0.70140E-03
  0.17204E-02 -0.14936E-02  0.70140E-03
  0.32105E-02  0.77745E-03  0.70140E-03
  0.28042E-02  0.12550E-02  0.70140E-03
  0.23040E-02  0.18671E-02  0.70140E-03
 -0.40379E-03  0.28856E-02  0.70140E-03
 -0.12093E-02  0.27127E-02  0.70140E-03
 -0.19441E-02  0.24604E-02  0.70140E-03
 -0.25023E-02  0.22358E-02  0.70140E-03
 -0.26356E-02  0.16503E-02  0.70140E-03
 -0.27618E-02  0.87938E-03  0.70140E-03
 -0.21147E-02 -0.21374E-02  0.70140E-03
 -0.16094E-02 -0.26935E-02  0.70140E-03
 -0.11958E-02 -0.31291E-02  0.70140E-03
 -0.59235E-03 -0.30381E-02  0.70140E-03
  0.20221E-03 -0.28750E-02  0.70140E-03
  0.10533E-02 -0.26468E-02  0.70140E-03
  0.18420E-02 -0.23742E-02  0.70140E-03
  0.24565E-02 -0.21538E-02  0.70140E-03
  0.26034E-02 -0.15086E-02  0.70140E-03
  0.37964E-02  0.93572E-03  0.70140E-03
  0.39100E-02  0.00000E+00  0.70140E-03
  0.34621E-02  0.18171E-02  0.70140E-03
  0.29267E-02  0.25928E-02  0.70140E-03
  0.22211E-02  0.32179E-02  0.70140E-03
  0.13865E-02  0.36559E-02  0.70140E-03
  0.47130E-03  0.38815E-02  0.70140E-03
 -0.47130E-03  0.38815E-02  0.70140E-03
 -0.13865E-02  0.36559E-02  0.70140E-03
 -0.22211E-02  0.32179E-02  0.70140E-03
 -0.29267E-02  0.25928E-02  0.70140E-03
 -0.34621E-02  0.18171E-02  0.70140E-03
 -0.37964E-02  0.93572E-03  0.70140E-03
 -0.39100E-02 -0.47884E-18  0.70140E-03
 -0.37964E-02 -0.93572E-03  0.70140E-03
 -0.34621E-02 -0.18171E-02  0.70140E-03
 -0.29267E-02 -0.25928E-02  0.70140E-03
 -0.22211E-02 -0.32179E-02  0.70140E-03
 -0.13865E-02 -0.36559E-02  0.70140E-03
 -0.47130E-03 -0.38815E-02  0.70140E-03
  0.47130E-03 -0.38815E-02  0.70140E-03
  0.13865E-02 -0.36559E-02  0.70140E-03
  0.22211E-02 -0.32179E-02  0.70140E-03
  0.29267E-02 -0.25928E-02  0.70140E-03
  0.34621E-02 -0.18171E-02  0.70140E-03
  0.37964E-02 -0.93572E-03  0.70140E-03
  0.10357E-02  0.68290E-03  0.16806E-02
  0.17420E-02  0.12427E-02  0.16806E-02
  0.23155E-02  0.60093E-03  0.16806E-02
  0.16660E-02 -0.32417E-03  0.16806E-02
  0.30372E-02  0.15536E-03  0.16806E-02
  0.27853E-02 -0.66755E-03  0.16806E-02
  0.12832E-02  0.18445E-02  0.16806E-02
  0.64698E-03  0.14757E-02  0.16806E-02
  0.12285E-03  0.32000E-03  0.16806E-02
 -0.13155E-03  0.11987E-02  0.16806E-02
  0.93903E-03  0.22771E-02  0.16806E-02
  0.11266E-02  0.28207E-02  0.16806E-02
  0.17420E-02  0.24264E-02  0.16806E-02
  0.40490E-03  0.21691E-02  0.16806E-02
  0.39749E-03  0.29319E-02  0.16806E-02
 -0.76940E-03 -0.10058E-02  0.16806E-02
 -0.86800E-03  0.93536E-04  0.16806E-02
  0.45313E-03 -0.69011E-03  0.16806E-02
 -0.18353E-02 -0.70943E-03  0.16806E-02
 -0.18423E-02  0.84973E-04  0.16806E-02
 -0.27233E-02 -0.77559E-03  0.16806E-02
 -0.27979E-02  0.45633E-04  0.16806E-02
 -0.25393E-02 -0.15186E-02  0.16806E-02
 -0.19365E-02 -0.13212E-02  0.16806E-02
 -0.99104E-03  0.10129E-02  0.16806E-02
 -0.14443E-02 -0.17318E-02  0.16806E-02
 -0.31214E-03  0.20271E-02  0.16806E-02
 -0.11006E-02  0.18592E-02  0.16806E-02
 -0.18836E-02  0.17175E-02  0.16806E-02
 -0.18690E-02  0.91371E-03  0.16806E-02
 -0.16366E-03 -0.19805E-02  0.16806E-02
 -0.95166E-03 -0.23493E-02  0.16806E-02
  0.77667E-03 -0.17073E-02  0.16806E-02
  0.17203E-02 -0.14938E-02  0.16806E-02
  0.32109E-02  0.77846E-03  0.16806E-02
  0.28042E-02  0.12554E-02  0.16806E-02
  0.23039E-02  0.18672E-02  0.16806E-02
 -0.40365E-03  0.28845E-02  0.16806E-02
 -0.12093E-02  0.27122E-02  0.16806E-02
 -0.19441E-02  0.24602E-02  0.16806E-02
 -0.25023E-02  0.22358E-02  0.16806E-02
 -0.26355E-02  0.16502E-02  0.16806E-02
 -0.27615E-02  0.87964E-03  0.16806E-02
 -0.21148E-02 -0.21374E-02  0.16806E-02
 -0.16095E-02 -0.26935E-02  0.16806E-02
 -0.11960E-02 -0.31291E-02  0.16806E-02
 -0.59270E-03 -0.30381E-02  0.16806E-02
  0.20180E-03 -0.28750E-02  0.16806E-02
  0.10530E-02 -0.26471E-02  0.16806E-02
  0.18421E-02 -0.23744E-02  0.16806E-02
  0.24566E-02 -0.21543E-02  0.16806E-02
  0.26035E-02 -0.15085E-02  0.16806E-02
  0.37964E-02  0.93572E-03  0.16806E-02
  0.39100E-02  0.00000E+00  0.16806E-02
  0.34621E-02  0.18171E-02  0.16806E-02
  0.29267E-02  0.25928E-02  0.16806E-02
  0.22211E-02  0.32179E-02  0.16806E-02
  0.13865E-02  0.36559E-02  0.16806E-02
  0.47130E-03  0.38815E-02  0.16806E-02
 -0.47130E-03  0.38815E-02  0.16806E-02
 -0.13865E-02  0.36559E-02  0.16806E-02
 -0.22211E-02  0.32179E-02  0.16806E-02
 -0.29267E-02  0.25928E-02  0.16806E-02
 -0.34621E-02  0.18171E-02  0.16806E-02
 -0.37964E-02  0.93572E-03  0.16806E-02
 -0.39100E-02 -0.47884E-18  0.16806E-02
 -0.37964E-02 -0.93572E-03  0.16806E-02
 -0.34621E-02 -0.18171E-02  0.16806E-02
 -0.29267E-02 -0.25928E-02  0.16806E-02
 -0.22211E-02 -0.32179E-02  0.16806E-02
 -0.13865E-02 -0.36559E-02  0.16806E-02
 -0.47130E-03 -0.38815E-02  0.16806E-02
  0.47130E-03 -0.38815E-02  0.16806E-02
  0.13865E-02 -0.36559E-02  0.16806E-02
  0.22211E-02 -0.32179E-02  0.16806E-02
  0.29267E-02 -0.25928E-02  0.16806E-02
  0.34621E-02 -0.18171E-02  0.16806E-02
  0.37964E-02 -0.93572E-03  0.16806E-02
  0.10356E-02  0.68346E-03  0.26597E-02
  0.17418E-02  0.12434E-02  0.26597E-02
  0.23153E-02  0.60145E-03  0.26597E-02
  0.16657E-02 -0.32342E-03  0.26597E-02
  0.30372E-02  0.15572E-03  0.26597E-02
  0.27856E-02 -0.66706E-03  0.26597E-02
  0.12830E-02  0.18447E-02  0.26597E-02
  0.64673E-03  0.14767E-02  0.26597E-02
  0.12259E-03  0.32115E-03  0.26597E-02
 -0.13174E-03  0.12005E-02  0.26597E-02
  0.93870E-03  0.22772E-02  0.26597E-02
  0.11262E-02  0.28203E-02  0.26597E-02
  0.17416E-02  0.24265E-02  0.26597E-02
  0.40485E-03  0.21691E-02  0.26597E-02
  0.39747E-03  0.29316E-02  0.26597E-02
 -0.76975E-03 -0.10060E-02  0.26597E-02
 -0.86811E-03  0.94345E-04  0.26597E-02
  0.45268E-03 -0.68939E-03  0.26597E-02
 -0.18356E-02 -0.70929E-03  0.26597E-02
 -0.18422E-02  0.85096E-04  0.26597E-02
 -0.27233E-02 -0.77542E-03  0.26597E-02
 -0.27976E-02  0.45906E-04  0.26597E-02
 -0.25394E-02 -0.15185E-02  0.26597E-02
 -0.19369E-02 -0.13211E-02  0.26597E-02
 -0.99090E-03  0.10142E-02  0.26597E-02
 -0.14446E-02 -0.17317E-02  0.26597E-02
 -0.31194E-03  0.20274E-02  0.26597E-02
 -0.11002E-02  0.18590E-02  0.26597E-02
 -0.18835E-02  0.17175E-02  0.26597E-02
 -0.18689E-02  0.91395E-03  0.26597E-02
 -0.16394E-03 -0.19805E-02  0.26597E-02
 -0.95226E-03 -0.23494E-02  0.26597E-02
  0.77601E-03 -0.17073E-02  0.26597E-02
  0.17203E-02 -0.14941E-02  0.26597E-02
  0.32112E-02  0.77946E-03  0.26597E-02
  0.28042E-02  0.12558E-02  0.26597E-02
  0.23038E-02  0.18672E-02  0.26597E-02
 -0.40352E-03  0.28835E-02  0.26597E-02
 -0.12093E-02  0.27118E-02  0.26597E-02
 -0.19441E-02  0.24600E-02  0.26597E-02
 -0.25023E-02  0.22358E-02  0.26597E-02
 -0.26354E-02  0.16502E-02  0.26597E-02
 -0.27612E-02  0.87990E-03  0.26597E-02
 -0.21150E-02 -0.21374E-02  0.26597E-02
 -0.16095E-02 -0.26935E-02  0.26597E-02
 -0.11961E-02 -0.31291E-02  0.26597E-02
 -0.59305E-03 -0.30381E-02  0.26597E-02
  0.20140E-03 -0.28750E-02  0.26597E-02
  0.10527E-02 -0.26474E-02  0.26597E-02
  0.18421E-02 -0.23746E-02  0.26597E-02
  0.24568E-02 -0.21549E-02  0.26597E-02
  0.26036E-02 -0.15084E-02  0.26597E-02
  0.37964E-02  0.93572E-03  0.26597E-02
  0.39100E-02  0.00000E+00  0.26597E-02
  0.34621E-02  0.18171E-02  0.26597E-02
  0.29267E-02  0.25928E-02  0.26597E-02
  0.22211E-02  0.32179E-02  0.26597E-02
  0.13865E-02  0.36559E-02  0.26597E-02
  0.47130E-03  0.38815E-02  0.26597E-02
 -0.47130E-03  0.38815E-02  0.26597E-02
 -0.13865E-02  0.36559E-02  0.26597E-02
 -0.22211E-02  0.32179E-02  0.26597E-02
 -0.29267E-02  0.25928E-02  0.26597E-02
 -0.34621E-02  0.18171E-02  0.26597E-02
 -0.37964E-02  0.93572E-03  0.26597E-02
 -0.39100E-02  0.22152E-17  0.26597E-02
 -0.37964E-02 -0.93572E-03  0.26597E-02
 -0.34621E-02 -0.18171E-02  0.26597E-02
 -0.29267E-02 -0.25928E-02  0.26597E-02
 -0.22211E-02 -0.32179E-02  0.26597E-02
 -0.13865E-02 -0.36559E-02  0.26597E-02
 -0.47130E-03 -0.38815E-02  0.26597E-02
  0.47130E-03 -0.38815E-02  0.26597E-02
  0.13865E-02 -0.36559E-02  0.26597E-02
  0.22211E-02 -0.32179E-02  0.26597E-02
  0.29267E-02 -0.25928E-02  0.26597E-02
  0.34621E-02 -0.18171E-02  0.26597E-02
  0.37964E-02 -0.93572E-03  0.26597E-02
  0.10355E-02  0.68401E-03  0.36389E-02
  0.17416E-02  0.12440E-02  0.36389E-02
  0.23152E-02  0.60198E-03  0.36389E-02
  0.16655E-02 -0.32266E-03  0.36389E-02
  0.30372E-02  0.15609E-03  0.36389E-02
  0.27860E-02 -0.66657E-03  0.36389E-02
  0.12829E-02  0.18449E-02  0.36389E-02
  0.64649E-03  0.14777E-02  0.36389E-02
  0.12232E-03  0.32230E-03  0.36389E-02
 -0.13193E-03  0.12022E-02  0.36389E-02
  0.93837E-03  0.22774E-02  0.36389E-02
  0.11259E-02  0.28198E-02  0.36389E-02
  0.17412E-02  0.24267E-02  0.36389E-02
  0.40480E-03  0.21692E-02  0.36389E-02
  0.39745E-03  0.29314E-02  0.36389E-02
 -0.77011E-03 -0.10061E-02  0.36389E-02
 -0.86822E-03  0.95155E-04  0.36389E-02
  0.45223E-03 -0.68866E-03  0.36389E-02
 -0.18359E-02 -0.70915E-03  0.36389E-02
 -0.18421E-02  0.85220E-04  0.36389E-02
 -0.27232E-02 -0.77525E-03  0.36389E-02
 -0.27973E-02  0.46180E-04  0.36389E-02
 -0.25396E-02 -0.15185E-02  0.36389E-02
 -0.19373E-02 -0.13210E-02  0.36389E-02
 -0.99075E-03  0.10156E-02  0.36389E-02
 -0.14450E-02 -0.17317E-02  0.36389E-02
 -0.31173E-03  0.20277E-02  0.36389E-02
 -0.10999E-02  0.18589E-02  0.36389E-02
 -0.18835E-02  0.17175E-02  0.36389E-02
 -0.18687E-02  0.91419E-03  0.36389E-02
 -0.16421E-03 -0.19805E-02  0.36389E-02
 -0.95285E-03 -0.23494E-02  0.36389E-02
  0.77535E-03 -0.17073E-02  0.36389E-02
  0.17202E-02 -0.14943E-02  0.36389E-02
  0.32115E-02  0.78047E-03  0.36389E-02
  0.28041E-02  0.12563E-02  0.36389E-02
  0.23037E-02  0.18672E-02  0.36389E-02
 -0.40338E-03  0.28824E-02  0.36389E-02
 -0.12093E-02  0.27113E-02  0.36389E-02
 -0.19440E-02  0.24597E-02  0.36389E-02
 -0.25023E-02  0.22358E-02  0.36389E-02
 -0.26353E-02  0.16502E-02  0.36389E-02
 -0.27609E-02  0.88016E-03  0.36389E-02
 -0.21151E-02 -0.21374E-02  0.36389E-02
 -0.16096E-02 -0.26935E-02  0.36389E-02
 -0.11962E-02 -0.31291E-02  0.36389E-02
 -0.59340E-03 -0.30381E-02  0.36389E-02
  0.20099E-03 -0.28751E-02  0.36389E-02
  0.10524E-02 -0.26476E-02  0.36389E-02
  0.18422E-02 -0.23748E-02  0.36389E-02
  0.24569E-02 -0.21554E-02  0.36389E-02
  0.26036E-02 -0.15083E-02  0.36389E-02
  0.37964E-02  0.93572E-03  0.36389E-02
  0.39100E-02  0.00000E+00  0.36389E-02
  0.34621E-02  0.18171E-02  0.36389E-02
  0.29267E-02  0.25928E-02  0.36389E-02
  0.22211E-02  0.32179E-02  0.36389E-02
  0.13865E-02  0.36559E-02  0.36389E-02
  0.47130E-03  0.38815E-02  0.36389E-02
 -0.47130E-03  0.38815E-02  0.36389E-02
 -0.13865E-02  0.36559E-02  0.36389E-02
 -0.22211E-02  0.32179E-02  0.36389E-02
 -0.29267E-02  0.25928E-02  0.36389E-02
 -0.34621E-02  0.18171E-02  0.36389E-02
 -0.37964E-02  0.93572E-03  0.36389E-02
 -0.39100E-02 -0.47884E-18  0.36389E-02
 -0.37964E-02 -0.93572E-03  0.36389E-02
 -0.34621E-02 -0.18171E-02  0.36389E-02
 -0.29267E-02 -0.25928E-02  0.36389E-02
 -0.22211E-02 -0.32179E-02  0.36389E-02
 -0.13865E-02 -0.36559E-02  0.36389E-02
 -0.47130E-03 -0.38815E-02  0.36389E-02
  0.47130E-03 -0.38815E-02  0.36389E-02
  0.13865E-02 -0.36559E-02  0.36389E-02
  0.22211E-02 -0.32179E-02  0.36389E-02
  0.29267E-02 -0.25928E-02  0.36389E-02
  0.34621E-02 -0.18171E-02  0.36389E-02
  0.37964E-02 -0.93572E-03  0.36389E-02
  0.10354E-02  0.68457E-03  0.46181E-02
  0.17414E-02  0.12447E-02  0.46181E-02
  0.23151E-02  0.60250E-03  0.46181E-02
  0.16653E-02 -0.32191E-03  0.46181E-02
  0.30372E-02  0.15645E-03  0.46181E-02
  0.27863E-02 -0.66607E-03  0.46181E-02
  0.12829E-02  0.18451E-02  0.46181E-02
  0.64624E-03  0.14787E-02  0.46181E-02
  0.12206E-03  0.32345E-03  0.46181E-02
 -0.13211E-03  0.12040E-02  0.46181E-02
  0.93804E-03  0.22775E-02  0.46181E-02
  0.11255E-02  0.28194E-02  0.46181E-02
  0.17408E-02  0.24268E-02  0.46181E-02
  0.40474E-03  0.21692E-02  0.46181E-02
  0.39744E-03  0.29311E-02  0.46181E-02
 -0.77046E-03 -0.10062E-02  0.46181E-02
 -0.86832E-03  0.95964E-04  0.46181E-02
  0.45179E-03 -0.68793E-03  0.46181E-02
 -0.18362E-02 -0.70901E-03  0.46181E-02
 -0.18420E-02  0.85343E-04  0.46181E-02
 -0.27232E-02 -0.77507E-03  0.46181E-02
 -0.27970E-02  0.46453E-04  0.46181E-02
 -0.25397E-02 -0.15184E-02  0.46181E-02
 -0.19377E-02 -0.13209E-02  0.46181E-02
 -0.99061E-03  0.10169E-02  0.46181E-02
 -0.14453E-02 -0.17316E-02  0.46181E-02
 -0.31153E-03  0.20280E-02  0.46181E-02
 -0.10995E-02  0.18588E-02  0.46181E-02
 -0.18834E-02  0.17175E-02  0.46181E-02
 -0.18686E-02  0.91443E-03  0.46181E-02
 -0.16449E-03 -0.19806E-02  0.46181E-02
 -0.95345E-03 -0.23494E-02  0.46181E-02
  0.77469E-03 -0.17073E-02  0.46181E-02
  0.17202E-02 -0.14945E-02  0.46181E-02
  0.32119E-02  0.78148E-03  0.46181E-02
  0.28041E-02  0.12567E-02  0.46181E-02
  0.23036E-02  0.18673E-02  0.46181E-02
 -0.40324E-03  0.28813E-02  0.46181E-02
 -0.12093E-02  0.27108E-02  0.46181E-02
 -0.19440E-02  0.24595E-02  0.46181E-02
 -0.25022E-02  0.22358E-02  0.46181E-02
 -0.26352E-02  0.16502E-02  0.46181E-02
 -0.27606E-02  0.88043E-03  0.46181E-02
 -0.21152E-02 -0.21374E-02  0.46181E-02
 -0.16096E-02 -0.26936E-02  0.46181E-02
 -0.11963E-02 -0.31291E-02  0.46181E-02
 -0.59375E-03 -0.30381E-02  0.46181E-02
  0.20059E-03 -0.28751E-02  0.46181E-02
  0.10521E-02 -0.26479E-02  0.46181E-02
  0.18422E-02 -0.23750E-02  0.46181E-02
  0.24570E-02 -0.21560E-02  0.46181E-02
  0.26037E-02 -0.15082E-02  0.46181E-02
  0.37964E-02  0.93572E-03  0.46181E-02
  0.39100E-02  0.00000E+00  0.46181E-02
  0.34621E-02  0.18171E-02  0.46181E-02
  0.29267E-02  0.25928E-02  0.46181E-02
  0.22211E-02  0.32179E-02  0.46181E-02
  0.13865E-02  0.36559E-02  0.46181E-02
  0.47130E-03  0.38815E-02  0.46181E-02
 -0.47130E-03  0.38815E-02  0.46181E-02
 -0.13865E-02  0.36559E-02  0.46181E-02
 -0.22211E-02  0.32179E-02  0.46181E-02
 -0.29267E-02  0.25928E-02  0.46181E-02
 -0.34621E-02  0.18171E-02  0.46181E-02
 -0.37964E-02  0.93572E-03  0.46181E-02
 -0.39100E-02 -0.47884E-18  0.46181E-02
 -0.37964E-02 -0.93572E-03  0.46181E-02
 -0.34621E-02 -0.18171E-02  0.46181E-02
 -0.29267E-02 -0.25928E-02  0.46181E-02
 -0.22211E-02 -0.32179E-02  0.46181E-02
 -0.13865E-02 -0.36559E-02  0.46181E-02
 -0.47130E-03 -0.38815E-02  0.46181E-02
  0.47130E-03 -0.38815E-02  0.46181E-02
  0.13865E-02 -0.36559E-02  0.46181E-02
  0.22211E-02 -0.32179E-02  0.46181E-02
  0.29267E-02 -0.25928E-02  0.46181E-02
  0.34621E-02 -0.18171E-02  0.46181E-02
  0.37964E-02 -0.93572E-03  0.46181E-02
  0.10352E-02  0.68512E-03  0.55972E-02
  0.17413E-02  0.12454E-02  0.55972E-02
  0.23150E-02  0.60302E-03  0.55972E-02
  0.16651E-02 -0.32115E-03  0.55972E-02
  0.30371E-02  0.15681E-03  0.55972E-02
  0.27866E-02 -0.66558E-03  0.55972E-02
  0.12827E-02  0.18453E-02  0.55972E-02
  0.64600E-03  0.14797E-02  0.55972E-02
  0.12180E-03  0.32459E-03  0.55972E-02
 -0.13230E-03  0.12058E-02  0.55972E-02
  0.93771E-03  0.22776E-02  0.55972E-02
  0.11252E-02  0.28189E-02  0.55972E-02
  0.17404E-02  0.24270E-02  0.55972E-02
  0.40469E-03  0.21693E-02  0.55972E-02
  0.39742E-03  0.29308E-02  0.55972E-02
 -0.77081E-03 -0.10064E-02  0.55972E-02
 -0.86843E-03  0.96773E-04  0.55972E-02
  0.45134E-03 -0.68721E-03  0.55972E-02
 -0.18365E-02 -0.70887E-03  0.55972E-02
 -0.18419E-02  0.85467E-04  0.55972E-02
 -0.27232E-02 -0.77490E-03  0.55972E-02
 -0.27968E-02  0.46726E-04  0.55972E-02
 -0.25399E-02 -0.15184E-02  0.55972E-02
 -0.19382E-02 -0.13208E-02  0.55972E-02
 -0.99046E-03  0.10183E-02  0.55972E-02
 -0.14457E-02 -0.17316E-02  0.55972E-02
 -0.31133E-03  0.20283E-02  0.55972E-02
 -0.10992E-02  0.18586E-02  0.55972E-02
 -0.18834E-02  0.17175E-02  0.55972E-02
 -0.18685E-02  0.91467E-03  0.55972E-02
 -0.16476E-03 -0.19806E-02  0.55972E-02
 -0.95405E-03 -0.23494E-02  0.55972E-02
  0.77402E-03 -0.17073E-02  0.55972E-02
  0.17202E-02 -0.14948E-02  0.55972E-02
  0.32122E-02  0.78248E-03  0.55972E-02
  0.28041E-02  0.12571E-02  0.55972E-02
  0.23034E-02  0.18673E-02  0.55972E-02
 -0.40310E-03  0.28802E-02  0.55972E-02
 -0.12093E-02  0.27103E-02  0.55972E-02
 -0.19440E-02  0.24593E-02  0.55972E-02
 -0.25022E-02  0.22358E-02  0.55972E-02
 -0.26351E-02  0.16502E-02  0.55972E-02
 -0.27602E-02  0.88069E-03  0.55972E-02
 -0.21154E-02 -0.21374E-02  0.55972E-02
 -0.16097E-02 -0.26936E-02  0.55972E-02
 -0.11964E-02 -0.31291E-02  0.55972E-02
 -0.59409E-03 -0.30381E-02  0.55972E-02
  0.20018E-03 -0.28751E-02  0.55972E-02
  0.10518E-02 -0.26482E-02  0.55972E-02
  0.18422E-02 -0.23752E-02  0.55972E-02
  0.24571E-02 -0.21565E-02  0.55972E-02
  0.26038E-02 -0.15081E-02  0.55972E-02
  0.37964E-02  0.93572E-03  0.55972E-02
  0.39100E-02  0.00000E+00  0.55972E-02
  0.34621E-02  0.18171E-02  0.55972E-02
  0.29267E-02  0.25928E-02  0.55972E-02
  0.22211E-02  0.32179E-02  0.55972E-02
  0.13865E-02  0.36559E-02  0.55972E-02
  0.47130E-03  0.38815E-02  0.55972E-02
 -0.47130E-03  0.38815E-02  0.55972E-02
 -0.13865E-02  0.36559E-02  0.55972E-02
 -0.22211E-02  0.32179E-02  0.55972E-02
 -0.29267E-02  0.25928E-02  0.55972E-02
 -0.34621E-02  0.18171E-02  0.55972E-02
 -0.37964E-02  0.93572E-03  0.55972E-02
 -0.39100E-02 -0.47884E-18  0.55972E-02
 -0.37964E-02 -0.93572E-03  0.55972E-02
 -0.34621E-02 -0.18171E-02  0.55972E-02
 -0.29267E-02 -0.25928E-02  0.55972E-02
 -0.22211E-02 -0.32179E-02  0.55972E-02
 -0.13865E-02 -0.36559E-02  0.55972E-02
 -0.47130E-03 -0.38815E-02  0.55972E-02
  0.47130E-03 -0.38815E-02  0.55972E-02
  0.13865E-02 -0.36559E-02  0.55972E-02
  0.22211E-02 -0.32179E-02  0.55972E-02
  0.29267E-02 -0.25928E-02  0.55972E-02
  0.34621E-02 -0.18171E-02  0.55972E-02
  0.37964E-02 -0.93572E-03  0.55972E-02
  0.10351E-02  0.68567E-03  0.65764E-02
  0.17411E-02  0.12460E-02  0.65764E-02
  0.23149E-02  0.60355E-03  0.65764E-02
  0.16649E-02 -0.32040E-03  0.65764E-02
  0.30371E-02  0.15718E-03  0.65764E-02
  0.27870E-02 -0.66509E-03  0.65764E-02
  0.12826E-02  0.18455E-02  0.65764E-02
  0.64575E-03  0.14807E-02  0.65764E-02
  0.12154E-03  0.32574E-03  0.65764E-02
 -0.13248E-03  0.12075E-02  0.65764E-02
  0.93738E-03  0.22777E-02  0.65764E-02
  0.11249E-02  0.28185E-02  0.65764E-02
  0.17400E-02  0.24271E-02  0.65764E-02
  0.40463E-03  0.21693E-02  0.65764E-02
  0.39740E-03  0.29306E-02  0.65764E-02
 -0.77117E-03 -0.10065E-02  0.65764E-02
 -0.86854E-03  0.97583E-04  0.65764E-02
  0.45089E-03 -0.68648E-03  0.65764E-02
 -0.18368E-02 -0.70873E-03  0.65764E-02
 -0.18418E-02  0.85591E-04  0.65764E-02
 -0.27232E-02 -0.77474E-03  0.65764E-02
 -0.27965E-02  0.47000E-04  0.65764E-02
 -0.25400E-02 -0.15183E-02  0.65764E-02
 -0.19386E-02 -0.13207E-02  0.65764E-02
 -0.99032E-03  0.10197E-02  0.65764E-02
 -0.14460E-02 -0.17316E-02  0.65764E-02
 -0.31113E-03  0.20285E-02  0.65764E-02
 -0.10988E-02  0.18585E-02  0.65764E-02
 -0.18833E-02  0.17175E-02  0.65764E-02
 -0.18683E-02  0.91491E-03  0.65764E-02
 -0.16504E-03 -0.19806E-02  0.65764E-02
 -0.95465E-03 -0.23495E-02  0.65764E-02
  0.77336E-03 -0.17073E-02  0.65764E-02
  0.17201E-02 -0.14950E-02  0.65764E-02
  0.32125E-02  0.78348E-03  0.65764E-02
  0.28041E-02  0.12576E-02  0.65764E-02
  0.23033E-02  0.18674E-02  0.65764E-02
 -0.40296E-03  0.28792E-02  0.65764E-02
 -0.12093E-02  0.27099E-02  0.65764E-02
 -0.19439E-02  0.24591E-02  0.65764E-02
 -0.25022E-02  0.22358E-02  0.65764E-02
 -0.26350E-02  0.16502E-02  0.65764E-02
 -0.27599E-02  0.88095E-03  0.65764E-02
 -0.21155E-02 -0.21374E-02  0.65764E-02
 -0.16097E-02 -0.26936E-02  0.65764E-02
 -0.11965E-02 -0.31290E-02  0.65764E-02
 -0.59444E-03 -0.30381E-02  0.65764E-02
  0.19977E-03 -0.28751E-02  0.65764E-02
  0.10515E-02 -0.26484E-02  0.65764E-02
  0.18423E-02 -0.23754E-02  0.65764E-02
  0.24573E-02 -0.21571E-02  0.65764E-02
  0.26039E-02 -0.15080E-02  0.65764E-02
  0.37964E-02  0.93572E-03  0.65764E-02
  0.39100E-02  0.00000E+00  0.65764E-02
  0.34621E-02  0.18171E-02  0.65764E-02
  0.29267E-02  0.25928E-02  0.65764E-02
  0.22211E-02  0.32179E-02  0.65764E-02
  0.13865E-02  0.36559E-02  0.65764E-02
  0.47130E-03  0.38815E-02  0.65764E-02
 -0.47130E-03  0.38815E-02  0.65764E-02
 -0.13865E-02  0.36559E-02  0.65764E-02
 -0.22211E-02  0.32179E-02  0.65764E-02
 -0.29267E-02  0.25928E-02  0.65764E-02
 -0.34621E-02  0.18171E-02  0.65764E-02
 -0.37964E-02  0.93572E-03  0.65764E-02
 -0.39100E-02  0.47884E-18  0.65764E-02
 -0.37964E-02 -0.93572E-03  0.65764E-02
 -0.34621E-02 -0.18171E-02  0.65764E-02
 -0.29267E-02 -0.25928E-02  0.65764E-02
 -0.22211E-02 -0.32179E-02  0.65764E-02
 -0.13865E-02 -0.36559E-02  0.65764E-02
 -0.47130E-03 -0.38815E-02  0.65764E-02
  0.47130E-03 -0.38815E-02  0.65764E-02
  0.13865E-02 -0.36559E-02  0.65764E-02
  0.22211E-02 -0.32179E-02  0.65764E-02
  0.29267E-02 -0.25928E-02  0.65764E-02
  0.34621E-02 -0.18171E-02  0.65764E-02
  0.37964E-02 -0.93572E-03  0.65764E-02
  
CELLS       3486               17724
       1       0
       1       1
       1       2
       1       3
       1       4
       1       5
       1       6
       1       7
       1       8
       1       9
       1      10
       1      11
       1      12
       1      13
       1      14
       1      15
       1      16
       1      17
       1      18
       1      19
       1      20
       1      21
       1      22
       1      23
       1      24
       1      25
       1      26
       1      27
       1      28
       1      29
       1      30
       1      31
       1      32
       1      33
       1      34
       1      35
       1      36
       1      37
       1      38
       1      39
       1      40
       1      41
       1      42
       1      43
       1      44
       1      45
       1      46
       1      47
       1      48
       1      49
       1      50
       1      51
       1      52
       1      53
       1      54
       1      55
       1      56
       1      57
       1      58
       1      59
       1      60
       1      61
       1      62
       1      63
       1      64
       1      65
       1      66
       1      67
       1      68
       1      69
       1      70
       1      71
       1      72
       1      73
       1      74
       1      75
       1      76
       1      77
       1      78
       1      79
       1      80
       1      81
       1      82
       1      83
       1      84
       1      85
       1      86
       1      87
       1      88
       1      89
       1      90
       1      91
       1      92
       1      93
       1      94
       1      95
       1      96
       1      97
       1      98
       1      99
       1     100
       1     101
       1     102
       1     103
       1     104
       1     105
       1     106
       1     107
       1     108
       1     109
       1     110
       1     111
       1     112
       1     113
       1     114
       1     115
       1     116
       1     117
       1     118
       1     119
       1     120
       1     121
       1     122
       1     123
       1     124
       1     125
       1     126
       1     127
       1     128
       1     129
       1     130
       1     131
       1     132
       1     133
       1     134
       1     135
       1     136
       1     137
       1     138
       1     139
       1     140
       1     141
       1     142
       1     143
       1     144
       1     145
       1     146
       1     147
       1     148
       1     149
       1     150
       1     151
       1     152
       1     153
       1     154
       1     155
       1     156
       1     157
       1     158
       1     159
       1     160
       1     161
       1     162
       1     163
       1     164
       1     165
       1     166
       1     167
       1     168
       1     169
       1     170
       1     171
       1     172
       1     173
       1     174
       1     175
       1     176
       1     177
       1     178
       1     179
       1     180
       1     181
       1     182
       1     183
       1     184
       1     185
       1     186
       1     187
       1     188
       1     189
       1     190
       1     191
       1     192
       1     193
       1     194
       1     195
       1     196
       1     197
       1     198
       1     199
       1     200
       1     201
       1     202
       1     203
       1     204
       1     205
       1     206
       1     207
       1     208
       1     209
       1     210
       1     211
       1     212
       1     213
       1     214
       1     215
       1     216
       1     217
       1     218
       1     219
       1     220
       1     221
       1     222
       1     223
       1     224
       1     225
       1     226
       1     227
       1     228
       1     229
       1     230
       1     231
       1     232
       1     233
       1     234
       1     235
       1     236
       1     237
       1     238
       1     239
       1     240
       1     241
       1     242
       1     243
       1     244
       1     245
       1     246
       1     247
       1     248
       1     249
       1     250
       1     251
       1     252
       1     253
       1     254
       1     255
       1     256
       1     257
       1     258
       1     259
       1     260
       1     261
       1     262
       1     263
       1     264
       1     265
       1     266
       1     267
       1     268
       1     269
       1     270
       1     271
       1     272
       1     273
       1     274
       1     275
       1     276
       1     277
       1     278
       1     279
       1     280
       1     281
       1     282
       1     283
       1     284
       1     285
       1     286
       1     287
       1     288
       1     289
       1     290
       1     291
       1     292
       1     293
       1     294
       1     295
       1     296
       1     297
       1     298
       1     299
       1     300
       1     301
       1     302
       1     303
       1     304
       1     305
       1     306
       1     307
       1     308
       1     309
       1     310
       1     311
       1     312
       1     313
       1     314
       1     315
       1     316
       1     317
       1     318
       1     319
       1     320
       1     321
       1     322
       1     323
       1     324
       1     325
       1     326
       1     327
       1     328
       1     329
       1     330
       1     331
       1     332
       1     333
       1     334
       1     335
       1     336
       1     337
       1     338
       1     339
       1     340
       1     341
       1     342
       1     343
       1     344
       1     345
       1     346
       1     347
       1     348
       1     349
       1     350
       1     351
       1     352
       1     353
       1     354
       1     355
       1     356
       1     357
       1     358
       1     359
       1     360
       1     361
       1     362
       1     363
       1     364
       1     365
       1     366
       1     367
       1     368
       1     369
       1     370
       1     371
       1     372
       1     373
       1     374
       1     375
       1     376
       1     377
       1     378
       1     379
       1     380
       1     381
       1     382
       1     383
       1     384
       1     385
       1     386
       1     387
       1     388
       1     389
       1     390
       1     391
       1     392
       1     393
       1     394
       1     395
       1     396
       1     397
       1     398
       1     399
       1     400
       1     401
       1     402
       1     403
       1     404
       1     405
       1     406
       1     407
       1     408
       1     409
       1     410
       1     411
       1     412
       1     413
       1     414
       1     415
       1     416
       1     417
       1     418
       1     419
       1     420
       1     421
       1     422
       1     423
       1     424
       1     425
       1     426
       1     427
       1     428
       1     429
       1     430
       1     431
       1     432
       1     433
       1     434
       1     435
       1     436
       1     437
       1     438
       1     439
       1     440
       1     441
       1     442
       1     443
       1     444
       1     445
       1     446
       1     447
       1     448
       1     449
       1     450
       1     451
       1     452
       1     453
       1     454
       1     455
       1     456
       1     457
       1     458
       1     459
       1     460
       1     461
       1     462
       1     463
       1     464
       1     465
       1     466
       1     467
       1     468
       1     469
       1     470
       1     471
       1     472
       1     473
       1     474
       1     475
       1     476
       1     477
       1     478
       1     479
       1     480
       1     481
       1     482
       1     483
       1     484
       1     485
       1     486
       1     487
       1     488
       1     489
       1     490
       1     491
       1     492
       1     493
       1     494
       1     495
       1     496
       1     497
       1     498
       1     499
       1     500
       1     501
       1     502
       1     503
       1     504
       1     505
       1     506
       1     507
       1     508
       1     509
       1     510
       1     511
       1     512
       1     513
       1     514
       1     515
       1     516
       1     517
       1     518
       1     519
       1     520
       1     521
       1     522
       1     523
       1     524
       1     525
       1     526
       1     527
       1     528
       1     529
       1     530
       1     531
       1     532
       1     533
       1     534
       1     535
       1     536
       1     537
       1     538
       1     539
       1     540
       1     541
       1     542
       1     543
       1     544
       1     545
       1     546
       1     547
       1     548
       1     549
       1     550
       1     551
       1     552
       1     553
       1     554
       1     555
       1     556
       1     557
       1     558
       1     559
       1     560
       1     561
       1     562
       1     563
       1     564
       1     565
       1     566
       1     567
       1     568
       1     569
       1     570
       1     571
       1     572
       1     573
       1     574
       1     575
       1     576
       1     577
       1     578
       1     579
       1     580
       1     581
       1     582
       1     583
       1     584
       1     585
       1     586
       1     587
       1     588
       1     589
       1     590
       1     591
       1     592
       1     593
       1     594
       1     595
       1     596
       1     597
       1     598
       1     599
       1     600
       1     601
       1     602
       1     603
       1     604
       1     605
       1     606
       1     607
       1     608
       1     609
       1     610
       1     611
       1     612
       1     613
       1     614
       1     615
       1     616
       1     617
       1     618
       1     619
       1     620
       1     621
       1     622
       1     623
       1     624
       1     625
       1     626
       1     627
       1     628
       1     629
       1     630
       1     631
       1     632
       1     633
       1     634
       1     635
       1     636
       1     637
       1     638
       1     639
       1     640
       1     641
       1     642
       1     643
       1     644
       1     645
       1     646
       1     647
       1     648
       1     649
       1     650
       1     651
       1     652
       1     653
       1     654
       1     655
       1     656
       1     657
       1     658
       1     659
       1     660
       1     661
       1     662
       1     663
       1     664
       1     665
       1     666
       1     667
       1     668
       1     669
       1     670
       1     671
       1     672
       1     673
       1     674
       1     675
       1     676
       1     677
       1     678
       1     679
       1     680
       1     681
       1     682
       1     683
       1     684
       1     685
       1     686
       1     687
       1     688
       1     689
       1     690
       1     691
       1     692
       1     693
       1     694
       1     695
       1     696
       1     697
       1     698
       1     699
       1     700
       1     701
       1     702
       1     703
       1     704
       1     705
       1     706
       1     707
       1     708
       1     709
       1     710
       1     711
       1     712
       1     713
       1     714
       1     715
       1     716
       1     717
       1     718
       1     719
       1     720
       1     721
       1     722
       1     723
       1     724
       1     725
       1     726
       1     727
       1     728
       1     729
       1     730
       1     731
       1     732
       1     733
       1     734
       1     735
       1     736
       1     737
       1     738
       1     739
       1     740
       1     741
       1     742
       1     743
       1     744
       1     745
       1     746
       1     747
       1     748
       1     749
       1     750
       1     751
       1     752
       1     753
       1     754
       1     755
       1     756
       1     757
       1     758
       1     759
       1     760
       1     761
       1     762
       1     763
       1     764
       1     765
       1     766
       1     767
       1     768
       1     769
       1     770
       1     771
       1     772
       1     773
       1     774
       1     775
       1     776
       1     777
       1     778
       1     779
       1     780
       1     781
       1     782
       1     783
       1     784
       1     785
       1     786
       1     787
       1     788
       1     789
       1     790
       1     791
       1     792
       1     793
       1     794
       1     795
       1     796
       1     797
       1     798
       1     799
       1     800
       1     801
       1     802
       1     803
       1     804
       1     805
       1     806
       1     807
       1     808
       1     809
       1     810
       1     811
       1     812
       1     813
       1     814
       1     815
       1     816
       1     817
       1     818
       1     819
       1     820
       1     821
       1     822
       1     823
       1     824
       1     825
       1     826
       1     827
       1     828
       1     829
       1     830
       1     831
       1     832
       1     833
       1     834
       1     835
       1     836
       1     837
       1     838
       1     839
       1     840
       1     841
       1     842
       1     843
       1     844
       1     845
       1     846
       1     847
       1     848
       1     849
       1     850
       1     851
       1     852
       1     853
       1     854
       1     855
       1     856
       1     857
       1     858
       1     859
       1     860
       1     861
       1     862
       1     863
       1     864
       1     865
       1     866
       1     867
       1     868
       1     869
       1     870
       1     871
       1     872
       1     873
       1     874
       1     875
       1     876
       1     877
       1     878
       1     879
       1     880
       1     881
       1     882
       1     883
       1     884
       1     885
       1     886
       1     887
       1     888
       1     889
       1     890
       1     891
       1     892
       1     893
       1     894
       1     895
       1     896
       1     897
       1     898
       1     899
       1     900
       1     901
       1     902
       1     903
       1     904
       1     905
       1     906
       1     907
       1     908
       1     909
       1     910
       1     911
       1     912
       1     913
       1     914
       1     915
       1     916
       1     917
       1     918
       1     919
       1     920
       1     921
       1     922
       1     923
       1     924
       1     925
       1     926
       1     927
       1     928
       1     929
       1     930
       1     931
       1     932
       1     933
       1     934
       1     935
       1     936
       1     937
       1     938
       1     939
       1     940
       1     941
       1     942
       1     943
       1     944
       1     945
       1     946
       1     947
       1     948
       1     949
       1     950
       1     951
       1     952
       1     953
       1     954
       1     955
       1     956
       1     957
       1     958
       1     959
       1     960
       1     961
       1     962
       1     963
       1     964
       1     965
       1     966
       1     967
       1     968
       1     969
       1     970
       1     971
       1     972
       1     973
       1     974
       1     975
       1     976
       1     977
       1     978
       1     979
       1     980
       1     981
       1     982
       1     983
       1     984
       1     985
       1     986
       1     987
       1     988
       1     989
       1     990
       1     991
       1     992
       1     993
       1     994
       1     995
       1     996
       1     997
       1     998
       1     999
       1    1000
       1    1001
       1    1002
       1    1003
       1    1004
       1    1005
       1    1006
       1    1007
       1    1008
       1    1009
       1    1010
       1    1011
       1    1012
       1    1013
       1    1014
       1    1015
       1    1016
       1    1017
       1    1018
       1    1019
       1    1020
       1    1021
       1    1022
       1    1023
       1    1024
       1    1025
       1    1026
       1    1027
       1    1028
       1    1029
       1    1030
       1    1031
       1    1032
       1    1033
       1    1034
       1    1035
       1    1036
       1    1037
       1    1038
       1    1039
       1    1040
       1    1041
       1    1042
       1    1043
       1    1044
       1    1045
       1    1046
       1    1047
       1    1048
       1    1049
       1    1050
       1    1051
       1    1052
       1    1053
       1    1054
       1    1055
       1    1056
       1    1057
       1    1058
       1    1059
       1    1060
       1    1061
       1    1062
       1    1063
       1    1064
       1    1065
       1    1066
       1    1067
       1    1068
       1    1069
       1    1070
       1    1071
       1    1072
       1    1073
       1    1074
       1    1075
       1    1076
       1    1077
       1    1078
       1    1079
       1    1080
       1    1081
       1    1082
       1    1083
       1    1084
       1    1085
       1    1086
       1    1087
       1    1088
       1    1089
       1    1090
       1    1091
       1    1092
       1    1093
       1    1094
       1    1095
       1    1096
       1    1097
       1    1098
       1    1099
       1    1100
       1    1101
       1    1102
       1    1103
       1    1104
       1    1105
       1    1106
       1    1107
       1    1108
       1    1109
       1    1110
       1    1111
       1    1112
       1    1113
       1    1114
       1    1115
       1    1116
       1    1117
       1    1118
       1    1119
       1    1120
       1    1121
       1    1122
       1    1123
       1    1124
       1    1125
       1    1126
       1    1127
       1    1128
       1    1129
       1    1130
       1    1131
       1    1132
       1    1133
       1    1134
       1    1135
       1    1136
       1    1137
       1    1138
       1    1139
       1    1140
       1    1141
       1    1142
       1    1143
       1    1144
       1    1145
       1    1146
       1    1147
       1    1148
       1    1149
       1    1150
       1    1151
       1    1152
       1    1153
       1    1154
       1    1155
       1    1156
       1    1157
       1    1158
       1    1159
       1    1160
       1    1161
       1    1162
       1    1163
       1    1164
       1    1165
       1    1166
       1    1167
       1    1168
       1    1169
       1    1170
       1    1171
       1    1172
       1    1173
       1    1174
       1    1175
       1    1176
       1    1177
       1    1178
       1    1179
       1    1180
       1    1181
       1    1182
       1    1183
       1    1184
       1    1185
       1    1186
       1    1187
       1    1188
       1    1189
       1    1190
       1    1191
       1    1192
       1    1193
       1    1194
       1    1195
       1    1196
       1    1197
       1    1198
       1    1199
       1    1200
       1    1201
       1    1202
       1    1203
       1    1204
       1    1205
       1    1206
       1    1207
       1    1208
       1    1209
       1    1210
       1    1211
       1    1212
       1    1213
       1    1214
       1    1215
       1    1216
       1    1217
       1    1218
       1    1219
       1    1220
       1    1221
       1    1222
       1    1223
       1    1224
       1    1225
       1    1226
       1    1227
       1    1228
       1    1229
       1    1230
       1    1231
       1    1232
       1    1233
       1    1234
       1    1235
       1    1236
       1    1237
       1    1238
       1    1239
       1    1240
       1    1241
       1    1242
       1    1243
       1    1244
       1    1245
       1    1246
       1    1247
       1    1248
       1    1249
       1    1250
       1    1251
       1    1252
       1    1253
       1    1254
       1    1255
       1    1256
       1    1257
       1    1258
       1    1259
       1    1260
       1    1261
       1    1262
       1    1263
       1    1264
       1    1265
       1    1266
       1    1267
       1    1268
       1    1269
       1    1270
       1    1271
       1    1272
       1    1273
       1    1274
       1    1275
       1    1276
       1    1277
       1    1278
       1    1279
       1    1280
       1    1281
       1    1282
       1    1283
       1    1284
       1    1285
       1    1286
       1    1287
       1    1288
       1    1289
       1    1290
       1    1291
       1    1292
       1    1293
       1    1294
       1    1295
       1    1296
       1    1297
       1    1298
       1    1299
       1    1300
       1    1301
       1    1302
       1    1303
       1    1304
       1    1305
       1    1306
       1    1307
       1    1308
       1    1309
       1    1310
       1    1311
       1    1312
       1    1313
       1    1314
       1    1315
       1    1316
       1    1317
       1    1318
       1    1319
       1    1320
       1    1321
       1    1322
       1    1323
       1    1324
       1    1325
       1    1326
       1    1327
       1    1328
       1    1329
       1    1330
       1    1331
       1    1332
       1    1333
       1    1334
       1    1335
       1    1336
       1    1337
       1    1338
       1    1339
       1    1340
       1    1341
       1    1342
       1    1343
       1    1344
       1    1345
       1    1346
       1    1347
       1    1348
       1    1349
       1    1350
       1    1351
       1    1352
       1    1353
       1    1354
       1    1355
       1    1356
       1    1357
       1    1358
       1    1359
       1    1360
       1    1361
       1    1362
       1    1363
       1    1364
       1    1365
       1    1366
       1    1367
       1    1368
       1    1369
       1    1370
       1    1371
       1    1372
       1    1373
       1    1374
       1    1375
       1    1376
       1    1377
       1    1378
       1    1379
       1    1380
       1    1381
       1    1382
       1    1383
       1    1384
       1    1385
       1    1386
       1    1387
       1    1388
       1    1389
       1    1390
       1    1391
       1    1392
       1    1393
       1    1394
       1    1395
       1    1396
       1    1397
       1    1398
       1    1399
       1    1400
       1    1401
       1    1402
       1    1403
       1    1404
       1    1405
       1    1406
       1    1407
       1    1408
       1    1409
       1    1410
       1    1411
       1    1412
       1    1413
       1    1414
       1    1415
       1    1416
       1    1417
       1    1418
       1    1419
       1    1420
       1    1421
       1    1422
       1    1423
       1    1424
       1    1425
       1    1426
       1    1427
       1    1428
       1    1429
       1    1430
       1    1431
       1    1432
       1    1433
       1    1434
       1    1435
       1    1436
       1    1437
       1    1438
       1    1439
       1    1440
       1    1441
       1    1442
       1    1443
       1    1444
       1    1445
       1    1446
       1    1447
       1    1448
       1    1449
       1    1450
       1    1451
       1    1452
       1    1453
       1    1454
       1    1455
       1    1456
       1    1457
       1    1458
       1    1459
       1    1460
       1    1461
       1    1462
       1    1463
       1    1464
       1    1465
       1    1466
       1    1467
       1    1468
       1    1469
       1    1470
       1    1471
       1    1472
       1    1473
       1    1474
       1    1475
       1    1476
       1    1477
       1    1478
       1    1479
       1    1480
       1    1481
       1    1482
       1    1483
       1    1484
       1    1485
       1    1486
       1    1487
       1    1488
       1    1489
       1    1490
       1    1491
       1    1492
       1    1493
       1    1494
       1    1495
       1    1496
       1    1497
       1    1498
       1    1499
       1    1500
       1    1501
       1    1502
       1    1503
       1    1504
       1    1505
       1    1506
       1    1507
       1    1508
       1    1509
       1    1510
       1    1511
       1    1512
       1    1513
       1    1514
       1    1515
       1    1516
       1    1517
       1    1518
       1    1519
       1    1520
       1    1521
       1    1522
       1    1523
       1    1524
       1    1525
       1    1526
       1    1527
       1    1528
       1    1529
       1    1530
       1    1531
       1    1532
       1    1533
       1    1534
       1    1535
       1    1536
       1    1537
       1    1538
       1    1539
       1    1540
       1    1541
       1    1542
       1    1543
       1    1544
       1    1545
       1    1546
       1    1547
       1    1548
       1    1549
       1    1550
       1    1551
       1    1552
       1    1553
       1    1554
       1    1555
       1    1556
       1    1557
       1    1558
       1    1559
       1    1560
       1    1561
       1    1562
       1    1563
       1    1564
       1    1565
       1    1566
       1    1567
       1    1568
       1    1569
       1    1570
       1    1571
       1    1572
       1    1573
       1    1574
       1    1575
       1    1576
       1    1577
       1    1578
       1    1579
       1    1580
       1    1581
       1    1582
       1    1583
       1    1584
       1    1585
       1    1586
       1    1587
       1    1588
       1    1589
       1    1590
       1    1591
       1    1592
       1    1593
       1    1594
       1    1595
       1    1596
       1    1597
       1    1598
       1    1599
       1    1600
       1    1601
       1    1602
       1    1603
       1    1604
       1    1605
       1    1606
       1    1607
       1    1608
       1    1609
       1    1610
       1    1611
       1    1612
       1    1613
       1    1614
       1    1615
       1    1616
       1    1617
       1    1618
       1    1619
       1    1620
       1    1621
       1    1622
       1    1623
       1    1624
       1    1625
       1    1626
       1    1627
       1    1628
       1    1629
       1    1630
       1    1631
       1    1632
       1    1633
       1    1634
       1    1635
       1    1636
       1    1637
       1    1638
       1    1639
       1    1640
       1    1641
       1    1642
       1    1643
       1    1644
       1    1645
       1    1646
       1    1647
       1    1648
       1    1649
       1    1650
       1    1651
       1    1652
       1    1653
       1    1654
       1    1655
       1    1656
       1    1657
       1    1658
       1    1659
       1    1660
       1    1661
       1    1662
       1    1663
       1    1664
       1    1665
       1    1666
       1    1667
       1    1668
       1    1669
       1    1670
       1    1671
       1    1672
       1    1673
       1    1674
       1    1675
       1    1676
       1    1677
       1    1678
       1    1679
       1    1680
       1    1681
       1    1682
       1    1683
       1    1684
       1    1685
       1    1686
       1    1687
       1    1688
       1    1689
       1    1690
       1    1691
       1    1692
       1    1693
       1    1694
       1    1695
       1    1696
       1    1697
       1    1698
       1    1699
       1    1700
       1    1701
       1    1702
       1    1703
       1    1704
       1    1705
       1    1706
       1    1707
       1    1708
       1    1709
       1    1710
       1    1711
       1    1712
       1    1713
       1    1714
       1    1715
       1    1716
       1    1717
       1    1718
       1    1719
       1    1720
       1    1721
       1    1722
       1    1723
       1    1724
       1    1725
       1    1726
       1    1727
       1    1728
       1    1729
       1    1730
       1    1731
       1    1732
       1    1733
       1    1734
       1    1735
       1    1736
       1    1737
       1    1738
       1    1739
       1    1740
       1    1741
       1    1742
       1    1743
       1    1744
       1    1745
       1    1746
       1    1747
       1    1748
       1    1749
       1    1750
       1    1751
       1    1752
       1    1753
       1    1754
       1    1755
       1    1756
       1    1757
       1    1758
       1    1759
       1    1760
       1    1761
       1    1762
       1    1763
       1    1764
       1    1765
       1    1766
       1    1767
       1    1768
       1    1769
       1    1770
       1    1771
       1    1772
       1    1773
       1    1774
       1    1775
       1    1776
       1    1777
       1    1778
       1    1779
       1    1780
       1    1781
       1    1782
       1    1783
       1    1784
       1    1785
       1    1786
       1    1787
       1    1788
       1    1789
       1    1790
       1    1791
       1    1792
       1    1793
       1    1794
       1    1795
       1    1796
       1    1797
       1    1798
       1    1799
       1    1800
       1    1801
       1    1802
       1    1803
       1    1804
       1    1805
       1    1806
       1    1807
       1    1808
       1    1809
       1    1810
       1    1811
       1    1812
       1    1813
       1    1814
       1    1815
       1    1816
       1    1817
       1    1818
       1    1819
       1    1820
       1    1821
       1    1822
       1    1823
       1    1824
       1    1825
       1    1826
       1    1827
       1    1828
       1    1829
       1    1830
       1    1831
       1    1832
       1    1833
       1    1834
       1    1835
       1    1836
       1    1837
       1    1838
       1    1839
       1    1840
       1    1841
       1    1842
       1    1843
       1    1844
       1    1845
       1    1846
       1    1847
       1    1848
       1    1849
       1    1850
       1    1851
       1    1852
       1    1853
       1    1854
       1    1855
       1    1856
       1    1857
       1    1858
       1    1859
       1    1860
       1    1861
       1    1862
       1    1863
       1    1864
       1    1865
       1    1866
       1    1867
       1    1868
       1    1869
       1    1870
       1    1871
       1    1872
       1    1873
       1    1874
       1    1875
       1    1876
       1    1877
       1    1878
       1    1879
       1    1880
       1    1881
       1    1882
       1    1883
       1    1884
       1    1885
       1    1886
       1    1887
       1    1888
       1    1889
       1    1890
       1    1891
       1    1892
       1    1893
       1    1894
       1    1895
       1    1896
       1    1897
       1    1898
       1    1899
       1    1900
       1    1901
       1    1902
       1    1903
       1    1904
       1    1905
       1    1906
       1    1907
       1    1908
       1    1909
       1    1910
       1    1911
       1    1912
       1    1913
       1    1914
       1    1915
       1    1916
       1    1917
       1    1918
       1    1919
       1    1920
       1    1921
       1    1922
       1    1923
       1    1924
       1    1925
       1    1926
       1    1927
       1    1928
       1    1929
       1    1930
       1    1931
       1    1932
       1    1933
       1    1934
       1    1935
       1    1936
       1    1937
       1    1938
       1    1939
       1    1940
       1    1941
       1    1942
       1    1943
       1    1944
       1    1945
       1    1946
       1    1947
       1    1948
       1    1949
       8       0       1       2       3       4       5       6       7
       8       2       8       9       3       6      10      11       7
       8      12       1       0      13      14       5       4      15
       8       0      16      17      13       4      18      19      15
       8      20      21      22      12      23      24      25      14
       8      26      27      21      20      28      29      24      23
       8      13      26      20      12      15      28      23      14
       8      30      31      16      32      33      34      18      35
       8      36      37      31      30      38      39      34      33
       8      40      41      37      36      42      43      39      38
       8      44      40      36      45      46      42      38      47
       8      48      17      16      31      49      19      18      34
       8      30      50      45      36      33      51      47      38
       8       0       3      32      16       4       7      35      18
       8      52      26      13      17      53      28      15      19
       8      54      52      17      48      55      53      19      49
       8      56      54      48      57      58      55      49      59
       8      37      57      48      31      39      59      49      34
       8      60      61      50      30      62      63      51      33
       8      64      60      30      32      65      62      33      35
       8      66      64      32       3      67      65      35       7
       8      68       8       2      69      70      10       6      71
       8      72      69       2       1      73      71       6       5
       8      22      72       1      12      25      73       5      14
       8      74      27      26      52      75      29      28      53
       8      76      74      52      54      77      75      53      55
       8      78      76      54      56      79      77      55      58
       8      80      78      56      81      82      79      58      83
       8      84      81      56      57      85      83      58      59
       8      41      84      57      37      43      85      59      39
       8      86      44      45      50      87      46      47      51
       8      88      86      50      61      89      87      51      63
       8      90      88      61      91      92      89      63      93
       8      94      91      61      60      95      93      63      62
       8      96      94      60      64      97      95      62      65
       8      98      96      64      66      99      97      65      67
       8     100      98      66     101     102      99      67     103
       8       9     101      66       3      11     103      67       7
       8     104     105       8      68     106     107      10      70
       8     108     104      68      69     109     106      70      71
       8     110     108      69      72     111     109      71      73
       8     112     110      72      22     113     111      73      25
       8     114     112      22      21     115     113      25      24
       8     116     114      21      27     117     115      24      29
       8     118     116      27      74     119     117      29      75
       8     120     118      74      76     121     119      75      77
       8     122     120      76      78     123     121      77      79
       8     124     122      78      80     125     123      79      82
       8     126     124      80      81     127     125      82      83
       8     128     126      81      84     129     127      83      85
       8     130     128      84      41     131     129      85      43
       8     132     130      41      40     133     131      43      42
       8     134     132      40      44     135     133      42      46
       8     136     134      44      86     137     135      46      87
       8     138     136      86      88     139     137      87      89
       8     140     138      88      90     141     139      89      92
       8     142     140      90      91     143     141      92      93
       8     144     142      91      94     145     143      93      95
       8     146     144      94      96     147     145      95      97
       8     148     146      96      98     149     147      97      99
       8     150     148      98     100     151     149      99     102
       8     152     150     100     101     153     151     102     103
       8     154     152     101       9     155     153     103      11
       8     105     154       9       8     107     155      11      10
       8     156     157     158     159       0       1       2       3
       8     158     160     161     159       2       8       9       3
       8     162     157     156     163      12       1       0      13
       8     156     164     165     163       0      16      17      13
       8     166     167     168     162      20      21      22      12
       8     169     170     167     166      26      27      21      20
       8     163     169     166     162      13      26      20      12
       8     171     172     164     173      30      31      16      32
       8     174     175     172     171      36      37      31      30
       8     176     177     175     174      40      41      37      36
       8     178     176     174     179      44      40      36      45
       8     180     165     164     172      48      17      16      31
       8     171     181     179     174      30      50      45      36
       8     156     159     173     164       0       3      32      16
       8     182     169     163     165      52      26      13      17
       8     183     182     165     180      54      52      17      48
       8     184     183     180     185      56      54      48      57
       8     175     185     180     172      37      57      48      31
       8     186     187     181     171      60      61      50      30
       8     188     186     171     173      64      60      30      32
       8     189     188     173     159      66      64      32       3
       8     190     160     158     191      68       8       2      69
       8     192     191     158     157      72      69       2       1
       8     168     192     157     162      22      72       1      12
       8     193     170     169     182      74      27      26      52
       8     194     193     182     183      76      74      52      54
       8     195     194     183     184      78      76      54      56
       8     196     195     184     197      80      78      56      81
       8     198     197     184     185      84      81      56      57
       8     177     198     185     175      41      84      57      37
       8     199     178     179     181      86      44      45      50
       8     200     199     181     187      88      86      50      61
       8     201     200     187     202      90      88      61      91
       8     203     202     187     186      94      91      61      60
       8     204     203     186     188      96      94      60      64
       8     205     204     188     189      98      96      64      66
       8     206     205     189     207     100      98      66     101
       8     161     207     189     159       9     101      66       3
       8     208     209     160     190     104     105       8      68
       8     210     208     190     191     108     104      68      69
       8     211     210     191     192     110     108      69      72
       8     212     211     192     168     112     110      72      22
       8     213     212     168     167     114     112      22      21
       8     214     213     167     170     116     114      21      27
       8     215     214     170     193     118     116      27      74
       8     216     215     193     194     120     118      74      76
       8     217     216     194     195     122     120      76      78
       8     218     217     195     196     124     122      78      80
       8     219     218     196     197     126     124      80      81
       8     220     219     197     198     128     126      81      84
       8     221     220     198     177     130     128      84      41
       8     222     221     177     176     132     130      41      40
       8     223     222     176     178     134     132      40      44
       8     224     223     178     199     136     134      44      86
       8     225     224     199     200     138     136      86      88
       8     226     225     200     201     140     138      88      90
       8     227     226     201     202     142     140      90      91
       8     228     227     202     203     144     142      91      94
       8     229     228     203     204     146     144      94      96
       8     230     229     204     205     148     146      96      98
       8     231     230     205     206     150     148      98     100
       8     232     231     206     207     152     150     100     101
       8     233     232     207     161     154     152     101       9
       8     209     233     161     160     105     154       9       8
       8     234     235     236     237     156     157     158     159
       8     236     238     239     237     158     160     161     159
       8     240     235     234     241     162     157     156     163
       8     234     242     243     241     156     164     165     163
       8     244     245     246     240     166     167     168     162
       8     247     248     245     244     169     170     167     166
       8     241     247     244     240     163     169     166     162
       8     249     250     242     251     171     172     164     173
       8     252     253     250     249     174     175     172     171
       8     254     255     253     252     176     177     175     174
       8     256     254     252     257     178     176     174     179
       8     258     243     242     250     180     165     164     172
       8     249     259     257     252     171     181     179     174
       8     234     237     251     242     156     159     173     164
       8     260     247     241     243     182     169     163     165
       8     261     260     243     258     183     182     165     180
       8     262     261     258     263     184     183     180     185
       8     253     263     258     250     175     185     180     172
       8     264     265     259     249     186     187     181     171
       8     266     264     249     251     188     186     171     173
       8     267     266     251     237     189     188     173     159
       8     268     238     236     269     190     160     158     191
       8     270     269     236     235     192     191     158     157
       8     246     270     235     240     168     192     157     162
       8     271     248     247     260     193     170     169     182
       8     272     271     260     261     194     193     182     183
       8     273     272     261     262     195     194     183     184
       8     274     273     262     275     196     195     184     197
       8     276     275     262     263     198     197     184     185
       8     255     276     263     253     177     198     185     175
       8     277     256     257     259     199     178     179     181
       8     278     277     259     265     200     199     181     187
       8     279     278     265     280     201     200     187     202
       8     281     280     265     264     203     202     187     186
       8     282     281     264     266     204     203     186     188
       8     283     282     266     267     205     204     188     189
       8     284     283     267     285     206     205     189     207
       8     239     285     267     237     161     207     189     159
       8     286     287     238     268     208     209     160     190
       8     288     286     268     269     210     208     190     191
       8     289     288     269     270     211     210     191     192
       8     290     289     270     246     212     211     192     168
       8     291     290     246     245     213     212     168     167
       8     292     291     245     248     214     213     167     170
       8     293     292     248     271     215     214     170     193
       8     294     293     271     272     216     215     193     194
       8     295     294     272     273     217     216     194     195
       8     296     295     273     274     218     217     195     196
       8     297     296     274     275     219     218     196     197
       8     298     297     275     276     220     219     197     198
       8     299     298     276     255     221     220     198     177
       8     300     299     255     254     222     221     177     176
       8     301     300     254     256     223     222     176     178
       8     302     301     256     277     224     223     178     199
       8     303     302     277     278     225     224     199     200
       8     304     303     278     279     226     225     200     201
       8     305     304     279     280     227     226     201     202
       8     306     305     280     281     228     227     202     203
       8     307     306     281     282     229     228     203     204
       8     308     307     282     283     230     229     204     205
       8     309     308     283     284     231     230     205     206
       8     310     309     284     285     232     231     206     207
       8     311     310     285     239     233     232     207     161
       8     287     311     239     238     209     233     161     160
       8     312     313     314     315     234     235     236     237
       8     314     316     317     315     236     238     239     237
       8     318     313     312     319     240     235     234     241
       8     312     320     321     319     234     242     243     241
       8     322     323     324     318     244     245     246     240
       8     325     326     323     322     247     248     245     244
       8     319     325     322     318     241     247     244     240
       8     327     328     320     329     249     250     242     251
       8     330     331     328     327     252     253     250     249
       8     332     333     331     330     254     255     253     252
       8     334     332     330     335     256     254     252     257
       8     336     321     320     328     258     243     242     250
       8     327     337     335     330     249     259     257     252
       8     312     315     329     320     234     237     251     242
       8     338     325     319     321     260     247     241     243
       8     339     338     321     336     261     260     243     258
       8     340     339     336     341     262     261     258     263
       8     331     341     336     328     253     263     258     250
       8     342     343     337     327     264     265     259     249
       8     344     342     327     329     266     264     249     251
       8     345     344     329     315     267     266     251     237
       8     346     316     314     347     268     238     236     269
       8     348     347     314     313     270     269     236     235
       8     324     348     313     318     246     270     235     240
       8     349     326     325     338     271     248     247     260
       8     350     349     338     339     272     271     260     261
       8     351     350     339     340     273     272     261     262
       8     352     351     340     353     274     273     262     275
       8     354     353     340     341     276     275     262     263
       8     333     354     341     331     255     276     263     253
       8     355     334     335     337     277     256     257     259
       8     356     355     337     343     278     277     259     265
       8     357     356     343     358     279     278     265     280
       8     359     358     343     342     281     280     265     264
       8     360     359     342     344     282     281     264     266
       8     361     360     344     345     283     282     266     267
       8     362     361     345     363     284     283     267     285
       8     317     363     345     315     239     285     267     237
       8     364     365     316     346     286     287     238     268
       8     366     364     346     347     288     286     268     269
       8     367     366     347     348     289     288     269     270
       8     368     367     348     324     290     289     270     246
       8     369     368     324     323     291     290     246     245
       8     370     369     323     326     292     291     245     248
       8     371     370     326     349     293     292     248     271
       8     372     371     349     350     294     293     271     272
       8     373     372     350     351     295     294     272     273
       8     374     373     351     352     296     295     273     274
       8     375     374     352     353     297     296     274     275
       8     376     375     353     354     298     297     275     276
       8     377     376     354     333     299     298     276     255
       8     378     377     333     332     300     299     255     254
       8     379     378     332     334     301     300     254     256
       8     380     379     334     355     302     301     256     277
       8     381     380     355     356     303     302     277     278
       8     382     381     356     357     304     303     278     279
       8     383     382     357     358     305     304     279     280
       8     384     383     358     359     306     305     280     281
       8     385     384     359     360     307     306     281     282
       8     386     385     360     361     308     307     282     283
       8     387     386     361     362     309     308     283     284
       8     388     387     362     363     310     309     284     285
       8     389     388     363     317     311     310     285     239
       8     365     389     317     316     287     311     239     238
       8     390     391     392     393     312     313     314     315
       8     392     394     395     393     314     316     317     315
       8     396     391     390     397     318     313     312     319
       8     390     398     399     397     312     320     321     319
       8     400     401     402     396     322     323     324     318
       8     403     404     401     400     325     326     323     322
       8     397     403     400     396     319     325     322     318
       8     405     406     398     407     327     328     320     329
       8     408     409     406     405     330     331     328     327
       8     410     411     409     408     332     333     331     330
       8     412     410     408     413     334     332     330     335
       8     414     399     398     406     336     321     320     328
       8     405     415     413     408     327     337     335     330
       8     390     393     407     398     312     315     329     320
       8     416     403     397     399     338     325     319     321
       8     417     416     399     414     339     338     321     336
       8     418     417     414     419     340     339     336     341
       8     409     419     414     406     331     341     336     328
       8     420     421     415     405     342     343     337     327
       8     422     420     405     407     344     342     327     329
       8     423     422     407     393     345     344     329     315
       8     424     394     392     425     346     316     314     347
       8     426     425     392     391     348     347     314     313
       8     402     426     391     396     324     348     313     318
       8     427     404     403     416     349     326     325     338
       8     428     427     416     417     350     349     338     339
       8     429     428     417     418     351     350     339     340
       8     430     429     418     431     352     351     340     353
       8     432     431     418     419     354     353     340     341
       8     411     432     419     409     333     354     341     331
       8     433     412     413     415     355     334     335     337
       8     434     433     415     421     356     355     337     343
       8     435     434     421     436     357     356     343     358
       8     437     436     421     420     359     358     343     342
       8     438     437     420     422     360     359     342     344
       8     439     438     422     423     361     360     344     345
       8     440     439     423     441     362     361     345     363
       8     395     441     423     393     317     363     345     315
       8     442     443     394     424     364     365     316     346
       8     444     442     424     425     366     364     346     347
       8     445     444     425     426     367     366     347     348
       8     446     445     426     402     368     367     348     324
       8     447     446     402     401     369     368     324     323
       8     448     447     401     404     370     369     323     326
       8     449     448     404     427     371     370     326     349
       8     450     449     427     428     372     371     349     350
       8     451     450     428     429     373     372     350     351
       8     452     451     429     430     374     373     351     352
       8     453     452     430     431     375     374     352     353
       8     454     453     431     432     376     375     353     354
       8     455     454     432     411     377     376     354     333
       8     456     455     411     410     378     377     333     332
       8     457     456     410     412     379     378     332     334
       8     458     457     412     433     380     379     334     355
       8     459     458     433     434     381     380     355     356
       8     460     459     434     435     382     381     356     357
       8     461     460     435     436     383     382     357     358
       8     462     461     436     437     384     383     358     359
       8     463     462     437     438     385     384     359     360
       8     464     463     438     439     386     385     360     361
       8     465     464     439     440     387     386     361     362
       8     466     465     440     441     388     387     362     363
       8     467     466     441     395     389     388     363     317
       8     443     467     395     394     365     389     317     316
       8     468     469     470     471     390     391     392     393
       8     470     472     473     471     392     394     395     393
       8     474     469     468     475     396     391     390     397
       8     468     476     477     475     390     398     399     397
       8     478     479     480     474     400     401     402     396
       8     481     482     479     478     403     404     401     400
       8     475     481     478     474     397     403     400     396
       8     483     484     476     485     405     406     398     407
       8     486     487     484     483     408     409     406     405
       8     488     489     487     486     410     411     409     408
       8     490     488     486     491     412     410     408     413
       8     492     477     476     484     414     399     398     406
       8     483     493     491     486     405     415     413     408
       8     468     471     485     476     390     393     407     398
       8     494     481     475     477     416     403     397     399
       8     495     494     477     492     417     416     399     414
       8     496     495     492     497     418     417     414     419
       8     487     497     492     484     409     419     414     406
       8     498     499     493     483     420     421     415     405
       8     500     498     483     485     422     420     405     407
       8     501     500     485     471     423     422     407     393
       8     502     472     470     503     424     394     392     425
       8     504     503     470     469     426     425     392     391
       8     480     504     469     474     402     426     391     396
       8     505     482     481     494     427     404     403     416
       8     506     505     494     495     428     427     416     417
       8     507     506     495     496     429     428     417     418
       8     508     507     496     509     430     429     418     431
       8     510     509     496     497     432     431     418     419
       8     489     510     497     487     411     432     419     409
       8     511     490     491     493     433     412     413     415
       8     512     511     493     499     434     433     415     421
       8     513     512     499     514     435     434     421     436
       8     515     514     499     498     437     436     421     420
       8     516     515     498     500     438     437     420     422
       8     517     516     500     501     439     438     422     423
       8     518     517     501     519     440     439     423     441
       8     473     519     501     471     395     441     423     393
       8     520     521     472     502     442     443     394     424
       8     522     520     502     503     444     442     424     425
       8     523     522     503     504     445     444     425     426
       8     524     523     504     480     446     445     426     402
       8     525     524     480     479     447     446     402     401
       8     526     525     479     482     448     447     401     404
       8     527     526     482     505     449     448     404     427
       8     528     527     505     506     450     449     427     428
       8     529     528     506     507     451     450     428     429
       8     530     529     507     508     452     451     429     430
       8     531     530     508     509     453     452     430     431
       8     532     531     509     510     454     453     431     432
       8     533     532     510     489     455     454     432     411
       8     534     533     489     488     456     455     411     410
       8     535     534     488     490     457     456     410     412
       8     536     535     490     511     458     457     412     433
       8     537     536     511     512     459     458     433     434
       8     538     537     512     513     460     459     434     435
       8     539     538     513     514     461     460     435     436
       8     540     539     514     515     462     461     436     437
       8     541     540     515     516     463     462     437     438
       8     542     541     516     517     464     463     438     439
       8     543     542     517     518     465     464     439     440
       8     544     543     518     519     466     465     440     441
       8     545     544     519     473     467     466     441     395
       8     521     545     473     472     443     467     395     394
       8     546     547     548     549     468     469     470     471
       8     548     550     551     549     470     472     473     471
       8     552     547     546     553     474     469     468     475
       8     546     554     555     553     468     476     477     475
       8     556     557     558     552     478     479     480     474
       8     559     560     557     556     481     482     479     478
       8     553     559     556     552     475     481     478     474
       8     561     562     554     563     483     484     476     485
       8     564     565     562     561     486     487     484     483
       8     566     567     565     564     488     489     487     486
       8     568     566     564     569     490     488     486     491
       8     570     555     554     562     492     477     476     484
       8     561     571     569     564     483     493     491     486
       8     546     549     563     554     468     471     485     476
       8     572     559     553     555     494     481     475     477
       8     573     572     555     570     495     494     477     492
       8     574     573     570     575     496     495     492     497
       8     565     575     570     562     487     497     492     484
       8     576     577     571     561     498     499     493     483
       8     578     576     561     563     500     498     483     485
       8     579     578     563     549     501     500     485     471
       8     580     550     548     581     502     472     470     503
       8     582     581     548     547     504     503     470     469
       8     558     582     547     552     480     504     469     474
       8     583     560     559     572     505     482     481     494
       8     584     583     572     573     506     505     494     495
       8     585     584     573     574     507     506     495     496
       8     586     585     574     587     508     507     496     509
       8     588     587     574     575     510     509     496     497
       8     567     588     575     565     489     510     497     487
       8     589     568     569     571     511     490     491     493
       8     590     589     571     577     512     511     493     499
       8     591     590     577     592     513     512     499     514
       8     593     592     577     576     515     514     499     498
       8     594     593     576     578     516     515     498     500
       8     595     594     578     579     517     516     500     501
       8     596     595     579     597     518     517     501     519
       8     551     597     579     549     473     519     501     471
       8     598     599     550     580     520     521     472     502
       8     600     598     580     581     522     520     502     503
       8     601     600     581     582     523     522     503     504
       8     602     601     582     558     524     523     504     480
       8     603     602     558     557     525     524     480     479
       8     604     603     557     560     526     525     479     482
       8     605     604     560     583     527     526     482     505
       8     606     605     583     584     528     527     505     506
       8     607     606     584     585     529     528     506     507
       8     608     607     585     586     530     529     507     508
       8     609     608     586     587     531     530     508     509
       8     610     609     587     588     532     531     509     510
       8     611     610     588     567     533     532     510     489
       8     612     611     567     566     534     533     489     488
       8     613     612     566     568     535     534     488     490
       8     614     613     568     589     536     535     490     511
       8     615     614     589     590     537     536     511     512
       8     616     615     590     591     538     537     512     513
       8     617     616     591     592     539     538     513     514
       8     618     617     592     593     540     539     514     515
       8     619     618     593     594     541     540     515     516
       8     620     619     594     595     542     541     516     517
       8     621     620     595     596     543     542     517     518
       8     622     621     596     597     544     543     518     519
       8     623     622     597     551     545     544     519     473
       8     599     623     551     550     521     545     473     472
       8     624     625     626     627     546     547     548     549
       8     626     628     629     627     548     550     551     549
       8     630     625     624     631     552     547     546     553
       8     624     632     633     631     546     554     555     553
       8     634     635     636     630     556     557     558     552
       8     637     638     635     634     559     560     557     556
       8     631     637     634     630     553     559     556     552
       8     639     640     632     641     561     562     554     563
       8     642     643     640     639     564     565     562     561
       8     644     645     643     642     566     567     565     564
       8     646     644     642     647     568     566     564     569
       8     648     633     632     640     570     555     554     562
       8     639     649     647     642     561     571     569     564
       8     624     627     641     632     546     549     563     554
       8     650     637     631     633     572     559     553     555
       8     651     650     633     648     573     572     555     570
       8     652     651     648     653     574     573     570     575
       8     643     653     648     640     565     575     570     562
       8     654     655     649     639     576     577     571     561
       8     656     654     639     641     578     576     561     563
       8     657     656     641     627     579     578     563     549
       8     658     628     626     659     580     550     548     581
       8     660     659     626     625     582     581     548     547
       8     636     660     625     630     558     582     547     552
       8     661     638     637     650     583     560     559     572
       8     662     661     650     651     584     583     572     573
       8     663     662     651     652     585     584     573     574
       8     664     663     652     665     586     585     574     587
       8     666     665     652     653     588     587     574     575
       8     645     666     653     643     567     588     575     565
       8     667     646     647     649     589     568     569     571
       8     668     667     649     655     590     589     571     577
       8     669     668     655     670     591     590     577     592
       8     671     670     655     654     593     592     577     576
       8     672     671     654     656     594     593     576     578
       8     673     672     656     657     595     594     578     579
       8     674     673     657     675     596     595     579     597
       8     629     675     657     627     551     597     579     549
       8     676     677     628     658     598     599     550     580
       8     678     676     658     659     600     598     580     581
       8     679     678     659     660     601     600     581     582
       8     680     679     660     636     602     601     582     558
       8     681     680     636     635     603     602     558     557
       8     682     681     635     638     604     603     557     560
       8     683     682     638     661     605     604     560     583
       8     684     683     661     662     606     605     583     584
       8     685     684     662     663     607     606     584     585
       8     686     685     663     664     608     607     585     586
       8     687     686     664     665     609     608     586     587
       8     688     687     665     666     610     609     587     588
       8     689     688     666     645     611     610     588     567
       8     690     689     645     644     612     611     567     566
       8     691     690     644     646     613     612     566     568
       8     692     691     646     667     614     613     568     589
       8     693     692     667     668     615     614     589     590
       8     694     693     668     669     616     615     590     591
       8     695     694     669     670     617     616     591     592
       8     696     695     670     671     618     617     592     593
       8     697     696     671     672     619     618     593     594
       8     698     697     672     673     620     619     594     595
       8     699     698     673     674     621     620     595     596
       8     700     699     674     675     622     621     596     597
       8     701     700     675     629     623     622     597     551
       8     677     701     629     628     599     623     551     550
       8     702     703     704     705     624     625     626     627
       8     704     706     707     705     626     628     629     627
       8     708     703     702     709     630     625     624     631
       8     702     710     711     709     624     632     633     631
       8     712     713     714     708     634     635     636     630
       8     715     716     713     712     637     638     635     634
       8     709     715     712     708     631     637     634     630
       8     717     718     710     719     639     640     632     641
       8     720     721     718     717     642     643     640     639
       8     722     723     721     720     644     645     643     642
       8     724     722     720     725     646     644     642     647
       8     726     711     710     718     648     633     632     640
       8     717     727     725     720     639     649     647     642
       8     702     705     719     710     624     627     641     632
       8     728     715     709     711     650     637     631     633
       8     729     728     711     726     651     650     633     648
       8     730     729     726     731     652     651     648     653
       8     721     731     726     718     643     653     648     640
       8     732     733     727     717     654     655     649     639
       8     734     732     717     719     656     654     639     641
       8     735     734     719     705     657     656     641     627
       8     736     706     704     737     658     628     626     659
       8     738     737     704     703     660     659     626     625
       8     714     738     703     708     636     660     625     630
       8     739     716     715     728     661     638     637     650
       8     740     739     728     729     662     661     650     651
       8     741     740     729     730     663     662     651     652
       8     742     741     730     743     664     663     652     665
       8     744     743     730     731     666     665     652     653
       8     723     744     731     721     645     666     653     643
       8     745     724     725     727     667     646     647     649
       8     746     745     727     733     668     667     649     655
       8     747     746     733     748     669     668     655     670
       8     749     748     733     732     671     670     655     654
       8     750     749     732     734     672     671     654     656
       8     751     750     734     735     673     672     656     657
       8     752     751     735     753     674     673     657     675
       8     707     753     735     705     629     675     657     627
       8     754     755     706     736     676     677     628     658
       8     756     754     736     737     678     676     658     659
       8     757     756     737     738     679     678     659     660
       8     758     757     738     714     680     679     660     636
       8     759     758     714     713     681     680     636     635
       8     760     759     713     716     682     681     635     638
       8     761     760     716     739     683     682     638     661
       8     762     761     739     740     684     683     661     662
       8     763     762     740     741     685     684     662     663
       8     764     763     741     742     686     685     663     664
       8     765     764     742     743     687     686     664     665
       8     766     765     743     744     688     687     665     666
       8     767     766     744     723     689     688     666     645
       8     768     767     723     722     690     689     645     644
       8     769     768     722     724     691     690     644     646
       8     770     769     724     745     692     691     646     667
       8     771     770     745     746     693     692     667     668
       8     772     771     746     747     694     693     668     669
       8     773     772     747     748     695     694     669     670
       8     774     773     748     749     696     695     670     671
       8     775     774     749     750     697     696     671     672
       8     776     775     750     751     698     697     672     673
       8     777     776     751     752     699     698     673     674
       8     778     777     752     753     700     699     674     675
       8     779     778     753     707     701     700     675     629
       8     755     779     707     706     677     701     629     628
       8     780     781     782     783     702     703     704     705
       8     782     784     785     783     704     706     707     705
       8     786     781     780     787     708     703     702     709
       8     780     788     789     787     702     710     711     709
       8     790     791     792     786     712     713     714     708
       8     793     794     791     790     715     716     713     712
       8     787     793     790     786     709     715     712     708
       8     795     796     788     797     717     718     710     719
       8     798     799     796     795     720     721     718     717
       8     800     801     799     798     722     723     721     720
       8     802     800     798     803     724     722     720     725
       8     804     789     788     796     726     711     710     718
       8     795     805     803     798     717     727     725     720
       8     780     783     797     788     702     705     719     710
       8     806     793     787     789     728     715     709     711
       8     807     806     789     804     729     728     711     726
       8     808     807     804     809     730     729     726     731
       8     799     809     804     796     721     731     726     718
       8     810     811     805     795     732     733     727     717
       8     812     810     795     797     734     732     717     719
       8     813     812     797     783     735     734     719     705
       8     814     784     782     815     736     706     704     737
       8     816     815     782     781     738     737     704     703
       8     792     816     781     786     714     738     703     708
       8     817     794     793     806     739     716     715     728
       8     818     817     806     807     740     739     728     729
       8     819     818     807     808     741     740     729     730
       8     820     819     808     821     742     741     730     743
       8     822     821     808     809     744     743     730     731
       8     801     822     809     799     723     744     731     721
       8     823     802     803     805     745     724     725     727
       8     824     823     805     811     746     745     727     733
       8     825     824     811     826     747     746     733     748
       8     827     826     811     810     749     748     733     732
       8     828     827     810     812     750     749     732     734
       8     829     828     812     813     751     750     734     735
       8     830     829     813     831     752     751     735     753
       8     785     831     813     783     707     753     735     705
       8     832     833     784     814     754     755     706     736
       8     834     832     814     815     756     754     736     737
       8     835     834     815     816     757     756     737     738
       8     836     835     816     792     758     757     738     714
       8     837     836     792     791     759     758     714     713
       8     838     837     791     794     760     759     713     716
       8     839     838     794     817     761     760     716     739
       8     840     839     817     818     762     761     739     740
       8     841     840     818     819     763     762     740     741
       8     842     841     819     820     764     763     741     742
       8     843     842     820     821     765     764     742     743
       8     844     843     821     822     766     765     743     744
       8     845     844     822     801     767     766     744     723
       8     846     845     801     800     768     767     723     722
       8     847     846     800     802     769     768     722     724
       8     848     847     802     823     770     769     724     745
       8     849     848     823     824     771     770     745     746
       8     850     849     824     825     772     771     746     747
       8     851     850     825     826     773     772     747     748
       8     852     851     826     827     774     773     748     749
       8     853     852     827     828     775     774     749     750
       8     854     853     828     829     776     775     750     751
       8     855     854     829     830     777     776     751     752
       8     856     855     830     831     778     777     752     753
       8     857     856     831     785     779     778     753     707
       8     833     857     785     784     755     779     707     706
       8     858     859     860     861     780     781     782     783
       8     860     862     863     861     782     784     785     783
       8     864     859     858     865     786     781     780     787
       8     858     866     867     865     780     788     789     787
       8     868     869     870     864     790     791     792     786
       8     871     872     869     868     793     794     791     790
       8     865     871     868     864     787     793     790     786
       8     873     874     866     875     795     796     788     797
       8     876     877     874     873     798     799     796     795
       8     878     879     877     876     800     801     799     798
       8     880     878     876     881     802     800     798     803
       8     882     867     866     874     804     789     788     796
       8     873     883     881     876     795     805     803     798
       8     858     861     875     866     780     783     797     788
       8     884     871     865     867     806     793     787     789
       8     885     884     867     882     807     806     789     804
       8     886     885     882     887     808     807     804     809
       8     877     887     882     874     799     809     804     796
       8     888     889     883     873     810     811     805     795
       8     890     888     873     875     812     810     795     797
       8     891     890     875     861     813     812     797     783
       8     892     862     860     893     814     784     782     815
       8     894     893     860     859     816     815     782     781
       8     870     894     859     864     792     816     781     786
       8     895     872     871     884     817     794     793     806
       8     896     895     884     885     818     817     806     807
       8     897     896     885     886     819     818     807     808
       8     898     897     886     899     820     819     808     821
       8     900     899     886     887     822     821     808     809
       8     879     900     887     877     801     822     809     799
       8     901     880     881     883     823     802     803     805
       8     902     901     883     889     824     823     805     811
       8     903     902     889     904     825     824     811     826
       8     905     904     889     888     827     826     811     810
       8     906     905     888     890     828     827     810     812
       8     907     906     890     891     829     828     812     813
       8     908     907     891     909     830     829     813     831
       8     863     909     891     861     785     831     813     783
       8     910     911     862     892     832     833     784     814
       8     912     910     892     893     834     832     814     815
       8     913     912     893     894     835     834     815     816
       8     914     913     894     870     836     835     816     792
       8     915     914     870     869     837     836     792     791
       8     916     915     869     872     838     837     791     794
       8     917     916     872     895     839     838     794     817
       8     918     917     895     896     840     839     817     818
       8     919     918     896     897     841     840     818     819
       8     920     919     897     898     842     841     819     820
       8     921     920     898     899     843     842     820     821
       8     922     921     899     900     844     843     821     822
       8     923     922     900     879     845     844     822     801
       8     924     923     879     878     846     845     801     800
       8     925     924     878     880     847     846     800     802
       8     926     925     880     901     848     847     802     823
       8     927     926     901     902     849     848     823     824
       8     928     927     902     903     850     849     824     825
       8     929     928     903     904     851     850     825     826
       8     930     929     904     905     852     851     826     827
       8     931     930     905     906     853     852     827     828
       8     932     931     906     907     854     853     828     829
       8     933     932     907     908     855     854     829     830
       8     934     933     908     909     856     855     830     831
       8     935     934     909     863     857     856     831     785
       8     911     935     863     862     833     857     785     784
       8     936     937     938     939     858     859     860     861
       8     938     940     941     939     860     862     863     861
       8     942     937     936     943     864     859     858     865
       8     936     944     945     943     858     866     867     865
       8     946     947     948     942     868     869     870     864
       8     949     950     947     946     871     872     869     868
       8     943     949     946     942     865     871     868     864
       8     951     952     944     953     873     874     866     875
       8     954     955     952     951     876     877     874     873
       8     956     957     955     954     878     879     877     876
       8     958     956     954     959     880     878     876     881
       8     960     945     944     952     882     867     866     874
       8     951     961     959     954     873     883     881     876
       8     936     939     953     944     858     861     875     866
       8     962     949     943     945     884     871     865     867
       8     963     962     945     960     885     884     867     882
       8     964     963     960     965     886     885     882     887
       8     955     965     960     952     877     887     882     874
       8     966     967     961     951     888     889     883     873
       8     968     966     951     953     890     888     873     875
       8     969     968     953     939     891     890     875     861
       8     970     940     938     971     892     862     860     893
       8     972     971     938     937     894     893     860     859
       8     948     972     937     942     870     894     859     864
       8     973     950     949     962     895     872     871     884
       8     974     973     962     963     896     895     884     885
       8     975     974     963     964     897     896     885     886
       8     976     975     964     977     898     897     886     899
       8     978     977     964     965     900     899     886     887
       8     957     978     965     955     879     900     887     877
       8     979     958     959     961     901     880     881     883
       8     980     979     961     967     902     901     883     889
       8     981     980     967     982     903     902     889     904
       8     983     982     967     966     905     904     889     888
       8     984     983     966     968     906     905     888     890
       8     985     984     968     969     907     906     890     891
       8     986     985     969     987     908     907     891     909
       8     941     987     969     939     863     909     891     861
       8     988     989     940     970     910     911     862     892
       8     990     988     970     971     912     910     892     893
       8     991     990     971     972     913     912     893     894
       8     992     991     972     948     914     913     894     870
       8     993     992     948     947     915     914     870     869
       8     994     993     947     950     916     915     869     872
       8     995     994     950     973     917     916     872     895
       8     996     995     973     974     918     917     895     896
       8     997     996     974     975     919     918     896     897
       8     998     997     975     976     920     919     897     898
       8     999     998     976     977     921     920     898     899
       8    1000     999     977     978     922     921     899     900
       8    1001    1000     978     957     923     922     900     879
       8    1002    1001     957     956     924     923     879     878
       8    1003    1002     956     958     925     924     878     880
       8    1004    1003     958     979     926     925     880     901
       8    1005    1004     979     980     927     926     901     902
       8    1006    1005     980     981     928     927     902     903
       8    1007    1006     981     982     929     928     903     904
       8    1008    1007     982     983     930     929     904     905
       8    1009    1008     983     984     931     930     905     906
       8    1010    1009     984     985     932     931     906     907
       8    1011    1010     985     986     933     932     907     908
       8    1012    1011     986     987     934     933     908     909
       8    1013    1012     987     941     935     934     909     863
       8     989    1013     941     940     911     935     863     862
       8    1014    1015    1016    1017     936     937     938     939
       8    1016    1018    1019    1017     938     940     941     939
       8    1020    1015    1014    1021     942     937     936     943
       8    1014    1022    1023    1021     936     944     945     943
       8    1024    1025    1026    1020     946     947     948     942
       8    1027    1028    1025    1024     949     950     947     946
       8    1021    1027    1024    1020     943     949     946     942
       8    1029    1030    1022    1031     951     952     944     953
       8    1032    1033    1030    1029     954     955     952     951
       8    1034    1035    1033    1032     956     957     955     954
       8    1036    1034    1032    1037     958     956     954     959
       8    1038    1023    1022    1030     960     945     944     952
       8    1029    1039    1037    1032     951     961     959     954
       8    1014    1017    1031    1022     936     939     953     944
       8    1040    1027    1021    1023     962     949     943     945
       8    1041    1040    1023    1038     963     962     945     960
       8    1042    1041    1038    1043     964     963     960     965
       8    1033    1043    1038    1030     955     965     960     952
       8    1044    1045    1039    1029     966     967     961     951
       8    1046    1044    1029    1031     968     966     951     953
       8    1047    1046    1031    1017     969     968     953     939
       8    1048    1018    1016    1049     970     940     938     971
       8    1050    1049    1016    1015     972     971     938     937
       8    1026    1050    1015    1020     948     972     937     942
       8    1051    1028    1027    1040     973     950     949     962
       8    1052    1051    1040    1041     974     973     962     963
       8    1053    1052    1041    1042     975     974     963     964
       8    1054    1053    1042    1055     976     975     964     977
       8    1056    1055    1042    1043     978     977     964     965
       8    1035    1056    1043    1033     957     978     965     955
       8    1057    1036    1037    1039     979     958     959     961
       8    1058    1057    1039    1045     980     979     961     967
       8    1059    1058    1045    1060     981     980     967     982
       8    1061    1060    1045    1044     983     982     967     966
       8    1062    1061    1044    1046     984     983     966     968
       8    1063    1062    1046    1047     985     984     968     969
       8    1064    1063    1047    1065     986     985     969     987
       8    1019    1065    1047    1017     941     987     969     939
       8    1066    1067    1018    1048     988     989     940     970
       8    1068    1066    1048    1049     990     988     970     971
       8    1069    1068    1049    1050     991     990     971     972
       8    1070    1069    1050    1026     992     991     972     948
       8    1071    1070    1026    1025     993     992     948     947
       8    1072    1071    1025    1028     994     993     947     950
       8    1073    1072    1028    1051     995     994     950     973
       8    1074    1073    1051    1052     996     995     973     974
       8    1075    1074    1052    1053     997     996     974     975
       8    1076    1075    1053    1054     998     997     975     976
       8    1077    1076    1054    1055     999     998     976     977
       8    1078    1077    1055    1056    1000     999     977     978
       8    1079    1078    1056    1035    1001    1000     978     957
       8    1080    1079    1035    1034    1002    1001     957     956
       8    1081    1080    1034    1036    1003    1002     956     958
       8    1082    1081    1036    1057    1004    1003     958     979
       8    1083    1082    1057    1058    1005    1004     979     980
       8    1084    1083    1058    1059    1006    1005     980     981
       8    1085    1084    1059    1060    1007    1006     981     982
       8    1086    1085    1060    1061    1008    1007     982     983
       8    1087    1086    1061    1062    1009    1008     983     984
       8    1088    1087    1062    1063    1010    1009     984     985
       8    1089    1088    1063    1064    1011    1010     985     986
       8    1090    1089    1064    1065    1012    1011     986     987
       8    1091    1090    1065    1019    1013    1012     987     941
       8    1067    1091    1019    1018     989    1013     941     940
       8    1092    1093    1094    1095    1014    1015    1016    1017
       8    1094    1096    1097    1095    1016    1018    1019    1017
       8    1098    1093    1092    1099    1020    1015    1014    1021
       8    1092    1100    1101    1099    1014    1022    1023    1021
       8    1102    1103    1104    1098    1024    1025    1026    1020
       8    1105    1106    1103    1102    1027    1028    1025    1024
       8    1099    1105    1102    1098    1021    1027    1024    1020
       8    1107    1108    1100    1109    1029    1030    1022    1031
       8    1110    1111    1108    1107    1032    1033    1030    1029
       8    1112    1113    1111    1110    1034    1035    1033    1032
       8    1114    1112    1110    1115    1036    1034    1032    1037
       8    1116    1101    1100    1108    1038    1023    1022    1030
       8    1107    1117    1115    1110    1029    1039    1037    1032
       8    1092    1095    1109    1100    1014    1017    1031    1022
       8    1118    1105    1099    1101    1040    1027    1021    1023
       8    1119    1118    1101    1116    1041    1040    1023    1038
       8    1120    1119    1116    1121    1042    1041    1038    1043
       8    1111    1121    1116    1108    1033    1043    1038    1030
       8    1122    1123    1117    1107    1044    1045    1039    1029
       8    1124    1122    1107    1109    1046    1044    1029    1031
       8    1125    1124    1109    1095    1047    1046    1031    1017
       8    1126    1096    1094    1127    1048    1018    1016    1049
       8    1128    1127    1094    1093    1050    1049    1016    1015
       8    1104    1128    1093    1098    1026    1050    1015    1020
       8    1129    1106    1105    1118    1051    1028    1027    1040
       8    1130    1129    1118    1119    1052    1051    1040    1041
       8    1131    1130    1119    1120    1053    1052    1041    1042
       8    1132    1131    1120    1133    1054    1053    1042    1055
       8    1134    1133    1120    1121    1056    1055    1042    1043
       8    1113    1134    1121    1111    1035    1056    1043    1033
       8    1135    1114    1115    1117    1057    1036    1037    1039
       8    1136    1135    1117    1123    1058    1057    1039    1045
       8    1137    1136    1123    1138    1059    1058    1045    1060
       8    1139    1138    1123    1122    1061    1060    1045    1044
       8    1140    1139    1122    1124    1062    1061    1044    1046
       8    1141    1140    1124    1125    1063    1062    1046    1047
       8    1142    1141    1125    1143    1064    1063    1047    1065
       8    1097    1143    1125    1095    1019    1065    1047    1017
       8    1144    1145    1096    1126    1066    1067    1018    1048
       8    1146    1144    1126    1127    1068    1066    1048    1049
       8    1147    1146    1127    1128    1069    1068    1049    1050
       8    1148    1147    1128    1104    1070    1069    1050    1026
       8    1149    1148    1104    1103    1071    1070    1026    1025
       8    1150    1149    1103    1106    1072    1071    1025    1028
       8    1151    1150    1106    1129    1073    1072    1028    1051
       8    1152    1151    1129    1130    1074    1073    1051    1052
       8    1153    1152    1130    1131    1075    1074    1052    1053
       8    1154    1153    1131    1132    1076    1075    1053    1054
       8    1155    1154    1132    1133    1077    1076    1054    1055
       8    1156    1155    1133    1134    1078    1077    1055    1056
       8    1157    1156    1134    1113    1079    1078    1056    1035
       8    1158    1157    1113    1112    1080    1079    1035    1034
       8    1159    1158    1112    1114    1081    1080    1034    1036
       8    1160    1159    1114    1135    1082    1081    1036    1057
       8    1161    1160    1135    1136    1083    1082    1057    1058
       8    1162    1161    1136    1137    1084    1083    1058    1059
       8    1163    1162    1137    1138    1085    1084    1059    1060
       8    1164    1163    1138    1139    1086    1085    1060    1061
       8    1165    1164    1139    1140    1087    1086    1061    1062
       8    1166    1165    1140    1141    1088    1087    1062    1063
       8    1167    1166    1141    1142    1089    1088    1063    1064
       8    1168    1167    1142    1143    1090    1089    1064    1065
       8    1169    1168    1143    1097    1091    1090    1065    1019
       8    1145    1169    1097    1096    1067    1091    1019    1018
       8    1170    1171    1172    1173    1092    1093    1094    1095
       8    1172    1174    1175    1173    1094    1096    1097    1095
       8    1176    1171    1170    1177    1098    1093    1092    1099
       8    1170    1178    1179    1177    1092    1100    1101    1099
       8    1180    1181    1182    1176    1102    1103    1104    1098
       8    1183    1184    1181    1180    1105    1106    1103    1102
       8    1177    1183    1180    1176    1099    1105    1102    1098
       8    1185    1186    1178    1187    1107    1108    1100    1109
       8    1188    1189    1186    1185    1110    1111    1108    1107
       8    1190    1191    1189    1188    1112    1113    1111    1110
       8    1192    1190    1188    1193    1114    1112    1110    1115
       8    1194    1179    1178    1186    1116    1101    1100    1108
       8    1185    1195    1193    1188    1107    1117    1115    1110
       8    1170    1173    1187    1178    1092    1095    1109    1100
       8    1196    1183    1177    1179    1118    1105    1099    1101
       8    1197    1196    1179    1194    1119    1118    1101    1116
       8    1198    1197    1194    1199    1120    1119    1116    1121
       8    1189    1199    1194    1186    1111    1121    1116    1108
       8    1200    1201    1195    1185    1122    1123    1117    1107
       8    1202    1200    1185    1187    1124    1122    1107    1109
       8    1203    1202    1187    1173    1125    1124    1109    1095
       8    1204    1174    1172    1205    1126    1096    1094    1127
       8    1206    1205    1172    1171    1128    1127    1094    1093
       8    1182    1206    1171    1176    1104    1128    1093    1098
       8    1207    1184    1183    1196    1129    1106    1105    1118
       8    1208    1207    1196    1197    1130    1129    1118    1119
       8    1209    1208    1197    1198    1131    1130    1119    1120
       8    1210    1209    1198    1211    1132    1131    1120    1133
       8    1212    1211    1198    1199    1134    1133    1120    1121
       8    1191    1212    1199    1189    1113    1134    1121    1111
       8    1213    1192    1193    1195    1135    1114    1115    1117
       8    1214    1213    1195    1201    1136    1135    1117    1123
       8    1215    1214    1201    1216    1137    1136    1123    1138
       8    1217    1216    1201    1200    1139    1138    1123    1122
       8    1218    1217    1200    1202    1140    1139    1122    1124
       8    1219    1218    1202    1203    1141    1140    1124    1125
       8    1220    1219    1203    1221    1142    1141    1125    1143
       8    1175    1221    1203    1173    1097    1143    1125    1095
       8    1222    1223    1174    1204    1144    1145    1096    1126
       8    1224    1222    1204    1205    1146    1144    1126    1127
       8    1225    1224    1205    1206    1147    1146    1127    1128
       8    1226    1225    1206    1182    1148    1147    1128    1104
       8    1227    1226    1182    1181    1149    1148    1104    1103
       8    1228    1227    1181    1184    1150    1149    1103    1106
       8    1229    1228    1184    1207    1151    1150    1106    1129
       8    1230    1229    1207    1208    1152    1151    1129    1130
       8    1231    1230    1208    1209    1153    1152    1130    1131
       8    1232    1231    1209    1210    1154    1153    1131    1132
       8    1233    1232    1210    1211    1155    1154    1132    1133
       8    1234    1233    1211    1212    1156    1155    1133    1134
       8    1235    1234    1212    1191    1157    1156    1134    1113
       8    1236    1235    1191    1190    1158    1157    1113    1112
       8    1237    1236    1190    1192    1159    1158    1112    1114
       8    1238    1237    1192    1213    1160    1159    1114    1135
       8    1239    1238    1213    1214    1161    1160    1135    1136
       8    1240    1239    1214    1215    1162    1161    1136    1137
       8    1241    1240    1215    1216    1163    1162    1137    1138
       8    1242    1241    1216    1217    1164    1163    1138    1139
       8    1243    1242    1217    1218    1165    1164    1139    1140
       8    1244    1243    1218    1219    1166    1165    1140    1141
       8    1245    1244    1219    1220    1167    1166    1141    1142
       8    1246    1245    1220    1221    1168    1167    1142    1143
       8    1247    1246    1221    1175    1169    1168    1143    1097
       8    1223    1247    1175    1174    1145    1169    1097    1096
       8    1248    1249    1250    1251    1170    1171    1172    1173
       8    1250    1252    1253    1251    1172    1174    1175    1173
       8    1254    1249    1248    1255    1176    1171    1170    1177
       8    1248    1256    1257    1255    1170    1178    1179    1177
       8    1258    1259    1260    1254    1180    1181    1182    1176
       8    1261    1262    1259    1258    1183    1184    1181    1180
       8    1255    1261    1258    1254    1177    1183    1180    1176
       8    1263    1264    1256    1265    1185    1186    1178    1187
       8    1266    1267    1264    1263    1188    1189    1186    1185
       8    1268    1269    1267    1266    1190    1191    1189    1188
       8    1270    1268    1266    1271    1192    1190    1188    1193
       8    1272    1257    1256    1264    1194    1179    1178    1186
       8    1263    1273    1271    1266    1185    1195    1193    1188
       8    1248    1251    1265    1256    1170    1173    1187    1178
       8    1274    1261    1255    1257    1196    1183    1177    1179
       8    1275    1274    1257    1272    1197    1196    1179    1194
       8    1276    1275    1272    1277    1198    1197    1194    1199
       8    1267    1277    1272    1264    1189    1199    1194    1186
       8    1278    1279    1273    1263    1200    1201    1195    1185
       8    1280    1278    1263    1265    1202    1200    1185    1187
       8    1281    1280    1265    1251    1203    1202    1187    1173
       8    1282    1252    1250    1283    1204    1174    1172    1205
       8    1284    1283    1250    1249    1206    1205    1172    1171
       8    1260    1284    1249    1254    1182    1206    1171    1176
       8    1285    1262    1261    1274    1207    1184    1183    1196
       8    1286    1285    1274    1275    1208    1207    1196    1197
       8    1287    1286    1275    1276    1209    1208    1197    1198
       8    1288    1287    1276    1289    1210    1209    1198    1211
       8    1290    1289    1276    1277    1212    1211    1198    1199
       8    1269    1290    1277    1267    1191    1212    1199    1189
       8    1291    1270    1271    1273    1213    1192    1193    1195
       8    1292    1291    1273    1279    1214    1213    1195    1201
       8    1293    1292    1279    1294    1215    1214    1201    1216
       8    1295    1294    1279    1278    1217    1216    1201    1200
       8    1296    1295    1278    1280    1218    1217    1200    1202
       8    1297    1296    1280    1281    1219    1218    1202    1203
       8    1298    1297    1281    1299    1220    1219    1203    1221
       8    1253    1299    1281    1251    1175    1221    1203    1173
       8    1300    1301    1252    1282    1222    1223    1174    1204
       8    1302    1300    1282    1283    1224    1222    1204    1205
       8    1303    1302    1283    1284    1225    1224    1205    1206
       8    1304    1303    1284    1260    1226    1225    1206    1182
       8    1305    1304    1260    1259    1227    1226    1182    1181
       8    1306    1305    1259    1262    1228    1227    1181    1184
       8    1307    1306    1262    1285    1229    1228    1184    1207
       8    1308    1307    1285    1286    1230    1229    1207    1208
       8    1309    1308    1286    1287    1231    1230    1208    1209
       8    1310    1309    1287    1288    1232    1231    1209    1210
       8    1311    1310    1288    1289    1233    1232    1210    1211
       8    1312    1311    1289    1290    1234    1233    1211    1212
       8    1313    1312    1290    1269    1235    1234    1212    1191
       8    1314    1313    1269    1268    1236    1235    1191    1190
       8    1315    1314    1268    1270    1237    1236    1190    1192
       8    1316    1315    1270    1291    1238    1237    1192    1213
       8    1317    1316    1291    1292    1239    1238    1213    1214
       8    1318    1317    1292    1293    1240    1239    1214    1215
       8    1319    1318    1293    1294    1241    1240    1215    1216
       8    1320    1319    1294    1295    1242    1241    1216    1217
       8    1321    1320    1295    1296    1243    1242    1217    1218
       8    1322    1321    1296    1297    1244    1243    1218    1219
       8    1323    1322    1297    1298    1245    1244    1219    1220
       8    1324    1323    1298    1299    1246    1245    1220    1221
       8    1325    1324    1299    1253    1247    1246    1221    1175
       8    1301    1325    1253    1252    1223    1247    1175    1174
       8    1326    1327    1328    1329    1248    1249    1250    1251
       8    1328    1330    1331    1329    1250    1252    1253    1251
       8    1332    1327    1326    1333    1254    1249    1248    1255
       8    1326    1334    1335    1333    1248    1256    1257    1255
       8    1336    1337    1338    1332    1258    1259    1260    1254
       8    1339    1340    1337    1336    1261    1262    1259    1258
       8    1333    1339    1336    1332    1255    1261    1258    1254
       8    1341    1342    1334    1343    1263    1264    1256    1265
       8    1344    1345    1342    1341    1266    1267    1264    1263
       8    1346    1347    1345    1344    1268    1269    1267    1266
       8    1348    1346    1344    1349    1270    1268    1266    1271
       8    1350    1335    1334    1342    1272    1257    1256    1264
       8    1341    1351    1349    1344    1263    1273    1271    1266
       8    1326    1329    1343    1334    1248    1251    1265    1256
       8    1352    1339    1333    1335    1274    1261    1255    1257
       8    1353    1352    1335    1350    1275    1274    1257    1272
       8    1354    1353    1350    1355    1276    1275    1272    1277
       8    1345    1355    1350    1342    1267    1277    1272    1264
       8    1356    1357    1351    1341    1278    1279    1273    1263
       8    1358    1356    1341    1343    1280    1278    1263    1265
       8    1359    1358    1343    1329    1281    1280    1265    1251
       8    1360    1330    1328    1361    1282    1252    1250    1283
       8    1362    1361    1328    1327    1284    1283    1250    1249
       8    1338    1362    1327    1332    1260    1284    1249    1254
       8    1363    1340    1339    1352    1285    1262    1261    1274
       8    1364    1363    1352    1353    1286    1285    1274    1275
       8    1365    1364    1353    1354    1287    1286    1275    1276
       8    1366    1365    1354    1367    1288    1287    1276    1289
       8    1368    1367    1354    1355    1290    1289    1276    1277
       8    1347    1368    1355    1345    1269    1290    1277    1267
       8    1369    1348    1349    1351    1291    1270    1271    1273
       8    1370    1369    1351    1357    1292    1291    1273    1279
       8    1371    1370    1357    1372    1293    1292    1279    1294
       8    1373    1372    1357    1356    1295    1294    1279    1278
       8    1374    1373    1356    1358    1296    1295    1278    1280
       8    1375    1374    1358    1359    1297    1296    1280    1281
       8    1376    1375    1359    1377    1298    1297    1281    1299
       8    1331    1377    1359    1329    1253    1299    1281    1251
       8    1378    1379    1330    1360    1300    1301    1252    1282
       8    1380    1378    1360    1361    1302    1300    1282    1283
       8    1381    1380    1361    1362    1303    1302    1283    1284
       8    1382    1381    1362    1338    1304    1303    1284    1260
       8    1383    1382    1338    1337    1305    1304    1260    1259
       8    1384    1383    1337    1340    1306    1305    1259    1262
       8    1385    1384    1340    1363    1307    1306    1262    1285
       8    1386    1385    1363    1364    1308    1307    1285    1286
       8    1387    1386    1364    1365    1309    1308    1286    1287
       8    1388    1387    1365    1366    1310    1309    1287    1288
       8    1389    1388    1366    1367    1311    1310    1288    1289
       8    1390    1389    1367    1368    1312    1311    1289    1290
       8    1391    1390    1368    1347    1313    1312    1290    1269
       8    1392    1391    1347    1346    1314    1313    1269    1268
       8    1393    1392    1346    1348    1315    1314    1268    1270
       8    1394    1393    1348    1369    1316    1315    1270    1291
       8    1395    1394    1369    1370    1317    1316    1291    1292
       8    1396    1395    1370    1371    1318    1317    1292    1293
       8    1397    1396    1371    1372    1319    1318    1293    1294
       8    1398    1397    1372    1373    1320    1319    1294    1295
       8    1399    1398    1373    1374    1321    1320    1295    1296
       8    1400    1399    1374    1375    1322    1321    1296    1297
       8    1401    1400    1375    1376    1323    1322    1297    1298
       8    1402    1401    1376    1377    1324    1323    1298    1299
       8    1403    1402    1377    1331    1325    1324    1299    1253
       8    1379    1403    1331    1330    1301    1325    1253    1252
       8    1404    1405    1406    1407    1326    1327    1328    1329
       8    1406    1408    1409    1407    1328    1330    1331    1329
       8    1410    1405    1404    1411    1332    1327    1326    1333
       8    1404    1412    1413    1411    1326    1334    1335    1333
       8    1414    1415    1416    1410    1336    1337    1338    1332
       8    1417    1418    1415    1414    1339    1340    1337    1336
       8    1411    1417    1414    1410    1333    1339    1336    1332
       8    1419    1420    1412    1421    1341    1342    1334    1343
       8    1422    1423    1420    1419    1344    1345    1342    1341
       8    1424    1425    1423    1422    1346    1347    1345    1344
       8    1426    1424    1422    1427    1348    1346    1344    1349
       8    1428    1413    1412    1420    1350    1335    1334    1342
       8    1419    1429    1427    1422    1341    1351    1349    1344
       8    1404    1407    1421    1412    1326    1329    1343    1334
       8    1430    1417    1411    1413    1352    1339    1333    1335
       8    1431    1430    1413    1428    1353    1352    1335    1350
       8    1432    1431    1428    1433    1354    1353    1350    1355
       8    1423    1433    1428    1420    1345    1355    1350    1342
       8    1434    1435    1429    1419    1356    1357    1351    1341
       8    1436    1434    1419    1421    1358    1356    1341    1343
       8    1437    1436    1421    1407    1359    1358    1343    1329
       8    1438    1408    1406    1439    1360    1330    1328    1361
       8    1440    1439    1406    1405    1362    1361    1328    1327
       8    1416    1440    1405    1410    1338    1362    1327    1332
       8    1441    1418    1417    1430    1363    1340    1339    1352
       8    1442    1441    1430    1431    1364    1363    1352    1353
       8    1443    1442    1431    1432    1365    1364    1353    1354
       8    1444    1443    1432    1445    1366    1365    1354    1367
       8    1446    1445    1432    1433    1368    1367    1354    1355
       8    1425    1446    1433    1423    1347    1368    1355    1345
       8    1447    1426    1427    1429    1369    1348    1349    1351
       8    1448    1447    1429    1435    1370    1369    1351    1357
       8    1449    1448    1435    1450    1371    1370    1357    1372
       8    1451    1450    1435    1434    1373    1372    1357    1356
       8    1452    1451    1434    1436    1374    1373    1356    1358
       8    1453    1452    1436    1437    1375    1374    1358    1359
       8    1454    1453    1437    1455    1376    1375    1359    1377
       8    1409    1455    1437    1407    1331    1377    1359    1329
       8    1456    1457    1408    1438    1378    1379    1330    1360
       8    1458    1456    1438    1439    1380    1378    1360    1361
       8    1459    1458    1439    1440    1381    1380    1361    1362
       8    1460    1459    1440    1416    1382    1381    1362    1338
       8    1461    1460    1416    1415    1383    1382    1338    1337
       8    1462    1461    1415    1418    1384    1383    1337    1340
       8    1463    1462    1418    1441    1385    1384    1340    1363
       8    1464    1463    1441    1442    1386    1385    1363    1364
       8    1465    1464    1442    1443    1387    1386    1364    1365
       8    1466    1465    1443    1444    1388    1387    1365    1366
       8    1467    1466    1444    1445    1389    1388    1366    1367
       8    1468    1467    1445    1446    1390    1389    1367    1368
       8    1469    1468    1446    1425    1391    1390    1368    1347
       8    1470    1469    1425    1424    1392    1391    1347    1346
       8    1471    1470    1424    1426    1393    1392    1346    1348
       8    1472    1471    1426    1447    1394    1393    1348    1369
       8    1473    1472    1447    1448    1395    1394    1369    1370
       8    1474    1473    1448    1449    1396    1395    1370    1371
       8    1475    1474    1449    1450    1397    1396    1371    1372
       8    1476    1475    1450    1451    1398    1397    1372    1373
       8    1477    1476    1451    1452    1399    1398    1373    1374
       8    1478    1477    1452    1453    1400    1399    1374    1375
       8    1479    1478    1453    1454    1401    1400    1375    1376
       8    1480    1479    1454    1455    1402    1401    1376    1377
       8    1481    1480    1455    1409    1403    1402    1377    1331
       8    1457    1481    1409    1408    1379    1403    1331    1330
       8    1482    1483    1484    1485    1404    1405    1406    1407
       8    1484    1486    1487    1485    1406    1408    1409    1407
       8    1488    1483    1482    1489    1410    1405    1404    1411
       8    1482    1490    1491    1489    1404    1412    1413    1411
       8    1492    1493    1494    1488    1414    1415    1416    1410
       8    1495    1496    1493    1492    1417    1418    1415    1414
       8    1489    1495    1492    1488    1411    1417    1414    1410
       8    1497    1498    1490    1499    1419    1420    1412    1421
       8    1500    1501    1498    1497    1422    1423    1420    1419
       8    1502    1503    1501    1500    1424    1425    1423    1422
       8    1504    1502    1500    1505    1426    1424    1422    1427
       8    1506    1491    1490    1498    1428    1413    1412    1420
       8    1497    1507    1505    1500    1419    1429    1427    1422
       8    1482    1485    1499    1490    1404    1407    1421    1412
       8    1508    1495    1489    1491    1430    1417    1411    1413
       8    1509    1508    1491    1506    1431    1430    1413    1428
       8    1510    1509    1506    1511    1432    1431    1428    1433
       8    1501    1511    1506    1498    1423    1433    1428    1420
       8    1512    1513    1507    1497    1434    1435    1429    1419
       8    1514    1512    1497    1499    1436    1434    1419    1421
       8    1515    1514    1499    1485    1437    1436    1421    1407
       8    1516    1486    1484    1517    1438    1408    1406    1439
       8    1518    1517    1484    1483    1440    1439    1406    1405
       8    1494    1518    1483    1488    1416    1440    1405    1410
       8    1519    1496    1495    1508    1441    1418    1417    1430
       8    1520    1519    1508    1509    1442    1441    1430    1431
       8    1521    1520    1509    1510    1443    1442    1431    1432
       8    1522    1521    1510    1523    1444    1443    1432    1445
       8    1524    1523    1510    1511    1446    1445    1432    1433
       8    1503    1524    1511    1501    1425    1446    1433    1423
       8    1525    1504    1505    1507    1447    1426    1427    1429
       8    1526    1525    1507    1513    1448    1447    1429    1435
       8    1527    1526    1513    1528    1449    1448    1435    1450
       8    1529    1528    1513    1512    1451    1450    1435    1434
       8    1530    1529    1512    1514    1452    1451    1434    1436
       8    1531    1530    1514    1515    1453    1452    1436    1437
       8    1532    1531    1515    1533    1454    1453    1437    1455
       8    1487    1533    1515    1485    1409    1455    1437    1407
       8    1534    1535    1486    1516    1456    1457    1408    1438
       8    1536    1534    1516    1517    1458    1456    1438    1439
       8    1537    1536    1517    1518    1459    1458    1439    1440
       8    1538    1537    1518    1494    1460    1459    1440    1416
       8    1539    1538    1494    1493    1461    1460    1416    1415
       8    1540    1539    1493    1496    1462    1461    1415    1418
       8    1541    1540    1496    1519    1463    1462    1418    1441
       8    1542    1541    1519    1520    1464    1463    1441    1442
       8    1543    1542    1520    1521    1465    1464    1442    1443
       8    1544    1543    1521    1522    1466    1465    1443    1444
       8    1545    1544    1522    1523    1467    1466    1444    1445
       8    1546    1545    1523    1524    1468    1467    1445    1446
       8    1547    1546    1524    1503    1469    1468    1446    1425
       8    1548    1547    1503    1502    1470    1469    1425    1424
       8    1549    1548    1502    1504    1471    1470    1424    1426
       8    1550    1549    1504    1525    1472    1471    1426    1447
       8    1551    1550    1525    1526    1473    1472    1447    1448
       8    1552    1551    1526    1527    1474    1473    1448    1449
       8    1553    1552    1527    1528    1475    1474    1449    1450
       8    1554    1553    1528    1529    1476    1475    1450    1451
       8    1555    1554    1529    1530    1477    1476    1451    1452
       8    1556    1555    1530    1531    1478    1477    1452    1453
       8    1557    1556    1531    1532    1479    1478    1453    1454
       8    1558    1557    1532    1533    1480    1479    1454    1455
       8    1559    1558    1533    1487    1481    1480    1455    1409
       8    1535    1559    1487    1486    1457    1481    1409    1408
       8    1560    1561    1562    1563    1482    1483    1484    1485
       8    1562    1564    1565    1563    1484    1486    1487    1485
       8    1566    1561    1560    1567    1488    1483    1482    1489
       8    1560    1568    1569    1567    1482    1490    1491    1489
       8    1570    1571    1572    1566    1492    1493    1494    1488
       8    1573    1574    1571    1570    1495    1496    1493    1492
       8    1567    1573    1570    1566    1489    1495    1492    1488
       8    1575    1576    1568    1577    1497    1498    1490    1499
       8    1578    1579    1576    1575    1500    1501    1498    1497
       8    1580    1581    1579    1578    1502    1503    1501    1500
       8    1582    1580    1578    1583    1504    1502    1500    1505
       8    1584    1569    1568    1576    1506    1491    1490    1498
       8    1575    1585    1583    1578    1497    1507    1505    1500
       8    1560    1563    1577    1568    1482    1485    1499    1490
       8    1586    1573    1567    1569    1508    1495    1489    1491
       8    1587    1586    1569    1584    1509    1508    1491    1506
       8    1588    1587    1584    1589    1510    1509    1506    1511
       8    1579    1589    1584    1576    1501    1511    1506    1498
       8    1590    1591    1585    1575    1512    1513    1507    1497
       8    1592    1590    1575    1577    1514    1512    1497    1499
       8    1593    1592    1577    1563    1515    1514    1499    1485
       8    1594    1564    1562    1595    1516    1486    1484    1517
       8    1596    1595    1562    1561    1518    1517    1484    1483
       8    1572    1596    1561    1566    1494    1518    1483    1488
       8    1597    1574    1573    1586    1519    1496    1495    1508
       8    1598    1597    1586    1587    1520    1519    1508    1509
       8    1599    1598    1587    1588    1521    1520    1509    1510
       8    1600    1599    1588    1601    1522    1521    1510    1523
       8    1602    1601    1588    1589    1524    1523    1510    1511
       8    1581    1602    1589    1579    1503    1524    1511    1501
       8    1603    1582    1583    1585    1525    1504    1505    1507
       8    1604    1603    1585    1591    1526    1525    1507    1513
       8    1605    1604    1591    1606    1527    1526    1513    1528
       8    1607    1606    1591    1590    1529    1528    1513    1512
       8    1608    1607    1590    1592    1530    1529    1512    1514
       8    1609    1608    1592    1593    1531    1530    1514    1515
       8    1610    1609    1593    1611    1532    1531    1515    1533
       8    1565    1611    1593    1563    1487    1533    1515    1485
       8    1612    1613    1564    1594    1534    1535    1486    1516
       8    1614    1612    1594    1595    1536    1534    1516    1517
       8    1615    1614    1595    1596    1537    1536    1517    1518
       8    1616    1615    1596    1572    1538    1537    1518    1494
       8    1617    1616    1572    1571    1539    1538    1494    1493
       8    1618    1617    1571    1574    1540    1539    1493    1496
       8    1619    1618    1574    1597    1541    1540    1496    1519
       8    1620    1619    1597    1598    1542    1541    1519    1520
       8    1621    1620    1598    1599    1543    1542    1520    1521
       8    1622    1621    1599    1600    1544    1543    1521    1522
       8    1623    1622    1600    1601    1545    1544    1522    1523
       8    1624    1623    1601    1602    1546    1545    1523    1524
       8    1625    1624    1602    1581    1547    1546    1524    1503
       8    1626    1625    1581    1580    1548    1547    1503    1502
       8    1627    1626    1580    1582    1549    1548    1502    1504
       8    1628    1627    1582    1603    1550    1549    1504    1525
       8    1629    1628    1603    1604    1551    1550    1525    1526
       8    1630    1629    1604    1605    1552    1551    1526    1527
       8    1631    1630    1605    1606    1553    1552    1527    1528
       8    1632    1631    1606    1607    1554    1553    1528    1529
       8    1633    1632    1607    1608    1555    1554    1529    1530
       8    1634    1633    1608    1609    1556    1555    1530    1531
       8    1635    1634    1609    1610    1557    1556    1531    1532
       8    1636    1635    1610    1611    1558    1557    1532    1533
       8    1637    1636    1611    1565    1559    1558    1533    1487
       8    1613    1637    1565    1564    1535    1559    1487    1486
       8    1638    1639    1640    1641    1560    1561    1562    1563
       8    1640    1642    1643    1641    1562    1564    1565    1563
       8    1644    1639    1638    1645    1566    1561    1560    1567
       8    1638    1646    1647    1645    1560    1568    1569    1567
       8    1648    1649    1650    1644    1570    1571    1572    1566
       8    1651    1652    1649    1648    1573    1574    1571    1570
       8    1645    1651    1648    1644    1567    1573    1570    1566
       8    1653    1654    1646    1655    1575    1576    1568    1577
       8    1656    1657    1654    1653    1578    1579    1576    1575
       8    1658    1659    1657    1656    1580    1581    1579    1578
       8    1660    1658    1656    1661    1582    1580    1578    1583
       8    1662    1647    1646    1654    1584    1569    1568    1576
       8    1653    1663    1661    1656    1575    1585    1583    1578
       8    1638    1641    1655    1646    1560    1563    1577    1568
       8    1664    1651    1645    1647    1586    1573    1567    1569
       8    1665    1664    1647    1662    1587    1586    1569    1584
       8    1666    1665    1662    1667    1588    1587    1584    1589
       8    1657    1667    1662    1654    1579    1589    1584    1576
       8    1668    1669    1663    1653    1590    1591    1585    1575
       8    1670    1668    1653    1655    1592    1590    1575    1577
       8    1671    1670    1655    1641    1593    1592    1577    1563
       8    1672    1642    1640    1673    1594    1564    1562    1595
       8    1674    1673    1640    1639    1596    1595    1562    1561
       8    1650    1674    1639    1644    1572    1596    1561    1566
       8    1675    1652    1651    1664    1597    1574    1573    1586
       8    1676    1675    1664    1665    1598    1597    1586    1587
       8    1677    1676    1665    1666    1599    1598    1587    1588
       8    1678    1677    1666    1679    1600    1599    1588    1601
       8    1680    1679    1666    1667    1602    1601    1588    1589
       8    1659    1680    1667    1657    1581    1602    1589    1579
       8    1681    1660    1661    1663    1603    1582    1583    1585
       8    1682    1681    1663    1669    1604    1603    1585    1591
       8    1683    1682    1669    1684    1605    1604    1591    1606
       8    1685    1684    1669    1668    1607    1606    1591    1590
       8    1686    1685    1668    1670    1608    1607    1590    1592
       8    1687    1686    1670    1671    1609    1608    1592    1593
       8    1688    1687    1671    1689    1610    1609    1593    1611
       8    1643    1689    1671    1641    1565    1611    1593    1563
       8    1690    1691    1642    1672    1612    1613    1564    1594
       8    1692    1690    1672    1673    1614    1612    1594    1595
       8    1693    1692    1673    1674    1615    1614    1595    1596
       8    1694    1693    1674    1650    1616    1615    1596    1572
       8    1695    1694    1650    1649    1617    1616    1572    1571
       8    1696    1695    1649    1652    1618    1617    1571    1574
       8    1697    1696    1652    1675    1619    1618    1574    1597
       8    1698    1697    1675    1676    1620    1619    1597    1598
       8    1699    1698    1676    1677    1621    1620    1598    1599
       8    1700    1699    1677    1678    1622    1621    1599    1600
       8    1701    1700    1678    1679    1623    1622    1600    1601
       8    1702    1701    1679    1680    1624    1623    1601    1602
       8    1703    1702    1680    1659    1625    1624    1602    1581
       8    1704    1703    1659    1658    1626    1625    1581    1580
       8    1705    1704    1658    1660    1627    1626    1580    1582
       8    1706    1705    1660    1681    1628    1627    1582    1603
       8    1707    1706    1681    1682    1629    1628    1603    1604
       8    1708    1707    1682    1683    1630    1629    1604    1605
       8    1709    1708    1683    1684    1631    1630    1605    1606
       8    1710    1709    1684    1685    1632    1631    1606    1607
       8    1711    1710    1685    1686    1633    1632    1607    1608
       8    1712    1711    1686    1687    1634    1633    1608    1609
       8    1713    1712    1687    1688    1635    1634    1609    1610
       8    1714    1713    1688    1689    1636    1635    1610    1611
       8    1715    1714    1689    1643    1637    1636    1611    1565
       8    1691    1715    1643    1642    1613    1637    1565    1564
       8    1716    1717    1718    1719    1638    1639    1640    1641
       8    1718    1720    1721    1719    1640    1642    1643    1641
       8    1722    1717    1716    1723    1644    1639    1638    1645
       8    1716    1724    1725    1723    1638    1646    1647    1645
       8    1726    1727    1728    1722    1648    1649    1650    1644
       8    1729    1730    1727    1726    1651    1652    1649    1648
       8    1723    1729    1726    1722    1645    1651    1648    1644
       8    1731    1732    1724    1733    1653    1654    1646    1655
       8    1734    1735    1732    1731    1656    1657    1654    1653
       8    1736    1737    1735    1734    1658    1659    1657    1656
       8    1738    1736    1734    1739    1660    1658    1656    1661
       8    1740    1725    1724    1732    1662    1647    1646    1654
       8    1731    1741    1739    1734    1653    1663    1661    1656
       8    1716    1719    1733    1724    1638    1641    1655    1646
       8    1742    1729    1723    1725    1664    1651    1645    1647
       8    1743    1742    1725    1740    1665    1664    1647    1662
       8    1744    1743    1740    1745    1666    1665    1662    1667
       8    1735    1745    1740    1732    1657    1667    1662    1654
       8    1746    1747    1741    1731    1668    1669    1663    1653
       8    1748    1746    1731    1733    1670    1668    1653    1655
       8    1749    1748    1733    1719    1671    1670    1655    1641
       8    1750    1720    1718    1751    1672    1642    1640    1673
       8    1752    1751    1718    1717    1674    1673    1640    1639
       8    1728    1752    1717    1722    1650    1674    1639    1644
       8    1753    1730    1729    1742    1675    1652    1651    1664
       8    1754    1753    1742    1743    1676    1675    1664    1665
       8    1755    1754    1743    1744    1677    1676    1665    1666
       8    1756    1755    1744    1757    1678    1677    1666    1679
       8    1758    1757    1744    1745    1680    1679    1666    1667
       8    1737    1758    1745    1735    1659    1680    1667    1657
       8    1759    1738    1739    1741    1681    1660    1661    1663
       8    1760    1759    1741    1747    1682    1681    1663    1669
       8    1761    1760    1747    1762    1683    1682    1669    1684
       8    1763    1762    1747    1746    1685    1684    1669    1668
       8    1764    1763    1746    1748    1686    1685    1668    1670
       8    1765    1764    1748    1749    1687    1686    1670    1671
       8    1766    1765    1749    1767    1688    1687    1671    1689
       8    1721    1767    1749    1719    1643    1689    1671    1641
       8    1768    1769    1720    1750    1690    1691    1642    1672
       8    1770    1768    1750    1751    1692    1690    1672    1673
       8    1771    1770    1751    1752    1693    1692    1673    1674
       8    1772    1771    1752    1728    1694    1693    1674    1650
       8    1773    1772    1728    1727    1695    1694    1650    1649
       8    1774    1773    1727    1730    1696    1695    1649    1652
       8    1775    1774    1730    1753    1697    1696    1652    1675
       8    1776    1775    1753    1754    1698    1697    1675    1676
       8    1777    1776    1754    1755    1699    1698    1676    1677
       8    1778    1777    1755    1756    1700    1699    1677    1678
       8    1779    1778    1756    1757    1701    1700    1678    1679
       8    1780    1779    1757    1758    1702    1701    1679    1680
       8    1781    1780    1758    1737    1703    1702    1680    1659
       8    1782    1781    1737    1736    1704    1703    1659    1658
       8    1783    1782    1736    1738    1705    1704    1658    1660
       8    1784    1783    1738    1759    1706    1705    1660    1681
       8    1785    1784    1759    1760    1707    1706    1681    1682
       8    1786    1785    1760    1761    1708    1707    1682    1683
       8    1787    1786    1761    1762    1709    1708    1683    1684
       8    1788    1787    1762    1763    1710    1709    1684    1685
       8    1789    1788    1763    1764    1711    1710    1685    1686
       8    1790    1789    1764    1765    1712    1711    1686    1687
       8    1791    1790    1765    1766    1713    1712    1687    1688
       8    1792    1791    1766    1767    1714    1713    1688    1689
       8    1793    1792    1767    1721    1715    1714    1689    1643
       8    1769    1793    1721    1720    1691    1715    1643    1642
       8    1794    1795    1796    1797    1716    1717    1718    1719
       8    1796    1798    1799    1797    1718    1720    1721    1719
       8    1800    1795    1794    1801    1722    1717    1716    1723
       8    1794    1802    1803    1801    1716    1724    1725    1723
       8    1804    1805    1806    1800    1726    1727    1728    1722
       8    1807    1808    1805    1804    1729    1730    1727    1726
       8    1801    1807    1804    1800    1723    1729    1726    1722
       8    1809    1810    1802    1811    1731    1732    1724    1733
       8    1812    1813    1810    1809    1734    1735    1732    1731
       8    1814    1815    1813    1812    1736    1737    1735    1734
       8    1816    1814    1812    1817    1738    1736    1734    1739
       8    1818    1803    1802    1810    1740    1725    1724    1732
       8    1809    1819    1817    1812    1731    1741    1739    1734
       8    1794    1797    1811    1802    1716    1719    1733    1724
       8    1820    1807    1801    1803    1742    1729    1723    1725
       8    1821    1820    1803    1818    1743    1742    1725    1740
       8    1822    1821    1818    1823    1744    1743    1740    1745
       8    1813    1823    1818    1810    1735    1745    1740    1732
       8    1824    1825    1819    1809    1746    1747    1741    1731
       8    1826    1824    1809    1811    1748    1746    1731    1733
       8    1827    1826    1811    1797    1749    1748    1733    1719
       8    1828    1798    1796    1829    1750    1720    1718    1751
       8    1830    1829    1796    1795    1752    1751    1718    1717
       8    1806    1830    1795    1800    1728    1752    1717    1722
       8    1831    1808    1807    1820    1753    1730    1729    1742
       8    1832    1831    1820    1821    1754    1753    1742    1743
       8    1833    1832    1821    1822    1755    1754    1743    1744
       8    1834    1833    1822    1835    1756    1755    1744    1757
       8    1836    1835    1822    1823    1758    1757    1744    1745
       8    1815    1836    1823    1813    1737    1758    1745    1735
       8    1837    1816    1817    1819    1759    1738    1739    1741
       8    1838    1837    1819    1825    1760    1759    1741    1747
       8    1839    1838    1825    1840    1761    1760    1747    1762
       8    1841    1840    1825    1824    1763    1762    1747    1746
       8    1842    1841    1824    1826    1764    1763    1746    1748
       8    1843    1842    1826    1827    1765    1764    1748    1749
       8    1844    1843    1827    1845    1766    1765    1749    1767
       8    1799    1845    1827    1797    1721    1767    1749    1719
       8    1846    1847    1798    1828    1768    1769    1720    1750
       8    1848    1846    1828    1829    1770    1768    1750    1751
       8    1849    1848    1829    1830    1771    1770    1751    1752
       8    1850    1849    1830    1806    1772    1771    1752    1728
       8    1851    1850    1806    1805    1773    1772    1728    1727
       8    1852    1851    1805    1808    1774    1773    1727    1730
       8    1853    1852    1808    1831    1775    1774    1730    1753
       8    1854    1853    1831    1832    1776    1775    1753    1754
       8    1855    1854    1832    1833    1777    1776    1754    1755
       8    1856    1855    1833    1834    1778    1777    1755    1756
       8    1857    1856    1834    1835    1779    1778    1756    1757
       8    1858    1857    1835    1836    1780    1779    1757    1758
       8    1859    1858    1836    1815    1781    1780    1758    1737
       8    1860    1859    1815    1814    1782    1781    1737    1736
       8    1861    1860    1814    1816    1783    1782    1736    1738
       8    1862    1861    1816    1837    1784    1783    1738    1759
       8    1863    1862    1837    1838    1785    1784    1759    1760
       8    1864    1863    1838    1839    1786    1785    1760    1761
       8    1865    1864    1839    1840    1787    1786    1761    1762
       8    1866    1865    1840    1841    1788    1787    1762    1763
       8    1867    1866    1841    1842    1789    1788    1763    1764
       8    1868    1867    1842    1843    1790    1789    1764    1765
       8    1869    1868    1843    1844    1791    1790    1765    1766
       8    1870    1869    1844    1845    1792    1791    1766    1767
       8    1871    1870    1845    1799    1793    1792    1767    1721
       8    1847    1871    1799    1798    1769    1793    1721    1720
       8    1872    1873    1874    1875    1794    1795    1796    1797
       8    1874    1876    1877    1875    1796    1798    1799    1797
       8    1878    1873    1872    1879    1800    1795    1794    1801
       8    1872    1880    1881    1879    1794    1802    1803    1801
       8    1882    1883    1884    1878    1804    1805    1806    1800
       8    1885    1886    1883    1882    1807    1808    1805    1804
       8    1879    1885    1882    1878    1801    1807    1804    1800
       8    1887    1888    1880    1889    1809    1810    1802    1811
       8    1890    1891    1888    1887    1812    1813    1810    1809
       8    1892    1893    1891    1890    1814    1815    1813    1812
       8    1894    1892    1890    1895    1816    1814    1812    1817
       8    1896    1881    1880    1888    1818    1803    1802    1810
       8    1887    1897    1895    1890    1809    1819    1817    1812
       8    1872    1875    1889    1880    1794    1797    1811    1802
       8    1898    1885    1879    1881    1820    1807    1801    1803
       8    1899    1898    1881    1896    1821    1820    1803    1818
       8    1900    1899    1896    1901    1822    1821    1818    1823
       8    1891    1901    1896    1888    1813    1823    1818    1810
       8    1902    1903    1897    1887    1824    1825    1819    1809
       8    1904    1902    1887    1889    1826    1824    1809    1811
       8    1905    1904    1889    1875    1827    1826    1811    1797
       8    1906    1876    1874    1907    1828    1798    1796    1829
       8    1908    1907    1874    1873    1830    1829    1796    1795
       8    1884    1908    1873    1878    1806    1830    1795    1800
       8    1909    1886    1885    1898    1831    1808    1807    1820
       8    1910    1909    1898    1899    1832    1831    1820    1821
       8    1911    1910    1899    1900    1833    1832    1821    1822
       8    1912    1911    1900    1913    1834    1833    1822    1835
       8    1914    1913    1900    1901    1836    1835    1822    1823
       8    1893    1914    1901    1891    1815    1836    1823    1813
       8    1915    1894    1895    1897    1837    1816    1817    1819
       8    1916    1915    1897    1903    1838    1837    1819    1825
       8    1917    1916    1903    1918    1839    1838    1825    1840
       8    1919    1918    1903    1902    1841    1840    1825    1824
       8    1920    1919    1902    1904    1842    1841    1824    1826
       8    1921    1920    1904    1905    1843    1842    1826    1827
       8    1922    1921    1905    1923    1844    1843    1827    1845
       8    1877    1923    1905    1875    1799    1845    1827    1797
       8    1924    1925    1876    1906    1846    1847    1798    1828
       8    1926    1924    1906    1907    1848    1846    1828    1829
       8    1927    1926    1907    1908    1849    1848    1829    1830
       8    1928    1927    1908    1884    1850    1849    1830    1806
       8    1929    1928    1884    1883    1851    1850    1806    1805
       8    1930    1929    1883    1886    1852    1851    1805    1808
       8    1931    1930    1886    1909    1853    1852    1808    1831
       8    1932    1931    1909    1910    1854    1853    1831    1832
       8    1933    1932    1910    1911    1855    1854    1832    1833
       8    1934    1933    1911    1912    1856    1855    1833    1834
       8    1935    1934    1912    1913    1857    1856    1834    1835
       8    1936    1935    1913    1914    1858    1857    1835    1836
       8    1937    1936    1914    1893    1859    1858    1836    1815
       8    1938    1937    1893    1892    1860    1859    1815    1814
       8    1939    1938    1892    1894    1861    1860    1814    1816
       8    1940    1939    1894    1915    1862    1861    1816    1837
       8    1941    1940    1915    1916    1863    1862    1837    1838
       8    1942    1941    1916    1917    1864    1863    1838    1839
       8    1943    1942    1917    1918    1865    1864    1839    1840
       8    1944    1943    1918    1919    1866    1865    1840    1841
       8    1945    1944    1919    1920    1867    1866    1841    1842
       8    1946    1945    1920    1921    1868    1867    1842    1843
       8    1947    1946    1921    1922    1869    1868    1843    1844
       8    1948    1947    1922    1923    1870    1869    1844    1845
       8    1949    1948    1923    1877    1871    1870    1845    1799
       8    1925    1949    1877    1876    1847    1871    1799    1798
  
CELL_TYPES    3486
       1
       1
       1
       1
       1
       1
       1
       1
       1
       1
       1
       1
       1
       1
       1
       1
       1
       1
       1
       1
       1
       1
       1
       1
       1
       1
       1
       1
       1
       1
       1
       1
       1
       1
       1
       1
       1
       1
       1
       1
       1
       1
       1
       1
       1
       1
       1
       1
       1
       1
       1
       1
       1
       1
       1
       1
       1
       1
       1
       1
       1
       1
       1
       1
       1
       1
       1
       1
       1
       1
       1
       1
       1
       1
       1
       1
       1
       1
       1
       1
       1
       1
       1
       1
       1
       1
       1
       1
       1
       1
       1
       1
       1
       1
       1
       1
       1
       1
       1
       1
       1
       1
       1
       1
       1
       1
       1
       1
       1
       1
       1
       1
       1
       1
       1
       1
       1
       1
       1
       1
       1
       1
       1
       1
       1
       1
       1
       1
       1
       1
       1
       1
       1
       1
       1
       1
       1
       1
       1
       1
       1
       1
       1
       1
       1
       1
       1
       1
       1
       1
       1
       1
       1
       1
       1
       1
       1
       1
       1
       1
       1
       1
       1
       1
       1
       1
       1
       1
       1
       1
       1
       1
       1
       1
       1
       1
       1
       1
       1
       1
       1
       1
       1
       1
       1
       1
       1
       1
       1
       1
       1
       1
       1
       1
       1
       1
       1
       1
       1
       1
       1
       1
       1
       1
       1
       1
       1
       1
       1
       1
       1
       1
       1
       1
       1
       1
       1
       1
       1
       1
       1
       1
       1
       1
       1
       1
       1
       1
       1
       1
       1
       1
       1
       1
       1
       1
       1
       1
       1
       1
       1
       1
       1
       1
       1
       1
       1
       1
       1
       1
       1
       1
       1
       1
       1
       1
       1
       1
       1
       1
       1
       1
       1
       1
       1
       1
       1
       1
       1
       1
       1
       1
       1
       1
       1
       1
       1
       1
       1
       1
       1
       1
       1
       1
       1
       1
       1
       1
       1
       1
       1
       1
       1
       1
       1
       1
       1
       1
       1
       1
       1
       1
       1
       1
       1
       1
       1
       1
       1
       1
       1
       1
       1
       1
       1
       1
       1
       1
       1
       1
       1
       1
       1
       1
       1
       1
       1
       1
       1
       1
       1
       1
       1
       1
       1
       1
       1
       1
       1
       1
       1
       1
       1
       1
       1
       1
       1
       1
       1
       1
       1
       1
       1
       1
       1
       1
       1
       1
       1
       1
       1
       1
       1
       1
       1
       1
       1
       1
       1
       1
       1
       1
       1
       1
       1
       1
       1
       1
       1
       1
       1
       1
       1
       1
       1
       1
       1
       1
       1
       1
       1
       1
       1
       1
       1
       1
       1
       1
       1
       1
       1
       1
       1
       1
       1
       1
       1
       1
       1
       1
       1
       1
       1
       1
       1
       1
       1
       1
       1
       1
       1
       1
       1
       1
       1
       1
       1
       1
       1
       1
       1
       1
       1
       1
       1
       1
       1
       1
       1
       1
       1
       1
       1
       1
       1
       1
       1
       1
       1
       1
       1
       1
       1
       1
       1
       1
       1
       1
       1
       1
       1
       1
       1
       1
       1
       1
       1
       1
       1
       1
       1
       1
       1
       1
       1
       1
       1
       1
       1
       1
       1
       1
       1
       1
       1
       1
       1
       1
       1
       1
       1
       1
       1
       1
       1
       1
       1
       1
       1
       1
       1
       1
       1
       1
       1
       1
       1
       1
       1
       1
       1
       1
       1
       1
       1
       1
       1
       1
       1
       1
       1
       1
       1
       1
       1
       1
       1
       1
       1
       1
       1
       1
       1
       1
       1
       1
       1
       1
       1
       1
       1
       1
       1
       1
       1
       1
       1
       1
       1
       1
       1
       1
       1
       1
       1
       1
       1
       1
       1
       1
       1
       1
       1
       1
       1
       1
       1
       1
       1
       1
       1
       1
       1
       1
       1
       1
       1
       1
       1
       1
       1
       1
       1
       1
       1
       1
       1
       1
       1
       1
       1
       1
       1
       1
       1
       1
       1
       1
       1
       1
       1
       1
       1
       1
       1
       1
       1
       1
       1
       1
       1
       1
       1
       1
       1
       1
       1
       1
       1
       1
       1
       1
       1
       1
       1
       1
       1
       1
       1
       1
       1
       1
       1
       1
       1
       1
       1
       1
       1
       1
       1
       1
       1
       1
       1
       1
       1
       1
       1
       1
       1
       1
       1
       1
       1
       1
       1
       1
       1
       1
       1
       1
       1
       1
       1
       1
       1
       1
       1
       1
       1
       1
       1
       1
       1
       1
       1
       1
       1
       1
       1
       1
       1
       1
       1
       1
       1
       1
       1
       1
       1
       1
       1
       1
       1
       1
       1
       1
       1
       1
       1
       1
       1
       1
       1
       1
       1
       1
       1
       1
       1
       1
       1
       1
       1
       1
       1
       1
       1
       1
       1
       1
       1
       1
       1
       1
       1
       1
       1
       1
       1
       1
       1
       1
       1
       1
       1
       1
       1
       1
       1
       1
       1
       1
       1
       1
       1
       1
       1
       1
       1
       1
       1
       1
       1
       1
       1
       1
       1
       1
       1
       1
       1
       1
       1
       1
       1
       1
       1
       1
       1
       1
       1
       1
       1
       1
       1
       1
       1
       1
       1
       1
       1
       1
       1
       1
       1
       1
       1
       1
       1
       1
       1
       1
       1
       1
       1
       1
       1
       1
       1
       1
       1
       1
       1
       1
       1
       1
       1
       1
       1
       1
       1
       1
       1
       1
       1
       1
       1
       1
       1
       1
       1
       1
       1
       1
       1
       1
       1
       1
       1
       1
       1
       1
       1
       1
       1
       1
       1
       1
       1
       1
       1
       1
       1
       1
       1
       1
       1
       1
       1
       1
       1
       1
       1
       1
       1
       1
       1
       1
       1
       1
       1
       1
       1
       1
       1
       1
       1
       1
       1
       1
       1
       1
       1
       1
       1
       1
       1
       1
       1
       1
       1
       1
       1
       1
       1
       1
       1
       1
       1
       1
       1
       1
       1
       1
       1
       1
       1
       1
       1
       1
       1
       1
       1
       1
       1
       1
       1
       1
       1
       1
       1
       1
       1
       1
       1
       1
       1
       1
       1
       1
       1
       1
       1
       1
       1
       1
       1
       1
       1
       1
       1
       1
       1
       1
       1
       1
       1
       1
       1
       1
       1
       1
       1
       1
       1
       1
       1
       1
       1
       1
       1
       1
       1
       1
       1
       1
       1
       1
       1
       1
       1
       1
       1
       1
       1
       1
       1
       1
       1
       1
       1
       1
       1
       1
       1
       1
       1
       1
       1
       1
       1
       1
       1
       1
       1
       1
       1
       1
       1
       1
       1
       1
       1
       1
       1
       1
       1
       1
       1
       1
       1
       1
       1
       1
       1
       1
       1
       1
       1
       1
       1
       1
       1
       1
       1
       1
       1
       1
       1
       1
       1
       1
       1
       1
       1
       1
       1
       1
       1
       1
       1
       1
       1
       1
       1
       1
       1
       1
       1
       1
       1
       1
       1
       1
       1
       1
       1
       1
       1
       1
       1
       1
       1
       1
       1
       1
       1
       1
       1
       1
       1
       1
       1
       1
       1
       1
       1
       1
       1
       1
       1
       1
       1
       1
       1
       1
       1
       1
       1
       1
       1
       1
       1
       1
       1
       1
       1
       1
       1
       1
       1
       1
       1
       1
       1
       1
       1
       1
       1
       1
       1
       1
       1
       1
       1
       1
       1
       1
       1
       1
       1
       1
       1
       1
       1
       1
       1
       1
       1
       1
       1
       1
       1
       1
       1
       1
       1
       1
       1
       1
       1
       1
       1
       1
       1
       1
       1
       1
       1
       1
       1
       1
       1
       1
       1
       1
       1
       1
       1
       1
       1
       1
       1
       1
       1
       1
       1
       1
       1
       1
       1
       1
       1
       1
       1
       1
       1
       1
       1
       1
       1
       1
       1
       1
       1
       1
       1
       1
       1
       1
       1
       1
       1
       1
       1
       1
       1
       1
       1
       1
       1
       1
       1
       1
       1
       1
       1
       1
       1
       1
       1
       1
       1
       1
       1
       1
       1
       1
       1
       1
       1
       1
       1
       1
       1
       1
       1
       1
       1
       1
       1
       1
       1
       1
       1
       1
       1
       1
       1
       1
       1
       1
       1
       1
       1
       1
       1
       1
       1
       1
       1
       1
       1
       1
       1
       1
       1
       1
       1
       1
       1
       1
       1
       1
       1
       1
       1
       1
       1
       1
       1
       1
       1
       1
       1
       1
       1
       1
       1
       1
       1
       1
       1
       1
       1
       1
       1
       1
       1
       1
       1
       1
       1
       1
       1
       1
       1
       1
       1
       1
       1
       1
       1
       1
       1
       1
       1
       1
       1
       1
       1
       1
       1
       1
       1
       1
       1
       1
       1
       1
       1
       1
       1
       1
       1
       1
       1
       1
       1
       1
       1
       1
       1
       1
       1
       1
       1
       1
       1
       1
       1
       1
       1
       1
       1
       1
       1
       1
       1
       1
       1
       1
       1
       1
       1
       1
       1
       1
       1
       1
       1
       1
       1
       1
       1
       1
       1
       1
       1
       1
       1
       1
       1
       1
       1
       1
       1
       1
       1
       1
       1
       1
       1
       1
       1
       1
       1
       1
       1
       1
       1
       1
       1
       1
       1
       1
       1
       1
       1
       1
       1
       1
       1
       1
       1
       1
       1
       1
       1
       1
       1
       1
       1
       1
       1
       1
       1
       1
       1
       1
       1
       1
       1
       1
       1
       1
       1
       1
       1
       1
       1
       1
       1
       1
       1
       1
       1
       1
       1
       1
       1
       1
       1
       1
       1
       1
       1
       1
       1
       1
       1
       1
       1
       1
       1
       1
       1
       1
       1
       1
       1
       1
       1
       1
       1
       1
       1
       1
       1
       1
       1
       1
       1
       1
       1
       1
       1
       1
       1
       1
       1
       1
       1
       1
       1
       1
       1
       1
       1
       1
       1
       1
       1
       1
       1
       1
       1
       1
       1
       1
       1
       1
       1
       1
       1
       1
       1
       1
       1
       1
       1
       1
       1
       1
       1
       1
       1
       1
       1
       1
       1
       1
       1
       1
       1
       1
       1
       1
       1
       1
       1
       1
       1
       1
       1
       1
       1
       1
       1
       1
       1
       1
       1
       1
       1
       1
       1
       1
       1
       1
       1
       1
       1
       1
       1
       1
       1
       1
       1
       1
       1
       1
       1
       1
       1
       1
       1
       1
       1
       1
       1
       1
       1
       1
       1
       1
       1
       1
       1
       1
       1
       1
       1
       1
       1
       1
       1
       1
       1
       1
       1
       1
       1
       1
       1
       1
       1
       1
       1
       1
       1
       1
       1
       1
       1
       1
       1
       1
       1
       1
       1
       1
       1
       1
       1
       1
       1
       1
       1
       1
       1
       1
       1
       1
       1
       1
       1
       1
       1
       1
       1
       1
       1
       1
       1
       1
       1
       1
       1
       1
       1
       1
       1
       1
       1
       1
       1
       1
       1
       1
       1
       1
       1
       1
       1
       1
       1
       1
       1
       1
       1
       1
       1
       1
       1
       1
       1
       1
       1
       1
       1
       1
       1
       1
       1
       1
       1
       1
       1
       1
       1
       1
       1
       1
       1
       1
       1
       1
       1
       1
       1
       1
       1
       1
       1
       1
       1
       1
       1
       1
       1
       1
       1
       1
       1
       1
       1
       1
       1
       1
       1
       1
       1
       1
       1
       1
       1
       1
       1
       1
       1
       1
       1
       1
       1
       1
       1
       1
       1
       1
       1
       1
       1
       1
       1
       1
       1
       1
       1
       1
       1
       1
       1
       1
       1
       1
       1
       1
       1
       1
       1
       1
       1
       1
       1
       1
       1
       1
       1
       1
       1
       1
       1
       1
       1
       1
       1
       1
       1
       1
       1
       1
       1
       1
       1
       1
       1
       1
       1
       1
       1
       1
       1
       1
       1
       1
       1
       1
       1
       1
       1
       1
       1
       1
       1
       1
       1
       1
       1
       1
       1
       1
       1
       1
       1
       1
       1
       1
       1
       1
       1
       1
       1
       1
       1
       1
       1
       1
       1
       1
       1
       1
       1
       1
       1
       1
       1
       1
       1
       1
       1
       1
       1
       1
       1
       1
       1
       1
       1
       1
       1
       1
       1
       1
       1
       1
       1
       1
       1
       1
       1
       1
       1
       1
       1
       1
       1
       1
       1
       1
       1
       1
       1
       1
       1
       1
       1
       1
       1
       1
       1
       1
       1
       1
       1
       1
       1
       1
       1
       1
       1
       1
       1
       1
       1
       1
       1
       1
       1
       1
       1
       1
       1
       1
       1
       1
       1
       1
       1
       1
       1
       1
       1
       1
       1
       1
       1
       1
       1
       1
       1
       1
       1
       1
       1
       1
       1
       1
       1
       1
       1
       1
       1
       1
       1
       1
       1
       1
       1
       1
       1
       1
       1
       1
       1
       1
       1
       1
       1
       1
       1
       1
       1
       1
       1
       1
       1
       1
       1
       1
       1
       1
       1
       1
       1
       1
       1
       1
      12
      12
      12
      12
      12
      12
      12
      12
      12
      12
      12
      12
      12
      12
      12
      12
      12
      12
      12
      12
      12
      12
      12
      12
      12
      12
      12
      12
      12
      12
      12
      12
      12
      12
      12
      12
      12
      12
      12
      12
      12
      12
      12
      12
      12
      12
      12
      12
      12
      12
      12
      12
      12
      12
      12
      12
      12
      12
      12
      12
      12
      12
      12
      12
      12
      12
      12
      12
      12
      12
      12
      12
      12
      12
      12
      12
      12
      12
      12
      12
      12
      12
      12
      12
      12
      12
      12
      12
      12
      12
      12
      12
      12
      12
      12
      12
      12
      12
      12
      12
      12
      12
      12
      12
      12
      12
      12
      12
      12
      12
      12
      12
      12
      12
      12
      12
      12
      12
      12
      12
      12
      12
      12
      12
      12
      12
      12
      12
      12
      12
      12
      12
      12
      12
      12
      12
      12
      12
      12
      12
      12
      12
      12
      12
      12
      12
      12
      12
      12
      12
      12
      12
      12
      12
      12
      12
      12
      12
      12
      12
      12
      12
      12
      12
      12
      12
      12
      12
      12
      12
      12
      12
      12
      12
      12
      12
      12
      12
      12
      12
      12
      12
      12
      12
      12
      12
      12
      12
      12
      12
      12
      12
      12
      12
      12
      12
      12
      12
      12
      12
      12
      12
      12
      12
      12
      12
      12
      12
      12
      12
      12
      12
      12
      12
      12
      12
      12
      12
      12
      12
      12
      12
      12
      12
      12
      12
      12
      12
      12
      12
      12
      12
      12
      12
      12
      12
      12
      12
      12
      12
      12
      12
      12
      12
      12
      12
      12
      12
      12
      12
      12
      12
      12
      12
      12
      12
      12
      12
      12
      12
      12
      12
      12
      12
      12
      12
      12
      12
      12
      12
      12
      12
      12
      12
      12
      12
      12
      12
      12
      12
      12
      12
      12
      12
      12
      12
      12
      12
      12
      12
      12
      12
      12
      12
      12
      12
      12
      12
      12
      12
      12
      12
      12
      12
      12
      12
      12
      12
      12
      12
      12
      12
      12
      12
      12
      12
      12
      12
      12
      12
      12
      12
      12
      12
      12
      12
      12
      12
      12
      12
      12
      12
      12
      12
      12
      12
      12
      12
      12
      12
      12
      12
      12
      12
      12
      12
      12
      12
      12
      12
      12
      12
      12
      12
      12
      12
      12
      12
      12
      12
      12
      12
      12
      12
      12
      12
      12
      12
      12
      12
      12
      12
      12
      12
      12
      12
      12
      12
      12
      12
      12
      12
      12
      12
      12
      12
      12
      12
      12
      12
      12
      12
      12
      12
      12
      12
      12
      12
      12
      12
      12
      12
      12
      12
      12
      12
      12
      12
      12
      12
      12
      12
      12
      12
      12
      12
      12
      12
      12
      12
      12
      12
      12
      12
      12
      12
      12
      12
      12
      12
      12
      12
      12
      12
      12
      12
      12
      12
      12
      12
      12
      12
      12
      12
      12
      12
      12
      12
      12
      12
      12
      12
      12
      12
      12
      12
      12
      12
      12
      12
      12
      12
      12
      12
      12
      12
      12
      12
      12
      12
      12
      12
      12
      12
      12
      12
      12
      12
      12
      12
      12
      12
      12
      12
      12
      12
      12
      12
      12
      12
      12
      12
      12
      12
      12
      12
      12
      12
      12
      12
      12
      12
      12
      12
      12
      12
      12
      12
      12
      12
      12
      12
      12
      12
      12
      12
      12
      12
      12
      12
      12
      12
      12
      12
      12
      12
      12
      12
      12
      12
      12
      12
      12
      12
      12
      12
      12
      12
      12
      12
      12
      12
      12
      12
      12
      12
      12
      12
      12
      12
      12
      12
      12
      12
      12
      12
      12
      12
      12
      12
      12
      12
      12
      12
      12
      12
      12
      12
      12
      12
      12
      12
      12
      12
      12
      12
      12
      12
      12
      12
      12
      12
      12
      12
      12
      12
      12
      12
      12
      12
      12
      12
      12
      12
      12
      12
      12
      12
      12
      12
      12
      12
      12
      12
      12
      12
      12
      12
      12
      12
      12
      12
      12
      12
      12
      12
      12
      12
      12
      12
      12
      12
      12
      12
      12
      12
      12
      12
      12
      12
      12
      12
      12
      12
      12
      12
      12
      12
      12
      12
      12
      12
      12
      12
      12
      12
      12
      12
      12
      12
      12
      12
      12
      12
      12
      12
      12
      12
      12
      12
      12
      12
      12
      12
      12
      12
      12
      12
      12
      12
      12
      12
      12
      12
      12
      12
      12
      12
      12
      12
      12
      12
      12
      12
      12
      12
      12
      12
      12
      12
      12
      12
      12
      12
      12
      12
      12
      12
      12
      12
      12
      12
      12
      12
      12
      12
      12
      12
      12
      12
      12
      12
      12
      12
      12
      12
      12
      12
      12
      12
      12
      12
      12
      12
      12
      12
      12
      12
      12
      12
      12
      12
      12
      12
      12
      12
      12
      12
      12
      12
      12
      12
      12
      12
      12
      12
      12
      12
      12
      12
      12
      12
      12
      12
      12
      12
      12
      12
      12
      12
      12
      12
      12
      12
      12
      12
      12
      12
      12
      12
      12
      12
      12
      12
      12
      12
      12
      12
      12
      12
      12
      12
      12
      12
      12
      12
      12
      12
      12
      12
      12
      12
      12
      12
      12
      12
      12
      12
      12
      12
      12
      12
      12
      12
      12
      12
      12
      12
      12
      12
      12
      12
      12
      12
      12
      12
      12
      12
      12
      12
      12
      12
      12
      12
      12
      12
      12
      12
      12
      12
      12
      12
      12
      12
      12
      12
      12
      12
      12
      12
      12
      12
      12
      12
      12
      12
      12
      12
      12
      12
      12
      12
      12
      12
      12
      12
      12
      12
      12
      12
      12
      12
      12
      12
      12
      12
      12
      12
      12
      12
      12
      12
      12
      12
      12
      12
      12
      12
      12
      12
      12
      12
      12
      12
      12
      12
      12
      12
      12
      12
      12
      12
      12
      12
      12
      12
      12
      12
      12
      12
      12
      12
      12
      12
      12
      12
      12
      12
      12
      12
      12
      12
      12
      12
      12
      12
      12
      12
      12
      12
      12
      12
      12
      12
      12
      12
      12
      12
      12
      12
      12
      12
      12
      12
      12
      12
      12
      12
      12
      12
      12
      12
      12
      12
      12
      12
      12
      12
      12
      12
      12
      12
      12
      12
      12
      12
      12
      12
      12
      12
      12
      12
      12
      12
      12
      12
      12
      12
      12
      12
      12
      12
      12
      12
      12
      12
      12
      12
      12
      12
      12
      12
      12
      12
      12
      12
      12
      12
      12
      12
      12
      12
      12
      12
      12
      12
      12
      12
      12
      12
      12
      12
      12
      12
      12
      12
      12
      12
      12
      12
      12
      12
      12
      12
      12
      12
      12
      12
      12
      12
      12
      12
      12
      12
      12
      12
      12
      12
      12
      12
      12
      12
      12
      12
      12
      12
      12
      12
      12
      12
      12
      12
      12
      12
      12
      12
      12
      12
      12
      12
      12
      12
      12
      12
      12
      12
      12
      12
      12
      12
      12
      12
      12
      12
      12
      12
      12
      12
      12
      12
      12
      12
      12
      12
      12
      12
      12
      12
      12
      12
      12
      12
      12
      12
      12
      12
      12
      12
      12
      12
      12
      12
      12
      12
      12
      12
      12
      12
      12
      12
      12
      12
      12
      12
      12
      12
      12
      12
      12
      12
      12
      12
      12
      12
      12
      12
      12
      12
      12
      12
      12
      12
      12
      12
      12
      12
      12
      12
      12
      12
      12
      12
      12
      12
      12
      12
      12
      12
      12
      12
      12
      12
      12
      12
      12
      12
      12
      12
      12
      12
      12
      12
      12
      12
      12
      12
      12
      12
      12
      12
      12
      12
      12
      12
      12
      12
      12
      12
      12
      12
      12
      12
      12
      12
      12
      12
      12
      12
      12
      12
      12
      12
      12
      12
      12
      12
      12
      12
      12
      12
      12
      12
      12
      12
      12
      12
      12
      12
      12
      12
      12
      12
      12
      12
      12
      12
      12
      12
      12
      12
      12
      12
      12
      12
      12
      12
      12
      12
      12
      12
      12
      12
      12
      12
      12
      12
      12
      12
      12
      12
      12
      12
      12
      12
      12
      12
      12
      12
      12
      12
      12
      12
      12
      12
      12
      12
      12
      12
      12
      12
      12
      12
      12
      12
      12
      12
      12
      12
      12
      12
      12
      12
      12
      12
      12
      12
      12
      12
      12
      12
      12
      12
      12
      12
      12
      12
      12
      12
      12
      12
      12
      12
      12
      12
      12
      12
      12
      12
      12
      12
      12
      12
      12
      12
      12
      12
      12
      12
      12
      12
      12
      12
      12
      12
      12
      12
      12
      12
      12
      12
      12
      12
      12
      12
      12
      12
      12
      12
      12
      12
      12
      12
      12
      12
      12
      12
      12
      12
      12
      12
      12
      12
      12
      12
      12
      12
      12
      12
      12
      12
      12
      12
      12
      12
      12
      12
      12
      12
      12
      12
      12
      12
      12
      12
      12
      12
      12
      12
      12
      12
      12
      12
      12
      12
      12
      12
      12
      12
      12
      12
      12
      12
      12
      12
      12
      12
      12
      12
      12
      12
      12
      12
      12
      12
      12
      12
      12
      12
      12
      12
      12
      12
      12
      12
      12
      12
      12
      12
      12
      12
      12
      12
      12
      12
      12
      12
      12
      12
      12
      12
      12
      12
      12
      12
      12
      12
      12
      12
      12
      12
      12
      12
      12
      12
      12
      12
      12
      12
      12
      12
      12
      12
      12
      12
      12
      12
      12
      12
      12
      12
      12
      12
      12
      12
      12
      12
      12
      12
      12
      12
      12
      12
      12
      12
      12
      12
      12
      12
      12
      12
      12
      12
      12
      12
      12
      12
      12
      12
      12
      12
      12
      12
      12
      12
      12
      12
      12
      12
      12
      12
      12
      12
      12
      12
      12
      12
      12
      12
      12
      12
      12
      12
      12
      12
      12
      12
      12
      12
      12
      12
      12
      12
      12
      12
      12
      12
      12
      12
      12
      12
      12
      12
      12
      12
      12
      12
      12
      12
      12
      12
      12
      12
      12
      12
      12
      12
      12
      12
      12
      12
      12
      12
      12
      12
      12
      12
  
  
POINT_DATA       1950
  
SCALARS                  material_type  double 1
LOOKUP_TABLE default
                   2
                   2
                   2
                   2
                   2
                   2
                   2
                   2
                   2
                   2
                   2
                   2
                   2
                   2
                   2
                   2
                   2
                   2
                   2
                   2
                   2
                   2
                   2
                   2
                   2
                   2
                   2
                   2
                   2
                   2
                   2
                   2
                   2
                   2
                   2
                   2
                   2
                   2
                   2
                   2
                   2
                   2
                   2
                   2
                   2
                   2
                   2
                   2
                   2
                   2
                   2
                   2
                   2
                   2
                   2
                   2
                   2
                   2
                   2
                   2
                   2
                   2
                   2
                   2
                   2
                   2
                   2
                   2
                   2
                   2
                   2
                   2
                   2
                   2
                   2
                   2
                   2
                   2
                   2
                   2
                   2
                   2
                   2
                   2
                   2
                   2
                   2
                   2
                   2
                   2
                   2
                   2
                   2
                   2
                   2
                   2
                   2
                   2
                   2
                   2
                   2
                   2
                   2
                   2
                   2
                   2
                   2
                   2
                   2
                   2
                   2
                   2
                   2
                   2
                   2
                   2
                   2
                   2
                   2
                   2
                   2
                   2
                   2
                   2
                   2
                   2
                   2
                   2
                   2
                   2
                   2
                   2
                   2
                   2
                   2
                   2
                   2
                   2
                   2
                   2
                   2
                   2
                   2
                   2
                   2
                   2
                   2
                   2
                   2
                   2
                   2
                   2
                   2
                   2
                   2
                   2
                   2
                   2
                   2
                   2
                   2
                   2
                   2
                   2
                   2
                   2
                   2
                   2
                   2
                   2
                   2
                   2
                   2
                   2
                   2
                   2
                   2
                   2
                   2
                   2
                   2
                   2
                   2
                   2
                   2
                   2
                   2
                   2
                   2
                   2
                   2
                   2
                   2
                   2
                   2
                   2
                   2
                   2
                   2
                   2
                   2
                   2
                   2
                   2
                   2
                   2
                   2
                   2
                   2
                   2
                   2
                   2
                   2
                   2
                   2
                   2
                   2
                   2
                   2
                   2
                   2
                   2
                   2
                   2
                   2
                   2
                   2
                   2
                   2
                   2
                   2
                   2
                   2
                   2
                   2
                   2
                   2
                   2
                   2
                   2
                   2
                   2
                   2
                   2
                   2
                   2
                   2
                   2
                   2
                   2
                   2
                   2
                   2
                   2
                   2
                   2
                   2
                   2
                   2
                   2
                   2
                   2
                   2
                   2
                   2
                   2
                   2
                   2
                   2
                   2
                   2
                   2
                   2
                   2
                   2
                   2
                   2
                   2
                   2
                   2
                   2
                   2
                   2
                   2
                   2
                   2
                   2
                   2
                   2
                   2
                   2
                   2
                   2
                   2
                   2
                   2
                   2
                   2
                   2
                   2
                   2
                   2
                   2
                   2
                   2
                   2
                   2
                   2
                   2
                   2
                   2
                   2
                   2
                   2
                   2
                   2
                   2
                   2
                   2
                   2
                   2
                   2
                   2
                   2
                   2
                   2
                   2
                   2
                   2
                   2
                   2
                   2
                   2
                   2
                   2
                   2
                   2
                   2
                   2
                   2
                   2
                   2
                   2
                   2
                   2
                   2
                   2
                   2
                   2
                   2
                   2
                   2
                   2
                   2
                   2
                   2
                   2
                   2
                   2
                   2
                   2
                   2
                   2
                   2
                   2
                   2
                   2
                   2
                   2
                   2
                   2
                   2
                   2
                   2
                   2
                   2
                   2
                   2
                   2
                   2
                   2
                   2
                   2
                   2
                   2
                   2
                   2
                   2
                   2
                   2
                   2
                   2
                   2
                   2
                   2
                   2
                   2
                   2
                   2
                   2
                   2
                   2
                   2
                   2
                   2
                   2
                   2
                   2
                   2
                   2
                   2
                   2
                   2
                   2
                   2
                   2
                   2
                   2
                   2
                   2
                   2
                   2
                   2
                   2
                   2
                   2
                   2
                   2
                   2
                   2
                   2
                   2
                   2
                   2
                   2
                   2
                   2
                   2
                   2
                   2
                   2
                   2
                   2
                   2
                   2
                   2
                   2
                   2
                   2
                   2
                   2
                   2
                   2
                   2
                   2
                   2
                   2
                   2
                   2
                   2
                   2
                   2
                   2
                   2
                   2
                   2
                   2
                   2
                   2
                   2
                   2
                   2
                   2
                   2
                   2
                   2
                   2
                   2
                   2
                   2
                   2
                   2
                   2
                   2
                   2
                   2
                   2
                   2
                   2
                   2
                   2
                   2
                   2
                   2
                   2
                   2
                   2
                   2
                   2
                   2
                   2
                   2
                   2
                   2
                   2
                   2
                   2
                   2
                   2
                   2
                   2
                   2
                   2
                   2
                   2
                   2
                   2
                   2
                   2
                   2
                   2
                   2
                   2
                   2
                   2
                   2
                   2
                   2
                   2
                   2
                   2
                   2
                   2
                   2
                   2
                   2
                   2
                   2
                   2
                   2
                   2
                   2
                   2
                   2
                   2
                   2
                   2
                   2
                   2
                   2
                   2
                   2
                   2
                   2
                   2
                   2
                   2
                   2
                   2
                   2
                   2
                   2
                   2
                   2
                   2
                   2
                   2
                   2
                   2
                   2
                   2
                   2
                   2
                   2
                   2
                   2
                   2
                   2
                   2
                   2
                   2
                   2
                   2
                   2
                   2
                   2
                   2
                   2
                   2
                   2
                   2
                   2
                   2
                   2
                   2
                   2
                   2
                   2
                   2
                   2
                   2
                   2
                   2
                   2
                   2
                   2
                   2
                   2
                   2
                   2
                   2
                   2
                   2
                   2
                   2
                   2
                   2
                   2
                   2
                   2
                   2
                   2
                   2
                   2
                   2
                   2
                   2
                   2
                   2
                   2
                   2
                   2
                   2
                   2
                   2
                   2
                   2
                   2
                   2
                   2
                   2
                   2
                   2
                   2
                   2
                   2
                   2
                   2
                   2
                   2
                   2
                   2
                   2
                   2
                   2
                   2
                   2
                   2
                   2
                   2
                   2
                   2
                   2
                   2
                   2
                   2
                   2
                   2
                   2
                   2
                   2
                   2
                   2
                   2
                   2
                   2
                   2
                   2
                   2
                   2
                   2
                   2
                   2
                   2
                   2
                   2
                   2
                   2
                   2
                   2
                   2
                   2
                   2
                   2
                   2
                   2
                   2
                   2
                   2
                   2
                   2
                   2
                   2
                   2
                   2
                   2
                   2
                   2
                   2
                   2
                   2
                   2
                   2
                   2
                   2
                   2
                   2
                   2
                   2
                   2
                   2
                   2
                   2
                   2
                   2
                   2
                   2
                   2
                   2
                   2
                   2
                   2
                   2
                   2
                   2
                   2
                   2
                   2
                   2
                   2
                   2
                   2
                   2
                   2
                   2
                   2
                   2
                   2
                   2
                   2
                   2
                   2
                   2
                   2
                   2
                   2
                   2
                   2
                   2
                   2
                   2
                   2
                   2
                   2
                   2
                   2
                   2
                   2
                   2
                   2
                   2
                   2
                   2
                   2
                   2
                   2
                   2
                   2
                   2
                   2
                   2
                   2
                   2
                   2
                   2
                   2
                   2
                   2
                   2
                   2
                   2
                   2
                   2
                   2
                   2
                   2
                   2
                   2
                   2
                   2
                   2
                   2
                   2
                   2
                   2
                   2
                   2
                   2
                   2
                   2
                   2
                   2
                   2
                   2
                   2
                   2
                   2
                   2
                   2
                   2
                   2
                   2
                   2
                   2
                   2
                   2
                   2
                   2
                   2
                   2
                   2
                   2
                   2
                   2
                   2
                   2
                   2
                   2
                   2
                   2
                   2
                   2
                   2
                   2
                   2
                   2
                   2
                   2
                   2
                   2
                   2
                   2
                   2
                   2
                   2
                   2
                   2
                   2
                   2
                   2
                   2
                   2
                   2
                   2
                   2
                   2
                   2
                   2
                   2
                   2
                   2
                   2
                   2
                   2
                   2
                   2
                   2
                   2
                   2
                   2
                   2
                   2
                   2
                   2
                   2
                   2
                   2
                   2
                   2
                   2
                   2
                   2
                   2
                   2
                   2
                   2
                   2
                   2
                   2
                   2
                   2
                   2
                   2
                   2
                   2
                   2
                   2
                   2
                   2
                   2
                   2
                   2
                   2
                   2
                   2
                   2
                   2
                   2
                   2
                   2
                   2
                   2
                   2
                   2
                   2
                   2
                   2
                   2
                   2
                   2
                   2
                   2
                   2
                   2
                   2
                   2
                   2
                   2
                   2
                   2
                   2
                   2
                   2
                   2
                   2
                   2
                   2
                   2
                   2
                   2
                   2
                   2
                   2
                   2
                   2
                   2
                   2
                   2
                   2
                   2
                   2
                   2
                   2
                   2
                   2
                   2
                   2
                   2
                   2
                   2
                   2
                   2
                   2
                   2
                   2
                   2
                   2
                   2
                   2
                   2
                   2
                   2
                   2
                   2
                   2
                   2
                   2
                   2
                   2
                   2
                   2
                   2
                   2
                   2
                   2
                   2
                   2
                   2
                   2
                   2
                   2
                   2
                   2
                   2
                   2
                   2
                   2
                   2
                   2
                   2
                   2
                   2
                   2
                   2
                   2
                   2
                   2
                   2
                   2
                   2
                   2
                   2
                   2
                   2
                   2
                   2
                   2
                   2
                   2
                   2
                   2
                   2
                   2
                   2
                   2
                   2
                   2
                   2
                   2
                   2
                   2
                   2
                   2
                   2
                   2
                   2
                   2
                   2
                   2
                   2
                   2
                   2
                   2
                   2
                   2
                   2
                   2
                   2
                   2
                   2
                   2
                   2
                   2
                   2
                   2
                   2
                   2
                   2
                   2
                   2
                   2
                   2
                   2
                   2
                   2
                   2
                   2
                   2
                   2
                   2
                   2
                   2
                   2
                   2
                   2
                   2
                   2
                   2
                   2
                   2
                   2
                   2
                   2
                   2
                   2
                   2
                   2
                   2
                   2
                   2
                   2
                   2
                   2
                   2
                   2
                   2
                   2
                   2
                   2
                   2
                   2
                   2
                   2
                   2
                   2
                   2
                   2
                   2
                   2
                   2
                   2
                   2
                   2
                   2
                   2
                   2
                   2
                   2
                   2
                   2
                   2
                   2
                   2
                   2
                   2
                   2
                   2
                   2
                   2
                   2
                   2
                   2
                   2
                   2
                   2
                   2
                   2
                   2
                   2
                   2
                   2
                   2
                   2
                   2
                   2
                   2
                   2
                   2
                   2
                   2
                   2
                   2
                   2
                   2
                   2
                   2
                   2
                   2
                   2
                   2
                   2
                   2
                   2
                   2
                   2
                   2
                   2
                   2
                   2
                   2
                   2
                   2
                   2
                   2
                   2
                   2
                   2
                   2
                   2
                   2
                   2
                   2
                   2
                   2
                   2
                   2
                   2
                   2
                   2
                   2
                   2
                   2
                   2
                   2
                   2
                   2
                   2
                   2
                   2
                   2
                   2
                   2
                   2
                   2
                   2
                   2
                   2
                   2
                   2
                   2
                   2
                   2
                   2
                   2
                   2
                   2
                   2
                   2
                   2
                   2
                   2
                   2
                   2
                   2
                   2
                   2
                   2
                   2
                   2
                   2
                   2
                   2
                   2
                   2
                   2
                   2
                   2
                   2
                   2
                   2
                   2
                   2
                   2
                   2
                   2
                   2
                   2
                   2
                   2
                   2
                   2
                   2
                   2
                   2
                   2
                   2
                   2
                   2
                   2
                   2
                   2
                   2
                   2
                   2
                   2
                   2
                   2
                   2
                   2
                   2
                   2
                   2
                   2
                   2
                   2
                   2
                   2
                   2
                   2
                   2
                   2
                   2
                   2
                   2
                   2
                   2
                   2
                   2
                   2
                   2
                   2
                   2
                   2
                   2
                   2
                   2
                   2
                   2
                   2
                   2
                   2
                   2
                   2
                   2
                   2
                   2
                   2
                   2
                   2
                   2
                   2
                   2
                   2
                   2
                   2
                   2
                   2
                   2
                   2
                   2
                   2
                   2
                   2
                   2
                   2
                   2
                   2
                   2
                   2
                   2
                   2
                   2
                   2
                   2
                   2
                   2
                   2
                   2
                   2
                   2
                   2
                   2
                   2
                   2
                   2
                   2
                   2
                   2
                   2
                   2
                   2
                   2
                   2
                   2
                   2
                   2
                   2
                   2
                   2
                   2
                   2
                   2
                   2
                   2
                   2
                   2
                   2
                   2
                   2
                   2
                   2
                   2
                   2
                   2
                   2
                   2
                   2
                   2
                   2
                   2
                   2
                   2
                   2
                   2
                   2
                   2
                   2
                   2
                   2
                   2
                   2
                   2
                   2
                   2
                   2
                   2
                   2
                   2
                   2
                   2
                   2
                   2
                   2
                   2
                   2
                   2
                   2
                   2
                   2
                   2
                   2
                   2
                   2
                   2
                   2
                   2
                   2
                   2
                   2
                   2
                   2
                   2
                   2
                   2
                   2
                   2
                   2
                   2
                   2
                   2
                   2
                   2
                   2
                   2
                   2
                   2
                   2
                   2
                   2
                   2
                   2
                   2
                   2
                   2
                   2
                   2
                   2
                   2
                   2
                   2
                   2
                   2
                   2
                   2
                   2
                   2
                   2
                   2
                   2
                   2
                   2
                   2
                   2
                   2
                   2
                   2
                   2
                   2
                   2
                   2
                   2
                   2
                   2
                   2
                   2
                   2
                   2
                   2
                   2
                   2
                   2
                   2
                   2
                   2
                   2
                   2
                   2
                   2
                   2
                   2
                   2
                   2
                   2
                   2
                   2
                   2
                   2
                   2
                   2
                   2
                   2
                   2
                   2
                   2
                   2
                   2
                   2
                   2
                   2
                   2
                   2
                   2
                   2
                   2
                   2
                   2
                   2
                   2
                   2
                   2
                   2
                   2
                   2
                   2
                   2
                   2
                   2
                   2
                   2
                   2
                   2
                   2
                   2
                   2
                   2
                   2
                   2
                   2
                   2
                   2
                   2
                   2
                   2
                   2
                   2
                   2
                   2
                   2
                   2
                   2
                   2
                   2
                   2
                   2
                   2
                   2
                   2
                   2
                   2
                   2
                   2
                   2
                   2
                   2
                   2
                   2
                   2
                   2
                   2
                   2
                   2
                   2
                   2
                   2
                   2
                   2
                   2
                   2
                   2
                   2
                   2
                   2
                   2
                   2
                   2
                   2
                   2
                   2
                   2
                   2
                   2
                   2
                   2
                   2
                   2
                   2
                   2
                   2
                   2
                   2
                   2
                   2
                   2
                   2
                   2
                   2
                   2
                   2
                   2
                   2
                   2
                   2
                   2
                   2
                   2
                   2
                   2
                   2
                   2
                   2
                   2
                   2
                   2
                   2
                   2
                   2
                   2
                   2
                   2
                   2
                   2
                   2
                   2
                   2
                   2
                   2
                   2
                   2
                   2
                   2
                   2
                   2
                   2
                   2
                   2
                   2
                   2
                   2
                   2
                   2
                   2
                   2
                   2
                   2
                   2
                   2
                   2
                   2
                   2
                   2
                   2
                   2
                   2
                   2
                   2
                   2
                   2
                   2
                   2
                   2
                   2
                   2
                   2
                   2
                   2
                   2
                   2
                   2
                   2
                   2
                   2
                   2
                   2
                   2
                   2
                   2
                   2
                   2
                   2
                   2
                   2
                   2
                   2
                   2
                   2
                   2
                   2
                   2
                   2
                   2
                   2
                   2
                   2
                   2
                   2
                   2
                   2
                   2
                   2
                   2
                   2
                   2
                   2
                   2
                   2
                   2
                   2
                   2
                   2
                   2
                   2
                   2
                   2
                   2
                   2
                   2
                   2
                   2
                   2
                   2
                   2
                   2
                   2
                   2
                   2
                   2
                   2
                   2
                   2
                   2
                   2
                   2
                   2
                   2
                   2
                   2
                   2
                   2
                   2
                   2
                   2
                   2
                   2
                   2
                   2
                   2
                   2
                   2
                   2
                   2
                   2
                   2
                   2
                   2
                   2
                   2
                   2
                   2
                   2
                   2
                   2
                   2
                   2
                   2
                   2
                   2
                   2
                   2
                   2
                   2
                   2
                   2
                   2
                   2
                   2
                   2
                   2
                   2
                   2
                   2
                   2
                   2
                   2
                   2
                   2
                   2
                   2
                   2
                   2
                   2
                   2
                   2
                   2
                   2
                   2
                   2
                   2
                   2
                   2
                   2
                   2
                   2
                   2
                   2
                   2
                   2
                   2
                   2
                   2
                   2
                   2
                   2
                   2
                   2
                   2
                   2
                   2
                   2
                   2
                   2
                   2
                   2
                   2
                   2
                   2
                   2
                   2
                   2
                   2
                   2
                   2
                   2
                   2
                   2
                   2
                   2
                   2
                   2
                   2
                   2
                   2
                   2
                   2
                   2
                   2
                   2
                   2
                   2
                   2
                   2
                   2
                   2
                   2
                   2
                   2
                   2
                   2
                   2
                   2
                   2
                   2
                   2
                   2
                   2
                   2
                   2
                   2
                   2
                   2
                   2
                   2
                   2
                   2
                   2
                   2
                   2
                   2
                   2
                   2
                   2
                   2
                   2
                   2
                   2
                   2
                   2
                   2
                   2
                   2
                   2
                   2
                   2
                   2
                   2
                   2
                   2
                   2
                   2
                   2
                   2
                   2
                   2
                   2
                   2
                   2
                   2
                   2
                   2
                   2
                   2
                   2
                   2
                   2
                   2
                   2
                   2
                   2
                   2
                   2
                   2
                   2
                   2
                   2
                   2
                   2
                   2
                   2
                   2
                   2
                   2
  
SCALARS                        node_id  double 1
LOOKUP_TABLE default
                   1
                   2
                   3
                   4
                   5
                   6
                   7
                   8
                   9
                  10
                  11
                  12
                  13
                  14
                  15
                  16
                  17
                  18
                  19
                  20
                  21
                  22
                  23
                  24
                  25
                  26
                  27
                  28
                  29
                  30
                  31
                  32
                  33
                  34
                  35
                  36
                  37
                  38
                  39
                  40
                  41
                  42
                  43
                  44
                  45
                  46
                  47
                  48
                  49
                  50
                  51
                  52
                  53
                  54
                  55
                  56
                  57
                  58
                  59
                  60
                  61
                  62
                  63
                  64
                  65
                  66
                  67
                  68
                  69
                  70
                  71
                  72
                  73
                  74
                  75
                  76
                  77
                  78
                  79
                  80
                  81
                  82
                  83
                  84
                  85
                  86
                  87
                  88
                  89
                  90
                  91
                  92
                  93
                  94
                  95
                  96
                  97
                  98
                  99
                 100
                 101
                 102
                 103
                 104
                 105
                 106
                 107
                 108
                 109
                 110
                 111
                 112
                 113
                 114
                 115
                 116
                 117
                 118
                 119
                 120
                 121
                 122
                 123
                 124
                 125
                 126
                 127
                 128
                 129
                 130
                 131
                 132
                 133
                 134
                 135
                 136
                 137
                 138
                 139
                 140
                 141
                 142
                 143
                 144
                 145
                 146
                 147
                 148
                 149
                 150
                 151
                 152
                 153
                 154
                 155
                 156
                 157
                 158
                 159
                 160
                 161
                 162
                 163
                 164
                 165
                 166
                 167
                 168
                 169
                 170
                 171
                 172
                 173
                 174
                 175
                 176
                 177
                 178
                 179
                 180
                 181
                 182
                 183
                 184
                 185
                 186
                 187
                 188
                 189
                 190
                 191
                 192
                 193
                 194
                 195
                 196
                 197
                 198
                 199
                 200
                 201
                 202
                 203
                 204
                 205
                 206
                 207
                 208
                 209
                 210
                 211
                 212
                 213
                 214
                 215
                 216
                 217
                 218
                 219
                 220
                 221
                 222
                 223
                 224
                 225
                 226
                 227
                 228
                 229
                 230
                 231
                 232
                 233
                 234
                 235
                 236
                 237
                 238
                 239
                 240
                 241
                 242
                 243
                 244
                 245
                 246
                 247
                 248
                 249
                 250
                 251
                 252
                 253
                 254
                 255
                 256
                 257
                 258
                 259
                 260
                 261
                 262
                 263
                 264
                 265
                 266
                 267
                 268
                 269
                 270
                 271
                 272
                 273
                 274
                 275
                 276
                 277
                 278
                 279
                 280
                 281
                 282
                 283
                 284
                 285
                 286
                 287
                 288
                 289
                 290
                 291
                 292
                 293
                 294
                 295
                 296
                 297
                 298
                 299
                 300
                 301
                 302
                 303
                 304
                 305
                 306
                 307
                 308
                 309
                 310
                 311
                 312
                 313
                 314
                 315
                 316
                 317
                 318
                 319
                 320
                 321
                 322
                 323
                 324
                 325
                 326
                 327
                 328
                 329
                 330
                 331
                 332
                 333
                 334
                 335
                 336
                 337
                 338
                 339
                 340
                 341
                 342
                 343
                 344
                 345
                 346
                 347
                 348
                 349
                 350
                 351
                 352
                 353
                 354
                 355
                 356
                 357
                 358
                 359
                 360
                 361
                 362
                 363
                 364
                 365
                 366
                 367
                 368
                 369
                 370
                 371
                 372
                 373
                 374
                 375
                 376
                 377
                 378
                 379
                 380
                 381
                 382
                 383
                 384
                 385
                 386
                 387
                 388
                 389
                 390
                 391
                 392
                 393
                 394
                 395
                 396
                 397
                 398
                 399
                 400
                 401
                 402
                 403
                 404
                 405
                 406
                 407
                 408
                 409
                 410
                 411
                 412
                 413
                 414
                 415
                 416
                 417
                 418
                 419
                 420
                 421
                 422
                 423
                 424
                 425
                 426
                 427
                 428
                 429
                 430
                 431
                 432
                 433
                 434
                 435
                 436
                 437
                 438
                 439
                 440
                 441
                 442
                 443
                 444
                 445
                 446
                 447
                 448
                 449
                 450
                 451
                 452
                 453
                 454
                 455
                 456
                 457
                 458
                 459
                 460
                 461
                 462
                 463
                 464
                 465
                 466
                 467
                 468
                 469
                 470
                 471
                 472
                 473
                 474
                 475
                 476
                 477
                 478
                 479
                 480
                 481
                 482
                 483
                 484
                 485
                 486
                 487
                 488
                 489
                 490
                 491
                 492
                 493
                 494
                 495
                 496
                 497
                 498
                 499
                 500
                 501
                 502
                 503
                 504
                 505
                 506
                 507
                 508
                 509
                 510
                 511
                 512
                 513
                 514
                 515
                 516
                 517
                 518
                 519
                 520
                 521
                 522
                 523
                 524
                 525
                 526
                 527
                 528
                 529
                 530
                 531
                 532
                 533
                 534
                 535
                 536
                 537
                 538
                 539
                 540
                 541
                 542
                 543
                 544
                 545
                 546
                 547
                 548
                 549
                 550
                 551
                 552
                 553
                 554
                 555
                 556
                 557
                 558
                 559
                 560
                 561
                 562
                 563
                 564
                 565
                 566
                 567
                 568
                 569
                 570
                 571
                 572
                 573
                 574
                 575
                 576
                 577
                 578
                 579
                 580
                 581
                 582
                 583
                 584
                 585
                 586
                 587
                 588
                 589
                 590
                 591
                 592
                 593
                 594
                 595
                 596
                 597
                 598
                 599
                 600
                 601
                 602
                 603
                 604
                 605
                 606
                 607
                 608
                 609
                 610
                 611
                 612
                 613
                 614
                 615
                 616
                 617
                 618
                 619
                 620
                 621
                 622
                 623
                 624
                 625
                 626
                 627
                 628
                 629
                 630
                 631
                 632
                 633
                 634
                 635
                 636
                 637
                 638
                 639
                 640
                 641
                 642
                 643
                 644
                 645
                 646
                 647
                 648
                 649
                 650
                 651
                 652
                 653
                 654
                 655
                 656
                 657
                 658
                 659
                 660
                 661
                 662
                 663
                 664
                 665
                 666
                 667
                 668
                 669
                 670
                 671
                 672
                 673
                 674
                 675
                 676
                 677
                 678
                 679
                 680
                 681
                 682
                 683
                 684
                 685
                 686
                 687
                 688
                 689
                 690
                 691
                 692
                 693
                 694
                 695
                 696
                 697
                 698
                 699
                 700
                 701
                 702
                 703
                 704
                 705
                 706
                 707
                 708
                 709
                 710
                 711
                 712
                 713
                 714
                 715
                 716
                 717
                 718
                 719
                 720
                 721
                 722
                 723
                 724
                 725
                 726
                 727
                 728
                 729
                 730
                 731
                 732
                 733
                 734
                 735
                 736
                 737
                 738
                 739
                 740
                 741
                 742
                 743
                 744
                 745
                 746
                 747
                 748
                 749
                 750
                 751
                 752
                 753
                 754
                 755
                 756
                 757
                 758
                 759
                 760
                 761
                 762
                 763
                 764
                 765
                 766
                 767
                 768
                 769
                 770
                 771
                 772
                 773
                 774
                 775
                 776
                 777
                 778
                 779
                 780
                 781
                 782
                 783
                 784
                 785
                 786
                 787
                 788
                 789
                 790
                 791
                 792
                 793
                 794
                 795
                 796
                 797
                 798
                 799
                 800
                 801
                 802
                 803
                 804
                 805
                 806
                 807
                 808
                 809
                 810
                 811
                 812
                 813
                 814
                 815
                 816
                 817
                 818
                 819
                 820
                 821
                 822
                 823
                 824
                 825
                 826
                 827
                 828
                 829
                 830
                 831
                 832
                 833
                 834
                 835
                 836
                 837
                 838
                 839
                 840
                 841
                 842
                 843
                 844
                 845
                 846
                 847
                 848
                 849
                 850
                 851
                 852
                 853
                 854
                 855
                 856
                 857
                 858
                 859
                 860
                 861
                 862
                 863
                 864
                 865
                 866
                 867
                 868
                 869
                 870
                 871
                 872
                 873
                 874
                 875
                 876
                 877
                 878
                 879
                 880
                 881
                 882
                 883
                 884
                 885
                 886
                 887
                 888
                 889
                 890
                 891
                 892
                 893
                 894
                 895
                 896
                 897
                 898
                 899
                 900
                 901
                 902
                 903
                 904
                 905
                 906
                 907
                 908
                 909
                 910
                 911
                 912
                 913
                 914
                 915
                 916
                 917
                 918
                 919
                 920
                 921
                 922
                 923
                 924
                 925
                 926
                 927
                 928
                 929
                 930
                 931
                 932
                 933
                 934
                 935
                 936
                 937
                 938
                 939
                 940
                 941
                 942
                 943
                 944
                 945
                 946
                 947
                 948
                 949
                 950
                 951
                 952
                 953
                 954
                 955
                 956
                 957
                 958
                 959
                 960
                 961
                 962
                 963
                 964
                 965
                 966
                 967
                 968
                 969
                 970
                 971
                 972
                 973
                 974
                 975
                 976
                 977
                 978
                 979
                 980
                 981
                 982
                 983
                 984
                 985
                 986
                 987
                 988
                 989
                 990
                 991
                 992
                 993
                 994
                 995
                 996
                 997
                 998
                 999
                1000
                1001
                1002
                1003
                1004
                1005
                1006
                1007
                1008
                1009
                1010
                1011
                1012
                1013
                1014
                1015
                1016
                1017
                1018
                1019
                1020
                1021
                1022
                1023
                1024
                1025
                1026
                1027
                1028
                1029
                1030
                1031
                1032
                1033
                1034
                1035
                1036
                1037
                1038
                1039
                1040
                1041
                1042
                1043
                1044
                1045
                1046
                1047
                1048
                1049
                1050
                1051
                1052
                1053
                1054
                1055
                1056
                1057
                1058
                1059
                1060
                1061
                1062
                1063
                1064
                1065
                1066
                1067
                1068
                1069
                1070
                1071
                1072
                1073
                1074
                1075
                1076
                1077
                1078
                1079
                1080
                1081
                1082
                1083
                1084
                1085
                1086
                1087
                1088
                1089
                1090
                1091
                1092
                1093
                1094
                1095
                1096
                1097
                1098
                1099
                1100
                1101
                1102
                1103
                1104
                1105
                1106
                1107
                1108
                1109
                1110
                1111
                1112
                1113
                1114
                1115
                1116
                1117
                1118
                1119
                1120
                1121
                1122
                1123
                1124
                1125
                1126
                1127
                1128
                1129
                1130
                1131
                1132
                1133
                1134
                1135
                1136
                1137
                1138
                1139
                1140
                1141
                1142
                1143
                1144
                1145
                1146
                1147
                1148
                1149
                1150
                1151
                1152
                1153
                1154
                1155
                1156
                1157
                1158
                1159
                1160
                1161
                1162
                1163
                1164
                1165
                1166
                1167
                1168
                1169
                1170
                1171
                1172
                1173
                1174
                1175
                1176
                1177
                1178
                1179
                1180
                1181
                1182
                1183
                1184
                1185
                1186
                1187
                1188
                1189
                1190
                1191
                1192
                1193
                1194
                1195
                1196
                1197
                1198
                1199
                1200
                1201
                1202
                1203
                1204
                1205
                1206
                1207
                1208
                1209
                1210
                1211
                1212
                1213
                1214
                1215
                1216
                1217
                1218
                1219
                1220
                1221
                1222
                1223
                1224
                1225
                1226
                1227
                1228
                1229
                1230
                1231
                1232
                1233
                1234
                1235
                1236
                1237
                1238
                1239
                1240
                1241
                1242
                1243
                1244
                1245
                1246
                1247
                1248
                1249
                1250
                1251
                1252
                1253
                1254
                1255
                1256
                1257
                1258
                1259
                1260
                1261
                1262
                1263
                1264
                1265
                1266
                1267
                1268
                1269
                1270
                1271
                1272
                1273
                1274
                1275
                1276
                1277
                1278
                1279
                1280
                1281
                1282
                1283
                1284
                1285
                1286
                1287
                1288
                1289
                1290
                1291
                1292
                1293
                1294
                1295
                1296
                1297
                1298
                1299
                1300
                1301
                1302
                1303
                1304
                1305
                1306
                1307
                1308
                1309
                1310
                1311
                1312
                1313
                1314
                1315
                1316
                1317
                1318
                1319
                1320
                1321
                1322
                1323
                1324
                1325
                1326
                1327
                1328
                1329
                1330
                1331
                1332
                1333
                1334
                1335
                1336
                1337
                1338
                1339
                1340
                1341
                1342
                1343
                1344
                1345
                1346
                1347
                1348
                1349
                1350
                1351
                1352
                1353
                1354
                1355
                1356
                1357
                1358
                1359
                1360
                1361
                1362
                1363
                1364
                1365
                1366
                1367
                1368
                1369
                1370
                1371
                1372
                1373
                1374
                1375
                1376
                1377
                1378
                1379
                1380
                1381
                1382
                1383
                1384
                1385
                1386
                1387
                1388
                1389
                1390
                1391
                1392
                1393
                1394
                1395
                1396
                1397
                1398
                1399
                1400
                1401
                1402
                1403
                1404
                1405
                1406
                1407
                1408
                1409
                1410
                1411
                1412
                1413
                1414
                1415
                1416
                1417
                1418
                1419
                1420
                1421
                1422
                1423
                1424
                1425
                1426
                1427
                1428
                1429
                1430
                1431
                1432
                1433
                1434
                1435
                1436
                1437
                1438
                1439
                1440
                1441
                1442
                1443
                1444
                1445
                1446
                1447
                1448
                1449
                1450
                1451
                1452
                1453
                1454
                1455
                1456
                1457
                1458
                1459
                1460
                1461
                1462
                1463
                1464
                1465
                1466
                1467
                1468
                1469
                1470
                1471
                1472
                1473
                1474
                1475
                1476
                1477
                1478
                1479
                1480
                1481
                1482
                1483
                1484
                1485
                1486
                1487
                1488
                1489
                1490
                1491
                1492
                1493
                1494
                1495
                1496
                1497
                1498
                1499
                1500
                1501
                1502
                1503
                1504
                1505
                1506
                1507
                1508
                1509
                1510
                1511
                1512
                1513
                1514
                1515
                1516
                1517
                1518
                1519
                1520
                1521
                1522
                1523
                1524
                1525
                1526
                1527
                1528
                1529
                1530
                1531
                1532
                1533
                1534
                1535
                1536
                1537
                1538
                1539
                1540
                1541
                1542
                1543
                1544
                1545
                1546
                1547
                1548
                1549
                1550
                1551
                1552
                1553
                1554
                1555
                1556
                1557
                1558
                1559
                1560
                1561
                1562
                1563
                1564
                1565
                1566
                1567
                1568
                1569
                1570
                1571
                1572
                1573
                1574
                1575
                1576
                1577
                1578
                1579
                1580
                1581
                1582
                1583
                1584
                1585
                1586
                1587
                1588
                1589
                1590
                1591
                1592
                1593
                1594
                1595
                1596
                1597
                1598
                1599
                1600
                1601
                1602
                1603
                1604
                1605
                1606
                1607
                1608
                1609
                1610
                1611
                1612
                1613
                1614
                1615
                1616
                1617
                1618
                1619
                1620
                1621
                1622
                1623
                1624
                1625
                1626
                1627
                1628
                1629
                1630
                1631
                1632
                1633
                1634
                1635
                1636
                1637
                1638
                1639
                1640
                1641
                1642
                1643
                1644
                1645
                1646
                1647
                1648
                1649
                1650
                1651
                1652
                1653
                1654
                1655
                1656
                1657
                1658
                1659
                1660
                1661
                1662
                1663
                1664
                1665
                1666
                1667
                1668
                1669
                1670
                1671
                1672
                1673
                1674
                1675
                1676
                1677
                1678
                1679
                1680
                1681
                1682
                1683
                1684
                1685
                1686
                1687
                1688
                1689
                1690
                1691
                1692
                1693
                1694
                1695
                1696
                1697
                1698
                1699
                1700
                1701
                1702
                1703
                1704
                1705
                1706
                1707
                1708
                1709
                1710
                1711
                1712
                1713
                1714
                1715
                1716
                1717
                1718
                1719
                1720
                1721
                1722
                1723
                1724
                1725
                1726
                1727
                1728
                1729
                1730
                1731
                1732
                1733
                1734
                1735
                1736
                1737
                1738
                1739
                1740
                1741
                1742
                1743
                1744
                1745
                1746
                1747
                1748
                1749
                1750
                1751
                1752
                1753
                1754
                1755
                1756
                1757
                1758
                1759
                1760
                1761
                1762
                1763
                1764
                1765
                1766
                1767
                1768
                1769
                1770
                1771
                1772
                1773
                1774
                1775
                1776
                1777
                1778
                1779
                1780
                1781
                1782
                1783
                1784
                1785
                1786
                1787
                1788
                1789
                1790
                1791
                1792
                1793
                1794
                1795
                1796
                1797
                1798
                1799
                1800
                1801
                1802
                1803
                1804
                1805
                1806
                1807
                1808
                1809
                1810
                1811
                1812
                1813
                1814
                1815
                1816
                1817
                1818
                1819
                1820
                1821
                1822
                1823
                1824
                1825
                1826
                1827
                1828
                1829
                1830
                1831
                1832
                1833
                1834
                1835
                1836
                1837
                1838
                1839
                1840
                1841
                1842
                1843
                1844
                1845
                1846
                1847
                1848
                1849
                1850
                1851
                1852
                1853
                1854
                1855
                1856
                1857
                1858
                1859
                1860
                1861
                1862
                1863
                1864
                1865
                1866
                1867
                1868
                1869
                1870
                1871
                1872
                1873
                1874
                1875
                1876
                1877
                1878
                1879
                1880
                1881
                1882
                1883
                1884
                1885
                1886
                1887
                1888
                1889
                1890
                1891
                1892
                1893
                1894
                1895
                1896
                1897
                1898
                1899
                1900
                1901
                1902
                1903
                1904
                1905
                1906
                1907
                1908
                1909
                1910
                1911
                1912
                1913
                1914
                1915
                1916
                1917
                1918
                1919
                1920
                1921
                1922
                1923
                1924
                1925
                1926
                1927
                1928
                1929
                1930
                1931
                1932
                1933
                1934
                1935
                1936
                1937
                1938
                1939
                1940
                1941
                1942
                1943
                1944
                1945
                1946
                1947
                1948
                1949
                1950
  
SCALARS                         bodyid  double 1
LOOKUP_TABLE default
                   1
                   1
                   1
                   1
                   1
                   1
                   1
                   1
                   1
                   1
                   1
                   1
                   1
                   1
                   1
                   1
                   1
                   1
                   1
                   1
                   1
                   1
                   1
                   1
                   1
                   1
                   1
                   1
                   1
                   1
                   1
                   1
                   1
                   1
                   1
                   1
                   1
                   1
                   1
                   1
                   1
                   1
                   1
                   1
                   1
                   1
                   1
                   1
                   1
                   1
                   1
                   1
                   1
                   1
                   1
                   1
                   1
                   1
                   1
                   1
                   1
                   1
                   1
                   1
                   1
                   1
                   1
                   1
                   1
                   1
                   1
                   1
                   1
                   1
                   1
                   1
                   1
                   1
                   1
                   1
                   1
                   1
                   1
                   1
                   1
                   1
                   1
                   1
                   1
                   1
                   1
                   1
                   1
                   1
                   1
                   1
                   1
                   1
                   1
                   1
                   1
                   1
                   1
                   1
                   1
                   1
                   1
                   1
                   1
                   1
                   1
                   1
                   1
                   1
                   1
                   1
                   1
                   1
                   1
                   1
                   1
                   1
                   1
                   1
                   1
                   1
                   1
                   1
                   1
                   1
                   1
                   1
                   1
                   1
                   1
                   1
                   1
                   1
                   1
                   1
                   1
                   1
                   1
                   1
                   1
                   1
                   1
                   1
                   1
                   1
                   1
                   1
                   1
                   1
                   1
                   1
                   1
                   1
                   1
                   1
                   1
                   1
                   1
                   1
                   1
                   1
                   1
                   1
                   1
                   1
                   1
                   1
                   1
                   1
                   1
                   1
                   1
                   1
                   1
                   1
                   1
                   1
                   1
                   1
                   1
                   1
                   1
                   1
                   1
                   1
                   1
                   1
                   1
                   1
                   1
                   1
                   1
                   1
                   1
                   1
                   1
                   1
                   1
                   1
                   1
                   1
                   1
                   1
                   1
                   1
                   1
                   1
                   1
                   1
                   1
                   1
                   1
                   1
                   1
                   1
                   1
                   1
                   1
                   1
                   1
                   1
                   1
                   1
                   1
                   1
                   1
                   1
                   1
                   1
                   1
                   1
                   1
                   1
                   1
                   1
                   1
                   1
                   1
                   1
                   1
                   1
                   1
                   1
                   1
                   1
                   1
                   1
                   1
                   1
                   1
                   1
                   1
                   1
                   1
                   1
                   1
                   1
                   1
                   1
                   1
                   1
                   1
                   1
                   1
                   1
                   1
                   1
                   1
                   1
                   1
                   1
                   1
                   1
                   1
                   1
                   1
                   1
                   1
                   1
                   1
                   1
                   1
                   1
                   1
                   1
                   1
                   1
                   1
                   1
                   1
                   1
                   1
                   1
                   1
                   1
                   1
                   1
                   1
                   1
                   1
                   1
                   1
                   1
                   1
                   1
                   1
                   1
                   1
                   1
                   1
                   1
                   1
                   1
                   1
                   1
                   1
                   1
                   1
                   1
                   1
                   1
                   1
                   1
                   1
                   1
                   1
                   1
                   1
                   1
                   1
                   1
                   1
                   1
                   1
                   1
                   1
                   1
                   1
                   1
                   1
                   1
                   1
                   1
                   1
                   1
                   1
                   1
                   1
                   1
                   1
                   1
                   1
                   1
                   1
                   1
                   1
                   1
                   1
                   1
                   1
                   1
                   1
                   1
                   1
                   1
                   1
                   1
                   1
                   1
                   1
                   1
                   1
                   1
                   1
                   1
                   1
                   1
                   1
                   1
                   1
                   1
                   1
                   1
                   1
                   1
                   1
                   1
                   1
                   1
                   1
                   1
                   1
                   1
                   1
                   1
                   1
                   1
                   1
                   1
                   1
                   1
                   1
                   1
                   1
                   1
                   1
                   1
                   1
                   1
                   1
                   1
                   1
                   1
                   1
                   1
                   1
                   1
                   1
                   1
                   1
                   1
                   1
                   1
                   1
                   1
                   1
                   1
                   1
                   1
                   1
                   1
                   1
                   1
                   1
                   1
                   1
                   1
                   1
                   1
                   1
                   1
                   1
                   1
                   1
                   1
                   1
                   1
                   1
                   1
                   1
                   1
                   1
                   1
                   1
                   1
                   1
                   1
                   1
                   1
                   1
                   1
                   1
                   1
                   1
                   1
                   1
                   1
                   1
                   1
                   1
                   1
                   1
                   1
                   1
                   1
                   1
                   1
                   1
                   1
                   1
                   1
                   1
                   1
                   1
                   1
                   1
                   1
                   1
                   1
                   1
                   1
                   1
                   1
                   1
                   1
                   1
                   1
                   1
                   1
                   1
                   1
                   1
                   1
                   1
                   1
                   1
                   1
                   1
                   1
                   1
                   1
                   1
                   1
                   1
                   1
                   1
                   1
                   1
                   1
                   1
                   1
                   1
                   1
                   1
                   1
                   1
                   1
                   1
                   1
                   1
                   1
                   1
                   1
                   1
                   1
                   1
                   1
                   1
                   1
                   1
                   1
                   1
                   1
                   1
                   1
                   1
                   1
                   1
                   1
                   1
                   1
                   1
                   1
                   1
                   1
                   1
                   1
                   1
                   1
                   1
                   1
                   1
                   1
                   1
                   1
                   1
                   1
                   1
                   1
                   1
                   1
                   1
                   1
                   1
                   1
                   1
                   1
                   1
                   1
                   1
                   1
                   1
                   1
                   1
                   1
                   1
                   1
                   1
                   1
                   1
                   1
                   1
                   1
                   1
                   1
                   1
                   1
                   1
                   1
                   1
                   1
                   1
                   1
                   1
                   1
                   1
                   1
                   1
                   1
                   1
                   1
                   1
                   1
                   1
                   1
                   1
                   1
                   1
                   1
                   1
                   1
                   1
                   1
                   1
                   1
                   1
                   1
                   1
                   1
                   1
                   1
                   1
                   1
                   1
                   1
                   1
                   1
                   1
                   1
                   1
                   1
                   1
                   1
                   1
                   1
                   1
                   1
                   1
                   1
                   1
                   1
                   1
                   1
                   1
                   1
                   1
                   1
                   1
                   1
                   1
                   1
                   1
                   1
                   1
                   1
                   1
                   1
                   1
                   1
                   1
                   1
                   1
                   1
                   1
                   1
                   1
                   1
                   1
                   1
                   1
                   1
                   1
                   1
                   1
                   1
                   1
                   1
                   1
                   1
                   1
                   1
                   1
                   1
                   1
                   1
                   1
                   1
                   1
                   1
                   1
                   1
                   1
                   1
                   1
                   1
                   1
                   1
                   1
                   1
                   1
                   1
                   1
                   1
                   1
                   1
                   1
                   1
                   1
                   1
                   1
                   1
                   1
                   1
                   1
                   1
                   1
                   1
                   1
                   1
                   1
                   1
                   1
                   1
                   1
                   1
                   1
                   1
                   1
                   1
                   1
                   1
                   1
                   1
                   1
                   1
                   1
                   1
                   1
                   1
                   1
                   1
                   1
                   1
                   1
                   1
                   1
                   1
                   1
                   1
                   1
                   1
                   1
                   1
                   1
                   1
                   1
                   1
                   1
                   1
                   1
                   1
                   1
                   1
                   1
                   1
                   1
                   1
                   1
                   1
                   1
                   1
                   1
                   1
                   1
                   1
                   1
                   1
                   1
                   1
                   1
                   1
                   1
                   1
                   1
                   1
                   1
                   1
                   1
                   1
                   1
                   1
                   1
                   1
                   1
                   1
                   1
                   1
                   1
                   1
                   1
                   1
                   1
                   1
                   1
                   1
                   1
                   1
                   1
                   1
                   1
                   1
                   1
                   1
                   1
                   1
                   1
                   1
                   1
                   1
                   1
                   1
                   1
                   1
                   1
                   1
                   1
                   1
                   1
                   1
                   1
                   1
                   1
                   1
                   1
                   1
                   1
                   1
                   1
                   1
                   1
                   1
                   1
                   1
                   1
                   1
                   1
                   1
                   1
                   1
                   1
                   1
                   1
                   1
                   1
                   1
                   1
                   1
                   1
                   1
                   1
                   1
                   1
                   1
                   1
                   1
                   1
                   1
                   1
                   1
                   1
                   1
                   1
                   1
                   1
                   1
                   1
                   1
                   1
                   1
                   1
                   1
                   1
                   1
                   1
                   1
                   1
                   1
                   1
                   1
                   1
                   1
                   1
                   1
                   1
                   1
                   1
                   1
                   1
                   1
                   1
                   1
                   1
                   1
                   1
                   1
                   1
                   1
                   1
                   1
                   1
                   1
                   1
                   1
                   1
                   1
                   1
                   1
                   1
                   1
                   1
                   1
                   1
                   1
                   1
                   1
                   1
                   1
                   1
                   1
                   1
                   1
                   1
                   1
                   1
                   1
                   1
                   1
                   1
                   1
                   1
                   1
                   1
                   1
                   1
                   1
                   1
                   1
                   1
                   1
                   1
                   1
                   1
                   1
                   1
                   1
                   1
                   1
                   1
                   1
                   1
                   1
                   1
                   1
                   1
                   1
                   1
                   1
                   1
                   1
                   1
                   1
                   1
                   1
                   1
                   1
                   1
                   1
                   1
                   1
                   1
                   1
                   1
                   1
                   1
                   1
                   1
                   1
                   1
                   1
                   1
                   1
                   1
                   1
                   1
                   1
                   1
                   1
                   1
                   1
                   1
                   1
                   1
                   1
                   1
                   1
                   1
                   1
                   1
                   1
                   1
                   1
                   1
                   1
                   1
                   1
                   1
                   1
                   1
                   1
                   1
                   1
                   1
                   1
                   1
                   1
                   1
                   1
                   1
                   1
                   1
                   1
                   1
                   1
                   1
                   1
                   1
                   1
                   1
                   1
                   1
                   1
                   1
                   1
                   1
                   1
                   1
                   1
                   1
                   1
                   1
                   1
                   1
                   1
                   1
                   1
                   1
                   1
                   1
                   1
                   1
                   1
                   1
                   1
                   1
                   1
                   1
                   1
                   1
                   1
                   1
                   1
                   1
                   1
                   1
                   1
                   1
                   1
                   1
                   1
                   1
                   1
                   1
                   1
                   1
                   1
                   1
                   1
                   1
                   1
                   1
                   1
                   1
                   1
                   1
                   1
                   1
                   1
                   1
                   1
                   1
                   1
                   1
                   1
                   1
                   1
                   1
                   1
                   1
                   1
                   1
                   1
                   1
                   1
                   1
                   1
                   1
                   1
                   1
                   1
                   1
                   1
                   1
                   1
                   1
                   1
                   1
                   1
                   1
                   1
                   1
                   1
                   1
                   1
                   1
                   1
                   1
                   1
                   1
                   1
                   1
                   1
                   1
                   1
                   1
                   1
                   1
                   1
                   1
                   1
                   1
                   1
                   1
                   1
                   1
                   1
                   1
                   1
                   1
                   1
                   1
                   1
                   1
                   1
                   1
                   1
                   1
                   1
                   1
                   1
                   1
                   1
                   1
                   1
                   1
                   1
                   1
                   1
                   1
                   1
                   1
                   1
                   1
                   1
                   1
                   1
                   1
                   1
                   1
                   1
                   1
                   1
                   1
                   1
                   1
                   1
                   1
                   1
                   1
                   1
                   1
                   1
                   1
                   1
                   1
                   1
                   1
                   1
                   1
                   1
                   1
                   1
                   1
                   1
                   1
                   1
                   1
                   1
                   1
                   1
                   1
                   1
                   1
                   1
                   1
                   1
                   1
                   1
                   1
                   1
                   1
                   1
                   1
                   1
                   1
                   1
                   1
                   1
                   1
                   1
                   1
                   1
                   1
                   1
                   1
                   1
                   1
                   1
                   1
                   1
                   1
                   1
                   1
                   1
                   1
                   1
                   1
                   1
                   1
                   1
                   1
                   1
                   1
                   1
                   1
                   1
                   1
                   1
                   1
                   1
                   1
                   1
                   1
                   1
                   1
                   1
                   1
                   1
                   1
                   1
                   1
                   1
                   1
                   1
                   1
                   1
                   1
                   1
                   1
                   1
                   1
                   1
                   1
                   1
                   1
                   1
                   1
                   1
                   1
                   1
                   1
                   1
                   1
                   1
                   1
                   1
                   1
                   1
                   1
                   1
                   1
                   1
                   1
                   1
                   1
                   1
                   1
                   1
                   1
                   1
                   1
                   1
                   1
                   1
                   1
                   1
                   1
                   1
                   1
                   1
                   1
                   1
                   1
                   1
                   1
                   1
                   1
                   1
                   1
                   1
                   1
                   1
                   1
                   1
                   1
                   1
                   1
                   1
                   1
                   1
                   1
                   1
                   1
                   1
                   1
                   1
                   1
                   1
                   1
                   1
                   1
                   1
                   1
                   1
                   1
                   1
                   1
                   1
                   1
                   1
                   1
                   1
                   1
                   1
                   1
                   1
                   1
                   1
                   1
                   1
                   1
                   1
                   1
                   1
                   1
                   1
                   1
                   1
                   1
                   1
                   1
                   1
                   1
                   1
                   1
                   1
                   1
                   1
                   1
                   1
                   1
                   1
                   1
                   1
                   1
                   1
                   1
                   1
                   1
                   1
                   1
                   1
                   1
                   1
                   1
                   1
                   1
                   1
                   1
                   1
                   1
                   1
                   1
                   1
                   1
                   1
                   1
                   1
                   1
                   1
                   1
                   1
                   1
                   1
                   1
                   1
                   1
                   1
                   1
                   1
                   1
                   1
                   1
                   1
                   1
                   1
                   1
                   1
                   1
                   1
                   1
                   1
                   1
                   1
                   1
                   1
                   1
                   1
                   1
                   1
                   1
                   1
                   1
                   1
                   1
                   1
                   1
                   1
                   1
                   1
                   1
                   1
                   1
                   1
                   1
                   1
                   1
                   1
                   1
                   1
                   1
                   1
                   1
                   1
                   1
                   1
                   1
                   1
                   1
                   1
                   1
                   1
                   1
                   1
                   1
                   1
                   1
                   1
                   1
                   1
                   1
                   1
                   1
                   1
                   1
                   1
                   1
                   1
                   1
                   1
                   1
                   1
                   1
                   1
                   1
                   1
                   1
                   1
                   1
                   1
                   1
                   1
                   1
                   1
                   1
                   1
                   1
                   1
                   1
                   1
                   1
                   1
                   1
                   1
                   1
                   1
                   1
                   1
                   1
                   1
                   1
                   1
                   1
                   1
                   1
                   1
                   1
                   1
                   1
                   1
                   1
                   1
                   1
                   1
                   1
                   1
                   1
                   1
                   1
                   1
                   1
                   1
                   1
                   1
                   1
                   1
                   1
                   1
                   1
                   1
                   1
                   1
                   1
                   1
                   1
                   1
                   1
                   1
                   1
                   1
                   1
                   1
                   1
                   1
                   1
                   1
                   1
                   1
                   1
                   1
                   1
                   1
                   1
                   1
                   1
                   1
                   1
                   1
                   1
                   1
                   1
                   1
                   1
                   1
                   1
                   1
                   1
                   1
                   1
                   1
                   1
                   1
                   1
                   1
                   1
                   1
                   1
                   1
                   1
                   1
                   1
                   1
                   1
                   1
                   1
                   1
                   1
                   1
                   1
                   1
                   1
                   1
                   1
                   1
                   1
                   1
                   1
                   1
                   1
                   1
                   1
                   1
                   1
                   1
                   1
                   1
                   1
                   1
                   1
                   1
                   1
                   1
                   1
                   1
                   1
                   1
                   1
                   1
                   1
                   1
                   1
                   1
                   1
                   1
                   1
                   1
                   1
                   1
                   1
                   1
                   1
                   1
                   1
                   1
                   1
                   1
                   1
                   1
                   1
                   1
                   1
                   1
                   1
                   1
                   1
                   1
                   1
                   1
                   1
                   1
                   1
                   1
                   1
                   1
                   1
                   1
                   1
                   1
                   1
                   1
                   1
                   1
                   1
                   1
                   1
                   1
                   1
                   1
                   1
                   1
                   1
                   1
                   1
                   1
                   1
                   1
                   1
                   1
                   1
                   1
                   1
                   1
                   1
                   1
                   1
                   1
                   1
                   1
                   1
                   1
                   1
                   1
                   1
                   1
                   1
                   1
                   1
                   1
                   1
                   1
                   1
                   1
                   1
                   1
                   1
                   1
                   1
                   1
                   1
                   1
                   1
                   1
                   1
                   1
                   1
                   1
                   1
                   1
                   1
                   1
                   1
                   1
                   1
                   1
                   1
                   1
                   1
                   1
                   1
                   1
                   1
                   1
                   1
                   1
                   1
                   1
                   1
                   1
                   1
                   1
                   1
                   1
                   1
                   1
                   1
                   1
                   1
                   1
                   1
                   1
                   1
                   1
                   1
                   1
                   1
                   1
                   1
                   1
                   1
                   1
                   1
                   1
                   1
                   1
                   1
                   1
                   1
                   1
                   1
                   1
                   1
                   1
                   1
                   1
                   1
                   1
                   1
                   1
                   1
                   1
                   1
                   1
                   1
                   1
                   1
                   1
                   1
                   1
                   1
                   1
                   1
                   1
                   1
                   1
                   1
                   1
                   1
                   1
                   1
                   1
                   1
                   1
                   1
                   1
                   1
                   1
                   1
                   1
                   1
                   1
                   1
                   1
                   1
                   1
                   1
                   1
                   1
                   1
                   1
                   1
                   1
                   1
                   1
                   1
                   1
                   1
                   1
                   1
                   1
                   1
                   1
                   1
                   1
                   1
                   1
                   1
                   1
                   1
                   1
                   1
                   1
                   1
                   1
                   1
                   1
                   1
                   1
                   1
                   1
                   1
                   1
                   1
                   1
                   1
                   1
                   1
                   1
                   1
                   1
                   1
                   1
                   1
                   1
                   1
                   1
                   1
                   1
                   1
                   1
                   1
                   1
                   1
                   1
                   1
                   1
                   1
                   1
                   1
                   1
                   1
                   1
                   1
                   1
                   1
                   1
                   1
                   1
                   1
                   1
                   1
                   1
                   1
                   1
                   1
                   1
                   1
  
SCALARS                  material_type  double 1
LOOKUP_TABLE default
                   2
                   2
                   2
                   2
                   2
                   2
                   2
                   2
                   2
                   2
                   2
                   2
                   2
                   2
                   2
                   2
                   2
                   2
                   2
                   2
                   2
                   2
                   2
                   2
                   2
                   2
                   2
                   2
                   2
                   2
                   2
                   2
                   2
                   2
                   2
                   2
                   2
                   2
                   2
                   2
                   2
                   2
                   2
                   2
                   2
                   2
                   2
                   2
                   2
                   2
                   2
                   2
                   2
                   2
                   2
                   2
                   2
                   2
                   2
                   2
                   2
                   2
                   2
                   2
                   2
                   2
                   2
                   2
                   2
                   2
                   2
                   2
                   2
                   2
                   2
                   2
                   2
                   2
                   2
                   2
                   2
                   2
                   2
                   2
                   2
                   2
                   2
                   2
                   2
                   2
                   2
                   2
                   2
                   2
                   2
                   2
                   2
                   2
                   2
                   2
                   2
                   2
                   2
                   2
                   2
                   2
                   2
                   2
                   2
                   2
                   2
                   2
                   2
                   2
                   2
                   2
                   2
                   2
                   2
                   2
                   2
                   2
                   2
                   2
                   2
                   2
                   2
                   2
                   2
                   2
                   2
                   2
                   2
                   2
                   2
                   2
                   2
                   2
                   2
                   2
                   2
                   2
                   2
                   2
                   2
                   2
                   2
                   2
                   2
                   2
                   2
                   2
                   2
                   2
                   2
                   2
                   2
                   2
                   2
                   2
                   2
                   2
                   2
                   2
                   2
                   2
                   2
                   2
                   2
                   2
                   2
                   2
                   2
                   2
                   2
                   2
                   2
                   2
                   2
                   2
                   2
                   2
                   2
                   2
                   2
                   2
                   2
                   2
                   2
                   2
                   2
                   2
                   2
                   2
                   2
                   2
                   2
                   2
                   2
                   2
                   2
                   2
                   2
                   2
                   2
                   2
                   2
                   2
                   2
                   2
                   2
                   2
                   2
                   2
                   2
                   2
                   2
                   2
                   2
                   2
                   2
                   2
                   2
                   2
                   2
                   2
                   2
                   2
                   2
                   2
                   2
                   2
                   2
                   2
                   2
                   2
                   2
                   2
                   2
                   2
                   2
                   2
                   2
                   2
                   2
                   2
                   2
                   2
                   2
                   2
                   2
                   2
                   2
                   2
                   2
                   2
                   2
                   2
                   2
                   2
                   2
                   2
                   2
                   2
                   2
                   2
                   2
                   2
                   2
                   2
                   2
                   2
                   2
                   2
                   2
                   2
                   2
                   2
                   2
                   2
                   2
                   2
                   2
                   2
                   2
                   2
                   2
                   2
                   2
                   2
                   2
                   2
                   2
                   2
                   2
                   2
                   2
                   2
                   2
                   2
                   2
                   2
                   2
                   2
                   2
                   2
                   2
                   2
                   2
                   2
                   2
                   2
                   2
                   2
                   2
                   2
                   2
                   2
                   2
                   2
                   2
                   2
                   2
                   2
                   2
                   2
                   2
                   2
                   2
                   2
                   2
                   2
                   2
                   2
                   2
                   2
                   2
                   2
                   2
                   2
                   2
                   2
                   2
                   2
                   2
                   2
                   2
                   2
                   2
                   2
                   2
                   2
                   2
                   2
                   2
                   2
                   2
                   2
                   2
                   2
                   2
                   2
                   2
                   2
                   2
                   2
                   2
                   2
                   2
                   2
                   2
                   2
                   2
                   2
                   2
                   2
                   2
                   2
                   2
                   2
                   2
                   2
                   2
                   2
                   2
                   2
                   2
                   2
                   2
                   2
                   2
                   2
                   2
                   2
                   2
                   2
                   2
                   2
                   2
                   2
                   2
                   2
                   2
                   2
                   2
                   2
                   2
                   2
                   2
                   2
                   2
                   2
                   2
                   2
                   2
                   2
                   2
                   2
                   2
                   2
                   2
                   2
                   2
                   2
                   2
                   2
                   2
                   2
                   2
                   2
                   2
                   2
                   2
                   2
                   2
                   2
                   2
                   2
                   2
                   2
                   2
                   2
                   2
                   2
                   2
                   2
                   2
                   2
                   2
                   2
                   2
                   2
                   2
                   2
                   2
                   2
                   2
                   2
                   2
                   2
                   2
                   2
                   2
                   2
                   2
                   2
                   2
                   2
                   2
                   2
                   2
                   2
                   2
                   2
                   2
                   2
                   2
                   2
                   2
                   2
                   2
                   2
                   2
                   2
                   2
                   2
                   2
                   2
                   2
                   2
                   2
                   2
                   2
                   2
                   2
                   2
                   2
                   2
                   2
                   2
                   2
                   2
                   2
                   2
                   2
                   2
                   2
                   2
                   2
                   2
                   2
                   2
                   2
                   2
                   2
                   2
                   2
                   2
                   2
                   2
                   2
                   2
                   2
                   2
                   2
                   2
                   2
                   2
                   2
                   2
                   2
                   2
                   2
                   2
                   2
                   2
                   2
                   2
                   2
                   2
                   2
                   2
                   2
                   2
                   2
                   2
                   2
                   2
                   2
                   2
                   2
                   2
                   2
                   2
                   2
                   2
                   2
                   2
                   2
                   2
                   2
                   2
                   2
                   2
                   2
                   2
                   2
                   2
                   2
                   2
                   2
                   2
                   2
                   2
                   2
                   2
                   2
                   2
                   2
                   2
                   2
                   2
                   2
                   2
                   2
                   2
                   2
                   2
                   2
                   2
                   2
                   2
                   2
                   2
                   2
                   2
                   2
                   2
                   2
                   2
                   2
                   2
                   2
                   2
                   2
                   2
                   2
                   2
                   2
                   2
                   2
                   2
                   2
                   2
                   2
                   2
                   2
                   2
                   2
                   2
                   2
                   2
                   2
                   2
                   2
                   2
                   2
                   2
                   2
                   2
                   2
                   2
                   2
                   2
                   2
                   2
                   2
                   2
                   2
                   2
                   2
                   2
                   2
                   2
                   2
                   2
                   2
                   2
                   2
                   2
                   2
                   2
                   2
                   2
                   2
                   2
                   2
                   2
                   2
                   2
                   2
                   2
                   2
                   2
                   2
                   2
                   2
                   2
                   2
                   2
                   2
                   2
                   2
                   2
                   2
                   2
                   2
                   2
                   2
                   2
                   2
                   2
                   2
                   2
                   2
                   2
                   2
                   2
                   2
                   2
                   2
                   2
                   2
                   2
                   2
                   2
                   2
                   2
                   2
                   2
                   2
                   2
                   2
                   2
                   2
                   2
                   2
                   2
                   2
                   2
                   2
                   2
                   2
                   2
                   2
                   2
                   2
                   2
                   2
                   2
                   2
                   2
                   2
                   2
                   2
                   2
                   2
                   2
                   2
                   2
                   2
                   2
                   2
                   2
                   2
                   2
                   2
                   2
                   2
                   2
                   2
                   2
                   2
                   2
                   2
                   2
                   2
                   2
                   2
                   2
                   2
                   2
                   2
                   2
                   2
                   2
                   2
                   2
                   2
                   2
                   2
                   2
                   2
                   2
                   2
                   2
                   2
                   2
                   2
                   2
                   2
                   2
                   2
                   2
                   2
                   2
                   2
                   2
                   2
                   2
                   2
                   2
                   2
                   2
                   2
                   2
                   2
                   2
                   2
                   2
                   2
                   2
                   2
                   2
                   2
                   2
                   2
                   2
                   2
                   2
                   2
                   2
                   2
                   2
                   2
                   2
                   2
                   2
                   2
                   2
                   2
                   2
                   2
                   2
                   2
                   2
                   2
                   2
                   2
                   2
                   2
                   2
                   2
                   2
                   2
                   2
                   2
                   2
                   2
                   2
                   2
                   2
                   2
                   2
                   2
                   2
                   2
                   2
                   2
                   2
                   2
                   2
                   2
                   2
                   2
                   2
                   2
                   2
                   2
                   2
                   2
                   2
                   2
                   2
                   2
                   2
                   2
                   2
                   2
                   2
                   2
                   2
                   2
                   2
                   2
                   2
                   2
                   2
                   2
                   2
                   2
                   2
                   2
                   2
                   2
                   2
                   2
                   2
                   2
                   2
                   2
                   2
                   2
                   2
                   2
                   2
                   2
                   2
                   2
                   2
                   2
                   2
                   2
                   2
                   2
                   2
                   2
                   2
                   2
                   2
                   2
                   2
                   2
                   2
                   2
                   2
                   2
                   2
                   2
                   2
                   2
                   2
                   2
                   2
                   2
                   2
                   2
                   2
                   2
                   2
                   2
                   2
                   2
                   2
                   2
                   2
                   2
                   2
                   2
                   2
                   2
                   2
                   2
                   2
                   2
                   2
                   2
                   2
                   2
                   2
                   2
                   2
                   2
                   2
                   2
                   2
                   2
                   2
                   2
                   2
                   2
                   2
                   2
                   2
                   2
                   2
                   2
                   2
                   2
                   2
                   2
                   2
                   2
                   2
                   2
                   2
                   2
                   2
                   2
                   2
                   2
                   2
                   2
                   2
                   2
                   2
                   2
                   2
                   2
                   2
                   2
                   2
                   2
                   2
                   2
                   2
                   2
                   2
                   2
                   2
                   2
                   2
                   2
                   2
                   2
                   2
                   2
                   2
                   2
                   2
                   2
                   2
                   2
                   2
                   2
                   2
                   2
                   2
                   2
                   2
                   2
                   2
                   2
                   2
                   2
                   2
                   2
                   2
                   2
                   2
                   2
                   2
                   2
                   2
                   2
                   2
                   2
                   2
                   2
                   2
                   2
                   2
                   2
                   2
                   2
                   2
                   2
                   2
                   2
                   2
                   2
                   2
                   2
                   2
                   2
                   2
                   2
                   2
                   2
                   2
                   2
                   2
                   2
                   2
                   2
                   2
                   2
                   2
                   2
                   2
                   2
                   2
                   2
                   2
                   2
                   2
                   2
                   2
                   2
                   2
                   2
                   2
                   2
                   2
                   2
                   2
                   2
                   2
                   2
                   2
                   2
                   2
                   2
                   2
                   2
                   2
                   2
                   2
                   2
                   2
                   2
                   2
                   2
                   2
                   2
                   2
                   2
                   2
                   2
                   2
                   2
                   2
                   2
                   2
                   2
                   2
                   2
                   2
                   2
                   2
                   2
                   2
                   2
                   2
                   2
                   2
                   2
                   2
                   2
                   2
                   2
                   2
                   2
                   2
                   2
                   2
                   2
                   2
                   2
                   2
                   2
                   2
                   2
                   2
                   2
                   2
                   2
                   2
                   2
                   2
                   2
                   2
                   2
                   2
                   2
                   2
                   2
                   2
                   2
                   2
                   2
                   2
                   2
                   2
                   2
                   2
                   2
                   2
                   2
                   2
                   2
                   2
                   2
                   2
                   2
                   2
                   2
                   2
                   2
                   2
                   2
                   2
                   2
                   2
                   2
                   2
                   2
                   2
                   2
                   2
                   2
                   2
                   2
                   2
                   2
                   2
                   2
                   2
                   2
                   2
                   2
                   2
                   2
                   2
                   2
                   2
                   2
                   2
                   2
                   2
                   2
                   2
                   2
                   2
                   2
                   2
                   2
                   2
                   2
                   2
                   2
                   2
                   2
                   2
                   2
                   2
                   2
                   2
                   2
                   2
                   2
                   2
                   2
                   2
                   2
                   2
                   2
                   2
                   2
                   2
                   2
                   2
                   2
                   2
                   2
                   2
                   2
                   2
                   2
                   2
                   2
                   2
                   2
                   2
                   2
                   2
                   2
                   2
                   2
                   2
                   2
                   2
                   2
                   2
                   2
                   2
                   2
                   2
                   2
                   2
                   2
                   2
                   2
                   2
                   2
                   2
                   2
                   2
                   2
                   2
                   2
                   2
                   2
                   2
                   2
                   2
                   2
                   2
                   2
                   2
                   2
                   2
                   2
                   2
                   2
                   2
                   2
                   2
                   2
                   2
                   2
                   2
                   2
                   2
                   2
                   2
                   2
                   2
                   2
                   2
                   2
                   2
                   2
                   2
                   2
                   2
                   2
                   2
                   2
                   2
                   2
                   2
                   2
                   2
                   2
                   2
                   2
                   2
                   2
                   2
                   2
                   2
                   2
                   2
                   2
                   2
                   2
                   2
                   2
                   2
                   2
                   2
                   2
                   2
                   2
                   2
                   2
                   2
                   2
                   2
                   2
                   2
                   2
                   2
                   2
                   2
                   2
                   2
                   2
                   2
                   2
                   2
                   2
                   2
                   2
                   2
                   2
                   2
                   2
                   2
                   2
                   2
                   2
                   2
                   2
                   2
                   2
                   2
                   2
                   2
                   2
                   2
                   2
                   2
                   2
                   2
                   2
                   2
                   2
                   2
                   2
                   2
                   2
                   2
                   2
                   2
                   2
                   2
                   2
                   2
                   2
                   2
                   2
                   2
                   2
                   2
                   2
                   2
                   2
                   2
                   2
                   2
                   2
                   2
                   2
                   2
                   2
                   2
                   2
                   2
                   2
                   2
                   2
                   2
                   2
                   2
                   2
                   2
                   2
                   2
                   2
                   2
                   2
                   2
                   2
                   2
                   2
                   2
                   2
                   2
                   2
                   2
                   2
                   2
                   2
                   2
                   2
                   2
                   2
                   2
                   2
                   2
                   2
                   2
                   2
                   2
                   2
                   2
                   2
                   2
                   2
                   2
                   2
                   2
                   2
                   2
                   2
                   2
                   2
                   2
                   2
                   2
                   2
                   2
                   2
                   2
                   2
                   2
                   2
                   2
                   2
                   2
                   2
                   2
                   2
                   2
                   2
                   2
                   2
                   2
                   2
                   2
                   2
                   2
                   2
                   2
                   2
                   2
                   2
                   2
                   2
                   2
                   2
                   2
                   2
                   2
                   2
                   2
                   2
                   2
                   2
                   2
                   2
                   2
                   2
                   2
                   2
                   2
                   2
                   2
                   2
                   2
                   2
                   2
                   2
                   2
                   2
                   2
                   2
                   2
                   2
                   2
                   2
                   2
                   2
                   2
                   2
                   2
                   2
                   2
                   2
                   2
                   2
                   2
                   2
                   2
                   2
                   2
                   2
                   2
                   2
                   2
                   2
                   2
                   2
                   2
                   2
                   2
                   2
                   2
                   2
                   2
                   2
                   2
                   2
                   2
                   2
                   2
                   2
                   2
                   2
                   2
                   2
                   2
                   2
                   2
                   2
                   2
                   2
                   2
                   2
                   2
                   2
                   2
                   2
                   2
                   2
                   2
                   2
                   2
                   2
                   2
                   2
                   2
                   2
                   2
                   2
                   2
                   2
                   2
                   2
                   2
                   2
                   2
                   2
                   2
                   2
                   2
                   2
                   2
                   2
                   2
                   2
                   2
                   2
                   2
                   2
                   2
                   2
                   2
                   2
                   2
                   2
                   2
                   2
                   2
                   2
                   2
                   2
                   2
                   2
                   2
                   2
                   2
                   2
                   2
                   2
                   2
                   2
                   2
                   2
                   2
                   2
                   2
                   2
                   2
                   2
                   2
                   2
                   2
                   2
                   2
                   2
                   2
                   2
                   2
                   2
                   2
                   2
                   2
                   2
                   2
                   2
                   2
                   2
                   2
                   2
                   2
                   2
                   2
                   2
                   2
                   2
                   2
                   2
                   2
                   2
                   2
                   2
                   2
                   2
                   2
                   2
                   2
                   2
                   2
                   2
                   2
                   2
                   2
                   2
                   2
                   2
                   2
                   2
                   2
                   2
                   2
                   2
                   2
                   2
                   2
                   2
                   2
                   2
                   2
                   2
                   2
                   2
                   2
                   2
                   2
                   2
                   2
                   2
                   2
                   2
                   2
                   2
                   2
                   2
                   2
                   2
                   2
                   2
                   2
                   2
                   2
                   2
                   2
                   2
                   2
                   2
                   2
                   2
                   2
                   2
                   2
                   2
                   2
                   2
                   2
                   2
                   2
                   2
                   2
                   2
                   2
                   2
                   2
                   2
                   2
                   2
                   2
                   2
                   2
                   2
                   2
                   2
                   2
                   2
                   2
                   2
                   2
                   2
                   2
                   2
                   2
                   2
                   2
                   2
                   2
                   2
                   2
                   2
                   2
                   2
                   2
                   2
                   2
                   2
                   2
                   2
                   2
                   2
                   2
                   2
                   2
                   2
                   2
                   2
                   2
                   2
                   2
                   2
                   2
                   2
                   2
                   2
                   2
                   2
                   2
                   2
                   2
                   2
                   2
                   2
                   2
                   2
                   2
                   2
                   2
                   2
                   2
                   2
                   2
                   2
                   2
                   2
                   2
                   2
                   2
                   2
                   2
                   2
                   2
                   2
                   2
                   2
                   2
                   2
                   2
                   2
                   2
                   2
                   2
                   2
                   2
                   2
                   2
                   2
                   2
                   2
                   2
                   2
                   2
                   2
                   2
                   2
                   2
                   2
                   2
                   2
                   2
                   2
                   2
                   2
                   2
                   2
                   2
                   2
                   2
                   2
                   2
                   2
                   2
                   2
                   2
                   2
                   2
                   2
                   2
                   2
                   2
                   2
                   2
                   2
                   2
                   2
                   2
                   2
                   2
                   2
                   2
                   2
                   2
                   2
                   2
                   2
                   2
                   2
                   2
                   2
                   2
                   2
                   2
                   2
                   2
                   2
                   2
                   2
                   2
                   2
                   2
                   2
                   2
                   2
                   2
                   2
                   2
                   2
                   2
                   2
                   2
                   2
                   2
                   2
                   2
                   2
                   2
                   2
                   2
                   2
                   2
                   2
                   2
                   2
                   2
                   2
                   2
                   2
                   2
                   2
                   2
                   2
                   2
                   2
                   2
                   2
                   2
                   2
                   2
                   2
                   2
                   2
                   2
                   2
                   2
                   2
                   2
                   2
                   2
                   2
                   2
                   2
                   2
                   2
                   2
                   2
                   2
  
SCALARS                       fixity_x  double 1
LOOKUP_TABLE default
                   0
                   0
                   0
                   0
                   0
                   0
                   0
                   0
                   0
                   0
                   0
                   0
                   0
                   0
                   0
                   0
                   0
                   0
                   0
                   0
                   0
                   0
                   0
                   0
                   0
                   0
                   0
                   0
                   0
                   0
                   0
                   0
                   0
                   0
                   0
                   0
                   0
                   0
                   0
                   0
                   0
                   0
                   0
                   0
                   0
                   0
                   0
                   0
                   0
                   0
                   0
                   0
                   0
                   0
                   0
                   0
                   0
                   0
                   0
                   0
                   0
                   0
                   0
                   0
                   0
                   0
                   0
                   0
                   0
                   0
                   0
                   0
                   0
                   0
                   0
                   0
                   0
                   0
                   0
                   0
                   0
                   0
                   0
                   0
                   0
                   0
                   0
                   0
                   0
                   0
                   0
                   0
                   0
                   0
                   0
                   0
                   0
                   0
                   0
                   0
                   0
                   0
                   0
                   0
                   0
                   0
                   0
                   0
                   0
                   0
                   0
                   0
                   0
                   0
                   0
                   0
                   0
                   0
                   0
                   0
                   0
                   0
                   0
                   0
                   0
                   0
                   0
                   0
                   0
                   0
                   0
                   0
                   0
                   0
                   0
                   0
                   0
                   0
                   0
                   0
                   0
                   0
                   0
                   0
                   0
                   0
                   0
                   0
                   0
                   0
                   0
                   0
                   0
                   0
                   0
                   0
                   0
                   0
                   0
                   0
                   0
                   0
                   0
                   0
                   0
                   0
                   0
                   0
                   0
                   0
                   0
                   0
                   0
                   0
                   0
                   0
                   0
                   0
                   0
                   0
                   0
                   0
                   0
                   0
                   0
                   0
                   0
                   0
                   0
                   0
                   0
                   0
                   0
                   0
                   0
                   0
                   0
                   0
                   0
                   0
                   0
                   0
                   0
                   0
                   0
                   0
                   0
                   0
                   0
                   0
                   0
                   0
                   0
                   0
                   0
                   0
                   0
                   0
                   0
                   0
                   0
                   0
                   0
                   0
                   0
                   0
                   0
                   0
                   0
                   0
                   0
                   0
                   0
                   0
                   0
                   0
                   0
                   0
                   0
                   0
                   0
                   0
                   0
                   0
                   0
                   0
                   0
                   0
                   0
                   0
                   0
                   0
                   0
                   0
                   0
                   0
                   0
                   0
                   0
                   0
                   0
                   0
                   0
                   0
                   0
                   0
                   0
                   0
                   0
                   0
                   0
                   0
                   0
                   0
                   0
                   0
                   0
                   0
                   0
                   0
                   0
                   0
                   0
                   0
                   0
                   0
                   0
                   0
                   0
                   0
                   0
                   0
                   0
                   0
                   0
                   0
                   0
                   0
                   0
                   0
                   0
                   0
                   0
                   0
                   0
                   0
                   0
                   0
                   0
                   0
                   0
                   0
                   0
                   0
                   0
                   0
                   0
                   0
                   0
                   0
                   0
                   0
                   0
                   0
                   0
                   0
                   0
                   0
                   0
                   0
                   0
                   0
                   0
                   0
                   0
                   0
                   0
                   0
                   0
                   0
                   0
                   0
                   0
                   0
                   0
                   0
                   0
                   0
                   0
                   0
                   0
                   0
                   0
                   0
                   0
                   0
                   0
                   0
                   0
                   0
                   0
                   0
                   0
                   0
                   0
                   0
                   0
                   0
                   0
                   0
                   0
                   0
                   0
                   0
                   0
                   0
                   0
                   0
                   0
                   0
                   0
                   0
                   0
                   0
                   0
                   0
                   0
                   0
                   0
                   0
                   0
                   0
                   0
                   0
                   0
                   0
                   0
                   0
                   0
                   0
                   0
                   0
                   0
                   0
                   0
                   0
                   0
                   0
                   0
                   0
                   0
                   0
                   0
                   0
                   0
                   0
                   0
                   0
                   0
                   0
                   0
                   0
                   0
                   0
                   0
                   0
                   0
                   0
                   0
                   0
                   0
                   0
                   0
                   0
                   0
                   0
                   0
                   0
                   0
                   0
                   0
                   0
                   0
                   0
                   0
                   0
                   0
                   0
                   0
                   0
                   0
                   0
                   0
                   0
                   0
                   0
                   0
                   0
                   0
                   0
                   0
                   0
                   0
                   0
                   0
                   0
                   0
                   0
                   0
                   0
                   0
                   0
                   0
                   0
                   0
                   0
                   0
                   0
                   0
                   0
                   0
                   0
                   0
                   0
                   0
                   0
                   0
                   0
                   0
                   0
                   0
                   0
                   0
                   0
                   0
                   0
                   0
                   0
                   0
                   0
                   0
                   0
                   0
                   0
                   0
                   0
                   0
                   0
                   0
                   0
                   0
                   0
                   0
                   0
                   0
                   0
                   0
                   0
                   0
                   0
                   0
                   0
                   0
                   0
                   0
                   0
                   0
                   0
                   0
                   0
                   0
                   0
                   0
                   0
                   0
                   0
                   0
                   0
                   0
                   0
                   0
                   0
                   0
                   0
                   0
                   0
                   0
                   0
                   0
                   0
                   0
                   0
                   0
                   0
                   0
                   0
                   0
                   0
                   0
                   0
                   0
                   0
                   0
                   0
                   0
                   0
                   0
                   0
                   0
                   0
                   0
                   0
                   0
                   0
                   0
                   0
                   0
                   0
                   0
                   0
                   0
                   0
                   0
                   0
                   0
                   0
                   0
                   0
                   0
                   0
                   0
                   0
                   0
                   0
                   0
                   0
                   0
                   0
                   0
                   0
                   0
                   0
                   0
                   0
                   0
                   0
                   0
                   0
                   0
                   0
                   0
                   0
                   0
                   0
                   0
                   0
                   0
                   0
                   0
                   0
                   0
                   0
                   0
                   0
                   0
                   0
                   0
                   0
                   0
                   0
                   0
                   0
                   0
                   0
                   0
                   0
                   0
                   0
                   0
                   0
                   0
                   0
                   0
                   0
                   0
                   0
                   0
                   0
                   0
                   0
                   0
                   0
                   0
                   0
                   0
                   0
                   0
                   0
                   0
                   0
                   0
                   0
                   0
                   0
                   0
                   0
                   0
                   0
                   0
                   0
                   0
                   0
                   0
                   0
                   0
                   0
                   0
                   0
                   0
                   0
                   0
                   0
                   0
                   0
                   0
                   0
                   0
                   0
                   0
                   0
                   0
                   0
                   0
                   0
                   0
                   0
                   0
                   0
                   0
                   0
                   0
                   0
                   0
                   0
                   0
                   0
                   0
                   0
                   0
                   0
                   0
                   0
                   0
                   0
                   0
                   0
                   0
                   0
                   0
                   0
                   0
                   0
                   0
                   0
                   0
                   0
                   0
                   0
                   0
                   0
                   0
                   0
                   0
                   0
                   0
                   0
                   0
                   0
                   0
                   0
                   0
                   0
                   0
                   0
                   0
                   0
                   0
                   0
                   0
                   0
                   0
                   0
                   0
                   0
                   0
                   0
                   0
                   0
                   0
                   0
                   0
                   0
                   0
                   0
                   0
                   0
                   0
                   0
                   0
                   0
                   0
                   0
                   0
                   0
                   0
                   0
                   0
                   0
                   0
                   0
                   0
                   0
                   0
                   0
                   0
                   0
                   0
                   0
                   0
                   0
                   0
                   0
                   0
                   0
                   0
                   0
                   0
                   0
                   0
                   0
                   0
                   0
                   0
                   0
                   0
                   0
                   0
                   0
                   0
                   0
                   0
                   0
                   0
                   0
                   0
                   0
                   0
                   0
                   0
                   0
                   0
                   0
                   0
                   0
                   0
                   0
                   0
                   0
                   0
                   0
                   0
                   0
                   0
                   0
                   0
                   0
                   0
                   0
                   0
                   0
                   0
                   0
                   0
                   0
                   0
                   0
                   0
                   0
                   0
                   0
                   0
                   0
                   0
                   0
                   0
                   0
                   0
                   0
                   0
                   0
                   0
                   0
                   0
                   0
                   0
                   0
                   0
                   0
                   0
                   0
                   0
                   0
                   0
                   0
                   0
                   0
                   0
                   0
                   0
                   0
                   0
                   0
                   0
                   0
                   0
                   0
                   0
                   0
                   0
                   0
                   0
                   0
                   0
                   0
                   0
                   0
                   0
                   0
                   0
                   0
                   0
                   0
                   0
                   0
                   0
                   0
                   0
                   0
                   0
                   0
                   0
                   0
                   0
                   0
                   0
                   0
                   0
                   0
                   0
                   0
                   0
                   0
                   0
                   0
                   0
                   0
                   0
                   0
                   0
                   0
                   0
                   0
                   0
                   0
                   0
                   0
                   0
                   0
                   0
                   0
                   0
                   0
                   0
                   0
                   0
                   0
                   0
                   0
                   0
                   0
                   0
                   0
                   0
                   0
                   0
                   0
                   0
                   0
                   0
                   0
                   0
                   0
                   0
                   0
                   0
                   0
                   0
                   0
                   0
                   0
                   0
                   0
                   0
                   0
                   0
                   0
                   0
                   0
                   0
                   0
                   0
                   0
                   0
                   0
                   0
                   0
                   0
                   0
                   0
                   0
                   0
                   0
                   0
                   0
                   0
                   0
                   0
                   0
                   0
                   0
                   0
                   0
                   0
                   0
                   0
                   0
                   0
                   0
                   0
                   0
                   0
                   0
                   0
                   0
                   0
                   0
                   0
                   0
                   0
                   0
                   0
                   0
                   0
                   0
                   0
                   0
                   0
                   0
                   0
                   0
                   0
                   0
                   0
                   0
                   0
                   0
                   0
                   0
                   0
                   0
                   0
                   0
                   0
                   0
                   0
                   0
                   0
                   0
                   0
                   0
                   0
                   0
                   0
                   0
                   0
                   0
                   0
                   0
                   0
                   0
                   0
                   0
                   0
                   0
                   0
                   0
                   0
                   0
                   0
                   0
                   0
                   0
                   0
                   0
                   0
                   0
                   0
                   0
                   0
                   0
                   0
                   0
                   0
                   0
                   0
                   0
                   0
                   0
                   0
                   0
                   0
                   0
                   0
                   0
                   0
                   0
                   0
                   0
                   0
                   0
                   0
                   0
                   0
                   0
                   0
                   0
                   0
                   0
                   0
                   0
                   0
                   0
                   0
                   0
                   0
                   0
                   0
                   0
                   0
                   0
                   0
                   0
                   0
                   0
                   0
                   0
                   0
                   0
                   0
                   0
                   0
                   0
                   0
                   0
                   0
                   0
                   0
                   0
                   0
                   0
                   0
                   0
                   0
                   0
                   0
                   0
                   0
                   0
                   0
                   0
                   0
                   0
                   0
                   0
                   0
                   0
                   0
                   0
                   0
                   0
                   0
                   0
                   0
                   0
                   0
                   0
                   0
                   0
                   0
                   0
                   0
                   0
                   0
                   0
                   0
                   0
                   0
                   0
                   0
                   0
                   0
                   0
                   0
                   0
                   0
                   0
                   0
                   0
                   0
                   0
                   0
                   0
                   0
                   0
                   0
                   0
                   0
                   0
                   0
                   0
                   0
                   0
                   0
                   0
                   0
                   0
                   0
                   0
                   0
                   0
                   0
                   0
                   0
                   0
                   0
                   0
                   0
                   0
                   0
                   0
                   0
                   0
                   0
                   0
                   0
                   0
                   0
                   0
                   0
                   0
                   0
                   0
                   0
                   0
                   0
                   0
                   0
                   0
                   0
                   0
                   0
                   0
                   0
                   0
                   0
                   0
                   0
                   0
                   0
                   0
                   0
                   0
                   0
                   0
                   0
                   0
                   0
                   0
                   0
                   0
                   0
                   0
                   0
                   0
                   0
                   0
                   0
                   0
                   0
                   0
                   0
                   0
                   0
                   0
                   0
                   0
                   0
                   0
                   0
                   0
                   0
                   0
                   0
                   0
                   0
                   0
                   0
                   0
                   0
                   0
                   0
                   0
                   0
                   0
                   0
                   0
                   0
                   0
                   0
                   0
                   0
                   0
                   0
                   0
                   0
                   0
                   0
                   0
                   0
                   0
                   0
                   0
                   0
                   0
                   0
                   0
                   0
                   0
                   0
                   0
                   0
                   0
                   0
                   0
                   0
                   0
                   0
                   0
                   0
                   0
                   0
                   0
                   0
                   0
                   0
                   0
                   0
                   0
                   0
                   0
                   0
                   0
                   0
                   0
                   0
                   0
                   0
                   0
                   0
                   0
                   0
                   0
                   0
                   0
                   0
                   0
                   0
                   0
                   0
                   0
                   0
                   0
                   0
                   0
                   0
                   0
                   0
                   0
                   0
                   0
                   0
                   0
                   0
                   0
                   0
                   0
                   0
                   0
                   0
                   0
                   0
                   0
                   0
                   0
                   0
                   0
                   0
                   0
                   0
                   0
                   0
                   0
                   0
                   0
                   0
                   0
                   0
                   0
                   0
                   0
                   0
                   0
                   0
                   0
                   0
                   0
                   0
                   0
                   0
                   0
                   0
                   0
                   0
                   0
                   0
                   0
                   0
                   0
                   0
                   0
                   0
                   0
                   0
                   0
                   0
                   0
                   0
                   0
                   0
                   0
                   0
                   0
                   0
                   0
                   0
                   0
                   0
                   0
                   0
                   0
                   0
                   0
                   0
                   0
                   0
                   0
                   0
                   0
                   0
                   0
                   0
                   0
                   0
                   0
                   0
                   0
                   0
                   0
                   0
                   0
                   0
                   0
                   0
                   0
                   0
                   0
                   0
                   0
                   0
                   0
                   0
                   0
                   0
                   0
                   0
                   0
                   0
                   0
                   0
                   0
                   0
                   0
                   0
                   0
                   0
                   0
                   0
                   0
                   0
                   0
                   0
                   0
                   0
                   0
                   0
                   0
                   0
                   0
                   0
                   0
                   0
                   0
                   0
                   0
                   0
                   0
                   0
                   0
                   0
                   0
                   0
                   0
                   0
                   0
                   0
                   0
                   0
                   0
                   0
                   0
                   0
                   0
                   0
                   0
                   0
                   0
                   0
                   0
                   0
                   0
                   0
                   0
                   0
                   0
                   0
                   0
                   0
                   0
                   0
                   0
                   0
                   0
                   0
                   0
                   0
                   0
                   0
                   0
                   0
                   0
                   0
                   0
                   0
                   0
                   0
                   0
                   0
                   0
                   0
                   0
                   0
                   0
                   0
                   0
                   0
                   0
                   0
                   0
                   0
                   0
                   0
                   0
                   0
                   0
                   0
                   0
                   0
                   0
                   0
                   0
                   0
                   0
                   0
                   0
                   0
                   0
                   0
                   0
                   0
                   0
                   0
                   0
                   0
                   0
                   0
                   0
                   0
                   0
                   0
                   0
                   0
                   0
                   0
                   0
                   0
                   0
                   0
                   0
                   0
                   0
                   0
                   0
                   0
                   0
                   0
                   0
                   0
                   0
                   0
                   0
                   0
                   0
                   0
                   0
                   0
                   0
                   0
                   0
                   0
                   0
                   0
                   0
                   0
                   0
                   0
                   0
                   0
                   0
                   0
                   0
                   0
                   0
                   0
                   0
                   0
                   0
                   0
                   0
                   0
                   0
                   0
                   0
                   0
                   0
                   0
                   0
                   0
                   0
                   0
                   0
                   0
                   0
                   0
                   0
                   0
                   0
                   0
                   0
                   0
                   0
                   0
                   0
                   0
                   0
                   0
                   0
                   0
                   0
                   0
                   0
                   0
                   0
                   0
                   0
                   0
                   0
                   0
                   0
                   0
                   0
                   0
                   0
                   0
                   0
                   0
                   0
                   0
                   0
                   0
                   0
                   0
                   0
                   0
                   0
                   0
                   0
                   0
                   0
                   0
                   0
                   0
                   0
                   0
                   0
                   0
                   0
                   0
                   0
                   0
                   0
                   0
                   0
                   0
                   0
                   0
                   0
                   0
                   0
                   0
                   0
                   0
                   0
                   0
                   0
                   0
                   0
                   0
                   0
                   0
                   0
                   0
                   0
                   0
                   0
                   0
                   0
                   0
                   0
                   0
                   0
                   0
                   0
                   0
                   0
                   0
                   0
                   0
                   0
                   0
                   0
                   0
                   0
                   0
                   0
                   0
                   0
                   0
                   0
                   0
                   0
                   0
                   0
                   0
                   0
                   0
                   0
                   0
                   0
                   0
                   0
                   0
                   0
                   0
                   0
                   0
                   0
                   0
                   0
                   0
                   0
                   0
                   0
                   0
                   0
                   0
                   0
                   0
                   0
                   0
                   0
                   0
                   0
                   0
                   0
                   0
                   0
                   0
                   0
                   0
                   0
                   0
                   0
                   0
                   0
                   0
                   0
                   0
                   0
                   0
                   0
                   0
                   0
                   0
                   0
                   0
                   0
                   0
                   0
                   0
                   0
                   0
                   0
                   0
                   0
                   0
                   0
                   0
                   0
                   0
                   0
                   0
                   0
                   0
                   0
                   0
                   0
                   0
                   0
                   0
                   0
                   0
                   0
                   0
                   0
                   0
                   0
                   0
                   0
                   0
                   0
                   0
                   0
                   0
                   0
                   0
                   0
                   0
                   0
                   0
                   0
                   0
                   0
                   0
                   0
                   0
                   0
                   0
                   0
                   0
                   0
                   0
                   0
                   0
                   0
                   0
                   0
                   0
                   0
                   0
                   0
                   0
                   0
                   0
                   0
                   0
                   0
                   0
                   0
                   0
                   0
                   0
                   0
                   0
                   0
                   0
                   0
                   0
                   0
                   0
                   0
                   0
                   0
                   0
                   0
                   0
                   0
                   0
                   0
                   0
                   0
                   0
                   0
                   0
                   0
                   0
                   0
                   0
                   0
                   0
                   0
                   0
                   0
                   0
                   0
                   0
                   0
                   0
                   0
                   0
                   0
                   0
                   0
                   0
                   0
                   0
                   0
                   0
                   0
                   0
                   0
  
SCALARS                       fixity_y  double 1
LOOKUP_TABLE default
                   0
                   0
                   0
                   0
                   0
                   0
                   0
                   0
                   0
                   0
                   0
                   0
                   0
                   0
                   0
                   0
                   0
                   0
                   0
                   0
                   0
                   0
                   0
                   0
                   0
                   0
                   0
                   0
                   0
                   0
                   0
                   0
                   0
                   0
                   0
                   0
                   0
                   0
                   0
                   0
                   0
                   0
                   0
                   0
                   0
                   0
                   0
                   0
                   0
                   0
                   0
                   0
                   0
                   0
                   0
                   0
                   0
                   0
                   0
                   0
                   0
                   0
                   0
                   0
                   0
                   0
                   0
                   0
                   0
                   0
                   0
                   0
                   0
                   0
                   0
                   0
                   0
                   0
                   0
                   0
                   0
                   0
                   0
                   0
                   0
                   0
                   0
                   0
                   0
                   0
                   0
                   0
                   0
                   0
                   0
                   0
                   0
                   0
                   0
                   0
                   0
                   0
                   0
                   0
                   0
                   0
                   0
                   0
                   0
                   0
                   0
                   0
                   0
                   0
                   0
                   0
                   0
                   0
                   0
                   0
                   0
                   0
                   0
                   0
                   0
                   0
                   0
                   0
                   0
                   0
                   0
                   0
                   0
                   0
                   0
                   0
                   0
                   0
                   0
                   0
                   0
                   0
                   0
                   0
                   0
                   0
                   0
                   0
                   0
                   0
                   0
                   0
                   0
                   0
                   0
                   0
                   0
                   0
                   0
                   0
                   0
                   0
                   0
                   0
                   0
                   0
                   0
                   0
                   0
                   0
                   0
                   0
                   0
                   0
                   0
                   0
                   0
                   0
                   0
                   0
                   0
                   0
                   0
                   0
                   0
                   0
                   0
                   0
                   0
                   0
                   0
                   0
                   0
                   0
                   0
                   0
                   0
                   0
                   0
                   0
                   0
                   0
                   0
                   0
                   0
                   0
                   0
                   0
                   0
                   0
                   0
                   0
                   0
                   0
                   0
                   0
                   0
                   0
                   0
                   0
                   0
                   0
                   0
                   0
                   0
                   0
                   0
                   0
                   0
                   0
                   0
                   0
                   0
                   0
                   0
                   0
                   0
                   0
                   0
                   0
                   0
                   0
                   0
                   0
                   0
                   0
                   0
                   0
                   0
                   0
                   0
                   0
                   0
                   0
                   0
                   0
                   0
                   0
                   0
                   0
                   0
                   0
                   0
                   0
                   0
                   0
                   0
                   0
                   0
                   0
                   0
                   0
                   0
                   0
                   0
                   0
                   0
                   0
                   0
                   0
                   0
                   0
                   0
                   0
                   0
                   0
                   0
                   0
                   0
                   0
                   0
                   0
                   0
                   0
                   0
                   0
                   0
                   0
                   0
                   0
                   0
                   0
                   0
                   0
                   0
                   0
                   0
                   0
                   0
                   0
                   0
                   0
                   0
                   0
                   0
                   0
                   0
                   0
                   0
                   0
                   0
                   0
                   0
                   0
                   0
                   0
                   0
                   0
                   0
                   0
                   0
                   0
                   0
                   0
                   0
                   0
                   0
                   0
                   0
                   0
                   0
                   0
                   0
                   0
                   0
                   0
                   0
                   0
                   0
                   0
                   0
                   0
                   0
                   0
                   0
                   0
                   0
                   0
                   0
                   0
                   0
                   0
                   0
                   0
                   0
                   0
                   0
                   0
                   0
                   0
                   0
                   0
                   0
                   0
                   0
                   0
                   0
                   0
                   0
                   0
                   0
                   0
                   0
                   0
                   0
                   0
                   0
                   0
                   0
                   0
                   0
                   0
                   0
                   0
                   0
                   0
                   0
                   0
                   0
                   0
                   0
                   0
                   0
                   0
                   0
                   0
                   0
                   0
                   0
                   0
                   0
                   0
                   0
                   0
                   0
                   0
                   0
                   0
                   0
                   0
                   0
                   0
                   0
                   0
                   0
                   0
                   0
                   0
                   0
                   0
                   0
                   0
                   0
                   0
                   0
                   0
                   0
                   0
                   0
                   0
                   0
                   0
                   0
                   0
                   0
                   0
                   0
                   0
                   0
                   0
                   0
                   0
                   0
                   0
                   0
                   0
                   0
                   0
                   0
                   0
                   0
                   0
                   0
                   0
                   0
                   0
                   0
                   0
                   0
                   0
                   0
                   0
                   0
                   0
                   0
                   0
                   0
                   0
                   0
                   0
                   0
                   0
                   0
                   0
                   0
                   0
                   0
                   0
                   0
                   0
                   0
                   0
                   0
                   0
                   0
                   0
                   0
                   0
                   0
                   0
                   0
                   0
                   0
                   0
                   0
                   0
                   0
                   0
                   0
                   0
                   0
                   0
                   0
                   0
                   0
                   0
                   0
                   0
                   0
                   0
                   0
                   0
                   0
                   0
                   0
                   0
                   0
                   0
                   0
                   0
                   0
                   0
                   0
                   0
                   0
                   0
                   0
                   0
                   0
                   0
                   0
                   0
                   0
                   0
                   0
                   0
                   0
                   0
                   0
                   0
                   0
                   0
                   0
                   0
                   0
                   0
                   0
                   0
                   0
                   0
                   0
                   0
                   0
                   0
                   0
                   0
                   0
                   0
                   0
                   0
                   0
                   0
                   0
                   0
                   0
                   0
                   0
                   0
                   0
                   0
                   0
                   0
                   0
                   0
                   0
                   0
                   0
                   0
                   0
                   0
                   0
                   0
                   0
                   0
                   0
                   0
                   0
                   0
                   0
                   0
                   0
                   0
                   0
                   0
                   0
                   0
                   0
                   0
                   0
                   0
                   0
                   0
                   0
                   0
                   0
                   0
                   0
                   0
                   0
                   0
                   0
                   0
                   0
                   0
                   0
                   0
                   0
                   0
                   0
                   0
                   0
                   0
                   0
                   0
                   0
                   0
                   0
                   0
                   0
                   0
                   0
                   0
                   0
                   0
                   0
                   0
                   0
                   0
                   0
                   0
                   0
                   0
                   0
                   0
                   0
                   0
                   0
                   0
                   0
                   0
                   0
                   0
                   0
                   0
                   0
                   0
                   0
                   0
                   0
                   0
                   0
                   0
                   0
                   0
                   0
                   0
                   0
                   0
                   0
                   0
                   0
                   0
                   0
                   0
                   0
                   0
                   0
                   0
                   0
                   0
                   0
                   0
                   0
                   0
                   0
                   0
                   0
                   0
                   0
                   0
                   0
                   0
                   0
                   0
                   0
                   0
                   0
                   0
                   0
                   0
                   0
                   0
                   0
                   0
                   0
                   0
                   0
                   0
                   0
                   0
                   0
                   0
                   0
                   0
                   0
                   0
                   0
                   0
                   0
                   0
                   0
                   0
                   0
                   0
                   0
                   0
                   0
                   0
                   0
                   0
                   0
                   0
                   0
                   0
                   0
                   0
                   0
                   0
                   0
                   0
                   0
                   0
                   0
                   0
                   0
                   0
                   0
                   0
                   0
                   0
                   0
                   0
                   0
                   0
                   0
                   0
                   0
                   0
                   0
                   0
                   0
                   0
                   0
                   0
                   0
                   0
                   0
                   0
                   0
                   0
                   0
                   0
                   0
                   0
                   0
                   0
                   0
                   0
                   0
                   0
                   0
                   0
                   0
                   0
                   0
                   0
                   0
                   0
                   0
                   0
                   0
                   0
                   0
                   0
                   0
                   0
                   0
                   0
                   0
                   0
                   0
                   0
                   0
                   0
                   0
                   0
                   0
                   0
                   0
                   0
                   0
                   0
                   0
                   0
                   0
                   0
                   0
                   0
                   0
                   0
                   0
                   0
                   0
                   0
                   0
                   0
                   0
                   0
                   0
                   0
                   0
                   0
                   0
                   0
                   0
                   0
                   0
                   0
                   0
                   0
                   0
                   0
                   0
                   0
                   0
                   0
                   0
                   0
                   0
                   0
                   0
                   0
                   0
                   0
                   0
                   0
                   0
                   0
                   0
                   0
                   0
                   0
                   0
                   0
                   0
                   0
                   0
                   0
                   0
                   0
                   0
                   0
                   0
                   0
                   0
                   0
                   0
                   0
                   0
                   0
                   0
                   0
                   0
                   0
                   0
                   0
                   0
                   0
                   0
                   0
                   0
                   0
                   0
                   0
                   0
                   0
                   0
                   0
                   0
                   0
                   0
                   0
                   0
                   0
                   0
                   0
                   0
                   0
                   0
                   0
                   0
                   0
                   0
                   0
                   0
                   0
                   0
                   0
                   0
                   0
                   0
                   0
                   0
                   0
                   0
                   0
                   0
                   0
                   0
                   0
                   0
                   0
                   0
                   0
                   0
                   0
                   0
                   0
                   0
                   0
                   0
                   0
                   0
                   0
                   0
                   0
                   0
                   0
                   0
                   0
                   0
                   0
                   0
                   0
                   0
                   0
                   0
                   0
                   0
                   0
                   0
                   0
                   0
                   0
                   0
                   0
                   0
                   0
                   0
                   0
                   0
                   0
                   0
                   0
                   0
                   0
                   0
                   0
                   0
                   0
                   0
                   0
                   0
                   0
                   0
                   0
                   0
                   0
                   0
                   0
                   0
                   0
                   0
                   0
                   0
                   0
                   0
                   0
                   0
                   0
                   0
                   0
                   0
                   0
                   0
                   0
                   0
                   0
                   0
                   0
                   0
                   0
                   0
                   0
                   0
                   0
                   0
                   0
                   0
                   0
                   0
                   0
                   0
                   0
                   0
                   0
                   0
                   0
                   0
                   0
                   0
                   0
                   0
                   0
                   0
                   0
                   0
                   0
                   0
                   0
                   0
                   0
                   0
                   0
                   0
                   0
                   0
                   0
                   0
                   0
                   0
                   0
                   0
                   0
                   0
                   0
                   0
                   0
                   0
                   0
                   0
                   0
                   0
                   0
                   0
                   0
                   0
                   0
                   0
                   0
                   0
                   0
                   0
                   0
                   0
                   0
                   0
                   0
                   0
                   0
                   0
                   0
                   0
                   0
                   0
                   0
                   0
                   0
                   0
                   0
                   0
                   0
                   0
                   0
                   0
                   0
                   0
                   0
                   0
                   0
                   0
                   0
                   0
                   0
                   0
                   0
                   0
                   0
                   0
                   0
                   0
                   0
                   0
                   0
                   0
                   0
                   0
                   0
                   0
                   0
                   0
                   0
                   0
                   0
                   0
                   0
                   0
                   0
                   0
                   0
                   0
                   0
                   0
                   0
                   0
                   0
                   0
                   0
                   0
                   0
                   0
                   0
                   0
                   0
                   0
                   0
                   0
                   0
                   0
                   0
                   0
                   0
                   0
                   0
                   0
                   0
                   0
                   0
                   0
                   0
                   0
                   0
                   0
                   0
                   0
                   0
                   0
                   0
                   0
                   0
                   0
                   0
                   0
                   0
                   0
                   0
                   0
                   0
                   0
                   0
                   0
                   0
                   0
                   0
                   0
                   0
                   0
                   0
                   0
                   0
                   0
                   0
                   0
                   0
                   0
                   0
                   0
                   0
                   0
                   0
                   0
                   0
                   0
                   0
                   0
                   0
                   0
                   0
                   0
                   0
                   0
                   0
                   0
                   0
                   0
                   0
                   0
                   0
                   0
                   0
                   0
                   0
                   0
                   0
                   0
                   0
                   0
                   0
                   0
                   0
                   0
                   0
                   0
                   0
                   0
                   0
                   0
                   0
                   0
                   0
                   0
                   0
                   0
                   0
                   0
                   0
                   0
                   0
                   0
                   0
                   0
                   0
                   0
                   0
                   0
                   0
                   0
                   0
                   0
                   0
                   0
                   0
                   0
                   0
                   0
                   0
                   0
                   0
                   0
                   0
                   0
                   0
                   0
                   0
                   0
                   0
                   0
                   0
                   0
                   0
                   0
                   0
                   0
                   0
                   0
                   0
                   0
                   0
                   0
                   0
                   0
                   0
                   0
                   0
                   0
                   0
                   0
                   0
                   0
                   0
                   0
                   0
                   0
                   0
                   0
                   0
                   0
                   0
                   0
                   0
                   0
                   0
                   0
                   0
                   0
                   0
                   0
                   0
                   0
                   0
                   0
                   0
                   0
                   0
                   0
                   0
                   0
                   0
                   0
                   0
                   0
                   0
                   0
                   0
                   0
                   0
                   0
                   0
                   0
                   0
                   0
                   0
                   0
                   0
                   0
                   0
                   0
                   0
                   0
                   0
                   0
                   0
                   0
                   0
                   0
                   0
                   0
                   0
                   0
                   0
                   0
                   0
                   0
                   0
                   0
                   0
                   0
                   0
                   0
                   0
                   0
                   0
                   0
                   0
                   0
                   0
                   0
                   0
                   0
                   0
                   0
                   0
                   0
                   0
                   0
                   0
                   0
                   0
                   0
                   0
                   0
                   0
                   0
                   0
                   0
                   0
                   0
                   0
                   0
                   0
                   0
                   0
                   0
                   0
                   0
                   0
                   0
                   0
                   0
                   0
                   0
                   0
                   0
                   0
                   0
                   0
                   0
                   0
                   0
                   0
                   0
                   0
                   0
                   0
                   0
                   0
                   0
                   0
                   0
                   0
                   0
                   0
                   0
                   0
                   0
                   0
                   0
                   0
                   0
                   0
                   0
                   0
                   0
                   0
                   0
                   0
                   0
                   0
                   0
                   0
                   0
                   0
                   0
                   0
                   0
                   0
                   0
                   0
                   0
                   0
                   0
                   0
                   0
                   0
                   0
                   0
                   0
                   0
                   0
                   0
                   0
                   0
                   0
                   0
                   0
                   0
                   0
                   0
                   0
                   0
                   0
                   0
                   0
                   0
                   0
                   0
                   0
                   0
                   0
                   0
                   0
                   0
                   0
                   0
                   0
                   0
                   0
                   0
                   0
                   0
                   0
                   0
                   0
                   0
                   0
                   0
                   0
                   0
                   0
                   0
                   0
                   0
                   0
                   0
                   0
                   0
                   0
                   0
                   0
                   0
                   0
                   0
                   0
                   0
                   0
                   0
                   0
                   0
                   0
                   0
                   0
                   0
                   0
                   0
                   0
                   0
                   0
                   0
                   0
                   0
                   0
                   0
                   0
                   0
                   0
                   0
                   0
                   0
                   0
                   0
                   0
                   0
                   0
                   0
                   0
                   0
                   0
                   0
                   0
                   0
                   0
                   0
                   0
                   0
                   0
                   0
                   0
                   0
                   0
                   0
                   0
                   0
                   0
                   0
                   0
                   0
                   0
                   0
                   0
                   0
                   0
                   0
                   0
                   0
                   0
                   0
                   0
                   0
                   0
                   0
                   0
                   0
                   0
                   0
                   0
                   0
                   0
                   0
                   0
                   0
                   0
                   0
                   0
                   0
                   0
                   0
                   0
                   0
                   0
                   0
                   0
                   0
                   0
                   0
                   0
                   0
                   0
                   0
                   0
                   0
                   0
                   0
                   0
                   0
                   0
                   0
                   0
                   0
                   0
                   0
                   0
                   0
                   0
                   0
                   0
                   0
                   0
                   0
                   0
                   0
                   0
                   0
                   0
                   0
                   0
                   0
                   0
                   0
                   0
                   0
                   0
                   0
                   0
                   0
                   0
                   0
                   0
                   0
                   0
                   0
                   0
                   0
                   0
                   0
                   0
                   0
                   0
                   0
                   0
                   0
                   0
                   0
                   0
                   0
                   0
                   0
                   0
                   0
                   0
                   0
                   0
                   0
                   0
                   0
                   0
                   0
                   0
                   0
                   0
                   0
                   0
                   0
                   0
                   0
                   0
                   0
                   0
                   0
                   0
                   0
                   0
                   0
                   0
                   0
                   0
                   0
                   0
                   0
                   0
                   0
                   0
                   0
                   0
                   0
                   0
                   0
                   0
                   0
                   0
                   0
                   0
                   0
                   0
                   0
                   0
                   0
                   0
                   0
                   0
                   0
                   0
                   0
                   0
                   0
                   0
                   0
                   0
                   0
                   0
                   0
                   0
                   0
                   0
                   0
                   0
                   0
                   0
                   0
                   0
                   0
                   0
                   0
                   0
                   0
                   0
                   0
                   0
                   0
                   0
                   0
                   0
                   0
                   0
                   0
                   0
                   0
                   0
                   0
                   0
                   0
                   0
                   0
                   0
                   0
                   0
                   0
                   0
                   0
                   0
                   0
                   0
                   0
                   0
                   0
                   0
                   0
                   0
                   0
                   0
                   0
                   0
                   0
                   0
                   0
                   0
                   0
                   0
                   0
                   0
                   0
                   0
                   0
                   0
                   0
                   0
                   0
                   0
                   0
                   0
                   0
                   0
                   0
                   0
                   0
                   0
                   0
                   0
                   0
                   0
                   0
                   0
                   0
                   0
                   0
                   0
                   0
                   0
                   0
                   0
                   0
                   0
                   0
                   0
                   0
                   0
                   0
                   0
                   0
                   0
                   0
                   0
                   0
                   0
                   0
                   0
                   0
                   0
                   0
                   0
                   0
                   0
                   0
                   0
                   0
                   0
                   0
                   0
                   0
                   0
                   0
                   0
                   0
                   0
                   0
                   0
                   0
                   0
                   0
                   0
                   0
                   0
                   0
                   0
                   0
                   0
                   0
                   0
                   0
                   0
                   0
                   0
                   0
                   0
                   0
                   0
                   0
                   0
                   0
                   0
                   0
                   0
                   0
                   0
                   0
                   0
                   0
                   0
                   0
                   0
                   0
                   0
                   0
                   0
                   0
                   0
                   0
                   0
                   0
                   0
                   0
                   0
                   0
                   0
                   0
                   0
                   0
                   0
                   0
                   0
                   0
                   0
                   0
                   0
                   0
                   0
                   0
                   0
                   0
                   0
                   0
                   0
                   0
                   0
                   0
                   0
                   0
                   0
                   0
                   0
                   0
  
SCALARS                       fixity_z  double 1
LOOKUP_TABLE default
                   0
                   0
                   0
                   0
                   1
                   1
                   1
                   1
                   0
                   0
                   1
                   1
                   0
                   0
                   1
                   1
                   0
                   0
                   1
                   1
                   0
                   0
                   0
                   1
                   1
                   1
                   0
                   0
                   1
                   1
                   0
                   0
                   0
                   1
                   1
                   1
                   0
                   0
                   1
                   1
                   0
                   0
                   1
                   1
                   0
                   0
                   1
                   1
                   0
                   1
                   0
                   1
                   0
                   1
                   0
                   1
                   0
                   0
                   1
                   1
                   0
                   0
                   1
                   1
                   0
                   1
                   0
                   1
                   0
                   0
                   1
                   1
                   0
                   1
                   0
                   1
                   0
                   1
                   0
                   1
                   0
                   0
                   1
                   1
                   0
                   1
                   0
                   1
                   0
                   1
                   0
                   0
                   1
                   1
                   0
                   1
                   0
                   1
                   0
                   1
                   0
                   0
                   1
                   1
                   0
                   0
                   1
                   1
                   0
                   1
                   0
                   1
                   0
                   1
                   0
                   1
                   0
                   1
                   0
                   1
                   0
                   1
                   0
                   1
                   0
                   1
                   0
                   1
                   0
                   1
                   0
                   1
                   0
                   1
                   0
                   1
                   0
                   1
                   0
                   1
                   0
                   1
                   0
                   1
                   0
                   1
                   0
                   1
                   0
                   1
                   0
                   1
                   0
                   1
                   0
                   1
                   0
                   0
                   0
                   0
                   0
                   0
                   0
                   0
                   0
                   0
                   0
                   0
                   0
                   0
                   0
                   0
                   0
                   0
                   0
                   0
                   0
                   0
                   0
                   0
                   0
                   0
                   0
                   0
                   0
                   0
                   0
                   0
                   0
                   0
                   0
                   0
                   0
                   0
                   0
                   0
                   0
                   0
                   0
                   0
                   0
                   0
                   0
                   0
                   0
                   0
                   0
                   0
                   0
                   0
                   0
                   0
                   0
                   0
                   0
                   0
                   0
                   0
                   0
                   0
                   0
                   0
                   0
                   0
                   0
                   0
                   0
                   0
                   0
                   0
                   0
                   0
                   0
                   0
                   0
                   0
                   0
                   0
                   0
                   0
                   0
                   0
                   0
                   0
                   0
                   0
                   0
                   0
                   0
                   0
                   0
                   0
                   0
                   0
                   0
                   0
                   0
                   0
                   0
                   0
                   0
                   0
                   0
                   0
                   0
                   0
                   0
                   0
                   0
                   0
                   0
                   0
                   0
                   0
                   0
                   0
                   0
                   0
                   0
                   0
                   0
                   0
                   0
                   0
                   0
                   0
                   0
                   0
                   0
                   0
                   0
                   0
                   0
                   0
                   0
                   0
                   0
                   0
                   0
                   0
                   0
                   0
                   0
                   0
                   0
                   0
                   0
                   0
                   0
                   0
                   0
                   0
                   0
                   0
                   0
                   0
                   0
                   0
                   0
                   0
                   0
                   0
                   0
                   0
                   0
                   0
                   0
                   0
                   0
                   0
                   0
                   0
                   0
                   0
                   0
                   0
                   0
                   0
                   0
                   0
                   0
                   0
                   0
                   0
                   0
                   0
                   0
                   0
                   0
                   0
                   0
                   0
                   0
                   0
                   0
                   0
                   0
                   0
                   0
                   0
                   0
                   0
                   0
                   0
                   0
                   0
                   0
                   0
                   0
                   0
                   0
                   0
                   0
                   0
                   0
                   0
                   0
                   0
                   0
                   0
                   0
                   0
                   0
                   0
                   0
                   0
                   0
                   0
                   0
                   0
                   0
                   0
                   0
                   0
                   0
                   0
                   0
                   0
                   0
                   0
                   0
                   0
                   0
                   0
                   0
                   0
                   0
                   0
                   0
                   0
                   0
                   0
                   0
                   0
                   0
                   0
                   0
                   0
                   0
                   0
                   0
                   0
                   0
                   0
                   0
                   0
                   0
                   0
                   0
                   0
                   0
                   0
                   0
                   0
                   0
                   0
                   0
                   0
                   0
                   0
                   0
                   0
                   0
                   0
                   0
                   0
                   0
                   0
                   0
                   0
                   0
                   0
                   0
                   0
                   0
                   0
                   0
                   0
                   0
                   0
                   0
                   0
                   0
                   0
                   0
                   0
                   0
                   0
                   0
                   0
                   0
                   0
                   0
                   0
                   0
                   0
                   0
                   0
                   0
                   0
                   0
                   0
                   0
                   0
                   0
                   0
                   0
                   0
                   0
                   0
                   0
                   0
                   0
                   0
                   0
                   0
                   0
                   0
                   0
                   0
                   0
                   0
                   0
                   0
                   0
                   0
                   0
                   0
                   0
                   0
                   0
                   0
                   0
                   0
                   0
                   0
                   0
                   0
                   0
                   0
                   0
                   0
                   0
                   0
                   0
                   0
                   0
                   0
                   0
                   0
                   0
                   0
                   0
                   0
                   0
                   0
                   0
                   0
                   0
                   0
                   0
                   0
                   0
                   0
                   0
                   0
                   0
                   0
                   0
                   0
                   0
                   0
                   0
                   0
                   0
                   0
                   0
                   0
                   0
                   0
                   0
                   0
                   0
                   0
                   0
                   0
                   0
                   0
                   0
                   0
                   0
                   0
                   0
                   0
                   0
                   0
                   0
                   0
                   0
                   0
                   0
                   0
                   0
                   0
                   0
                   0
                   0
                   0
                   0
                   0
                   0
                   0
                   0
                   0
                   0
                   0
                   0
                   0
                   0
                   0
                   0
                   0
                   0
                   0
                   0
                   0
                   0
                   0
                   0
                   0
                   0
                   0
                   0
                   0
                   0
                   0
                   0
                   0
                   0
                   0
                   0
                   0
                   0
                   0
                   0
                   0
                   0
                   0
                   0
                   0
                   0
                   0
                   0
                   0
                   0
                   0
                   0
                   0
                   0
                   0
                   0
                   0
                   0
                   0
                   0
                   0
                   0
                   0
                   0
                   0
                   0
                   0
                   0
                   0
                   0
                   0
                   0
                   0
                   0
                   0
                   0
                   0
                   0
                   0
                   0
                   0
                   0
                   0
                   0
                   0
                   0
                   0
                   0
                   0
                   0
                   0
                   0
                   0
                   0
                   0
                   0
                   0
                   0
                   0
                   0
                   0
                   0
                   0
                   0
                   0
                   0
                   0
                   0
                   0
                   0
                   0
                   0
                   0
                   0
                   0
                   0
                   0
                   0
                   0
                   0
                   0
                   0
                   0
                   0
                   0
                   0
                   0
                   0
                   0
                   0
                   0
                   0
                   0
                   0
                   0
                   0
                   0
                   0
                   0
                   0
                   0
                   0
                   0
                   0
                   0
                   0
                   0
                   0
                   0
                   0
                   0
                   0
                   0
                   0
                   0
                   0
                   0
                   0
                   0
                   0
                   0
                   0
                   0
                   0
                   0
                   0
                   0
                   0
                   0
                   0
                   0
                   0
                   0
                   0
                   0
                   0
                   0
                   0
                   0
                   0
                   0
                   0
                   0
                   0
                   0
                   0
                   0
                   0
                   0
                   0
                   0
                   0
                   0
                   0
                   0
                   0
                   0
                   0
                   0
                   0
                   0
                   0
                   0
                   0
                   0
                   0
                   0
                   0
                   0
                   0
                   0
                   0
                   0
                   0
                   0
                   0
                   0
                   0
                   0
                   0
                   0
                   0
                   0
                   0
                   0
                   0
                   0
                   0
                   0
                   0
                   0
                   0
                   0
                   0
                   0
                   0
                   0
                   0
                   0
                   0
                   0
                   0
                   0
                   0
                   0
                   0
                   0
                   0
                   0
                   0
                   0
                   0
                   0
                   0
                   0
                   0
                   0
                   0
                   0
                   0
                   0
                   0
                   0
                   0
                   0
                   0
                   0
                   0
                   0
                   0
                   0
                   0
                   0
                   0
                   0
                   0
                   0
                   0
                   0
                   0
                   0
                   0
                   0
                   0
                   0
                   0
                   0
                   0
                   0
                   0
                   0
                   0
                   0
                   0
                   0
                   0
                   0
                   0
                   0
                   0
                   0
                   0
                   0
                   0
                   0
                   0
                   0
                   0
                   0
                   0
                   0
                   0
                   0
                   0
                   0
                   0
                   0
                   0
                   0
                   0
                   0
                   0
                   0
                   0
                   0
                   0
                   0
                   0
                   0
                   0
                   0
                   0
                   0
                   0
                   0
                   0
                   0
                   0
                   0
                   0
                   0
                   0
                   0
                   0
                   0
                   0
                   0
                   0
                   0
                   0
                   0
                   0
                   0
                   0
                   0
                   0
                   0
                   0
                   0
                   0
                   0
                   0
                   0
                   0
                   0
                   0
                   0
                   0
                   0
                   0
                   0
                   0
                   0
                   0
                   0
                   0
                   0
                   0
                   0
                   0
                   0
                   0
                   0
                   0
                   0
                   0
                   0
                   0
                   0
                   0
                   0
                   0
                   0
                   0
                   0
                   0
                   0
                   0
                   0
                   0
                   0
                   0
                   0
                   0
                   0
                   0
                   0
                   0
                   0
                   0
                   0
                   0
                   0
                   0
                   0
                   0
                   0
                   0
                   0
                   0
                   0
                   0
                   0
                   0
                   0
                   0
                   0
                   0
                   0
                   0
                   0
                   0
                   0
                   0
                   0
                   0
                   0
                   0
                   0
                   0
                   0
                   0
                   0
                   0
                   0
                   0
                   0
                   0
                   0
                   0
                   0
                   0
                   0
                   0
                   0
                   0
                   0
                   0
                   0
                   0
                   0
                   0
                   0
                   0
                   0
                   0
                   0
                   0
                   0
                   0
                   0
                   0
                   0
                   0
                   0
                   0
                   0
                   0
                   0
                   0
                   0
                   0
                   0
                   0
                   0
                   0
                   0
                   0
                   0
                   0
                   0
                   0
                   0
                   0
                   0
                   0
                   0
                   0
                   0
                   0
                   0
                   0
                   0
                   0
                   0
                   0
                   0
                   0
                   0
                   0
                   0
                   0
                   0
                   0
                   0
                   0
                   0
                   0
                   0
                   0
                   0
                   0
                   0
                   0
                   0
                   0
                   0
                   0
                   0
                   0
                   0
                   0
                   0
                   0
                   0
                   0
                   0
                   0
                   0
                   0
                   0
                   0
                   0
                   0
                   0
                   0
                   0
                   0
                   0
                   0
                   0
                   0
                   0
                   0
                   0
                   0
                   0
                   0
                   0
                   0
                   0
                   0
                   0
                   0
                   0
                   0
                   0
                   0
                   0
                   0
                   0
                   0
                   0
                   0
                   0
                   0
                   0
                   0
                   0
                   0
                   0
                   0
                   0
                   0
                   0
                   0
                   0
                   0
                   0
                   0
                   0
                   0
                   0
                   0
                   0
                   0
                   0
                   0
                   0
                   0
                   0
                   0
                   0
                   0
                   0
                   0
                   0
                   0
                   0
                   0
                   0
                   0
                   0
                   0
                   0
                   0
                   0
                   0
                   0
                   0
                   0
                   0
                   0
                   0
                   0
                   0
                   0
                   0
                   0
                   0
                   0
                   0
                   0
                   0
                   0
                   0
                   0
                   0
                   0
                   0
                   0
                   0
                   0
                   0
                   0
                   0
                   0
                   0
                   0
                   0
                   0
                   0
                   0
                   0
                   0
                   0
                   0
                   0
                   0
                   0
                   0
                   0
                   0
                   0
                   0
                   0
                   0
                   0
                   0
                   0
                   0
                   0
                   0
                   0
                   0
                   0
                   0
                   0
                   0
                   0
                   0
                   0
                   0
                   0
                   0
                   0
                   0
                   0
                   0
                   0
                   0
                   0
                   0
                   0
                   0
                   0
                   0
                   0
                   0
                   0
                   0
                   0
                   0
                   0
                   0
                   0
                   0
                   0
                   0
                   0
                   0
                   0
                   0
                   0
                   0
                   0
                   0
                   0
                   0
                   0
                   0
                   0
                   0
                   0
                   0
                   0
                   0
                   0
                   0
                   0
                   0
                   0
                   0
                   0
                   0
                   0
                   0
                   0
                   0
                   0
                   0
                   0
                   0
                   0
                   0
                   0
                   0
                   0
                   0
                   0
                   0
                   0
                   0
                   0
                   0
                   0
                   0
                   0
                   0
                   0
                   0
                   0
                   0
                   0
                   0
                   0
                   0
                   0
                   0
                   0
                   0
                   0
                   0
                   0
                   0
                   0
                   0
                   0
                   0
                   0
                   0
                   0
                   0
                   0
                   0
                   0
                   0
                   0
                   0
                   0
                   0
                   0
                   0
                   0
                   0
                   0
                   0
                   0
                   0
                   0
                   0
                   0
                   0
                   0
                   0
                   0
                   0
                   0
                   0
                   0
                   0
                   0
                   0
                   0
                   0
                   0
                   0
                   0
                   0
                   0
                   0
                   0
                   0
                   0
                   0
                   0
                   0
                   0
                   0
                   0
                   0
                   0
                   0
                   0
                   0
                   0
                   0
                   0
                   0
                   0
                   0
                   0
                   0
                   0
                   0
                   0
                   0
                   0
                   0
                   0
                   0
                   0
                   0
                   0
                   0
                   0
                   0
                   0
                   0
                   0
                   0
                   0
                   0
                   0
                   0
                   0
                   0
                   0
                   0
                   0
                   0
                   0
                   0
                   0
                   0
                   0
                   0
                   0
                   0
                   0
                   0
                   0
                   0
                   0
                   0
                   0
                   0
                   0
                   0
                   0
                   0
                   0
                   0
                   0
                   0
                   0
                   0
                   0
                   0
                   0
                   0
                   0
                   0
                   0
                   0
                   0
                   0
                   0
                   0
                   0
                   0
                   0
                   0
                   0
                   0
                   0
                   0
                   0
                   0
                   0
                   0
                   0
                   0
                   0
                   0
                   0
                   0
                   0
                   0
                   0
                   0
                   0
                   0
                   0
                   0
                   0
                   0
                   0
                   0
                   0
                   0
                   0
                   0
                   0
                   0
                   0
                   0
                   0
                   0
                   0
                   0
                   0
                   0
                   0
                   0
                   0
                   0
                   0
                   0
                   0
                   0
                   0
                   0
                   0
                   0
                   0
                   0
                   0
                   0
                   0
                   0
                   0
                   0
                   0
                   0
                   0
                   0
                   0
                   0
                   0
                   0
                   0
                   0
                   0
                   0
                   0
                   0
                   0
                   0
                   0
                   0
                   0
                   0
                   0
                   0
                   0
                   0
                   0
                   0
                   0
                   0
                   0
                   0
                   0
                   0
                   0
                   0
                   0
                   0
                   0
                   0
                   0
                   0
                   0
                   0
                   0
                   0
                   0
                   0
                   0
                   0
                   0
                   0
                   0
                   0
                   0
                   0
                   0
                   0
                   0
                   0
                   0
                   0
                   0
                   0
                   0
                   0
                   0
                   0
                   0
                   0
                   0
                   0
                   0
                   0
                   0
                   0
                   0
                   0
                   0
                   0
                   0
                   0
                   0
                   0
                   0
                   0
                   0
                   0
                   0
                   0
                   0
                   0
                   0
                   0
                   0
                   0
                   0
                   0
                   0
                   0
                   0
                   0
                   0
                   0
                   0
                   0
                   0
                   0
                   0
                   0
                   0
                   0
                   0
                   0
                   0
                   0
                   0
                   0
                   0
                   0
                   0
                   0
                   0
                   0
                   0
                   0
                   0
                   0
                   0
                   0
                   0
                   0
                   0
                   0
                   0
                   0
                   0
                   0
                   0
                   0
                   0
                   0
                   0
                   0
                   0
                   0
                   0
                   0
                   0
                   0
                   0
                   0
                   0
                   0
                   0
                   0
                   0
                   0
                   0
                   0
                   0
                   0
                   0
                   0
                   0
                   0
                   0
                   0
                   0
                   0
                   0
                   0
                   0
                   0
                   0
                   0
                   0
                   0
                   0
                   0
                   0
                   0
                   0
                   0
                   0
                   0
                   0
                   0
                   0
                   0
                   0
                   0
                   0
                   0
                   0
                   0
                   0
                   0
                   0
                   0
                   0
                   0
                   0
                   0
                   0
                   0
                   0
                   0
                   0
                   0
                   0
                   0
                   0
                   0
                   0
                   0
                   0
                   0
                   0
                   0
                   0
                   0
                   0
                   0
                   0
                   0
                   0
                   0
                   0
                   0
                   0
                   0
                   0
                   0
                   0
                   0
                   0
                   0
                   0
                   0
                   0
                   0
                   0
                   0
                   0
                   0
                   0
                   0
                   0
                   0
                   0
                   0
                   0
                   0
                   0
                   0
                   0
                   0
                   0
                   0
                   0
                   0
                   0
                   0
                   0
                   0
                   0
                   0
                   0
                   0
                   0
                   0
                   0
                   0
                   0
                   0
                   0
                   0
                   0
                   0
                   0
                   0
                   0
                   0
                   0
                   0
                   0
                   0
                   0
                   0
                   0
                   0
                   0
                   0
                   0
                   0
                   0
                   0
                   0
                   0
                   0
                   0
                   0
                   0
                   0
                   0
                   0
                   0
                   0
                   0
                   0
                   0
                   0
                   0
                   0
                   0
                   0
                   0
                   0
                   0
                   0
                   0
                   0
                   0
                   0
                   0
                   0
                   0
                   0
                   0
                   0
                   0
                   0
                   0
                   0
                   0
                   0
                   0
                   0
                   0
                   0
                   0
                   0
                   0
                   0
                   0
                   0
                   0
                   0
                   0
                   0
                   0
                   0
                   0
                   0
                   0
                   0
                   0
                   0
                   0
                   0
                   0
                   0
                   0
                   0
                   0
                   0
                   0
                   0
                   0
                   0
                   0
                   0
                   0
                   0
                   0
                   0
                   0
                   0
                   0
                   0
                   0
                   0
                   0
                   0
                   0
                   0
                   0
                   0
                   0
                   0
                   0
                   0
                   0
  
SCALARS                         Ispace  double 1
LOOKUP_TABLE default
                  12
                  12
                  12
                  12
                  12
                  12
                  12
                  12
                  12
                  12
                  12
                  12
                  12
                  11
                  12
                  11
                  11
                  11
                  11
                  11
                  11
                  12
                  12
                  11
                  12
                  12
                  11
                  11
                  11
                  11
                  11
                  11
                  11
                  11
                  11
                  11
                  11
                  11
                  11
                  11
                  11
                  11
                  11
                  11
                  11
                  11
                  11
                  11
                  11
                  11
                  11
                  11
                  11
                  11
                  11
                  11
                  11
                  11
                  11
                  11
                  11
                  11
                  11
                  11
                  11
                  11
                  12
                  12
                  12
                  12
                  12
                  12
                  12
                  12
                  11
                  11
                  11
                  11
                  11
                  11
                  11
                  11
                  11
                  11
                  11
                  11
                  11
                  11
                  11
                  11
                  11
                  11
                  11
                  11
                  11
                  11
                  12
                  12
                  12
                  12
                  12
                  12
                  12
                  12
                  12
                  12
                  12
                  12
                  12
                  12
                  12
                  12
                  12
                  12
                  12
                  12
                  11
                  11
                  11
                  11
                  11
                  11
                  11
                  11
                  11
                  11
                  11
                  11
                  11
                  11
                  11
                  11
                  11
                  11
                  11
                  11
                  11
                  11
                  11
                  11
                  11
                  11
                  11
                  11
                  11
                  11
                  12
                  12
                  12
                  12
                  12
                  12
                  12
                  12
                  12
                  12
                  12
                  12
                  12
                  12
                  12
                  12
                  12
                  11
                  11
                  11
                  11
                  12
                  12
                  11
                  11
                  11
                  11
                  11
                  11
                  11
                  11
                  11
                  11
                  11
                  11
                  11
                  11
                  11
                  11
                  11
                  11
                  11
                  11
                  12
                  12
                  12
                  12
                  11
                  11
                  11
                  11
                  11
                  11
                  11
                  11
                  11
                  11
                  11
                  12
                  12
                  12
                  12
                  12
                  12
                  12
                  12
                  12
                  12
                  11
                  11
                  11
                  11
                  11
                  11
                  11
                  11
                  11
                  11
                  11
                  11
                  11
                  11
                  11
                  12
                  12
                  12
                  12
                  12
                  12
                  12
                  12
                  12
                  12
                  12
                  12
                  11
                  11
                  11
                  11
                  12
                  12
                  11
                  11
                  11
                  11
                  11
                  11
                  11
                  11
                  11
                  11
                  11
                  11
                  11
                  11
                  11
                  11
                  11
                  11
                  11
                  11
                  12
                  12
                  12
                  12
                  11
                  11
                  11
                  11
                  11
                  11
                  11
                  11
                  11
                  11
                  11
                  12
                  12
                  12
                  12
                  12
                  12
                  12
                  12
                  12
                  12
                  11
                  11
                  11
                  11
                  11
                  11
                  11
                  11
                  11
                  11
                  11
                  11
                  11
                  11
                  11
                  12
                  12
                  12
                  12
                  12
                  12
                  12
                  12
                  12
                  12
                  12
                  12
                  11
                  11
                  11
                  11
                  12
                  12
                  11
                  11
                  11
                  11
                  11
                  11
                  11
                  11
                  11
                  11
                  11
                  11
                  11
                  11
                  11
                  11
                  11
                  11
                  11
                  11
                  12
                  12
                  12
                  12
                  11
                  11
                  11
                  11
                  11
                  11
                  11
                  11
                  11
                  11
                  11
                  12
                  12
                  12
                  12
                  12
                  12
                  12
                  12
                  12
                  12
                  11
                  11
                  11
                  11
                  11
                  11
                  11
                  11
                  11
                  11
                  11
                  11
                  11
                  11
                  11
                  12
                  12
                  12
                  12
                  12
                  12
                  12
                  12
                  12
                  12
                  12
                  12
                  11
                  11
                  11
                  11
                  12
                  12
                  11
                  11
                  11
                  11
                  11
                  11
                  11
                  11
                  11
                  11
                  11
                  11
                  11
                  11
                  11
                  11
                  11
                  11
                  11
                  11
                  12
                  12
                  12
                  12
                  11
                  11
                  11
                  11
                  11
                  11
                  11
                  11
                  11
                  11
                  11
                  12
                  12
                  12
                  12
                  12
                  12
                  12
                  12
                  12
                  12
                  11
                  11
                  11
                  11
                  11
                  11
                  11
                  11
                  11
                  11
                  11
                  11
                  11
                  11
                  11
                  12
                  12
                  12
                  12
                  12
                  12
                  12
                  12
                  12
                  12
                  12
                  12
                  11
                  11
                  11
                  11
                  12
                  12
                  11
                  11
                  11
                  11
                  11
                  11
                  11
                  11
                  11
                  11
                  11
                  11
                  11
                  11
                  11
                  11
                  11
                  11
                  11
                  11
                  12
                  12
                  12
                  12
                  11
                  11
                  11
                  11
                  11
                  11
                  11
                  11
                  11
                  11
                  11
                  12
                  12
                  12
                  12
                  12
                  12
                  12
                  12
                  12
                  12
                  11
                  11
                  11
                  11
                  11
                  11
                  11
                  11
                  11
                  11
                  11
                  11
                  11
                  11
                  11
                  12
                  12
                  12
                  12
                  12
                  12
                  12
                  12
                  12
                  12
                  12
                  12
                  11
                  11
                  11
                  11
                  12
                  12
                  11
                  11
                  11
                  11
                  11
                  11
                  11
                  11
                  11
                  11
                  11
                  11
                  11
                  11
                  11
                  11
                  11
                  11
                  11
                  11
                  12
                  12
                  12
                  12
                  11
                  11
                  11
                  11
                  11
                  11
                  11
                  11
                  11
                  11
                  11
                  12
                  12
                  12
                  12
                  12
                  12
                  12
                  12
                  12
                  12
                  11
                  11
                  11
                  11
                  11
                  11
                  11
                  11
                  11
                  11
                  11
                  11
                  11
                  11
                  11
                  12
                  12
                  12
                  12
                  12
                  12
                  12
                  12
                  12
                  12
                  12
                  12
                  11
                  11
                  11
                  11
                  12
                  12
                  11
                  11
                  11
                  11
                  11
                  11
                  11
                  11
                  11
                  11
                  11
                  11
                  11
                  11
                  11
                  11
                  11
                  11
                  11
                  11
                  12
                  12
                  12
                  12
                  11
                  11
                  11
                  11
                  11
                  11
                  11
                  11
                  11
                  11
                  11
                  12
                  12
                  12
                  12
                  12
                  12
                  12
                  12
                  12
                  12
                  11
                  11
                  11
                  11
                  11
                  11
                  11
                  11
                  11
                  11
                  11
                  11
                  11
                  11
                  11
                  12
                  12
                  12
                  12
                  12
                  12
                  12
                  12
                  12
                  12
                  12
                  12
                  11
                  11
                  11
                  11
                  12
                  12
                  11
                  11
                  11
                  11
                  11
                  11
                  11
                  11
                  11
                  11
                  11
                  11
                  11
                  11
                  11
                  11
                  11
                  11
                  11
                  11
                  12
                  12
                  12
                  12
                  11
                  11
                  11
                  11
                  11
                  11
                  11
                  11
                  11
                  11
                  11
                  12
                  12
                  12
                  12
                  12
                  12
                  12
                  12
                  12
                  12
                  11
                  11
                  11
                  11
                  11
                  11
                  11
                  11
                  11
                  11
                  11
                  11
                  11
                  11
                  11
                  12
                  12
                  12
                  12
                  12
                  12
                  12
                  12
                  12
                  12
                  12
                  12
                  11
                  11
                  11
                  11
                  12
                  12
                  11
                  11
                  11
                  11
                  11
                  11
                  11
                  11
                  11
                  11
                  11
                  11
                  11
                  11
                  11
                  11
                  11
                  11
                  11
                  11
                  12
                  12
                  12
                  12
                  11
                  11
                  11
                  11
                  11
                  11
                  11
                  11
                  11
                  11
                  11
                  12
                  12
                  12
                  12
                  12
                  12
                  12
                  12
                  12
                  12
                  11
                  11
                  11
                  11
                  11
                  11
                  11
                  11
                  11
                  11
                  11
                  11
                  11
                  11
                  11
                  12
                  12
                  12
                  12
                  12
                  12
                  12
                  12
                  12
                  12
                  12
                  12
                  11
                  11
                  11
                  11
                  12
                  12
                  11
                  11
                  11
                  11
                  11
                  11
                  11
                  11
                  11
                  11
                  11
                  11
                  11
                  11
                  11
                  11
                  11
                  11
                  11
                  11
                  12
                  12
                  12
                  12
                  11
                  11
                  11
                  11
                  11
                  11
                  11
                  11
                  11
                  11
                  11
                  12
                  12
                  12
                  12
                  12
                  12
                  12
                  12
                  12
                  12
                  11
                  11
                  11
                  11
                  11
                  11
                  11
                  11
                  11
                  11
                  11
                  11
                  11
                  11
                  11
                  12
                  12
                  12
                  12
                  12
                  12
                  12
                  12
                  12
                  12
                  12
                  12
                  11
                  11
                  11
                  11
                  12
                  12
                  11
                  11
                  11
                  11
                  11
                  11
                  11
                  11
                  11
                  11
                  11
                  11
                  11
                  11
                  11
                  11
                  11
                  11
                  11
                  11
                  12
                  12
                  12
                  12
                  11
                  11
                  11
                  11
                  11
                  11
                  11
                  11
                  11
                  11
                  11
                  12
                  12
                  12
                  12
                  12
                  12
                  12
                  12
                  12
                  12
                  11
                  11
                  11
                  11
                  11
                  11
                  11
                  11
                  11
                  11
                  11
                  11
                  11
                  11
                  11
                  12
                  12
                  12
                  12
                  12
                  12
                  12
                  12
                  12
                  12
                  12
                  12
                  11
                  11
                  11
                  11
                  12
                  12
                  11
                  11
                  11
                  11
                  11
                  11
                  11
                  11
                  11
                  11
                  11
                  11
                  11
                  11
                  11
                  11
                  11
                  11
                  11
                  11
                  12
                  12
                  12
                  12
                  11
                  11
                  11
                  11
                  11
                  11
                  11
                  11
                  11
                  11
                  11
                  12
                  12
                  12
                  12
                  12
                  12
                  12
                  12
                  12
                  12
                  11
                  11
                  11
                  11
                  11
                  11
                  11
                  11
                  11
                  11
                  11
                  11
                  11
                  11
                  11
                  12
                  12
                  12
                  12
                  12
                  12
                  12
                  12
                  12
                  12
                  12
                  12
                  11
                  11
                  11
                  11
                  12
                  12
                  11
                  11
                  11
                  11
                  11
                  11
                  11
                  11
                  11
                  11
                  11
                  11
                  11
                  11
                  11
                  11
                  11
                  11
                  11
                  11
                  12
                  12
                  12
                  12
                  11
                  11
                  11
                  11
                  11
                  11
                  11
                  11
                  11
                  11
                  11
                  12
                  12
                  12
                  12
                  12
                  12
                  12
                  12
                  12
                  12
                  11
                  11
                  11
                  11
                  11
                  11
                  11
                  11
                  11
                  11
                  11
                  11
                  11
                  11
                  11
                  12
                  12
                  12
                  12
                  12
                  12
                  12
                  12
                  12
                  12
                  12
                  12
                  11
                  11
                  11
                  11
                  12
                  12
                  11
                  11
                  11
                  11
                  11
                  11
                  11
                  11
                  11
                  11
                  11
                  11
                  11
                  11
                  11
                  11
                  11
                  11
                  11
                  11
                  12
                  12
                  12
                  12
                  11
                  11
                  11
                  11
                  11
                  11
                  11
                  11
                  11
                  11
                  11
                  12
                  12
                  12
                  12
                  12
                  12
                  12
                  12
                  12
                  12
                  11
                  11
                  11
                  11
                  11
                  11
                  11
                  11
                  11
                  11
                  11
                  11
                  11
                  11
                  11
                  12
                  12
                  12
                  12
                  12
                  12
                  12
                  12
                  12
                  12
                  12
                  12
                  11
                  11
                  11
                  11
                  12
                  12
                  11
                  11
                  11
                  11
                  11
                  11
                  11
                  11
                  11
                  11
                  11
                  11
                  11
                  11
                  11
                  11
                  11
                  11
                  11
                  11
                  12
                  12
                  12
                  12
                  11
                  11
                  11
                  11
                  11
                  11
                  11
                  11
                  11
                  11
                  11
                  12
                  12
                  12
                  12
                  12
                  12
                  12
                  12
                  12
                  12
                  11
                  11
                  11
                  11
                  11
                  11
                  11
                  11
                  11
                  11
                  11
                  11
                  11
                  11
                  11
                  12
                  12
                  12
                  12
                  12
                  12
                  12
                  12
                  12
                  12
                  12
                  12
                  11
                  11
                  11
                  11
                  12
                  12
                  11
                  11
                  11
                  11
                  11
                  11
                  11
                  11
                  11
                  11
                  11
                  11
                  11
                  11
                  11
                  11
                  11
                  11
                  11
                  11
                  12
                  12
                  12
                  12
                  11
                  11
                  11
                  11
                  11
                  11
                  11
                  11
                  11
                  11
                  11
                  12
                  12
                  12
                  12
                  12
                  12
                  12
                  12
                  12
                  12
                  11
                  11
                  11
                  11
                  11
                  11
                  11
                  11
                  11
                  11
                  11
                  11
                  11
                  11
                  11
                  12
                  12
                  12
                  12
                  12
                  12
                  12
                  12
                  12
                  12
                  12
                  12
                  11
                  11
                  11
                  11
                  12
                  12
                  11
                  11
                  11
                  11
                  11
                  11
                  11
                  11
                  11
                  11
                  11
                  11
                  11
                  11
                  11
                  11
                  11
                  11
                  11
                  11
                  12
                  12
                  12
                  12
                  11
                  11
                  11
                  11
                  11
                  11
                  11
                  11
                  11
                  11
                  11
                  12
                  12
                  12
                  12
                  12
                  12
                  12
                  12
                  12
                  12
                  11
                  11
                  11
                  11
                  11
                  11
                  11
                  11
                  11
                  11
                  11
                  11
                  11
                  11
                  11
                  12
                  12
                  12
                  12
                  12
                  12
                  12
                  12
                  12
                  12
                  12
                  12
                  11
                  11
                  11
                  11
                  12
                  12
                  11
                  11
                  11
                  11
                  11
                  11
                  11
                  11
                  11
                  11
                  11
                  11
                  11
                  11
                  11
                  11
                  11
                  11
                  11
                  11
                  12
                  12
                  12
                  12
                  11
                  11
                  11
                  11
                  11
                  11
                  11
                  11
                  11
                  11
                  11
                  12
                  12
                  12
                  12
                  12
                  12
                  12
                  12
                  12
                  12
                  11
                  11
                  11
                  11
                  11
                  11
                  11
                  11
                  11
                  11
                  11
                  11
                  11
                  11
                  11
                  12
                  12
                  12
                  12
                  12
                  12
                  12
                  12
                  12
                  12
                  12
                  12
                  11
                  11
                  11
                  11
                  12
                  12
                  11
                  11
                  11
                  11
                  11
                  11
                  11
                  11
                  11
                  11
                  11
                  11
                  11
                  11
                  11
                  11
                  11
                  11
                  11
                  11
                  12
                  12
                  12
                  12
                  11
                  11
                  11
                  11
                  11
                  11
                  11
                  11
                  11
                  11
                  11
                  12
                  12
                  12
                  12
                  12
                  12
                  12
                  12
                  12
                  12
                  11
                  11
                  11
                  11
                  11
                  11
                  11
                  11
                  11
                  11
                  11
                  11
                  11
                  11
                  11
                  12
                  12
                  12
                  12
                  12
                  12
                  12
                  12
                  12
                  12
                  12
                  12
                  11
                  11
                  11
                  11
                  12
                  12
                  11
                  11
                  11
                  11
                  11
                  11
                  11
                  11
                  11
                  11
                  11
                  11
                  11
                  11
                  11
                  11
                  11
                  11
                  11
                  11
                  12
                  12
                  12
                  12
                  11
                  11
                  11
                  11
                  11
                  11
                  11
                  11
                  11
                  11
                  11
                  12
                  12
                  12
                  12
                  12
                  12
                  12
                  12
                  12
                  12
                  11
                  11
                  11
                  11
                  11
                  11
                  11
                  11
                  11
                  11
                  11
                  11
                  11
                  11
                  11
                  12
                  12
                  12
                  12
                  12
                  12
                  12
                  12
                  12
                  12
                  12
                  12
                  11
                  11
                  11
                  11
                  12
                  12
                  11
                  11
                  11
                  11
                  11
                  11
                  11
                  11
                  11
                  11
                  11
                  11
                  11
                  11
                  11
                  11
                  11
                  11
                  11
                  11
                  12
                  12
                  12
                  12
                  11
                  11
                  11
                  11
                  11
                  11
                  11
                  11
                  11
                  11
                  11
                  12
                  12
                  12
                  12
                  12
                  12
                  12
                  12
                  12
                  12
                  11
                  11
                  11
                  11
                  11
                  11
                  11
                  11
                  11
                  11
                  11
                  11
                  11
                  11
                  11
                  12
                  12
                  12
                  12
                  12
                  12
                  12
                  12
                  12
                  12
                  12
                  12
                  11
                  11
                  11
                  11
                  12
                  12
                  11
                  11
                  11
                  11
                  11
                  11
                  11
                  11
                  11
                  11
                  11
                  11
                  11
                  11
                  11
                  11
                  11
                  11
                  11
                  11
                  12
                  12
                  12
                  12
                  11
                  11
                  11
                  11
                  11
                  11
                  11
                  11
                  11
                  11
                  11
                  12
                  12
                  12
                  12
                  12
                  12
                  12
                  12
                  12
                  12
                  11
                  11
                  11
                  11
                  11
                  11
                  11
                  11
                  11
                  11
                  11
                  11
                  11
                  11
                  11
                  12
                  12
                  12
                  12
                  12
                  12
                  12
                  12
                  12
                  12
                  12
                  12
                  11
                  11
                  11
                  11
                  12
                  12
                  11
                  11
                  11
                  11
                  11
                  11
                  11
                  11
                  11
                  11
                  11
                  11
                  11
                  11
                  11
                  11
                  11
                  11
                  11
                  11
                  12
                  12
                  12
                  12
                  11
                  11
                  11
                  11
                  11
                  11
                  11
                  11
                  11
                  11
                  11
                  12
                  12
                  12
                  12
                  12
                  12
                  12
                  12
                  12
                  12
                  11
                  11
                  11
                  11
                  11
                  11
                  11
                  11
                  11
                  11
                  11
                  11
                  11
                  11
                  11
                  12
                  12
                  12
                  12
                  12
  
SCALARS                         Jspace  double 1
LOOKUP_TABLE default
                  11
                  12
                  11
                  11
                  11
                  12
                  11
                  11
                  11
                  11
                  11
                  11
                  12
                  12
                  12
                  12
                  11
                  12
                  11
                  12
                  12
                  12
                  12
                  12
                  12
                  12
                  12
                  12
                  12
                  12
                  11
                  11
                  11
                  11
                  11
                  11
                  11
                  11
                  11
                  11
                  11
                  11
                  11
                  11
                  11
                  11
                  11
                  11
                  11
                  11
                  11
                  11
                  12
                  12
                  12
                  12
                  12
                  11
                  12
                  11
                  11
                  11
                  11
                  11
                  11
                  11
                  11
                  11
                  11
                  12
                  11
                  12
                  12
                  12
                  12
                  12
                  12
                  12
                  12
                  12
                  12
                  12
                  12
                  12
                  11
                  11
                  11
                  11
                  11
                  11
                  11
                  11
                  11
                  11
                  11
                  11
                  11
                  11
                  11
                  11
                  11
                  11
                  11
                  11
                  11
                  11
                  11
                  11
                  12
                  12
                  12
                  12
                  12
                  12
                  12
                  12
                  12
                  12
                  12
                  12
                  12
                  12
                  12
                  12
                  12
                  12
                  12
                  12
                  11
                  11
                  11
                  11
                  11
                  11
                  11
                  11
                  11
                  11
                  11
                  11
                  11
                  11
                  11
                  11
                  11
                  11
                  11
                  11
                  11
                  11
                  11
                  11
                  11
                  11
                  11
                  11
                  11
                  12
                  11
                  11
                  11
                  11
                  12
                  12
                  11
                  12
                  12
                  12
                  12
                  12
                  12
                  11
                  11
                  11
                  11
                  11
                  11
                  11
                  11
                  11
                  11
                  11
                  12
                  12
                  12
                  11
                  11
                  11
                  11
                  11
                  11
                  12
                  12
                  12
                  12
                  12
                  12
                  12
                  11
                  11
                  11
                  11
                  11
                  11
                  11
                  11
                  11
                  11
                  11
                  11
                  12
                  12
                  12
                  12
                  12
                  12
                  12
                  12
                  12
                  12
                  11
                  11
                  11
                  11
                  11
                  11
                  11
                  11
                  11
                  11
                  11
                  11
                  11
                  11
                  11
                  12
                  11
                  11
                  11
                  11
                  12
                  12
                  11
                  12
                  12
                  12
                  12
                  12
                  12
                  11
                  11
                  11
                  11
                  11
                  11
                  11
                  11
                  11
                  11
                  11
                  12
                  12
                  12
                  11
                  11
                  11
                  11
                  11
                  11
                  12
                  12
                  12
                  12
                  12
                  12
                  12
                  11
                  11
                  11
                  11
                  11
                  11
                  11
                  11
                  11
                  11
                  11
                  11
                  12
                  12
                  12
                  12
                  12
                  12
                  12
                  12
                  12
                  12
                  11
                  11
                  11
                  11
                  11
                  11
                  11
                  11
                  11
                  11
                  11
                  11
                  11
                  11
                  11
                  12
                  11
                  11
                  11
                  11
                  12
                  12
                  11
                  12
                  12
                  12
                  12
                  12
                  12
                  11
                  11
                  11
                  11
                  11
                  11
                  11
                  11
                  11
                  11
                  11
                  12
                  12
                  12
                  11
                  11
                  11
                  11
                  11
                  11
                  12
                  12
                  12
                  12
                  12
                  12
                  12
                  11
                  11
                  11
                  11
                  11
                  11
                  11
                  11
                  11
                  11
                  11
                  11
                  12
                  12
                  12
                  12
                  12
                  12
                  12
                  12
                  12
                  12
                  11
                  11
                  11
                  11
                  11
                  11
                  11
                  11
                  11
                  11
                  11
                  11
                  11
                  11
                  11
                  12
                  11
                  11
                  11
                  11
                  12
                  12
                  11
                  12
                  12
                  12
                  12
                  12
                  12
                  11
                  11
                  11
                  11
                  11
                  11
                  11
                  11
                  11
                  11
                  11
                  12
                  12
                  12
                  11
                  11
                  11
                  11
                  11
                  11
                  12
                  12
                  12
                  12
                  12
                  12
                  12
                  11
                  11
                  11
                  11
                  11
                  11
                  11
                  11
                  11
                  11
                  11
                  11
                  12
                  12
                  12
                  12
                  12
                  12
                  12
                  12
                  12
                  12
                  11
                  11
                  11
                  11
                  11
                  11
                  11
                  11
                  11
                  11
                  11
                  11
                  11
                  11
                  11
                  12
                  11
                  11
                  11
                  11
                  12
                  12
                  11
                  12
                  12
                  12
                  12
                  12
                  12
                  11
                  11
                  11
                  11
                  11
                  11
                  11
                  11
                  11
                  11
                  11
                  12
                  12
                  12
                  11
                  11
                  11
                  11
                  11
                  11
                  12
                  12
                  12
                  12
                  12
                  12
                  12
                  11
                  11
                  11
                  11
                  11
                  11
                  11
                  11
                  11
                  11
                  11
                  11
                  12
                  12
                  12
                  12
                  12
                  12
                  12
                  12
                  12
                  12
                  11
                  11
                  11
                  11
                  11
                  11
                  11
                  11
                  11
                  11
                  11
                  11
                  11
                  11
                  11
                  12
                  11
                  11
                  11
                  11
                  12
                  12
                  11
                  12
                  12
                  12
                  12
                  12
                  12
                  11
                  11
                  11
                  11
                  11
                  11
                  11
                  11
                  11
                  11
                  11
                  12
                  12
                  12
                  11
                  11
                  11
                  11
                  11
                  11
                  12
                  12
                  12
                  12
                  12
                  12
                  12
                  11
                  11
                  11
                  11
                  11
                  11
                  11
                  11
                  11
                  11
                  11
                  11
                  12
                  12
                  12
                  12
                  12
                  12
                  12
                  12
                  12
                  12
                  11
                  11
                  11
                  11
                  11
                  11
                  11
                  11
                  11
                  11
                  11
                  11
                  11
                  11
                  11
                  12
                  11
                  11
                  11
                  11
                  12
                  12
                  11
                  12
                  12
                  12
                  12
                  12
                  12
                  11
                  11
                  11
                  11
                  11
                  11
                  11
                  11
                  11
                  11
                  11
                  12
                  12
                  12
                  11
                  11
                  11
                  11
                  11
                  11
                  12
                  12
                  12
                  12
                  12
                  12
                  12
                  11
                  11
                  11
                  11
                  11
                  11
                  11
                  11
                  11
                  11
                  11
                  11
                  12
                  12
                  12
                  12
                  12
                  12
                  12
                  12
                  12
                  12
                  11
                  11
                  11
                  11
                  11
                  11
                  11
                  11
                  11
                  11
                  11
                  11
                  11
                  11
                  11
                  12
                  11
                  11
                  11
                  11
                  12
                  12
                  11
                  12
                  12
                  12
                  12
                  12
                  12
                  11
                  11
                  11
                  11
                  11
                  11
                  11
                  11
                  11
                  11
                  11
                  12
                  12
                  12
                  11
                  11
                  11
                  11
                  11
                  11
                  12
                  12
                  12
                  12
                  12
                  12
                  12
                  11
                  11
                  11
                  11
                  11
                  11
                  11
                  11
                  11
                  11
                  11
                  11
                  12
                  12
                  12
                  12
                  12
                  12
                  12
                  12
                  12
                  12
                  11
                  11
                  11
                  11
                  11
                  11
                  11
                  11
                  11
                  11
                  11
                  11
                  11
                  11
                  11
                  12
                  11
                  11
                  11
                  11
                  12
                  12
                  11
                  12
                  12
                  12
                  12
                  12
                  12
                  11
                  11
                  11
                  11
                  11
                  11
                  11
                  11
                  11
                  11
                  11
                  12
                  12
                  12
                  11
                  11
                  11
                  11
                  11
                  11
                  12
                  12
                  12
                  12
                  12
                  12
                  12
                  11
                  11
                  11
                  11
                  11
                  11
                  11
                  11
                  11
                  11
                  11
                  11
                  12
                  12
                  12
                  12
                  12
                  12
                  12
                  12
                  12
                  12
                  11
                  11
                  11
                  11
                  11
                  11
                  11
                  11
                  11
                  11
                  11
                  11
                  11
                  11
                  11
                  12
                  11
                  11
                  11
                  11
                  12
                  12
                  11
                  12
                  12
                  12
                  12
                  12
                  12
                  11
                  11
                  11
                  11
                  11
                  11
                  11
                  11
                  11
                  11
                  11
                  12
                  12
                  12
                  11
                  11
                  11
                  11
                  11
                  11
                  12
                  12
                  12
                  12
                  12
                  12
                  12
                  11
                  11
                  11
                  11
                  11
                  11
                  11
                  11
                  11
                  11
                  11
                  11
                  12
                  12
                  12
                  12
                  12
                  12
                  12
                  12
                  12
                  12
                  11
                  11
                  11
                  11
                  11
                  11
                  11
                  11
                  11
                  11
                  11
                  11
                  11
                  11
                  11
                  12
                  11
                  11
                  11
                  11
                  12
                  12
                  11
                  12
                  12
                  12
                  12
                  12
                  12
                  11
                  11
                  11
                  11
                  11
                  11
                  11
                  11
                  11
                  11
                  11
                  12
                  12
                  12
                  11
                  11
                  11
                  11
                  11
                  11
                  12
                  12
                  12
                  12
                  12
                  12
                  12
                  11
                  11
                  11
                  11
                  11
                  11
                  11
                  11
                  11
                  11
                  11
                  11
                  12
                  12
                  12
                  12
                  12
                  12
                  12
                  12
                  12
                  12
                  11
                  11
                  11
                  11
                  11
                  11
                  11
                  11
                  11
                  11
                  11
                  11
                  11
                  11
                  11
                  12
                  11
                  11
                  11
                  11
                  12
                  12
                  11
                  12
                  12
                  12
                  12
                  12
                  12
                  11
                  11
                  11
                  11
                  11
                  11
                  11
                  11
                  11
                  11
                  11
                  12
                  12
                  12
                  11
                  11
                  11
                  11
                  11
                  11
                  12
                  12
                  12
                  12
                  12
                  12
                  12
                  11
                  11
                  11
                  11
                  11
                  11
                  11
                  11
                  11
                  11
                  11
                  11
                  12
                  12
                  12
                  12
                  12
                  12
                  12
                  12
                  12
                  12
                  11
                  11
                  11
                  11
                  11
                  11
                  11
                  11
                  11
                  11
                  11
                  11
                  11
                  11
                  11
                  12
                  11
                  11
                  11
                  11
                  12
                  12
                  11
                  12
                  12
                  12
                  12
                  12
                  12
                  11
                  11
                  11
                  11
                  11
                  11
                  11
                  11
                  11
                  11
                  11
                  12
                  12
                  12
                  11
                  11
                  11
                  11
                  11
                  11
                  12
                  12
                  12
                  12
                  12
                  12
                  12
                  11
                  11
                  11
                  11
                  11
                  11
                  11
                  11
                  11
                  11
                  11
                  11
                  12
                  12
                  12
                  12
                  12
                  12
                  12
                  12
                  12
                  12
                  11
                  11
                  11
                  11
                  11
                  11
                  11
                  11
                  11
                  11
                  11
                  11
                  11
                  11
                  11
                  12
                  11
                  11
                  11
                  11
                  12
                  12
                  11
                  12
                  12
                  12
                  12
                  12
                  12
                  11
                  11
                  11
                  11
                  11
                  11
                  11
                  11
                  11
                  11
                  11
                  12
                  12
                  12
                  11
                  11
                  11
                  11
                  11
                  11
                  12
                  12
                  12
                  12
                  12
                  12
                  12
                  11
                  11
                  11
                  11
                  11
                  11
                  11
                  11
                  11
                  11
                  11
                  11
                  12
                  12
                  12
                  12
                  12
                  12
                  12
                  12
                  12
                  12
                  11
                  11
                  11
                  11
                  11
                  11
                  11
                  11
                  11
                  11
                  11
                  11
                  11
                  11
                  11
                  12
                  11
                  11
                  11
                  11
                  12
                  12
                  11
                  12
                  12
                  12
                  12
                  12
                  12
                  11
                  11
                  11
                  11
                  11
                  11
                  11
                  11
                  11
                  11
                  11
                  12
                  12
                  12
                  11
                  11
                  11
                  11
                  11
                  11
                  12
                  12
                  12
                  12
                  12
                  12
                  12
                  11
                  11
                  11
                  11
                  11
                  11
                  11
                  11
                  11
                  11
                  11
                  11
                  12
                  12
                  12
                  12
                  12
                  12
                  12
                  12
                  12
                  12
                  11
                  11
                  11
                  11
                  11
                  11
                  11
                  11
                  11
                  11
                  11
                  11
                  11
                  11
                  11
                  12
                  11
                  11
                  11
                  11
                  12
                  12
                  11
                  12
                  12
                  12
                  12
                  12
                  12
                  11
                  11
                  11
                  11
                  11
                  11
                  11
                  11
                  11
                  11
                  11
                  12
                  12
                  12
                  11
                  11
                  11
                  11
                  11
                  11
                  12
                  12
                  12
                  12
                  12
                  12
                  12
                  11
                  11
                  11
                  11
                  11
                  11
                  11
                  11
                  11
                  11
                  11
                  11
                  12
                  12
                  12
                  12
                  12
                  12
                  12
                  12
                  12
                  12
                  11
                  11
                  11
                  11
                  11
                  11
                  11
                  11
                  11
                  11
                  11
                  11
                  11
                  11
                  11
                  12
                  11
                  11
                  11
                  11
                  12
                  12
                  11
                  12
                  12
                  12
                  12
                  12
                  12
                  11
                  11
                  11
                  11
                  11
                  11
                  11
                  11
                  11
                  11
                  11
                  12
                  12
                  12
                  11
                  11
                  11
                  11
                  11
                  11
                  12
                  12
                  12
                  12
                  12
                  12
                  12
                  11
                  11
                  11
                  11
                  11
                  11
                  11
                  11
                  11
                  11
                  11
                  11
                  12
                  12
                  12
                  12
                  12
                  12
                  12
                  12
                  12
                  12
                  11
                  11
                  11
                  11
                  11
                  11
                  11
                  11
                  11
                  11
                  11
                  11
                  11
                  11
                  11
                  12
                  11
                  11
                  11
                  11
                  12
                  12
                  11
                  12
                  12
                  12
                  12
                  12
                  12
                  11
                  11
                  11
                  11
                  11
                  11
                  11
                  11
                  11
                  11
                  11
                  12
                  12
                  12
                  11
                  11
                  11
                  11
                  11
                  11
                  12
                  12
                  12
                  12
                  12
                  12
                  12
                  11
                  11
                  11
                  11
                  11
                  11
                  11
                  11
                  11
                  11
                  11
                  11
                  12
                  12
                  12
                  12
                  12
                  12
                  12
                  12
                  12
                  12
                  11
                  11
                  11
                  11
                  11
                  11
                  11
                  11
                  11
                  11
                  11
                  11
                  11
                  11
                  11
                  12
                  11
                  11
                  11
                  11
                  12
                  12
                  11
                  12
                  12
                  12
                  12
                  12
                  12
                  11
                  11
                  11
                  11
                  11
                  11
                  11
                  11
                  11
                  11
                  11
                  12
                  12
                  12
                  11
                  11
                  11
                  11
                  11
                  11
                  12
                  12
                  12
                  12
                  12
                  12
                  12
                  11
                  11
                  11
                  11
                  11
                  11
                  11
                  11
                  11
                  11
                  11
                  11
                  12
                  12
                  12
                  12
                  12
                  12
                  12
                  12
                  12
                  12
                  11
                  11
                  11
                  11
                  11
                  11
                  11
                  11
                  11
                  11
                  11
                  11
                  11
                  11
                  11
                  12
                  11
                  11
                  11
                  11
                  12
                  12
                  11
                  12
                  12
                  12
                  12
                  12
                  12
                  11
                  11
                  11
                  11
                  11
                  11
                  11
                  11
                  11
                  11
                  11
                  12
                  12
                  12
                  11
                  11
                  11
                  11
                  11
                  11
                  12
                  12
                  12
                  12
                  12
                  12
                  12
                  11
                  11
                  11
                  11
                  11
                  11
                  11
                  11
                  11
                  11
                  11
                  11
                  12
                  12
                  12
                  12
                  12
                  12
                  12
                  12
                  12
                  12
                  11
                  11
                  11
                  11
                  11
                  11
                  11
                  11
                  11
                  11
                  11
                  11
                  11
                  11
                  11
                  12
                  11
                  11
                  11
                  11
                  12
                  12
                  11
                  12
                  12
                  12
                  12
                  12
                  12
                  11
                  11
                  11
                  11
                  11
                  11
                  11
                  11
                  11
                  11
                  11
                  12
                  12
                  12
                  11
                  11
                  11
                  11
                  11
                  11
                  12
                  12
                  12
                  12
                  12
                  12
                  12
                  11
                  11
                  11
                  11
                  11
                  11
                  11
                  11
                  11
                  11
                  11
                  11
                  12
                  12
                  12
                  12
                  12
                  12
                  12
                  12
                  12
                  12
                  11
                  11
                  11
                  11
                  11
                  11
                  11
                  11
                  11
                  11
                  11
                  11
                  11
                  11
                  11
                  12
                  11
                  11
                  11
                  11
                  12
                  12
                  11
                  12
                  12
                  12
                  12
                  12
                  12
                  11
                  11
                  11
                  11
                  11
                  11
                  11
                  11
                  11
                  11
                  11
                  12
                  12
                  12
                  11
                  11
                  11
                  11
                  11
                  11
                  12
                  12
                  12
                  12
                  12
                  12
                  12
                  11
                  11
                  11
                  11
                  11
                  11
                  11
                  11
                  11
                  11
                  11
                  11
                  12
                  12
                  12
                  12
                  12
                  12
                  12
                  12
                  12
                  12
                  11
                  11
                  11
                  11
                  11
                  11
                  11
                  11
                  11
                  11
                  11
                  11
                  11
                  11
                  11
                  12
                  11
                  11
                  11
                  11
                  12
                  12
                  11
                  12
                  12
                  12
                  12
                  12
                  12
                  11
                  11
                  11
                  11
                  11
                  11
                  11
                  11
                  11
                  11
                  11
                  12
                  12
                  12
                  11
                  11
                  11
                  11
                  11
                  11
                  12
                  12
                  12
                  12
                  12
                  12
                  12
                  11
                  11
                  11
                  11
                  11
                  11
                  11
                  11
                  11
                  11
                  11
                  11
                  12
                  12
                  12
                  12
                  12
                  12
                  12
                  12
                  12
                  12
                  11
                  11
                  11
                  11
                  11
                  11
                  11
                  11
                  11
                  11
                  11
                  11
                  11
                  11
  
SCALARS                         Kspace  double 1
LOOKUP_TABLE default
                  11
                  11
                  11
                  11
                  11
                  11
                  11
                  11
                  11
                  11
                  11
                  11
                  11
                  11
                  11
                  11
                  11
                  11
                  11
                  11
                  11
                  11
                  11
                  11
                  11
                  11
                  11
                  11
                  11
                  11
                  11
                  11
                  11
                  11
                  11
                  11
                  11
                  11
                  11
                  11
                  11
                  11
                  11
                  11
                  11
                  11
                  11
                  11
                  11
                  11
                  11
                  11
                  11
                  11
                  11
                  11
                  11
                  11
                  11
                  11
                  11
                  11
                  11
                  11
                  11
                  11
                  11
                  11
                  11
                  11
                  11
                  11
                  11
                  11
                  11
                  11
                  11
                  11
                  11
                  11
                  11
                  11
                  11
                  11
                  11
                  11
                  11
                  11
                  11
                  11
                  11
                  11
                  11
                  11
                  11
                  11
                  11
                  11
                  11
                  11
                  11
                  11
                  11
                  11
                  11
                  11
                  11
                  11
                  11
                  11
                  11
                  11
                  11
                  11
                  11
                  11
                  11
                  11
                  11
                  11
                  11
                  11
                  11
                  11
                  11
                  11
                  11
                  11
                  11
                  11
                  11
                  11
                  11
                  11
                  11
                  11
                  11
                  11
                  11
                  11
                  11
                  11
                  11
                  11
                  11
                  11
                  11
                  11
                  11
                  11
                  11
                  11
                  11
                  11
                  11
                  11
                  11
                  11
                  11
                  11
                  11
                  11
                  11
                  11
                  11
                  11
                  11
                  11
                  11
                  11
                  11
                  11
                  11
                  11
                  11
                  11
                  11
                  11
                  11
                  11
                  11
                  11
                  11
                  11
                  11
                  11
                  11
                  11
                  11
                  11
                  11
                  11
                  11
                  11
                  11
                  11
                  11
                  11
                  11
                  11
                  11
                  11
                  11
                  11
                  11
                  11
                  11
                  11
                  11
                  11
                  11
                  11
                  11
                  11
                  11
                  11
                  11
                  11
                  11
                  11
                  11
                  11
                  11
                  11
                  11
                  11
                  11
                  11
                  11
                  11
                  11
                  11
                  11
                  11
                  11
                  11
                  11
                  11
                  11
                  11
                  11
                  11
                  11
                  11
                  11
                  11
                  11
                  11
                  11
                  11
                  11
                  11
                  11
                  11
                  11
                  11
                  11
                  11
                  11
                  11
                  11
                  11
                  11
                  11
                  11
                  11
                  11
                  11
                  11
                  11
                  11
                  11
                  11
                  11
                  11
                  11
                  11
                  11
                  11
                  11
                  11
                  11
                  11
                  11
                  11
                  11
                  11
                  11
                  11
                  11
                  11
                  11
                  11
                  11
                  11
                  11
                  11
                  11
                  11
                  11
                  11
                  11
                  11
                  11
                  11
                  11
                  11
                  11
                  11
                  11
                  11
                  11
                  12
                  12
                  12
                  12
                  12
                  12
                  12
                  12
                  12
                  12
                  12
                  12
                  12
                  12
                  12
                  12
                  12
                  12
                  12
                  12
                  12
                  12
                  12
                  12
                  12
                  12
                  12
                  12
                  12
                  12
                  12
                  12
                  12
                  12
                  12
                  12
                  12
                  12
                  12
                  12
                  12
                  12
                  12
                  12
                  12
                  12
                  12
                  12
                  12
                  12
                  12
                  12
                  12
                  12
                  12
                  12
                  12
                  12
                  12
                  12
                  12
                  12
                  12
                  12
                  12
                  12
                  12
                  12
                  12
                  12
                  12
                  12
                  12
                  12
                  12
                  12
                  12
                  12
                  12
                  12
                  12
                  12
                  12
                  12
                  12
                  12
                  12
                  12
                  12
                  12
                  12
                  12
                  12
                  12
                  12
                  12
                  12
                  12
                  12
                  12
                  12
                  12
                  12
                  12
                  12
                  12
                  12
                  12
                  12
                  12
                  12
                  12
                  12
                  12
                  12
                  12
                  12
                  12
                  12
                  12
                  12
                  12
                  12
                  12
                  12
                  12
                  12
                  12
                  12
                  12
                  12
                  12
                  12
                  12
                  12
                  12
                  12
                  12
                  12
                  12
                  12
                  12
                  12
                  12
                  12
                  12
                  12
                  12
                  12
                  12
                  12
                  12
                  12
                  12
                  12
                  12
                  12
                  12
                  12
                  12
                  12
                  12
                  12
                  12
                  12
                  12
                  12
                  12
                  12
                  12
                  12
                  12
                  12
                  12
                  12
                  12
                  12
                  12
                  12
                  12
                  12
                  12
                  12
                  12
                  12
                  12
                  12
                  12
                  12
                  12
                  12
                  12
                  12
                  12
                  12
                  12
                  12
                  12
                  12
                  12
                  12
                  12
                  12
                  12
                  12
                  12
                  12
                  12
                  12
                  12
                  12
                  12
                  12
                  12
                  12
                  12
                  12
                  12
                  12
                  12
                  12
                  12
                  12
                  12
                  12
                  12
                  12
                  12
                  12
                  12
                  12
                  12
                  12
                  12
                  13
                  13
                  13
                  13
                  13
                  13
                  13
                  13
                  13
                  13
                  13
                  13
                  13
                  13
                  13
                  13
                  13
                  13
                  13
                  13
                  13
                  13
                  13
                  13
                  13
                  13
                  13
                  13
                  13
                  13
                  13
                  13
                  13
                  13
                  13
                  13
                  13
                  13
                  13
                  13
                  13
                  13
                  13
                  13
                  13
                  13
                  13
                  13
                  13
                  13
                  13
                  13
                  13
                  13
                  13
                  13
                  13
                  13
                  13
                  13
                  13
                  13
                  13
                  13
                  13
                  13
                  13
                  13
                  13
                  13
                  13
                  13
                  13
                  13
                  13
                  13
                  13
                  13
                  13
                  13
                  13
                  13
                  13
                  13
                  13
                  13
                  13
                  13
                  13
                  13
                  13
                  13
                  13
                  13
                  13
                  13
                  13
                  13
                  13
                  13
                  13
                  13
                  13
                  13
                  13
                  13
                  13
                  13
                  13
                  13
                  13
                  13
                  13
                  13
                  13
                  13
                  13
                  13
                  13
                  13
                  13
                  13
                  13
                  13
                  13
                  13
                  13
                  13
                  13
                  13
                  13
                  13
                  13
                  13
                  13
                  13
                  13
                  13
                  13
                  13
                  13
                  13
                  13
                  13
                  13
                  13
                  13
                  13
                  13
                  13
                  13
                  13
                  13
                  13
                  13
                  13
                  13
                  13
                  13
                  13
                  13
                  13
                  13
                  13
                  13
                  13
                  13
                  13
                  13
                  13
                  13
                  13
                  13
                  13
                  13
                  13
                  13
                  13
                  13
                  13
                  13
                  13
                  13
                  13
                  13
                  13
                  13
                  13
                  13
                  13
                  13
                  13
                  13
                  13
                  13
                  13
                  13
                  13
                  13
                  13
                  13
                  13
                  13
                  13
                  13
                  13
                  13
                  13
                  13
                  13
                  13
                  13
                  13
                  13
                  13
                  13
                  13
                  13
                  13
                  13
                  13
                  13
                  13
                  13
                  13
                  13
                  13
                  13
                  13
                  13
                  13
                  13
                  13
                  13
                  14
                  14
                  14
                  14
                  14
                  14
                  14
                  14
                  14
                  14
                  14
                  14
                  14
                  14
                  14
                  14
                  14
                  14
                  14
                  14
                  14
                  14
                  14
                  14
                  14
                  14
                  14
                  14
                  14
                  14
                  14
                  14
                  14
                  14
                  14
                  14
                  14
                  14
                  14
                  14
                  14
                  14
                  14
                  14
                  14
                  14
                  14
                  14
                  14
                  14
                  14
                  14
                  14
                  14
                  14
                  14
                  14
                  14
                  14
                  14
                  14
                  14
                  14
                  14
                  14
                  14
                  14
                  14
                  14
                  14
                  14
                  14
                  14
                  14
                  14
                  14
                  14
                  14
                  14
                  14
                  14
                  14
                  14
                  14
                  14
                  14
                  14
                  14
                  14
                  14
                  14
                  14
                  14
                  14
                  14
                  14
                  14
                  14
                  14
                  14
                  14
                  14
                  14
                  14
                  14
                  14
                  14
                  14
                  14
                  14
                  14
                  14
                  14
                  14
                  14
                  14
                  14
                  14
                  14
                  14
                  14
                  14
                  14
                  14
                  14
                  14
                  14
                  14
                  14
                  14
                  14
                  14
                  14
                  14
                  14
                  14
                  14
                  14
                  14
                  14
                  14
                  14
                  14
                  14
                  14
                  14
                  14
                  14
                  14
                  14
                  14
                  14
                  14
                  14
                  14
                  14
                  14
                  14
                  14
                  14
                  14
                  14
                  14
                  14
                  14
                  14
                  14
                  14
                  14
                  14
                  14
                  14
                  14
                  14
                  14
                  14
                  14
                  14
                  14
                  14
                  14
                  14
                  14
                  14
                  14
                  14
                  14
                  14
                  14
                  14
                  14
                  14
                  14
                  14
                  14
                  14
                  14
                  14
                  14
                  14
                  14
                  14
                  14
                  14
                  14
                  14
                  14
                  14
                  14
                  14
                  14
                  14
                  14
                  14
                  14
                  14
                  14
                  14
                  14
                  14
                  14
                  14
                  14
                  14
                  14
                  14
                  14
                  14
                  14
                  14
                  14
                  14
                  14
                  14
                  15
                  15
                  15
                  15
                  15
                  15
                  15
                  15
                  15
                  15
                  15
                  15
                  15
                  15
                  15
                  15
                  15
                  15
                  15
                  15
                  15
                  15
                  15
                  15
                  15
                  15
                  15
                  15
                  15
                  15
                  15
                  15
                  15
                  15
                  15
                  15
                  15
                  15
                  15
                  15
                  15
                  15
                  15
                  15
                  15
                  15
                  15
                  15
                  15
                  15
                  15
                  15
                  15
                  15
                  15
                  15
                  15
                  15
                  15
                  15
                  15
                  15
                  15
                  15
                  15
                  15
                  15
                  15
                  15
                  15
                  15
                  15
                  15
                  15
                  15
                  15
                  15
                  15
                  15
                  15
                  15
                  15
                  15
                  15
                  15
                  15
                  15
                  15
                  15
                  15
                  15
                  15
                  15
                  15
                  15
                  15
                  15
                  15
                  15
                  15
                  15
                  15
                  15
                  15
                  15
                  15
                  15
                  15
                  15
                  15
                  15
                  15
                  15
                  15
                  15
                  15
                  15
                  15
                  15
                  15
                  15
                  15
                  15
                  15
                  15
                  15
                  15
                  15
                  15
                  15
                  15
                  15
                  15
                  15
                  15
                  15
                  15
                  15
                  15
                  15
                  15
                  15
                  15
                  15
                  15
                  15
                  15
                  15
                  15
                  15
                  15
                  15
                  15
                  15
                  15
                  15
                  15
                  15
                  15
                  15
                  15
                  15
                  15
                  15
                  15
                  15
                  15
                  15
                  15
                  15
                  15
                  15
                  15
                  15
                  15
                  15
                  15
                  15
                  15
                  15
                  15
                  15
                  15
                  15
                  15
                  15
                  15
                  15
                  15
                  15
                  15
                  15
                  15
                  15
                  15
                  15
                  15
                  15
                  15
                  15
                  15
                  15
                  15
                  15
                  15
                  15
                  15
                  15
                  15
                  15
                  15
                  15
                  15
                  15
                  15
                  15
                  15
                  15
                  15
                  15
                  15
                  15
                  15
                  15
                  15
                  15
                  15
                  15
                  15
                  15
                  15
                  15
                  15
                  15
                  15
                  15
                  15
                  15
                  15
                  15
                  15
                  15
                  15
                  15
                  15
                  15
                  15
                  15
                  15
                  15
                  15
                  15
                  15
                  15
                  15
                  15
                  15
                  15
                  15
                  15
                  15
                  15
                  15
                  15
                  15
                  15
                  15
                  15
                  15
                  15
                  15
                  15
                  15
                  15
                  15
                  15
                  15
                  15
                  15
                  15
                  15
                  15
                  15
                  15
                  15
                  15
                  15
                  15
                  15
                  15
                  15
                  15
                  15
                  15
                  15
                  15
                  15
                  15
                  15
                  15
                  15
                  15
                  15
                  15
                  15
                  15
                  15
                  15
                  15
                  15
                  15
                  15
                  16
                  16
                  16
                  16
                  16
                  16
                  16
                  16
                  16
                  16
                  16
                  16
                  16
                  16
                  16
                  16
                  16
                  16
                  16
                  16
                  16
                  16
                  16
                  16
                  16
                  16
                  16
                  16
                  16
                  16
                  16
                  16
                  16
                  16
                  16
                  16
                  16
                  16
                  16
                  16
                  16
                  16
                  16
                  16
                  16
                  16
                  16
                  16
                  16
                  16
                  16
                  16
                  16
                  16
                  16
                  16
                  16
                  16
                  16
                  16
                  16
                  16
                  16
                  16
                  16
                  16
                  16
                  16
                  16
                  16
                  16
                  16
                  16
                  16
                  16
                  16
                  16
                  16
                  16
                  16
                  16
                  16
                  16
                  16
                  16
                  16
                  16
                  16
                  16
                  16
                  16
                  16
                  16
                  16
                  16
                  16
                  16
                  16
                  16
                  16
                  16
                  16
                  16
                  16
                  16
                  16
                  16
                  16
                  16
                  16
                  16
                  16
                  16
                  16
                  16
                  16
                  16
                  16
                  16
                  16
                  16
                  16
                  16
                  16
                  16
                  16
                  16
                  16
                  16
                  16
                  16
                  16
                  16
                  16
                  16
                  16
                  16
                  16
                  16
                  16
                  16
                  16
                  16
                  16
                  16
                  16
                  16
                  16
                  16
                  16
                  16
                  16
                  16
                  16
                  16
                  16
                  16
                  16
                  16
                  16
                  16
                  16
                  16
                  16
                  16
                  16
                  16
                  16
                  16
                  16
                  16
                  16
                  16
                  16
                  16
                  16
                  16
                  16
                  16
                  16
                  16
                  16
                  16
                  16
                  16
                  16
                  16
                  16
                  16
                  16
                  16
                  16
                  16
                  16
                  16
                  16
                  16
                  16
                  16
                  16
                  16
                  16
                  16
                  16
                  16
                  16
                  16
                  16
                  16
                  16
                  16
                  16
                  16
                  16
                  16
                  16
                  16
                  16
                  16
                  16
                  16
                  16
                  16
                  16
                  16
                  16
                  16
                  16
                  16
                  16
                  16
                  16
                  16
                  16
                  17
                  17
                  17
                  17
                  17
                  17
                  17
                  17
                  17
                  17
                  17
                  17
                  17
                  17
                  17
                  17
                  17
                  17
                  17
                  17
                  17
                  17
                  17
                  17
                  17
                  17
                  17
                  17
                  17
                  17
                  17
                  17
                  17
                  17
                  17
                  17
                  17
                  17
                  17
                  17
                  17
                  17
                  17
                  17
                  17
                  17
                  17
                  17
                  17
                  17
                  17
                  17
                  17
                  17
                  17
                  17
                  17
                  17
                  17
                  17
                  17
                  17
                  17
                  17
                  17
                  17
                  17
                  17
                  17
                  17
                  17
                  17
                  17
                  17
                  17
                  17
                  17
                  17
                  17
                  17
                  17
                  17
                  17
                  17
                  17
                  17
                  17
                  17
                  17
                  17
                  17
                  17
                  17
                  17
                  17
                  17
                  17
                  17
                  17
                  17
                  17
                  17
                  17
                  17
                  17
                  17
                  17
                  17
                  17
                  17
                  17
                  17
                  17
                  17
                  17
                  17
                  17
                  17
                  17
                  17
                  17
                  17
                  17
                  17
                  17
                  17
                  17
                  17
                  17
                  17
                  17
                  17
                  17
                  17
                  17
                  17
                  17
                  17
                  17
                  17
                  17
                  17
                  17
                  17
                  17
                  17
                  17
                  17
                  17
                  17
                  17
                  17
                  17
                  17
                  17
                  17
                  17
                  17
                  17
                  17
                  17
                  17
                  17
                  17
                  17
                  17
                  17
                  17
                  17
                  17
                  17
                  17
                  17
                  17
                  17
                  17
                  17
                  17
                  17
                  17
                  17
                  17
                  17
                  17
                  17
                  17
                  17
                  17
                  17
                  17
                  17
                  17
                  17
                  17
                  17
                  17
                  17
                  17
                  17
                  17
                  17
                  17
                  17
                  17
                  17
                  17
                  17
                  17
                  17
                  17
                  17
                  17
                  17
                  17
                  17
                  17
                  17
                  17
                  17
                  17
                  17
                  17
                  17
                  17
                  17
                  17
                  17
                  17
                  17
                  17
                  17
                  17
                  17
                  17
                  18
                  18
                  18
                  18
                  18
                  18
                  18
                  18
                  18
                  18
                  18
                  18
                  18
                  18
                  18
                  18
                  18
                  18
                  18
                  18
                  18
                  18
                  18
                  18
                  18
                  18
                  18
                  18
                  18
                  18
                  18
                  18
                  18
                  18
                  18
                  18
                  18
                  18
                  18
                  18
                  18
                  18
                  18
                  18
                  18
                  18
                  18
                  18
                  18
                  18
                  18
                  18
                  18
                  18
                  18
                  18
                  18
                  18
                  18
                  18
                  18
                  18
                  18
                  18
                  18
                  18
                  18
                  18
                  18
                  18
                  18
                  18
                  18
                  18
                  18
                  18
                  18
                  18
                  18
                  18
                  18
                  18
                  18
                  18
                  18
                  18
                  18
                  18
                  18
                  18
                  18
                  18
                  18
                  18
                  18
                  18
                  18
                  18
                  18
                  18
                  18
                  18
                  18
                  18
                  18
                  18
                  18
                  18
                  18
                  18
                  18
                  18
                  18
                  18
                  18
                  18
                  18
                  18
                  18
                  18
                  18
                  18
                  18
                  18
                  18
                  18
                  18
                  18
                  18
                  18
                  18
                  18
                  18
                  18
                  18
                  18
                  18
                  18
                  18
                  18
                  18
                  18
                  18
                  18
                  18
                  18
                  18
                  18
                  18
                  18
                  18
                  18
                  18
                  18
                  18
                  18
  
SCALARS                 displacement_x  double 1
LOOKUP_TABLE default
         0.00000E+00
         0.00000E+00
         0.00000E+00
         0.00000E+00
         0.00000E+00
         0.00000E+00
         0.00000E+00
         0.00000E+00
         0.00000E+00
         0.00000E+00
         0.00000E+00
         0.00000E+00
         0.00000E+00
         0.00000E+00
         0.00000E+00
         0.00000E+00
         0.00000E+00
         0.00000E+00
         0.00000E+00
         0.00000E+00
         0.00000E+00
         0.00000E+00
         0.00000E+00
         0.00000E+00
         0.00000E+00
         0.00000E+00
         0.00000E+00
         0.00000E+00
         0.00000E+00
         0.00000E+00
         0.00000E+00
         0.00000E+00
         0.00000E+00
         0.00000E+00
         0.00000E+00
         0.00000E+00
         0.00000E+00
         0.00000E+00
         0.00000E+00
         0.00000E+00
         0.00000E+00
         0.00000E+00
         0.00000E+00
         0.00000E+00
         0.00000E+00
         0.00000E+00
         0.00000E+00
         0.00000E+00
         0.00000E+00
         0.00000E+00
         0.00000E+00
         0.00000E+00
         0.00000E+00
         0.00000E+00
         0.00000E+00
         0.00000E+00
         0.00000E+00
         0.00000E+00
         0.00000E+00
         0.00000E+00
         0.00000E+00
         0.00000E+00
         0.00000E+00
         0.00000E+00
         0.00000E+00
         0.00000E+00
         0.00000E+00
         0.00000E+00
         0.00000E+00
         0.00000E+00
         0.00000E+00
         0.00000E+00
         0.00000E+00
         0.00000E+00
         0.00000E+00
         0.00000E+00
         0.00000E+00
         0.00000E+00
         0.00000E+00
         0.00000E+00
         0.00000E+00
         0.00000E+00
         0.00000E+00
         0.00000E+00
         0.00000E+00
         0.00000E+00
         0.00000E+00
         0.00000E+00
         0.00000E+00
         0.00000E+00
         0.00000E+00
         0.00000E+00
         0.00000E+00
         0.00000E+00
         0.00000E+00
         0.00000E+00
         0.00000E+00
         0.00000E+00
         0.00000E+00
         0.00000E+00
         0.00000E+00
         0.00000E+00
         0.00000E+00
         0.00000E+00
         0.00000E+00
         0.00000E+00
         0.00000E+00
         0.00000E+00
         0.00000E+00
         0.00000E+00
         0.00000E+00
         0.00000E+00
         0.00000E+00
         0.00000E+00
         0.00000E+00
         0.00000E+00
         0.00000E+00
         0.00000E+00
         0.00000E+00
         0.00000E+00
         0.00000E+00
         0.00000E+00
         0.00000E+00
         0.00000E+00
         0.00000E+00
         0.00000E+00
         0.00000E+00
         0.00000E+00
         0.00000E+00
         0.00000E+00
         0.00000E+00
         0.00000E+00
         0.00000E+00
         0.00000E+00
         0.00000E+00
         0.00000E+00
         0.00000E+00
         0.00000E+00
         0.00000E+00
         0.00000E+00
         0.00000E+00
         0.00000E+00
         0.00000E+00
         0.00000E+00
         0.00000E+00
         0.00000E+00
         0.00000E+00
         0.00000E+00
         0.00000E+00
         0.00000E+00
         0.00000E+00
         0.00000E+00
         0.00000E+00
         0.00000E+00
         0.00000E+00
         0.00000E+00
         0.00000E+00
         0.00000E+00
         0.00000E+00
         0.00000E+00
         0.00000E+00
         0.00000E+00
         0.00000E+00
         0.00000E+00
         0.00000E+00
         0.00000E+00
         0.00000E+00
         0.00000E+00
         0.00000E+00
         0.00000E+00
         0.00000E+00
         0.00000E+00
         0.00000E+00
         0.00000E+00
         0.00000E+00
         0.00000E+00
         0.00000E+00
         0.00000E+00
         0.00000E+00
         0.00000E+00
         0.00000E+00
         0.00000E+00
         0.00000E+00
         0.00000E+00
         0.00000E+00
         0.00000E+00
         0.00000E+00
         0.00000E+00
         0.00000E+00
         0.00000E+00
         0.00000E+00
         0.00000E+00
         0.00000E+00
         0.00000E+00
         0.00000E+00
         0.00000E+00
         0.00000E+00
         0.00000E+00
         0.00000E+00
         0.00000E+00
         0.00000E+00
         0.00000E+00
         0.00000E+00
         0.00000E+00
         0.00000E+00
         0.00000E+00
         0.00000E+00
         0.00000E+00
         0.00000E+00
         0.00000E+00
         0.00000E+00
         0.00000E+00
         0.00000E+00
         0.00000E+00
         0.00000E+00
         0.00000E+00
         0.00000E+00
         0.00000E+00
         0.00000E+00
         0.00000E+00
         0.00000E+00
         0.00000E+00
         0.00000E+00
         0.00000E+00
         0.00000E+00
         0.00000E+00
         0.00000E+00
         0.00000E+00
         0.00000E+00
         0.00000E+00
         0.00000E+00
         0.00000E+00
         0.00000E+00
         0.00000E+00
         0.00000E+00
         0.00000E+00
         0.00000E+00
         0.00000E+00
         0.00000E+00
         0.00000E+00
         0.00000E+00
         0.00000E+00
         0.00000E+00
         0.00000E+00
         0.00000E+00
         0.00000E+00
         0.00000E+00
         0.00000E+00
         0.00000E+00
         0.00000E+00
         0.00000E+00
         0.00000E+00
         0.00000E+00
         0.00000E+00
         0.00000E+00
         0.00000E+00
         0.00000E+00
         0.00000E+00
         0.00000E+00
         0.00000E+00
         0.00000E+00
         0.00000E+00
         0.00000E+00
         0.00000E+00
         0.00000E+00
         0.00000E+00
         0.00000E+00
         0.00000E+00
         0.00000E+00
         0.00000E+00
         0.00000E+00
         0.00000E+00
         0.00000E+00
         0.00000E+00
         0.00000E+00
         0.00000E+00
         0.00000E+00
         0.00000E+00
         0.00000E+00
         0.00000E+00
         0.00000E+00
         0.00000E+00
         0.00000E+00
         0.00000E+00
         0.00000E+00
         0.00000E+00
         0.00000E+00
         0.00000E+00
         0.00000E+00
         0.00000E+00
         0.00000E+00
         0.00000E+00
         0.00000E+00
         0.00000E+00
         0.00000E+00
         0.00000E+00
         0.00000E+00
         0.00000E+00
         0.00000E+00
         0.00000E+00
         0.00000E+00
         0.00000E+00
         0.00000E+00
         0.00000E+00
         0.00000E+00
         0.00000E+00
         0.00000E+00
         0.00000E+00
         0.00000E+00
         0.00000E+00
         0.00000E+00
         0.00000E+00
         0.00000E+00
         0.00000E+00
         0.00000E+00
         0.00000E+00
         0.00000E+00
         0.00000E+00
         0.00000E+00
         0.00000E+00
         0.00000E+00
         0.00000E+00
         0.00000E+00
         0.00000E+00
         0.00000E+00
         0.00000E+00
         0.00000E+00
         0.00000E+00
         0.00000E+00
         0.00000E+00
         0.00000E+00
         0.00000E+00
         0.00000E+00
         0.00000E+00
         0.00000E+00
         0.00000E+00
         0.00000E+00
         0.00000E+00
         0.00000E+00
         0.00000E+00
         0.00000E+00
         0.00000E+00
         0.00000E+00
         0.00000E+00
         0.00000E+00
         0.00000E+00
         0.00000E+00
         0.00000E+00
         0.00000E+00
         0.00000E+00
         0.00000E+00
         0.00000E+00
         0.00000E+00
         0.00000E+00
         0.00000E+00
         0.00000E+00
         0.00000E+00
         0.00000E+00
         0.00000E+00
         0.00000E+00
         0.00000E+00
         0.00000E+00
         0.00000E+00
         0.00000E+00
         0.00000E+00
         0.00000E+00
         0.00000E+00
         0.00000E+00
         0.00000E+00
         0.00000E+00
         0.00000E+00
         0.00000E+00
         0.00000E+00
         0.00000E+00
         0.00000E+00
         0.00000E+00
         0.00000E+00
         0.00000E+00
         0.00000E+00
         0.00000E+00
         0.00000E+00
         0.00000E+00
         0.00000E+00
         0.00000E+00
         0.00000E+00
         0.00000E+00
         0.00000E+00
         0.00000E+00
         0.00000E+00
         0.00000E+00
         0.00000E+00
         0.00000E+00
         0.00000E+00
         0.00000E+00
         0.00000E+00
         0.00000E+00
         0.00000E+00
         0.00000E+00
         0.00000E+00
         0.00000E+00
         0.00000E+00
         0.00000E+00
         0.00000E+00
         0.00000E+00
         0.00000E+00
         0.00000E+00
         0.00000E+00
         0.00000E+00
         0.00000E+00
         0.00000E+00
         0.00000E+00
         0.00000E+00
         0.00000E+00
         0.00000E+00
         0.00000E+00
         0.00000E+00
         0.00000E+00
         0.00000E+00
         0.00000E+00
         0.00000E+00
         0.00000E+00
         0.00000E+00
         0.00000E+00
         0.00000E+00
         0.00000E+00
         0.00000E+00
         0.00000E+00
         0.00000E+00
         0.00000E+00
         0.00000E+00
         0.00000E+00
         0.00000E+00
         0.00000E+00
         0.00000E+00
         0.00000E+00
         0.00000E+00
         0.00000E+00
         0.00000E+00
         0.00000E+00
         0.00000E+00
         0.00000E+00
         0.00000E+00
         0.00000E+00
         0.00000E+00
         0.00000E+00
         0.00000E+00
         0.00000E+00
         0.00000E+00
         0.00000E+00
         0.00000E+00
         0.00000E+00
         0.00000E+00
         0.00000E+00
         0.00000E+00
         0.00000E+00
         0.00000E+00
         0.00000E+00
         0.00000E+00
         0.00000E+00
         0.00000E+00
         0.00000E+00
         0.00000E+00
         0.00000E+00
         0.00000E+00
         0.00000E+00
         0.00000E+00
         0.00000E+00
         0.00000E+00
         0.00000E+00
         0.00000E+00
         0.00000E+00
         0.00000E+00
         0.00000E+00
         0.00000E+00
         0.00000E+00
         0.00000E+00
         0.00000E+00
         0.00000E+00
         0.00000E+00
         0.00000E+00
         0.00000E+00
         0.00000E+00
         0.00000E+00
         0.00000E+00
         0.00000E+00
         0.00000E+00
         0.00000E+00
         0.00000E+00
         0.00000E+00
         0.00000E+00
         0.00000E+00
         0.00000E+00
         0.00000E+00
         0.00000E+00
         0.00000E+00
         0.00000E+00
         0.00000E+00
         0.00000E+00
         0.00000E+00
         0.00000E+00
         0.00000E+00
         0.00000E+00
         0.00000E+00
         0.00000E+00
         0.00000E+00
         0.00000E+00
         0.00000E+00
         0.00000E+00
         0.00000E+00
         0.00000E+00
         0.00000E+00
         0.00000E+00
         0.00000E+00
         0.00000E+00
         0.00000E+00
         0.00000E+00
         0.00000E+00
         0.00000E+00
         0.00000E+00
         0.00000E+00
         0.00000E+00
         0.00000E+00
         0.00000E+00
         0.00000E+00
         0.00000E+00
         0.00000E+00
         0.00000E+00
         0.00000E+00
         0.00000E+00
         0.00000E+00
         0.00000E+00
         0.00000E+00
         0.00000E+00
         0.00000E+00
         0.00000E+00
         0.00000E+00
         0.00000E+00
         0.00000E+00
         0.00000E+00
         0.00000E+00
         0.00000E+00
         0.00000E+00
         0.00000E+00
         0.00000E+00
         0.00000E+00
         0.00000E+00
         0.00000E+00
         0.00000E+00
         0.00000E+00
         0.00000E+00
         0.00000E+00
         0.00000E+00
         0.00000E+00
         0.00000E+00
         0.00000E+00
         0.00000E+00
         0.00000E+00
         0.00000E+00
         0.00000E+00
         0.00000E+00
         0.00000E+00
         0.00000E+00
         0.00000E+00
         0.00000E+00
         0.00000E+00
         0.00000E+00
         0.00000E+00
         0.00000E+00
         0.00000E+00
         0.00000E+00
         0.00000E+00
         0.00000E+00
         0.00000E+00
         0.00000E+00
         0.00000E+00
         0.00000E+00
         0.00000E+00
         0.00000E+00
         0.00000E+00
         0.00000E+00
         0.00000E+00
         0.00000E+00
         0.00000E+00
         0.00000E+00
         0.00000E+00
         0.00000E+00
         0.00000E+00
         0.00000E+00
         0.00000E+00
         0.00000E+00
         0.00000E+00
         0.00000E+00
         0.00000E+00
         0.00000E+00
         0.00000E+00
         0.00000E+00
         0.00000E+00
         0.00000E+00
         0.00000E+00
         0.00000E+00
         0.00000E+00
         0.00000E+00
         0.00000E+00
         0.00000E+00
         0.00000E+00
         0.00000E+00
         0.00000E+00
         0.00000E+00
         0.00000E+00
         0.00000E+00
         0.00000E+00
         0.00000E+00
         0.00000E+00
         0.00000E+00
         0.00000E+00
         0.00000E+00
         0.00000E+00
         0.00000E+00
         0.00000E+00
         0.00000E+00
         0.00000E+00
         0.00000E+00
         0.00000E+00
         0.00000E+00
         0.00000E+00
         0.00000E+00
         0.00000E+00
         0.00000E+00
         0.00000E+00
         0.00000E+00
         0.00000E+00
         0.00000E+00
         0.00000E+00
         0.00000E+00
         0.00000E+00
         0.00000E+00
         0.00000E+00
         0.00000E+00
         0.00000E+00
         0.00000E+00
         0.00000E+00
         0.00000E+00
         0.00000E+00
         0.00000E+00
         0.00000E+00
         0.00000E+00
         0.00000E+00
         0.00000E+00
         0.00000E+00
         0.00000E+00
         0.00000E+00
         0.00000E+00
         0.00000E+00
         0.00000E+00
         0.00000E+00
         0.00000E+00
         0.00000E+00
         0.00000E+00
         0.00000E+00
         0.00000E+00
         0.00000E+00
         0.00000E+00
         0.00000E+00
         0.00000E+00
         0.00000E+00
         0.00000E+00
         0.00000E+00
         0.00000E+00
         0.00000E+00
         0.00000E+00
         0.00000E+00
         0.00000E+00
         0.00000E+00
         0.00000E+00
         0.00000E+00
         0.00000E+00
         0.00000E+00
         0.00000E+00
         0.00000E+00
         0.00000E+00
         0.00000E+00
         0.00000E+00
         0.00000E+00
         0.00000E+00
         0.00000E+00
         0.00000E+00
         0.00000E+00
         0.00000E+00
         0.00000E+00
         0.00000E+00
         0.00000E+00
         0.00000E+00
         0.00000E+00
         0.00000E+00
         0.00000E+00
         0.00000E+00
         0.00000E+00
         0.00000E+00
         0.00000E+00
         0.00000E+00
         0.00000E+00
         0.00000E+00
         0.00000E+00
         0.00000E+00
         0.00000E+00
         0.00000E+00
         0.00000E+00
         0.00000E+00
         0.00000E+00
         0.00000E+00
         0.00000E+00
         0.00000E+00
         0.00000E+00
         0.00000E+00
         0.00000E+00
         0.00000E+00
         0.00000E+00
         0.00000E+00
         0.00000E+00
         0.00000E+00
         0.00000E+00
         0.00000E+00
         0.00000E+00
         0.00000E+00
         0.00000E+00
         0.00000E+00
         0.00000E+00
         0.00000E+00
         0.00000E+00
         0.00000E+00
         0.00000E+00
         0.00000E+00
         0.00000E+00
         0.00000E+00
         0.00000E+00
         0.00000E+00
         0.00000E+00
         0.00000E+00
         0.00000E+00
         0.00000E+00
         0.00000E+00
         0.00000E+00
         0.00000E+00
         0.00000E+00
         0.00000E+00
         0.00000E+00
         0.00000E+00
         0.00000E+00
         0.00000E+00
         0.00000E+00
         0.00000E+00
         0.00000E+00
         0.00000E+00
         0.00000E+00
         0.00000E+00
         0.00000E+00
         0.00000E+00
         0.00000E+00
         0.00000E+00
         0.00000E+00
         0.00000E+00
         0.00000E+00
         0.00000E+00
         0.00000E+00
         0.00000E+00
         0.00000E+00
         0.00000E+00
         0.00000E+00
         0.00000E+00
         0.00000E+00
         0.00000E+00
         0.00000E+00
         0.00000E+00
         0.00000E+00
         0.00000E+00
         0.00000E+00
         0.00000E+00
         0.00000E+00
         0.00000E+00
         0.00000E+00
         0.00000E+00
         0.00000E+00
         0.00000E+00
         0.00000E+00
         0.00000E+00
         0.00000E+00
         0.00000E+00
         0.00000E+00
         0.00000E+00
         0.00000E+00
         0.00000E+00
         0.00000E+00
         0.00000E+00
         0.00000E+00
         0.00000E+00
         0.00000E+00
         0.00000E+00
         0.00000E+00
         0.00000E+00
         0.00000E+00
         0.00000E+00
         0.00000E+00
         0.00000E+00
         0.00000E+00
         0.00000E+00
         0.00000E+00
         0.00000E+00
         0.00000E+00
         0.00000E+00
         0.00000E+00
         0.00000E+00
         0.00000E+00
         0.00000E+00
         0.00000E+00
         0.00000E+00
         0.00000E+00
         0.00000E+00
         0.00000E+00
         0.00000E+00
         0.00000E+00
         0.00000E+00
         0.00000E+00
         0.00000E+00
         0.00000E+00
         0.00000E+00
         0.00000E+00
         0.00000E+00
         0.00000E+00
         0.00000E+00
         0.00000E+00
         0.00000E+00
         0.00000E+00
         0.00000E+00
         0.00000E+00
         0.00000E+00
         0.00000E+00
         0.00000E+00
         0.00000E+00
         0.00000E+00
         0.00000E+00
         0.00000E+00
         0.00000E+00
         0.00000E+00
         0.00000E+00
         0.00000E+00
         0.00000E+00
         0.00000E+00
         0.00000E+00
         0.00000E+00
         0.00000E+00
         0.00000E+00
         0.00000E+00
         0.00000E+00
         0.00000E+00
         0.00000E+00
         0.00000E+00
         0.00000E+00
         0.00000E+00
         0.00000E+00
         0.00000E+00
         0.00000E+00
         0.00000E+00
         0.00000E+00
         0.00000E+00
         0.00000E+00
         0.00000E+00
         0.00000E+00
         0.00000E+00
         0.00000E+00
         0.00000E+00
         0.00000E+00
         0.00000E+00
         0.00000E+00
         0.00000E+00
         0.00000E+00
         0.00000E+00
         0.00000E+00
         0.00000E+00
         0.00000E+00
         0.00000E+00
         0.00000E+00
         0.00000E+00
         0.00000E+00
         0.00000E+00
         0.00000E+00
         0.00000E+00
         0.00000E+00
         0.00000E+00
         0.00000E+00
         0.00000E+00
         0.00000E+00
         0.00000E+00
         0.00000E+00
         0.00000E+00
         0.00000E+00
         0.00000E+00
         0.00000E+00
         0.00000E+00
         0.00000E+00
         0.00000E+00
         0.00000E+00
         0.00000E+00
         0.00000E+00
         0.00000E+00
         0.00000E+00
         0.00000E+00
         0.00000E+00
         0.00000E+00
         0.00000E+00
         0.00000E+00
         0.00000E+00
         0.00000E+00
         0.00000E+00
         0.00000E+00
         0.00000E+00
         0.00000E+00
         0.00000E+00
         0.00000E+00
         0.00000E+00
         0.00000E+00
         0.00000E+00
         0.00000E+00
         0.00000E+00
         0.00000E+00
         0.00000E+00
         0.00000E+00
         0.00000E+00
         0.00000E+00
         0.00000E+00
         0.00000E+00
         0.00000E+00
         0.00000E+00
         0.00000E+00
         0.00000E+00
         0.00000E+00
         0.00000E+00
         0.00000E+00
         0.00000E+00
         0.00000E+00
         0.00000E+00
         0.00000E+00
         0.00000E+00
         0.00000E+00
         0.00000E+00
         0.00000E+00
         0.00000E+00
         0.00000E+00
         0.00000E+00
         0.00000E+00
         0.00000E+00
         0.00000E+00
         0.00000E+00
         0.00000E+00
         0.00000E+00
         0.00000E+00
         0.00000E+00
         0.00000E+00
         0.00000E+00
         0.00000E+00
         0.00000E+00
         0.00000E+00
         0.00000E+00
         0.00000E+00
         0.00000E+00
         0.00000E+00
         0.00000E+00
         0.00000E+00
         0.00000E+00
         0.00000E+00
         0.00000E+00
         0.00000E+00
         0.00000E+00
         0.00000E+00
         0.00000E+00
         0.00000E+00
         0.00000E+00
         0.00000E+00
         0.00000E+00
         0.00000E+00
         0.00000E+00
         0.00000E+00
         0.00000E+00
         0.00000E+00
         0.00000E+00
         0.00000E+00
         0.00000E+00
         0.00000E+00
         0.00000E+00
         0.00000E+00
         0.00000E+00
         0.00000E+00
         0.00000E+00
         0.00000E+00
         0.00000E+00
         0.00000E+00
         0.00000E+00
         0.00000E+00
         0.00000E+00
         0.00000E+00
         0.00000E+00
         0.00000E+00
         0.00000E+00
         0.00000E+00
         0.00000E+00
         0.00000E+00
         0.00000E+00
         0.00000E+00
         0.00000E+00
         0.00000E+00
         0.00000E+00
         0.00000E+00
         0.00000E+00
         0.00000E+00
         0.00000E+00
         0.00000E+00
         0.00000E+00
         0.00000E+00
         0.00000E+00
         0.00000E+00
         0.00000E+00
         0.00000E+00
         0.00000E+00
         0.00000E+00
         0.00000E+00
         0.00000E+00
         0.00000E+00
         0.00000E+00
         0.00000E+00
         0.00000E+00
         0.00000E+00
         0.00000E+00
         0.00000E+00
         0.00000E+00
         0.00000E+00
         0.00000E+00
         0.00000E+00
         0.00000E+00
         0.00000E+00
         0.00000E+00
         0.00000E+00
         0.00000E+00
         0.00000E+00
         0.00000E+00
         0.00000E+00
         0.00000E+00
         0.00000E+00
         0.00000E+00
         0.00000E+00
         0.00000E+00
         0.00000E+00
         0.00000E+00
         0.00000E+00
         0.00000E+00
         0.00000E+00
         0.00000E+00
         0.00000E+00
         0.00000E+00
         0.00000E+00
         0.00000E+00
         0.00000E+00
         0.00000E+00
         0.00000E+00
         0.00000E+00
         0.00000E+00
         0.00000E+00
         0.00000E+00
         0.00000E+00
         0.00000E+00
         0.00000E+00
         0.00000E+00
         0.00000E+00
         0.00000E+00
         0.00000E+00
         0.00000E+00
         0.00000E+00
         0.00000E+00
         0.00000E+00
         0.00000E+00
         0.00000E+00
         0.00000E+00
         0.00000E+00
         0.00000E+00
         0.00000E+00
         0.00000E+00
         0.00000E+00
         0.00000E+00
         0.00000E+00
         0.00000E+00
         0.00000E+00
         0.00000E+00
         0.00000E+00
         0.00000E+00
         0.00000E+00
         0.00000E+00
         0.00000E+00
         0.00000E+00
         0.00000E+00
         0.00000E+00
         0.00000E+00
         0.00000E+00
         0.00000E+00
         0.00000E+00
         0.00000E+00
         0.00000E+00
         0.00000E+00
         0.00000E+00
         0.00000E+00
         0.00000E+00
         0.00000E+00
         0.00000E+00
         0.00000E+00
         0.00000E+00
         0.00000E+00
         0.00000E+00
         0.00000E+00
         0.00000E+00
         0.00000E+00
         0.00000E+00
         0.00000E+00
         0.00000E+00
         0.00000E+00
         0.00000E+00
         0.00000E+00
         0.00000E+00
         0.00000E+00
         0.00000E+00
         0.00000E+00
         0.00000E+00
         0.00000E+00
         0.00000E+00
         0.00000E+00
         0.00000E+00
         0.00000E+00
         0.00000E+00
         0.00000E+00
         0.00000E+00
         0.00000E+00
         0.00000E+00
         0.00000E+00
         0.00000E+00
         0.00000E+00
         0.00000E+00
         0.00000E+00
         0.00000E+00
         0.00000E+00
         0.00000E+00
         0.00000E+00
         0.00000E+00
         0.00000E+00
         0.00000E+00
         0.00000E+00
         0.00000E+00
         0.00000E+00
         0.00000E+00
         0.00000E+00
         0.00000E+00
         0.00000E+00
         0.00000E+00
         0.00000E+00
         0.00000E+00
         0.00000E+00
         0.00000E+00
         0.00000E+00
         0.00000E+00
         0.00000E+00
         0.00000E+00
         0.00000E+00
         0.00000E+00
         0.00000E+00
         0.00000E+00
         0.00000E+00
         0.00000E+00
         0.00000E+00
         0.00000E+00
         0.00000E+00
         0.00000E+00
         0.00000E+00
         0.00000E+00
         0.00000E+00
         0.00000E+00
         0.00000E+00
         0.00000E+00
         0.00000E+00
         0.00000E+00
         0.00000E+00
         0.00000E+00
         0.00000E+00
         0.00000E+00
         0.00000E+00
         0.00000E+00
         0.00000E+00
         0.00000E+00
         0.00000E+00
         0.00000E+00
         0.00000E+00
         0.00000E+00
         0.00000E+00
         0.00000E+00
         0.00000E+00
         0.00000E+00
         0.00000E+00
         0.00000E+00
         0.00000E+00
         0.00000E+00
         0.00000E+00
         0.00000E+00
         0.00000E+00
         0.00000E+00
         0.00000E+00
         0.00000E+00
         0.00000E+00
         0.00000E+00
         0.00000E+00
         0.00000E+00
         0.00000E+00
         0.00000E+00
         0.00000E+00
         0.00000E+00
         0.00000E+00
         0.00000E+00
         0.00000E+00
         0.00000E+00
         0.00000E+00
         0.00000E+00
         0.00000E+00
         0.00000E+00
         0.00000E+00
         0.00000E+00
         0.00000E+00
         0.00000E+00
         0.00000E+00
         0.00000E+00
         0.00000E+00
         0.00000E+00
         0.00000E+00
         0.00000E+00
         0.00000E+00
         0.00000E+00
         0.00000E+00
         0.00000E+00
         0.00000E+00
         0.00000E+00
         0.00000E+00
         0.00000E+00
         0.00000E+00
         0.00000E+00
         0.00000E+00
         0.00000E+00
         0.00000E+00
         0.00000E+00
         0.00000E+00
         0.00000E+00
         0.00000E+00
         0.00000E+00
         0.00000E+00
         0.00000E+00
         0.00000E+00
         0.00000E+00
         0.00000E+00
         0.00000E+00
         0.00000E+00
         0.00000E+00
         0.00000E+00
         0.00000E+00
         0.00000E+00
         0.00000E+00
         0.00000E+00
         0.00000E+00
         0.00000E+00
         0.00000E+00
         0.00000E+00
         0.00000E+00
         0.00000E+00
         0.00000E+00
         0.00000E+00
         0.00000E+00
         0.00000E+00
         0.00000E+00
         0.00000E+00
         0.00000E+00
         0.00000E+00
         0.00000E+00
         0.00000E+00
         0.00000E+00
         0.00000E+00
         0.00000E+00
         0.00000E+00
         0.00000E+00
         0.00000E+00
         0.00000E+00
         0.00000E+00
         0.00000E+00
         0.00000E+00
         0.00000E+00
         0.00000E+00
         0.00000E+00
         0.00000E+00
         0.00000E+00
         0.00000E+00
         0.00000E+00
         0.00000E+00
         0.00000E+00
         0.00000E+00
         0.00000E+00
         0.00000E+00
         0.00000E+00
         0.00000E+00
         0.00000E+00
         0.00000E+00
         0.00000E+00
         0.00000E+00
         0.00000E+00
         0.00000E+00
         0.00000E+00
         0.00000E+00
         0.00000E+00
         0.00000E+00
         0.00000E+00
         0.00000E+00
         0.00000E+00
         0.00000E+00
         0.00000E+00
         0.00000E+00
         0.00000E+00
         0.00000E+00
         0.00000E+00
         0.00000E+00
         0.00000E+00
         0.00000E+00
         0.00000E+00
         0.00000E+00
         0.00000E+00
         0.00000E+00
         0.00000E+00
         0.00000E+00
         0.00000E+00
         0.00000E+00
         0.00000E+00
         0.00000E+00
         0.00000E+00
         0.00000E+00
         0.00000E+00
         0.00000E+00
         0.00000E+00
         0.00000E+00
         0.00000E+00
         0.00000E+00
         0.00000E+00
         0.00000E+00
         0.00000E+00
         0.00000E+00
         0.00000E+00
         0.00000E+00
         0.00000E+00
         0.00000E+00
         0.00000E+00
         0.00000E+00
         0.00000E+00
         0.00000E+00
         0.00000E+00
         0.00000E+00
         0.00000E+00
         0.00000E+00
         0.00000E+00
         0.00000E+00
         0.00000E+00
         0.00000E+00
         0.00000E+00
         0.00000E+00
         0.00000E+00
         0.00000E+00
         0.00000E+00
         0.00000E+00
         0.00000E+00
         0.00000E+00
         0.00000E+00
         0.00000E+00
         0.00000E+00
         0.00000E+00
         0.00000E+00
         0.00000E+00
         0.00000E+00
         0.00000E+00
         0.00000E+00
         0.00000E+00
         0.00000E+00
         0.00000E+00
         0.00000E+00
         0.00000E+00
         0.00000E+00
         0.00000E+00
         0.00000E+00
         0.00000E+00
         0.00000E+00
         0.00000E+00
         0.00000E+00
         0.00000E+00
         0.00000E+00
         0.00000E+00
         0.00000E+00
         0.00000E+00
         0.00000E+00
         0.00000E+00
         0.00000E+00
         0.00000E+00
         0.00000E+00
         0.00000E+00
         0.00000E+00
         0.00000E+00
         0.00000E+00
         0.00000E+00
         0.00000E+00
         0.00000E+00
         0.00000E+00
         0.00000E+00
         0.00000E+00
         0.00000E+00
         0.00000E+00
         0.00000E+00
         0.00000E+00
         0.00000E+00
         0.00000E+00
         0.00000E+00
         0.00000E+00
         0.00000E+00
         0.00000E+00
         0.00000E+00
         0.00000E+00
         0.00000E+00
         0.00000E+00
         0.00000E+00
         0.00000E+00
         0.00000E+00
         0.00000E+00
         0.00000E+00
         0.00000E+00
         0.00000E+00
         0.00000E+00
         0.00000E+00
         0.00000E+00
         0.00000E+00
         0.00000E+00
         0.00000E+00
         0.00000E+00
         0.00000E+00
         0.00000E+00
         0.00000E+00
         0.00000E+00
         0.00000E+00
         0.00000E+00
         0.00000E+00
         0.00000E+00
         0.00000E+00
         0.00000E+00
         0.00000E+00
         0.00000E+00
         0.00000E+00
         0.00000E+00
         0.00000E+00
         0.00000E+00
         0.00000E+00
         0.00000E+00
         0.00000E+00
         0.00000E+00
         0.00000E+00
         0.00000E+00
         0.00000E+00
         0.00000E+00
         0.00000E+00
         0.00000E+00
         0.00000E+00
         0.00000E+00
         0.00000E+00
         0.00000E+00
         0.00000E+00
         0.00000E+00
         0.00000E+00
         0.00000E+00
         0.00000E+00
         0.00000E+00
         0.00000E+00
         0.00000E+00
         0.00000E+00
         0.00000E+00
         0.00000E+00
         0.00000E+00
         0.00000E+00
         0.00000E+00
         0.00000E+00
         0.00000E+00
         0.00000E+00
         0.00000E+00
         0.00000E+00
         0.00000E+00
         0.00000E+00
         0.00000E+00
         0.00000E+00
         0.00000E+00
         0.00000E+00
         0.00000E+00
         0.00000E+00
         0.00000E+00
         0.00000E+00
         0.00000E+00
         0.00000E+00
         0.00000E+00
         0.00000E+00
         0.00000E+00
         0.00000E+00
         0.00000E+00
         0.00000E+00
         0.00000E+00
         0.00000E+00
         0.00000E+00
         0.00000E+00
         0.00000E+00
         0.00000E+00
         0.00000E+00
         0.00000E+00
         0.00000E+00
         0.00000E+00
         0.00000E+00
         0.00000E+00
         0.00000E+00
         0.00000E+00
         0.00000E+00
         0.00000E+00
         0.00000E+00
         0.00000E+00
         0.00000E+00
         0.00000E+00
         0.00000E+00
         0.00000E+00
         0.00000E+00
         0.00000E+00
         0.00000E+00
         0.00000E+00
         0.00000E+00
         0.00000E+00
         0.00000E+00
         0.00000E+00
         0.00000E+00
         0.00000E+00
         0.00000E+00
         0.00000E+00
         0.00000E+00
         0.00000E+00
         0.00000E+00
         0.00000E+00
         0.00000E+00
         0.00000E+00
         0.00000E+00
         0.00000E+00
         0.00000E+00
         0.00000E+00
         0.00000E+00
         0.00000E+00
         0.00000E+00
         0.00000E+00
         0.00000E+00
         0.00000E+00
         0.00000E+00
         0.00000E+00
         0.00000E+00
         0.00000E+00
         0.00000E+00
         0.00000E+00
         0.00000E+00
         0.00000E+00
         0.00000E+00
         0.00000E+00
         0.00000E+00
         0.00000E+00
         0.00000E+00
         0.00000E+00
         0.00000E+00
         0.00000E+00
         0.00000E+00
         0.00000E+00
         0.00000E+00
         0.00000E+00
         0.00000E+00
         0.00000E+00
         0.00000E+00
         0.00000E+00
         0.00000E+00
         0.00000E+00
         0.00000E+00
         0.00000E+00
         0.00000E+00
         0.00000E+00
         0.00000E+00
         0.00000E+00
         0.00000E+00
         0.00000E+00
         0.00000E+00
         0.00000E+00
         0.00000E+00
         0.00000E+00
         0.00000E+00
         0.00000E+00
         0.00000E+00
         0.00000E+00
         0.00000E+00
         0.00000E+00
         0.00000E+00
         0.00000E+00
         0.00000E+00
         0.00000E+00
         0.00000E+00
         0.00000E+00
         0.00000E+00
         0.00000E+00
         0.00000E+00
         0.00000E+00
         0.00000E+00
         0.00000E+00
         0.00000E+00
         0.00000E+00
         0.00000E+00
         0.00000E+00
         0.00000E+00
         0.00000E+00
         0.00000E+00
         0.00000E+00
         0.00000E+00
         0.00000E+00
         0.00000E+00
         0.00000E+00
         0.00000E+00
         0.00000E+00
         0.00000E+00
         0.00000E+00
         0.00000E+00
         0.00000E+00
         0.00000E+00
         0.00000E+00
         0.00000E+00
         0.00000E+00
         0.00000E+00
         0.00000E+00
         0.00000E+00
         0.00000E+00
         0.00000E+00
         0.00000E+00
         0.00000E+00
         0.00000E+00
         0.00000E+00
         0.00000E+00
         0.00000E+00
         0.00000E+00
         0.00000E+00
         0.00000E+00
         0.00000E+00
         0.00000E+00
         0.00000E+00
         0.00000E+00
         0.00000E+00
         0.00000E+00
         0.00000E+00
         0.00000E+00
         0.00000E+00
         0.00000E+00
         0.00000E+00
         0.00000E+00
         0.00000E+00
         0.00000E+00
         0.00000E+00
         0.00000E+00
         0.00000E+00
         0.00000E+00
         0.00000E+00
         0.00000E+00
         0.00000E+00
         0.00000E+00
         0.00000E+00
         0.00000E+00
         0.00000E+00
         0.00000E+00
         0.00000E+00
         0.00000E+00
         0.00000E+00
         0.00000E+00
         0.00000E+00
         0.00000E+00
         0.00000E+00
         0.00000E+00
         0.00000E+00
         0.00000E+00
         0.00000E+00
         0.00000E+00
         0.00000E+00
         0.00000E+00
         0.00000E+00
         0.00000E+00
         0.00000E+00
         0.00000E+00
         0.00000E+00
         0.00000E+00
         0.00000E+00
         0.00000E+00
         0.00000E+00
         0.00000E+00
         0.00000E+00
         0.00000E+00
         0.00000E+00
         0.00000E+00
         0.00000E+00
         0.00000E+00
         0.00000E+00
         0.00000E+00
         0.00000E+00
         0.00000E+00
         0.00000E+00
         0.00000E+00
         0.00000E+00
         0.00000E+00
         0.00000E+00
         0.00000E+00
         0.00000E+00
         0.00000E+00
         0.00000E+00
         0.00000E+00
         0.00000E+00
         0.00000E+00
         0.00000E+00
         0.00000E+00
         0.00000E+00
         0.00000E+00
         0.00000E+00
         0.00000E+00
         0.00000E+00
         0.00000E+00
         0.00000E+00
         0.00000E+00
         0.00000E+00
         0.00000E+00
         0.00000E+00
         0.00000E+00
         0.00000E+00
         0.00000E+00
         0.00000E+00
         0.00000E+00
         0.00000E+00
         0.00000E+00
         0.00000E+00
         0.00000E+00
         0.00000E+00
         0.00000E+00
         0.00000E+00
         0.00000E+00
         0.00000E+00
         0.00000E+00
         0.00000E+00
         0.00000E+00
         0.00000E+00
         0.00000E+00
         0.00000E+00
         0.00000E+00
         0.00000E+00
         0.00000E+00
         0.00000E+00
         0.00000E+00
         0.00000E+00
         0.00000E+00
         0.00000E+00
         0.00000E+00
         0.00000E+00
         0.00000E+00
         0.00000E+00
         0.00000E+00
         0.00000E+00
         0.00000E+00
         0.00000E+00
         0.00000E+00
         0.00000E+00
         0.00000E+00
         0.00000E+00
         0.00000E+00
         0.00000E+00
         0.00000E+00
         0.00000E+00
         0.00000E+00
         0.00000E+00
         0.00000E+00
         0.00000E+00
         0.00000E+00
         0.00000E+00
         0.00000E+00
         0.00000E+00
         0.00000E+00
         0.00000E+00
         0.00000E+00
         0.00000E+00
         0.00000E+00
         0.00000E+00
         0.00000E+00
         0.00000E+00
         0.00000E+00
         0.00000E+00
         0.00000E+00
         0.00000E+00
         0.00000E+00
         0.00000E+00
         0.00000E+00
         0.00000E+00
         0.00000E+00
         0.00000E+00
         0.00000E+00
         0.00000E+00
         0.00000E+00
         0.00000E+00
         0.00000E+00
         0.00000E+00
         0.00000E+00
         0.00000E+00
         0.00000E+00
         0.00000E+00
         0.00000E+00
         0.00000E+00
         0.00000E+00
         0.00000E+00
         0.00000E+00
         0.00000E+00
         0.00000E+00
         0.00000E+00
         0.00000E+00
         0.00000E+00
         0.00000E+00
         0.00000E+00
         0.00000E+00
         0.00000E+00
         0.00000E+00
         0.00000E+00
         0.00000E+00
         0.00000E+00
         0.00000E+00
         0.00000E+00
         0.00000E+00
         0.00000E+00
         0.00000E+00
         0.00000E+00
         0.00000E+00
         0.00000E+00
         0.00000E+00
         0.00000E+00
         0.00000E+00
         0.00000E+00
         0.00000E+00
         0.00000E+00
         0.00000E+00
         0.00000E+00
         0.00000E+00
         0.00000E+00
         0.00000E+00
         0.00000E+00
         0.00000E+00
         0.00000E+00
         0.00000E+00
         0.00000E+00
         0.00000E+00
         0.00000E+00
         0.00000E+00
         0.00000E+00
         0.00000E+00
         0.00000E+00
         0.00000E+00
         0.00000E+00
         0.00000E+00
         0.00000E+00
         0.00000E+00
         0.00000E+00
         0.00000E+00
         0.00000E+00
         0.00000E+00
         0.00000E+00
         0.00000E+00
         0.00000E+00
         0.00000E+00
         0.00000E+00
         0.00000E+00
         0.00000E+00
         0.00000E+00
         0.00000E+00
         0.00000E+00
         0.00000E+00
         0.00000E+00
         0.00000E+00
         0.00000E+00
         0.00000E+00
         0.00000E+00
         0.00000E+00
         0.00000E+00
         0.00000E+00
         0.00000E+00
         0.00000E+00
         0.00000E+00
         0.00000E+00
         0.00000E+00
         0.00000E+00
         0.00000E+00
         0.00000E+00
         0.00000E+00
         0.00000E+00
         0.00000E+00
         0.00000E+00
         0.00000E+00
         0.00000E+00
         0.00000E+00
         0.00000E+00
         0.00000E+00
         0.00000E+00
         0.00000E+00
         0.00000E+00
         0.00000E+00
         0.00000E+00
         0.00000E+00
         0.00000E+00
         0.00000E+00
         0.00000E+00
         0.00000E+00
         0.00000E+00
         0.00000E+00
         0.00000E+00
         0.00000E+00
         0.00000E+00
         0.00000E+00
         0.00000E+00
         0.00000E+00
         0.00000E+00
         0.00000E+00
         0.00000E+00
         0.00000E+00
         0.00000E+00
         0.00000E+00
         0.00000E+00
         0.00000E+00
         0.00000E+00
         0.00000E+00
         0.00000E+00
         0.00000E+00
         0.00000E+00
         0.00000E+00
         0.00000E+00
         0.00000E+00
         0.00000E+00
         0.00000E+00
         0.00000E+00
         0.00000E+00
         0.00000E+00
  
SCALARS                 displacement_y  double 1
LOOKUP_TABLE default
         0.00000E+00
         0.00000E+00
         0.00000E+00
         0.00000E+00
         0.00000E+00
         0.00000E+00
         0.00000E+00
         0.00000E+00
         0.00000E+00
         0.00000E+00
         0.00000E+00
         0.00000E+00
         0.00000E+00
         0.00000E+00
         0.00000E+00
         0.00000E+00
         0.00000E+00
         0.00000E+00
         0.00000E+00
         0.00000E+00
         0.00000E+00
         0.00000E+00
         0.00000E+00
         0.00000E+00
         0.00000E+00
         0.00000E+00
         0.00000E+00
         0.00000E+00
         0.00000E+00
         0.00000E+00
         0.00000E+00
         0.00000E+00
         0.00000E+00
         0.00000E+00
         0.00000E+00
         0.00000E+00
         0.00000E+00
         0.00000E+00
         0.00000E+00
         0.00000E+00
         0.00000E+00
         0.00000E+00
         0.00000E+00
         0.00000E+00
         0.00000E+00
         0.00000E+00
         0.00000E+00
         0.00000E+00
         0.00000E+00
         0.00000E+00
         0.00000E+00
         0.00000E+00
         0.00000E+00
         0.00000E+00
         0.00000E+00
         0.00000E+00
         0.00000E+00
         0.00000E+00
         0.00000E+00
         0.00000E+00
         0.00000E+00
         0.00000E+00
         0.00000E+00
         0.00000E+00
         0.00000E+00
         0.00000E+00
         0.00000E+00
         0.00000E+00
         0.00000E+00
         0.00000E+00
         0.00000E+00
         0.00000E+00
         0.00000E+00
         0.00000E+00
         0.00000E+00
         0.00000E+00
         0.00000E+00
         0.00000E+00
         0.00000E+00
         0.00000E+00
         0.00000E+00
         0.00000E+00
         0.00000E+00
         0.00000E+00
         0.00000E+00
         0.00000E+00
         0.00000E+00
         0.00000E+00
         0.00000E+00
         0.00000E+00
         0.00000E+00
         0.00000E+00
         0.00000E+00
         0.00000E+00
         0.00000E+00
         0.00000E+00
         0.00000E+00
         0.00000E+00
         0.00000E+00
         0.00000E+00
         0.00000E+00
         0.00000E+00
         0.00000E+00
         0.00000E+00
         0.00000E+00
         0.00000E+00
         0.00000E+00
         0.00000E+00
         0.00000E+00
         0.00000E+00
         0.00000E+00
         0.00000E+00
         0.00000E+00
         0.00000E+00
         0.00000E+00
         0.00000E+00
         0.00000E+00
         0.00000E+00
         0.00000E+00
         0.00000E+00
         0.00000E+00
         0.00000E+00
         0.00000E+00
         0.00000E+00
         0.00000E+00
         0.00000E+00
         0.00000E+00
         0.00000E+00
         0.00000E+00
         0.00000E+00
         0.00000E+00
         0.00000E+00
         0.00000E+00
         0.00000E+00
         0.00000E+00
         0.00000E+00
         0.00000E+00
         0.00000E+00
         0.00000E+00
         0.00000E+00
         0.00000E+00
         0.00000E+00
         0.00000E+00
         0.00000E+00
         0.00000E+00
         0.00000E+00
         0.00000E+00
         0.00000E+00
         0.00000E+00
         0.00000E+00
         0.00000E+00
         0.00000E+00
         0.00000E+00
         0.00000E+00
         0.00000E+00
         0.00000E+00
         0.00000E+00
         0.00000E+00
         0.00000E+00
         0.00000E+00
         0.00000E+00
         0.00000E+00
         0.00000E+00
         0.00000E+00
         0.00000E+00
         0.00000E+00
         0.00000E+00
         0.00000E+00
         0.00000E+00
         0.00000E+00
         0.00000E+00
         0.00000E+00
         0.00000E+00
         0.00000E+00
         0.00000E+00
         0.00000E+00
         0.00000E+00
         0.00000E+00
         0.00000E+00
         0.00000E+00
         0.00000E+00
         0.00000E+00
         0.00000E+00
         0.00000E+00
         0.00000E+00
         0.00000E+00
         0.00000E+00
         0.00000E+00
         0.00000E+00
         0.00000E+00
         0.00000E+00
         0.00000E+00
         0.00000E+00
         0.00000E+00
         0.00000E+00
         0.00000E+00
         0.00000E+00
         0.00000E+00
         0.00000E+00
         0.00000E+00
         0.00000E+00
         0.00000E+00
         0.00000E+00
         0.00000E+00
         0.00000E+00
         0.00000E+00
         0.00000E+00
         0.00000E+00
         0.00000E+00
         0.00000E+00
         0.00000E+00
         0.00000E+00
         0.00000E+00
         0.00000E+00
         0.00000E+00
         0.00000E+00
         0.00000E+00
         0.00000E+00
         0.00000E+00
         0.00000E+00
         0.00000E+00
         0.00000E+00
         0.00000E+00
         0.00000E+00
         0.00000E+00
         0.00000E+00
         0.00000E+00
         0.00000E+00
         0.00000E+00
         0.00000E+00
         0.00000E+00
         0.00000E+00
         0.00000E+00
         0.00000E+00
         0.00000E+00
         0.00000E+00
         0.00000E+00
         0.00000E+00
         0.00000E+00
         0.00000E+00
         0.00000E+00
         0.00000E+00
         0.00000E+00
         0.00000E+00
         0.00000E+00
         0.00000E+00
         0.00000E+00
         0.00000E+00
         0.00000E+00
         0.00000E+00
         0.00000E+00
         0.00000E+00
         0.00000E+00
         0.00000E+00
         0.00000E+00
         0.00000E+00
         0.00000E+00
         0.00000E+00
         0.00000E+00
         0.00000E+00
         0.00000E+00
         0.00000E+00
         0.00000E+00
         0.00000E+00
         0.00000E+00
         0.00000E+00
         0.00000E+00
         0.00000E+00
         0.00000E+00
         0.00000E+00
         0.00000E+00
         0.00000E+00
         0.00000E+00
         0.00000E+00
         0.00000E+00
         0.00000E+00
         0.00000E+00
         0.00000E+00
         0.00000E+00
         0.00000E+00
         0.00000E+00
         0.00000E+00
         0.00000E+00
         0.00000E+00
         0.00000E+00
         0.00000E+00
         0.00000E+00
         0.00000E+00
         0.00000E+00
         0.00000E+00
         0.00000E+00
         0.00000E+00
         0.00000E+00
         0.00000E+00
         0.00000E+00
         0.00000E+00
         0.00000E+00
         0.00000E+00
         0.00000E+00
         0.00000E+00
         0.00000E+00
         0.00000E+00
         0.00000E+00
         0.00000E+00
         0.00000E+00
         0.00000E+00
         0.00000E+00
         0.00000E+00
         0.00000E+00
         0.00000E+00
         0.00000E+00
         0.00000E+00
         0.00000E+00
         0.00000E+00
         0.00000E+00
         0.00000E+00
         0.00000E+00
         0.00000E+00
         0.00000E+00
         0.00000E+00
         0.00000E+00
         0.00000E+00
         0.00000E+00
         0.00000E+00
         0.00000E+00
         0.00000E+00
         0.00000E+00
         0.00000E+00
         0.00000E+00
         0.00000E+00
         0.00000E+00
         0.00000E+00
         0.00000E+00
         0.00000E+00
         0.00000E+00
         0.00000E+00
         0.00000E+00
         0.00000E+00
         0.00000E+00
         0.00000E+00
         0.00000E+00
         0.00000E+00
         0.00000E+00
         0.00000E+00
         0.00000E+00
         0.00000E+00
         0.00000E+00
         0.00000E+00
         0.00000E+00
         0.00000E+00
         0.00000E+00
         0.00000E+00
         0.00000E+00
         0.00000E+00
         0.00000E+00
         0.00000E+00
         0.00000E+00
         0.00000E+00
         0.00000E+00
         0.00000E+00
         0.00000E+00
         0.00000E+00
         0.00000E+00
         0.00000E+00
         0.00000E+00
         0.00000E+00
         0.00000E+00
         0.00000E+00
         0.00000E+00
         0.00000E+00
         0.00000E+00
         0.00000E+00
         0.00000E+00
         0.00000E+00
         0.00000E+00
         0.00000E+00
         0.00000E+00
         0.00000E+00
         0.00000E+00
         0.00000E+00
         0.00000E+00
         0.00000E+00
         0.00000E+00
         0.00000E+00
         0.00000E+00
         0.00000E+00
         0.00000E+00
         0.00000E+00
         0.00000E+00
         0.00000E+00
         0.00000E+00
         0.00000E+00
         0.00000E+00
         0.00000E+00
         0.00000E+00
         0.00000E+00
         0.00000E+00
         0.00000E+00
         0.00000E+00
         0.00000E+00
         0.00000E+00
         0.00000E+00
         0.00000E+00
         0.00000E+00
         0.00000E+00
         0.00000E+00
         0.00000E+00
         0.00000E+00
         0.00000E+00
         0.00000E+00
         0.00000E+00
         0.00000E+00
         0.00000E+00
         0.00000E+00
         0.00000E+00
         0.00000E+00
         0.00000E+00
         0.00000E+00
         0.00000E+00
         0.00000E+00
         0.00000E+00
         0.00000E+00
         0.00000E+00
         0.00000E+00
         0.00000E+00
         0.00000E+00
         0.00000E+00
         0.00000E+00
         0.00000E+00
         0.00000E+00
         0.00000E+00
         0.00000E+00
         0.00000E+00
         0.00000E+00
         0.00000E+00
         0.00000E+00
         0.00000E+00
         0.00000E+00
         0.00000E+00
         0.00000E+00
         0.00000E+00
         0.00000E+00
         0.00000E+00
         0.00000E+00
         0.00000E+00
         0.00000E+00
         0.00000E+00
         0.00000E+00
         0.00000E+00
         0.00000E+00
         0.00000E+00
         0.00000E+00
         0.00000E+00
         0.00000E+00
         0.00000E+00
         0.00000E+00
         0.00000E+00
         0.00000E+00
         0.00000E+00
         0.00000E+00
         0.00000E+00
         0.00000E+00
         0.00000E+00
         0.00000E+00
         0.00000E+00
         0.00000E+00
         0.00000E+00
         0.00000E+00
         0.00000E+00
         0.00000E+00
         0.00000E+00
         0.00000E+00
         0.00000E+00
         0.00000E+00
         0.00000E+00
         0.00000E+00
         0.00000E+00
         0.00000E+00
         0.00000E+00
         0.00000E+00
         0.00000E+00
         0.00000E+00
         0.00000E+00
         0.00000E+00
         0.00000E+00
         0.00000E+00
         0.00000E+00
         0.00000E+00
         0.00000E+00
         0.00000E+00
         0.00000E+00
         0.00000E+00
         0.00000E+00
         0.00000E+00
         0.00000E+00
         0.00000E+00
         0.00000E+00
         0.00000E+00
         0.00000E+00
         0.00000E+00
         0.00000E+00
         0.00000E+00
         0.00000E+00
         0.00000E+00
         0.00000E+00
         0.00000E+00
         0.00000E+00
         0.00000E+00
         0.00000E+00
         0.00000E+00
         0.00000E+00
         0.00000E+00
         0.00000E+00
         0.00000E+00
         0.00000E+00
         0.00000E+00
         0.00000E+00
         0.00000E+00
         0.00000E+00
         0.00000E+00
         0.00000E+00
         0.00000E+00
         0.00000E+00
         0.00000E+00
         0.00000E+00
         0.00000E+00
         0.00000E+00
         0.00000E+00
         0.00000E+00
         0.00000E+00
         0.00000E+00
         0.00000E+00
         0.00000E+00
         0.00000E+00
         0.00000E+00
         0.00000E+00
         0.00000E+00
         0.00000E+00
         0.00000E+00
         0.00000E+00
         0.00000E+00
         0.00000E+00
         0.00000E+00
         0.00000E+00
         0.00000E+00
         0.00000E+00
         0.00000E+00
         0.00000E+00
         0.00000E+00
         0.00000E+00
         0.00000E+00
         0.00000E+00
         0.00000E+00
         0.00000E+00
         0.00000E+00
         0.00000E+00
         0.00000E+00
         0.00000E+00
         0.00000E+00
         0.00000E+00
         0.00000E+00
         0.00000E+00
         0.00000E+00
         0.00000E+00
         0.00000E+00
         0.00000E+00
         0.00000E+00
         0.00000E+00
         0.00000E+00
         0.00000E+00
         0.00000E+00
         0.00000E+00
         0.00000E+00
         0.00000E+00
         0.00000E+00
         0.00000E+00
         0.00000E+00
         0.00000E+00
         0.00000E+00
         0.00000E+00
         0.00000E+00
         0.00000E+00
         0.00000E+00
         0.00000E+00
         0.00000E+00
         0.00000E+00
         0.00000E+00
         0.00000E+00
         0.00000E+00
         0.00000E+00
         0.00000E+00
         0.00000E+00
         0.00000E+00
         0.00000E+00
         0.00000E+00
         0.00000E+00
         0.00000E+00
         0.00000E+00
         0.00000E+00
         0.00000E+00
         0.00000E+00
         0.00000E+00
         0.00000E+00
         0.00000E+00
         0.00000E+00
         0.00000E+00
         0.00000E+00
         0.00000E+00
         0.00000E+00
         0.00000E+00
         0.00000E+00
         0.00000E+00
         0.00000E+00
         0.00000E+00
         0.00000E+00
         0.00000E+00
         0.00000E+00
         0.00000E+00
         0.00000E+00
         0.00000E+00
         0.00000E+00
         0.00000E+00
         0.00000E+00
         0.00000E+00
         0.00000E+00
         0.00000E+00
         0.00000E+00
         0.00000E+00
         0.00000E+00
         0.00000E+00
         0.00000E+00
         0.00000E+00
         0.00000E+00
         0.00000E+00
         0.00000E+00
         0.00000E+00
         0.00000E+00
         0.00000E+00
         0.00000E+00
         0.00000E+00
         0.00000E+00
         0.00000E+00
         0.00000E+00
         0.00000E+00
         0.00000E+00
         0.00000E+00
         0.00000E+00
         0.00000E+00
         0.00000E+00
         0.00000E+00
         0.00000E+00
         0.00000E+00
         0.00000E+00
         0.00000E+00
         0.00000E+00
         0.00000E+00
         0.00000E+00
         0.00000E+00
         0.00000E+00
         0.00000E+00
         0.00000E+00
         0.00000E+00
         0.00000E+00
         0.00000E+00
         0.00000E+00
         0.00000E+00
         0.00000E+00
         0.00000E+00
         0.00000E+00
         0.00000E+00
         0.00000E+00
         0.00000E+00
         0.00000E+00
         0.00000E+00
         0.00000E+00
         0.00000E+00
         0.00000E+00
         0.00000E+00
         0.00000E+00
         0.00000E+00
         0.00000E+00
         0.00000E+00
         0.00000E+00
         0.00000E+00
         0.00000E+00
         0.00000E+00
         0.00000E+00
         0.00000E+00
         0.00000E+00
         0.00000E+00
         0.00000E+00
         0.00000E+00
         0.00000E+00
         0.00000E+00
         0.00000E+00
         0.00000E+00
         0.00000E+00
         0.00000E+00
         0.00000E+00
         0.00000E+00
         0.00000E+00
         0.00000E+00
         0.00000E+00
         0.00000E+00
         0.00000E+00
         0.00000E+00
         0.00000E+00
         0.00000E+00
         0.00000E+00
         0.00000E+00
         0.00000E+00
         0.00000E+00
         0.00000E+00
         0.00000E+00
         0.00000E+00
         0.00000E+00
         0.00000E+00
         0.00000E+00
         0.00000E+00
         0.00000E+00
         0.00000E+00
         0.00000E+00
         0.00000E+00
         0.00000E+00
         0.00000E+00
         0.00000E+00
         0.00000E+00
         0.00000E+00
         0.00000E+00
         0.00000E+00
         0.00000E+00
         0.00000E+00
         0.00000E+00
         0.00000E+00
         0.00000E+00
         0.00000E+00
         0.00000E+00
         0.00000E+00
         0.00000E+00
         0.00000E+00
         0.00000E+00
         0.00000E+00
         0.00000E+00
         0.00000E+00
         0.00000E+00
         0.00000E+00
         0.00000E+00
         0.00000E+00
         0.00000E+00
         0.00000E+00
         0.00000E+00
         0.00000E+00
         0.00000E+00
         0.00000E+00
         0.00000E+00
         0.00000E+00
         0.00000E+00
         0.00000E+00
         0.00000E+00
         0.00000E+00
         0.00000E+00
         0.00000E+00
         0.00000E+00
         0.00000E+00
         0.00000E+00
         0.00000E+00
         0.00000E+00
         0.00000E+00
         0.00000E+00
         0.00000E+00
         0.00000E+00
         0.00000E+00
         0.00000E+00
         0.00000E+00
         0.00000E+00
         0.00000E+00
         0.00000E+00
         0.00000E+00
         0.00000E+00
         0.00000E+00
         0.00000E+00
         0.00000E+00
         0.00000E+00
         0.00000E+00
         0.00000E+00
         0.00000E+00
         0.00000E+00
         0.00000E+00
         0.00000E+00
         0.00000E+00
         0.00000E+00
         0.00000E+00
         0.00000E+00
         0.00000E+00
         0.00000E+00
         0.00000E+00
         0.00000E+00
         0.00000E+00
         0.00000E+00
         0.00000E+00
         0.00000E+00
         0.00000E+00
         0.00000E+00
         0.00000E+00
         0.00000E+00
         0.00000E+00
         0.00000E+00
         0.00000E+00
         0.00000E+00
         0.00000E+00
         0.00000E+00
         0.00000E+00
         0.00000E+00
         0.00000E+00
         0.00000E+00
         0.00000E+00
         0.00000E+00
         0.00000E+00
         0.00000E+00
         0.00000E+00
         0.00000E+00
         0.00000E+00
         0.00000E+00
         0.00000E+00
         0.00000E+00
         0.00000E+00
         0.00000E+00
         0.00000E+00
         0.00000E+00
         0.00000E+00
         0.00000E+00
         0.00000E+00
         0.00000E+00
         0.00000E+00
         0.00000E+00
         0.00000E+00
         0.00000E+00
         0.00000E+00
         0.00000E+00
         0.00000E+00
         0.00000E+00
         0.00000E+00
         0.00000E+00
         0.00000E+00
         0.00000E+00
         0.00000E+00
         0.00000E+00
         0.00000E+00
         0.00000E+00
         0.00000E+00
         0.00000E+00
         0.00000E+00
         0.00000E+00
         0.00000E+00
         0.00000E+00
         0.00000E+00
         0.00000E+00
         0.00000E+00
         0.00000E+00
         0.00000E+00
         0.00000E+00
         0.00000E+00
         0.00000E+00
         0.00000E+00
         0.00000E+00
         0.00000E+00
         0.00000E+00
         0.00000E+00
         0.00000E+00
         0.00000E+00
         0.00000E+00
         0.00000E+00
         0.00000E+00
         0.00000E+00
         0.00000E+00
         0.00000E+00
         0.00000E+00
         0.00000E+00
         0.00000E+00
         0.00000E+00
         0.00000E+00
         0.00000E+00
         0.00000E+00
         0.00000E+00
         0.00000E+00
         0.00000E+00
         0.00000E+00
         0.00000E+00
         0.00000E+00
         0.00000E+00
         0.00000E+00
         0.00000E+00
         0.00000E+00
         0.00000E+00
         0.00000E+00
         0.00000E+00
         0.00000E+00
         0.00000E+00
         0.00000E+00
         0.00000E+00
         0.00000E+00
         0.00000E+00
         0.00000E+00
         0.00000E+00
         0.00000E+00
         0.00000E+00
         0.00000E+00
         0.00000E+00
         0.00000E+00
         0.00000E+00
         0.00000E+00
         0.00000E+00
         0.00000E+00
         0.00000E+00
         0.00000E+00
         0.00000E+00
         0.00000E+00
         0.00000E+00
         0.00000E+00
         0.00000E+00
         0.00000E+00
         0.00000E+00
         0.00000E+00
         0.00000E+00
         0.00000E+00
         0.00000E+00
         0.00000E+00
         0.00000E+00
         0.00000E+00
         0.00000E+00
         0.00000E+00
         0.00000E+00
         0.00000E+00
         0.00000E+00
         0.00000E+00
         0.00000E+00
         0.00000E+00
         0.00000E+00
         0.00000E+00
         0.00000E+00
         0.00000E+00
         0.00000E+00
         0.00000E+00
         0.00000E+00
         0.00000E+00
         0.00000E+00
         0.00000E+00
         0.00000E+00
         0.00000E+00
         0.00000E+00
         0.00000E+00
         0.00000E+00
         0.00000E+00
         0.00000E+00
         0.00000E+00
         0.00000E+00
         0.00000E+00
         0.00000E+00
         0.00000E+00
         0.00000E+00
         0.00000E+00
         0.00000E+00
         0.00000E+00
         0.00000E+00
         0.00000E+00
         0.00000E+00
         0.00000E+00
         0.00000E+00
         0.00000E+00
         0.00000E+00
         0.00000E+00
         0.00000E+00
         0.00000E+00
         0.00000E+00
         0.00000E+00
         0.00000E+00
         0.00000E+00
         0.00000E+00
         0.00000E+00
         0.00000E+00
         0.00000E+00
         0.00000E+00
         0.00000E+00
         0.00000E+00
         0.00000E+00
         0.00000E+00
         0.00000E+00
         0.00000E+00
         0.00000E+00
         0.00000E+00
         0.00000E+00
         0.00000E+00
         0.00000E+00
         0.00000E+00
         0.00000E+00
         0.00000E+00
         0.00000E+00
         0.00000E+00
         0.00000E+00
         0.00000E+00
         0.00000E+00
         0.00000E+00
         0.00000E+00
         0.00000E+00
         0.00000E+00
         0.00000E+00
         0.00000E+00
         0.00000E+00
         0.00000E+00
         0.00000E+00
         0.00000E+00
         0.00000E+00
         0.00000E+00
         0.00000E+00
         0.00000E+00
         0.00000E+00
         0.00000E+00
         0.00000E+00
         0.00000E+00
         0.00000E+00
         0.00000E+00
         0.00000E+00
         0.00000E+00
         0.00000E+00
         0.00000E+00
         0.00000E+00
         0.00000E+00
         0.00000E+00
         0.00000E+00
         0.00000E+00
         0.00000E+00
         0.00000E+00
         0.00000E+00
         0.00000E+00
         0.00000E+00
         0.00000E+00
         0.00000E+00
         0.00000E+00
         0.00000E+00
         0.00000E+00
         0.00000E+00
         0.00000E+00
         0.00000E+00
         0.00000E+00
         0.00000E+00
         0.00000E+00
         0.00000E+00
         0.00000E+00
         0.00000E+00
         0.00000E+00
         0.00000E+00
         0.00000E+00
         0.00000E+00
         0.00000E+00
         0.00000E+00
         0.00000E+00
         0.00000E+00
         0.00000E+00
         0.00000E+00
         0.00000E+00
         0.00000E+00
         0.00000E+00
         0.00000E+00
         0.00000E+00
         0.00000E+00
         0.00000E+00
         0.00000E+00
         0.00000E+00
         0.00000E+00
         0.00000E+00
         0.00000E+00
         0.00000E+00
         0.00000E+00
         0.00000E+00
         0.00000E+00
         0.00000E+00
         0.00000E+00
         0.00000E+00
         0.00000E+00
         0.00000E+00
         0.00000E+00
         0.00000E+00
         0.00000E+00
         0.00000E+00
         0.00000E+00
         0.00000E+00
         0.00000E+00
         0.00000E+00
         0.00000E+00
         0.00000E+00
         0.00000E+00
         0.00000E+00
         0.00000E+00
         0.00000E+00
         0.00000E+00
         0.00000E+00
         0.00000E+00
         0.00000E+00
         0.00000E+00
         0.00000E+00
         0.00000E+00
         0.00000E+00
         0.00000E+00
         0.00000E+00
         0.00000E+00
         0.00000E+00
         0.00000E+00
         0.00000E+00
         0.00000E+00
         0.00000E+00
         0.00000E+00
         0.00000E+00
         0.00000E+00
         0.00000E+00
         0.00000E+00
         0.00000E+00
         0.00000E+00
         0.00000E+00
         0.00000E+00
         0.00000E+00
         0.00000E+00
         0.00000E+00
         0.00000E+00
         0.00000E+00
         0.00000E+00
         0.00000E+00
         0.00000E+00
         0.00000E+00
         0.00000E+00
         0.00000E+00
         0.00000E+00
         0.00000E+00
         0.00000E+00
         0.00000E+00
         0.00000E+00
         0.00000E+00
         0.00000E+00
         0.00000E+00
         0.00000E+00
         0.00000E+00
         0.00000E+00
         0.00000E+00
         0.00000E+00
         0.00000E+00
         0.00000E+00
         0.00000E+00
         0.00000E+00
         0.00000E+00
         0.00000E+00
         0.00000E+00
         0.00000E+00
         0.00000E+00
         0.00000E+00
         0.00000E+00
         0.00000E+00
         0.00000E+00
         0.00000E+00
         0.00000E+00
         0.00000E+00
         0.00000E+00
         0.00000E+00
         0.00000E+00
         0.00000E+00
         0.00000E+00
         0.00000E+00
         0.00000E+00
         0.00000E+00
         0.00000E+00
         0.00000E+00
         0.00000E+00
         0.00000E+00
         0.00000E+00
         0.00000E+00
         0.00000E+00
         0.00000E+00
         0.00000E+00
         0.00000E+00
         0.00000E+00
         0.00000E+00
         0.00000E+00
         0.00000E+00
         0.00000E+00
         0.00000E+00
         0.00000E+00
         0.00000E+00
         0.00000E+00
         0.00000E+00
         0.00000E+00
         0.00000E+00
         0.00000E+00
         0.00000E+00
         0.00000E+00
         0.00000E+00
         0.00000E+00
         0.00000E+00
         0.00000E+00
         0.00000E+00
         0.00000E+00
         0.00000E+00
         0.00000E+00
         0.00000E+00
         0.00000E+00
         0.00000E+00
         0.00000E+00
         0.00000E+00
         0.00000E+00
         0.00000E+00
         0.00000E+00
         0.00000E+00
         0.00000E+00
         0.00000E+00
         0.00000E+00
         0.00000E+00
         0.00000E+00
         0.00000E+00
         0.00000E+00
         0.00000E+00
         0.00000E+00
         0.00000E+00
         0.00000E+00
         0.00000E+00
         0.00000E+00
         0.00000E+00
         0.00000E+00
         0.00000E+00
         0.00000E+00
         0.00000E+00
         0.00000E+00
         0.00000E+00
         0.00000E+00
         0.00000E+00
         0.00000E+00
         0.00000E+00
         0.00000E+00
         0.00000E+00
         0.00000E+00
         0.00000E+00
         0.00000E+00
         0.00000E+00
         0.00000E+00
         0.00000E+00
         0.00000E+00
         0.00000E+00
         0.00000E+00
         0.00000E+00
         0.00000E+00
         0.00000E+00
         0.00000E+00
         0.00000E+00
         0.00000E+00
         0.00000E+00
         0.00000E+00
         0.00000E+00
         0.00000E+00
         0.00000E+00
         0.00000E+00
         0.00000E+00
         0.00000E+00
         0.00000E+00
         0.00000E+00
         0.00000E+00
         0.00000E+00
         0.00000E+00
         0.00000E+00
         0.00000E+00
         0.00000E+00
         0.00000E+00
         0.00000E+00
         0.00000E+00
         0.00000E+00
         0.00000E+00
         0.00000E+00
         0.00000E+00
         0.00000E+00
         0.00000E+00
         0.00000E+00
         0.00000E+00
         0.00000E+00
         0.00000E+00
         0.00000E+00
         0.00000E+00
         0.00000E+00
         0.00000E+00
         0.00000E+00
         0.00000E+00
         0.00000E+00
         0.00000E+00
         0.00000E+00
         0.00000E+00
         0.00000E+00
         0.00000E+00
         0.00000E+00
         0.00000E+00
         0.00000E+00
         0.00000E+00
         0.00000E+00
         0.00000E+00
         0.00000E+00
         0.00000E+00
         0.00000E+00
         0.00000E+00
         0.00000E+00
         0.00000E+00
         0.00000E+00
         0.00000E+00
         0.00000E+00
         0.00000E+00
         0.00000E+00
         0.00000E+00
         0.00000E+00
         0.00000E+00
         0.00000E+00
         0.00000E+00
         0.00000E+00
         0.00000E+00
         0.00000E+00
         0.00000E+00
         0.00000E+00
         0.00000E+00
         0.00000E+00
         0.00000E+00
         0.00000E+00
         0.00000E+00
         0.00000E+00
         0.00000E+00
         0.00000E+00
         0.00000E+00
         0.00000E+00
         0.00000E+00
         0.00000E+00
         0.00000E+00
         0.00000E+00
         0.00000E+00
         0.00000E+00
         0.00000E+00
         0.00000E+00
         0.00000E+00
         0.00000E+00
         0.00000E+00
         0.00000E+00
         0.00000E+00
         0.00000E+00
         0.00000E+00
         0.00000E+00
         0.00000E+00
         0.00000E+00
         0.00000E+00
         0.00000E+00
         0.00000E+00
         0.00000E+00
         0.00000E+00
         0.00000E+00
         0.00000E+00
         0.00000E+00
         0.00000E+00
         0.00000E+00
         0.00000E+00
         0.00000E+00
         0.00000E+00
         0.00000E+00
         0.00000E+00
         0.00000E+00
         0.00000E+00
         0.00000E+00
         0.00000E+00
         0.00000E+00
         0.00000E+00
         0.00000E+00
         0.00000E+00
         0.00000E+00
         0.00000E+00
         0.00000E+00
         0.00000E+00
         0.00000E+00
         0.00000E+00
         0.00000E+00
         0.00000E+00
         0.00000E+00
         0.00000E+00
         0.00000E+00
         0.00000E+00
         0.00000E+00
         0.00000E+00
         0.00000E+00
         0.00000E+00
         0.00000E+00
         0.00000E+00
         0.00000E+00
         0.00000E+00
         0.00000E+00
         0.00000E+00
         0.00000E+00
         0.00000E+00
         0.00000E+00
         0.00000E+00
         0.00000E+00
         0.00000E+00
         0.00000E+00
         0.00000E+00
         0.00000E+00
         0.00000E+00
         0.00000E+00
         0.00000E+00
         0.00000E+00
         0.00000E+00
         0.00000E+00
         0.00000E+00
         0.00000E+00
         0.00000E+00
         0.00000E+00
         0.00000E+00
         0.00000E+00
         0.00000E+00
         0.00000E+00
         0.00000E+00
         0.00000E+00
         0.00000E+00
         0.00000E+00
         0.00000E+00
         0.00000E+00
         0.00000E+00
         0.00000E+00
         0.00000E+00
         0.00000E+00
         0.00000E+00
         0.00000E+00
         0.00000E+00
         0.00000E+00
         0.00000E+00
         0.00000E+00
         0.00000E+00
         0.00000E+00
         0.00000E+00
         0.00000E+00
         0.00000E+00
         0.00000E+00
         0.00000E+00
         0.00000E+00
         0.00000E+00
         0.00000E+00
         0.00000E+00
         0.00000E+00
         0.00000E+00
         0.00000E+00
         0.00000E+00
         0.00000E+00
         0.00000E+00
         0.00000E+00
         0.00000E+00
         0.00000E+00
         0.00000E+00
         0.00000E+00
         0.00000E+00
         0.00000E+00
         0.00000E+00
         0.00000E+00
         0.00000E+00
         0.00000E+00
         0.00000E+00
         0.00000E+00
         0.00000E+00
         0.00000E+00
         0.00000E+00
         0.00000E+00
         0.00000E+00
         0.00000E+00
         0.00000E+00
         0.00000E+00
         0.00000E+00
         0.00000E+00
         0.00000E+00
         0.00000E+00
         0.00000E+00
         0.00000E+00
         0.00000E+00
         0.00000E+00
         0.00000E+00
         0.00000E+00
         0.00000E+00
         0.00000E+00
         0.00000E+00
         0.00000E+00
         0.00000E+00
         0.00000E+00
         0.00000E+00
         0.00000E+00
         0.00000E+00
         0.00000E+00
         0.00000E+00
         0.00000E+00
         0.00000E+00
         0.00000E+00
         0.00000E+00
         0.00000E+00
         0.00000E+00
         0.00000E+00
         0.00000E+00
         0.00000E+00
         0.00000E+00
         0.00000E+00
         0.00000E+00
         0.00000E+00
         0.00000E+00
         0.00000E+00
         0.00000E+00
         0.00000E+00
         0.00000E+00
         0.00000E+00
         0.00000E+00
         0.00000E+00
         0.00000E+00
         0.00000E+00
         0.00000E+00
         0.00000E+00
         0.00000E+00
         0.00000E+00
         0.00000E+00
         0.00000E+00
         0.00000E+00
         0.00000E+00
         0.00000E+00
         0.00000E+00
         0.00000E+00
         0.00000E+00
         0.00000E+00
         0.00000E+00
         0.00000E+00
         0.00000E+00
         0.00000E+00
         0.00000E+00
         0.00000E+00
         0.00000E+00
         0.00000E+00
         0.00000E+00
         0.00000E+00
         0.00000E+00
         0.00000E+00
         0.00000E+00
         0.00000E+00
         0.00000E+00
         0.00000E+00
         0.00000E+00
         0.00000E+00
         0.00000E+00
         0.00000E+00
         0.00000E+00
         0.00000E+00
         0.00000E+00
         0.00000E+00
         0.00000E+00
         0.00000E+00
         0.00000E+00
         0.00000E+00
         0.00000E+00
         0.00000E+00
         0.00000E+00
         0.00000E+00
         0.00000E+00
         0.00000E+00
         0.00000E+00
         0.00000E+00
         0.00000E+00
         0.00000E+00
         0.00000E+00
         0.00000E+00
         0.00000E+00
         0.00000E+00
         0.00000E+00
         0.00000E+00
         0.00000E+00
         0.00000E+00
         0.00000E+00
         0.00000E+00
         0.00000E+00
         0.00000E+00
         0.00000E+00
         0.00000E+00
         0.00000E+00
         0.00000E+00
         0.00000E+00
         0.00000E+00
         0.00000E+00
         0.00000E+00
         0.00000E+00
         0.00000E+00
         0.00000E+00
         0.00000E+00
         0.00000E+00
         0.00000E+00
         0.00000E+00
         0.00000E+00
         0.00000E+00
         0.00000E+00
         0.00000E+00
         0.00000E+00
         0.00000E+00
         0.00000E+00
         0.00000E+00
         0.00000E+00
         0.00000E+00
         0.00000E+00
         0.00000E+00
         0.00000E+00
         0.00000E+00
         0.00000E+00
         0.00000E+00
         0.00000E+00
         0.00000E+00
         0.00000E+00
         0.00000E+00
         0.00000E+00
         0.00000E+00
         0.00000E+00
         0.00000E+00
         0.00000E+00
         0.00000E+00
         0.00000E+00
         0.00000E+00
         0.00000E+00
         0.00000E+00
         0.00000E+00
         0.00000E+00
         0.00000E+00
         0.00000E+00
         0.00000E+00
         0.00000E+00
         0.00000E+00
         0.00000E+00
         0.00000E+00
         0.00000E+00
         0.00000E+00
         0.00000E+00
         0.00000E+00
         0.00000E+00
         0.00000E+00
         0.00000E+00
         0.00000E+00
         0.00000E+00
         0.00000E+00
         0.00000E+00
         0.00000E+00
         0.00000E+00
         0.00000E+00
         0.00000E+00
         0.00000E+00
         0.00000E+00
         0.00000E+00
         0.00000E+00
         0.00000E+00
         0.00000E+00
         0.00000E+00
         0.00000E+00
         0.00000E+00
         0.00000E+00
         0.00000E+00
         0.00000E+00
         0.00000E+00
         0.00000E+00
         0.00000E+00
         0.00000E+00
         0.00000E+00
         0.00000E+00
         0.00000E+00
         0.00000E+00
         0.00000E+00
         0.00000E+00
         0.00000E+00
         0.00000E+00
         0.00000E+00
         0.00000E+00
         0.00000E+00
         0.00000E+00
         0.00000E+00
         0.00000E+00
         0.00000E+00
         0.00000E+00
         0.00000E+00
         0.00000E+00
         0.00000E+00
         0.00000E+00
         0.00000E+00
         0.00000E+00
         0.00000E+00
         0.00000E+00
         0.00000E+00
         0.00000E+00
         0.00000E+00
         0.00000E+00
         0.00000E+00
         0.00000E+00
         0.00000E+00
         0.00000E+00
         0.00000E+00
         0.00000E+00
         0.00000E+00
         0.00000E+00
         0.00000E+00
         0.00000E+00
         0.00000E+00
         0.00000E+00
         0.00000E+00
         0.00000E+00
         0.00000E+00
         0.00000E+00
         0.00000E+00
         0.00000E+00
         0.00000E+00
         0.00000E+00
         0.00000E+00
         0.00000E+00
         0.00000E+00
         0.00000E+00
         0.00000E+00
         0.00000E+00
         0.00000E+00
         0.00000E+00
         0.00000E+00
         0.00000E+00
         0.00000E+00
         0.00000E+00
         0.00000E+00
         0.00000E+00
         0.00000E+00
         0.00000E+00
         0.00000E+00
         0.00000E+00
         0.00000E+00
         0.00000E+00
         0.00000E+00
         0.00000E+00
         0.00000E+00
         0.00000E+00
         0.00000E+00
         0.00000E+00
         0.00000E+00
         0.00000E+00
         0.00000E+00
         0.00000E+00
         0.00000E+00
         0.00000E+00
         0.00000E+00
         0.00000E+00
         0.00000E+00
         0.00000E+00
         0.00000E+00
         0.00000E+00
         0.00000E+00
         0.00000E+00
         0.00000E+00
         0.00000E+00
         0.00000E+00
         0.00000E+00
         0.00000E+00
         0.00000E+00
         0.00000E+00
         0.00000E+00
         0.00000E+00
         0.00000E+00
         0.00000E+00
         0.00000E+00
         0.00000E+00
         0.00000E+00
         0.00000E+00
         0.00000E+00
         0.00000E+00
         0.00000E+00
         0.00000E+00
         0.00000E+00
         0.00000E+00
         0.00000E+00
         0.00000E+00
         0.00000E+00
         0.00000E+00
         0.00000E+00
         0.00000E+00
         0.00000E+00
         0.00000E+00
         0.00000E+00
         0.00000E+00
         0.00000E+00
         0.00000E+00
         0.00000E+00
         0.00000E+00
         0.00000E+00
         0.00000E+00
         0.00000E+00
         0.00000E+00
         0.00000E+00
         0.00000E+00
         0.00000E+00
         0.00000E+00
         0.00000E+00
         0.00000E+00
         0.00000E+00
         0.00000E+00
         0.00000E+00
         0.00000E+00
         0.00000E+00
         0.00000E+00
         0.00000E+00
         0.00000E+00
         0.00000E+00
         0.00000E+00
         0.00000E+00
         0.00000E+00
         0.00000E+00
         0.00000E+00
         0.00000E+00
         0.00000E+00
         0.00000E+00
         0.00000E+00
         0.00000E+00
         0.00000E+00
         0.00000E+00
         0.00000E+00
         0.00000E+00
         0.00000E+00
         0.00000E+00
         0.00000E+00
         0.00000E+00
         0.00000E+00
         0.00000E+00
         0.00000E+00
         0.00000E+00
         0.00000E+00
         0.00000E+00
         0.00000E+00
         0.00000E+00
         0.00000E+00
         0.00000E+00
         0.00000E+00
         0.00000E+00
         0.00000E+00
         0.00000E+00
         0.00000E+00
         0.00000E+00
         0.00000E+00
         0.00000E+00
         0.00000E+00
         0.00000E+00
         0.00000E+00
         0.00000E+00
         0.00000E+00
         0.00000E+00
         0.00000E+00
         0.00000E+00
         0.00000E+00
         0.00000E+00
         0.00000E+00
         0.00000E+00
         0.00000E+00
         0.00000E+00
         0.00000E+00
         0.00000E+00
         0.00000E+00
         0.00000E+00
         0.00000E+00
         0.00000E+00
         0.00000E+00
         0.00000E+00
         0.00000E+00
         0.00000E+00
         0.00000E+00
         0.00000E+00
         0.00000E+00
         0.00000E+00
         0.00000E+00
         0.00000E+00
         0.00000E+00
         0.00000E+00
         0.00000E+00
         0.00000E+00
         0.00000E+00
         0.00000E+00
         0.00000E+00
         0.00000E+00
         0.00000E+00
         0.00000E+00
         0.00000E+00
         0.00000E+00
         0.00000E+00
         0.00000E+00
         0.00000E+00
         0.00000E+00
         0.00000E+00
         0.00000E+00
         0.00000E+00
         0.00000E+00
         0.00000E+00
         0.00000E+00
         0.00000E+00
         0.00000E+00
         0.00000E+00
         0.00000E+00
         0.00000E+00
         0.00000E+00
         0.00000E+00
         0.00000E+00
         0.00000E+00
         0.00000E+00
         0.00000E+00
         0.00000E+00
         0.00000E+00
         0.00000E+00
         0.00000E+00
         0.00000E+00
         0.00000E+00
         0.00000E+00
         0.00000E+00
         0.00000E+00
         0.00000E+00
         0.00000E+00
         0.00000E+00
         0.00000E+00
         0.00000E+00
         0.00000E+00
         0.00000E+00
         0.00000E+00
         0.00000E+00
         0.00000E+00
         0.00000E+00
         0.00000E+00
         0.00000E+00
         0.00000E+00
         0.00000E+00
         0.00000E+00
         0.00000E+00
         0.00000E+00
         0.00000E+00
         0.00000E+00
         0.00000E+00
         0.00000E+00
         0.00000E+00
         0.00000E+00
         0.00000E+00
         0.00000E+00
         0.00000E+00
         0.00000E+00
         0.00000E+00
         0.00000E+00
         0.00000E+00
         0.00000E+00
         0.00000E+00
         0.00000E+00
         0.00000E+00
         0.00000E+00
         0.00000E+00
         0.00000E+00
         0.00000E+00
         0.00000E+00
  
SCALARS                 displacement_z  double 1
LOOKUP_TABLE default
        -0.35853E-02
        -0.35796E-02
        -0.35787E-02
        -0.35893E-02
        -0.22032E-16
        -0.24705E-16
        -0.23656E-16
        -0.21491E-16
        -0.35680E-02
        -0.35806E-02
        -0.22216E-16
        -0.21500E-16
        -0.35734E-02
        -0.35814E-02
        -0.26397E-16
        -0.24820E-16
        -0.35857E-02
        -0.35873E-02
        -0.19506E-16
        -0.21634E-16
        -0.35690E-02
        -0.35642E-02
        -0.35665E-02
        -0.26162E-16
        -0.22848E-16
        -0.23594E-16
        -0.35790E-02
        -0.35758E-02
        -0.25099E-16
        -0.21167E-16
        -0.35903E-02
        -0.35930E-02
        -0.35883E-02
        -0.21419E-16
        -0.19913E-16
        -0.19360E-16
        -0.35789E-02
        -0.35905E-02
        -0.22660E-16
        -0.20678E-16
        -0.35755E-02
        -0.35853E-02
        -0.19585E-16
        -0.17338E-16
        -0.35665E-02
        -0.35711E-02
        -0.21462E-16
        -0.23981E-16
        -0.35939E-02
        -0.20967E-16
        -0.35774E-02
        -0.24637E-16
        -0.35896E-02
        -0.22141E-16
        -0.35931E-02
        -0.21238E-16
        -0.35834E-02
        -0.35911E-02
        -0.21639E-16
        -0.21074E-16
        -0.35877E-02
        -0.35774E-02
        -0.21699E-16
        -0.24530E-16
        -0.35870E-02
        -0.20939E-16
        -0.35828E-02
        -0.22852E-16
        -0.35520E-02
        -0.35644E-02
        -0.21997E-16
        -0.23048E-16
        -0.35691E-02
        -0.23242E-16
        -0.35824E-02
        -0.18362E-16
        -0.35812E-02
        -0.17824E-16
        -0.35695E-02
        -0.18793E-16
        -0.35561E-02
        -0.35728E-02
        -0.17906E-16
        -0.18668E-16
        -0.35864E-02
        -0.17387E-16
        -0.35677E-02
        -0.22800E-16
        -0.35628E-02
        -0.23335E-16
        -0.35507E-02
        -0.35672E-02
        -0.22410E-16
        -0.22671E-16
        -0.35784E-02
        -0.20592E-16
        -0.35768E-02
        -0.20298E-16
        -0.35678E-02
        -0.21730E-16
        -0.35550E-02
        -0.35700E-02
        -0.21309E-16
        -0.21935E-16
        -0.35179E-02
        -0.35237E-02
        -0.16544E-16
        -0.15561E-16
        -0.35231E-02
        -0.15797E-16
        -0.35188E-02
        -0.15147E-16
        -0.35192E-02
        -0.14936E-16
        -0.35186E-02
        -0.14115E-16
        -0.35220E-02
        -0.12540E-16
        -0.35235E-02
        -0.11291E-16
        -0.35226E-02
        -0.11213E-16
        -0.35219E-02
        -0.12160E-16
        -0.35167E-02
        -0.12779E-16
        -0.35234E-02
        -0.11669E-16
        -0.35257E-02
        -0.10518E-16
        -0.35251E-02
        -0.10506E-16
        -0.35224E-02
        -0.11743E-16
        -0.35198E-02
        -0.13390E-16
        -0.35184E-02
        -0.14385E-16
        -0.35226E-02
        -0.15536E-16
        -0.35186E-02
        -0.16644E-16
        -0.35246E-02
        -0.15247E-16
        -0.35225E-02
        -0.13376E-16
        -0.35206E-02
        -0.13335E-16
        -0.35240E-02
        -0.14590E-16
        -0.35192E-02
        -0.15554E-16
        -0.35240E-02
        -0.14761E-16
        -0.35241E-02
        -0.14270E-16
        -0.50533E-02
        -0.50523E-02
        -0.50522E-02
        -0.50537E-02
        -0.50506E-02
        -0.50525E-02
        -0.50513E-02
        -0.50526E-02
        -0.50536E-02
        -0.50537E-02
        -0.50509E-02
        -0.50502E-02
        -0.50503E-02
        -0.50522E-02
        -0.50518E-02
        -0.50538E-02
        -0.50546E-02
        -0.50538E-02
        -0.50523E-02
        -0.50541E-02
        -0.50518E-02
        -0.50534E-02
        -0.50504E-02
        -0.50512E-02
        -0.50546E-02
        -0.50520E-02
        -0.50540E-02
        -0.50544E-02
        -0.50528E-02
        -0.50541E-02
        -0.50537E-02
        -0.50519E-02
        -0.50536E-02
        -0.50527E-02
        -0.50484E-02
        -0.50500E-02
        -0.50507E-02
        -0.50530E-02
        -0.50527E-02
        -0.50508E-02
        -0.50489E-02
        -0.50513E-02
        -0.50535E-02
        -0.50504E-02
        -0.50497E-02
        -0.50482E-02
        -0.50504E-02
        -0.50522E-02
        -0.50519E-02
        -0.50505E-02
        -0.50488E-02
        -0.50509E-02
        -0.50447E-02
        -0.50457E-02
        -0.50456E-02
        -0.50451E-02
        -0.50452E-02
        -0.50452E-02
        -0.50457E-02
        -0.50458E-02
        -0.50455E-02
        -0.50453E-02
        -0.50444E-02
        -0.50456E-02
        -0.50461E-02
        -0.50461E-02
        -0.50457E-02
        -0.50453E-02
        -0.50451E-02
        -0.50456E-02
        -0.50449E-02
        -0.50460E-02
        -0.50459E-02
        -0.50455E-02
        -0.50458E-02
        -0.50450E-02
        -0.50458E-02
        -0.50461E-02
        -0.51736E-02
        -0.51736E-02
        -0.51736E-02
        -0.51736E-02
        -0.51736E-02
        -0.51736E-02
        -0.51736E-02
        -0.51736E-02
        -0.51736E-02
        -0.51736E-02
        -0.51736E-02
        -0.51736E-02
        -0.51736E-02
        -0.51736E-02
        -0.51736E-02
        -0.51736E-02
        -0.51736E-02
        -0.51736E-02
        -0.51736E-02
        -0.51736E-02
        -0.51736E-02
        -0.51736E-02
        -0.51736E-02
        -0.51736E-02
        -0.51736E-02
        -0.51736E-02
        -0.51736E-02
        -0.51736E-02
        -0.51736E-02
        -0.51736E-02
        -0.51736E-02
        -0.51736E-02
        -0.51736E-02
        -0.51736E-02
        -0.51736E-02
        -0.51736E-02
        -0.51736E-02
        -0.51736E-02
        -0.51736E-02
        -0.51736E-02
        -0.51736E-02
        -0.51736E-02
        -0.51736E-02
        -0.51736E-02
        -0.51736E-02
        -0.51736E-02
        -0.51736E-02
        -0.51736E-02
        -0.51736E-02
        -0.51736E-02
        -0.51736E-02
        -0.51736E-02
        -0.51736E-02
        -0.51736E-02
        -0.51736E-02
        -0.51736E-02
        -0.51736E-02
        -0.51736E-02
        -0.51736E-02
        -0.51736E-02
        -0.51736E-02
        -0.51736E-02
        -0.51736E-02
        -0.51736E-02
        -0.51736E-02
        -0.51736E-02
        -0.51736E-02
        -0.51736E-02
        -0.51736E-02
        -0.51736E-02
        -0.51736E-02
        -0.51736E-02
        -0.51736E-02
        -0.51736E-02
        -0.51736E-02
        -0.51736E-02
        -0.51736E-02
        -0.51736E-02
        -0.51736E-02
        -0.51736E-02
        -0.51736E-02
        -0.51736E-02
        -0.51736E-02
        -0.51736E-02
        -0.51736E-02
        -0.51736E-02
        -0.51736E-02
        -0.51736E-02
        -0.51736E-02
        -0.51736E-02
        -0.51736E-02
        -0.51736E-02
        -0.51736E-02
        -0.51736E-02
        -0.51736E-02
        -0.51736E-02
        -0.51736E-02
        -0.51736E-02
        -0.51736E-02
        -0.51736E-02
        -0.51736E-02
        -0.51736E-02
        -0.51736E-02
        -0.51736E-02
        -0.51736E-02
        -0.51736E-02
        -0.51736E-02
        -0.51736E-02
        -0.51736E-02
        -0.51736E-02
        -0.51736E-02
        -0.51736E-02
        -0.51736E-02
        -0.51736E-02
        -0.51736E-02
        -0.51736E-02
        -0.51736E-02
        -0.51736E-02
        -0.51736E-02
        -0.51736E-02
        -0.51736E-02
        -0.51736E-02
        -0.51736E-02
        -0.51736E-02
        -0.51736E-02
        -0.51736E-02
        -0.51736E-02
        -0.51736E-02
        -0.51736E-02
        -0.51736E-02
        -0.51736E-02
        -0.51736E-02
        -0.51736E-02
        -0.51736E-02
        -0.51736E-02
        -0.51736E-02
        -0.51736E-02
        -0.51736E-02
        -0.51736E-02
        -0.51736E-02
        -0.51736E-02
        -0.51736E-02
        -0.51736E-02
        -0.51736E-02
        -0.51736E-02
        -0.51736E-02
        -0.51736E-02
        -0.51736E-02
        -0.51736E-02
        -0.51736E-02
        -0.51736E-02
        -0.51736E-02
        -0.51736E-02
        -0.51736E-02
        -0.51736E-02
        -0.51736E-02
        -0.51736E-02
        -0.51736E-02
        -0.51736E-02
        -0.51736E-02
        -0.51736E-02
        -0.51736E-02
        -0.51736E-02
        -0.51736E-02
        -0.51736E-02
        -0.51736E-02
        -0.51736E-02
        -0.51736E-02
        -0.51736E-02
        -0.51736E-02
        -0.51736E-02
        -0.51736E-02
        -0.51736E-02
        -0.51736E-02
        -0.51736E-02
        -0.51736E-02
        -0.51736E-02
        -0.51736E-02
        -0.51736E-02
        -0.51736E-02
        -0.51736E-02
        -0.51736E-02
        -0.51736E-02
        -0.51736E-02
        -0.51736E-02
        -0.51736E-02
        -0.51736E-02
        -0.51736E-02
        -0.51736E-02
        -0.51736E-02
        -0.51736E-02
        -0.51736E-02
        -0.51736E-02
        -0.51736E-02
        -0.51736E-02
        -0.51736E-02
        -0.51736E-02
        -0.51736E-02
        -0.51736E-02
        -0.51736E-02
        -0.51736E-02
        -0.51736E-02
        -0.51736E-02
        -0.51736E-02
        -0.51736E-02
        -0.51736E-02
        -0.51736E-02
        -0.51736E-02
        -0.51736E-02
        -0.51736E-02
        -0.51736E-02
        -0.51736E-02
        -0.51736E-02
        -0.51736E-02
        -0.51736E-02
        -0.51736E-02
        -0.51736E-02
        -0.51736E-02
        -0.51736E-02
        -0.51736E-02
        -0.51736E-02
        -0.51736E-02
        -0.51736E-02
        -0.51736E-02
        -0.51736E-02
        -0.51736E-02
        -0.51736E-02
        -0.51736E-02
        -0.51736E-02
        -0.51736E-02
        -0.51736E-02
        -0.51736E-02
        -0.51736E-02
        -0.51736E-02
        -0.51736E-02
        -0.51736E-02
        -0.51736E-02
        -0.51736E-02
        -0.51736E-02
        -0.51736E-02
        -0.51736E-02
        -0.51736E-02
        -0.51736E-02
        -0.51736E-02
        -0.51736E-02
        -0.51736E-02
        -0.51736E-02
        -0.51736E-02
        -0.51736E-02
        -0.51736E-02
        -0.51736E-02
        -0.51736E-02
        -0.51736E-02
        -0.51736E-02
        -0.51736E-02
        -0.51736E-02
        -0.51736E-02
        -0.51736E-02
        -0.51736E-02
        -0.51736E-02
        -0.51736E-02
        -0.51736E-02
        -0.51736E-02
        -0.51736E-02
        -0.51736E-02
        -0.51736E-02
        -0.51736E-02
        -0.51736E-02
        -0.51736E-02
        -0.51736E-02
        -0.51736E-02
        -0.51736E-02
        -0.51736E-02
        -0.51736E-02
        -0.51736E-02
        -0.51736E-02
        -0.51736E-02
        -0.51736E-02
        -0.51736E-02
        -0.51736E-02
        -0.51736E-02
        -0.51736E-02
        -0.51736E-02
        -0.51736E-02
        -0.51736E-02
        -0.51736E-02
        -0.51736E-02
        -0.51736E-02
        -0.51736E-02
        -0.51736E-02
        -0.51736E-02
        -0.51736E-02
        -0.51736E-02
        -0.51736E-02
        -0.51736E-02
        -0.51736E-02
        -0.51736E-02
        -0.51736E-02
        -0.51736E-02
        -0.51736E-02
        -0.51736E-02
        -0.51736E-02
        -0.51736E-02
        -0.51736E-02
        -0.51736E-02
        -0.51736E-02
        -0.51736E-02
        -0.51736E-02
        -0.51736E-02
        -0.51736E-02
        -0.51736E-02
        -0.51736E-02
        -0.51736E-02
        -0.51736E-02
        -0.51736E-02
        -0.51736E-02
        -0.51736E-02
        -0.51736E-02
        -0.51736E-02
        -0.51736E-02
        -0.51736E-02
        -0.51736E-02
        -0.51736E-02
        -0.51736E-02
        -0.51736E-02
        -0.51736E-02
        -0.51736E-02
        -0.51736E-02
        -0.51736E-02
        -0.51736E-02
        -0.51736E-02
        -0.51736E-02
        -0.51736E-02
        -0.51736E-02
        -0.51736E-02
        -0.51736E-02
        -0.51736E-02
        -0.51736E-02
        -0.51736E-02
        -0.51736E-02
        -0.51736E-02
        -0.51736E-02
        -0.51736E-02
        -0.51736E-02
        -0.51736E-02
        -0.51736E-02
        -0.51736E-02
        -0.51736E-02
        -0.51736E-02
        -0.51736E-02
        -0.51736E-02
        -0.51736E-02
        -0.51736E-02
        -0.51736E-02
        -0.51736E-02
        -0.51736E-02
        -0.51736E-02
        -0.51736E-02
        -0.51736E-02
        -0.51736E-02
        -0.51736E-02
        -0.51736E-02
        -0.51736E-02
        -0.51736E-02
        -0.51736E-02
        -0.51736E-02
        -0.51736E-02
        -0.51736E-02
        -0.51736E-02
        -0.51736E-02
        -0.51736E-02
        -0.51736E-02
        -0.51736E-02
        -0.51736E-02
        -0.51736E-02
        -0.51736E-02
        -0.51736E-02
        -0.51736E-02
        -0.51736E-02
        -0.51736E-02
        -0.51736E-02
        -0.51736E-02
        -0.51736E-02
        -0.51736E-02
        -0.51736E-02
        -0.51736E-02
        -0.51736E-02
        -0.51736E-02
        -0.51736E-02
        -0.51736E-02
        -0.51736E-02
        -0.51736E-02
        -0.51736E-02
        -0.51736E-02
        -0.51736E-02
        -0.51736E-02
        -0.51736E-02
        -0.51736E-02
        -0.51736E-02
        -0.51736E-02
        -0.51736E-02
        -0.51736E-02
        -0.51736E-02
        -0.51736E-02
        -0.51736E-02
        -0.51736E-02
        -0.51736E-02
        -0.51736E-02
        -0.51736E-02
        -0.51736E-02
        -0.51736E-02
        -0.51736E-02
        -0.51736E-02
        -0.51736E-02
        -0.51736E-02
        -0.51736E-02
        -0.51736E-02
        -0.51736E-02
        -0.51736E-02
        -0.51736E-02
        -0.51736E-02
        -0.51736E-02
        -0.51736E-02
        -0.51736E-02
        -0.51736E-02
        -0.51736E-02
        -0.51736E-02
        -0.51736E-02
        -0.51736E-02
        -0.51736E-02
        -0.51736E-02
        -0.51736E-02
        -0.51736E-02
        -0.51736E-02
        -0.51736E-02
        -0.51736E-02
        -0.51736E-02
        -0.51736E-02
        -0.51736E-02
        -0.51736E-02
        -0.51736E-02
        -0.51736E-02
        -0.51736E-02
        -0.51736E-02
        -0.51736E-02
        -0.51736E-02
        -0.51736E-02
        -0.51736E-02
        -0.51736E-02
        -0.51736E-02
        -0.51736E-02
        -0.51736E-02
        -0.51736E-02
        -0.51736E-02
        -0.51736E-02
        -0.51736E-02
        -0.51736E-02
        -0.51736E-02
        -0.51736E-02
        -0.51736E-02
        -0.51736E-02
        -0.51736E-02
        -0.51736E-02
        -0.51736E-02
        -0.51736E-02
        -0.51736E-02
        -0.51736E-02
        -0.51736E-02
        -0.51736E-02
        -0.51736E-02
        -0.51736E-02
        -0.51736E-02
        -0.51736E-02
        -0.51736E-02
        -0.51736E-02
        -0.51736E-02
        -0.51736E-02
        -0.51736E-02
        -0.51736E-02
        -0.51736E-02
        -0.51736E-02
        -0.51736E-02
        -0.51736E-02
        -0.51736E-02
        -0.51736E-02
        -0.51736E-02
        -0.51736E-02
        -0.51736E-02
        -0.51736E-02
        -0.51736E-02
        -0.51736E-02
        -0.51736E-02
        -0.51736E-02
        -0.51736E-02
        -0.51736E-02
        -0.51736E-02
        -0.51736E-02
        -0.51736E-02
        -0.51736E-02
        -0.51736E-02
        -0.51736E-02
        -0.51736E-02
        -0.51736E-02
        -0.51736E-02
        -0.51736E-02
        -0.51736E-02
        -0.51736E-02
        -0.51736E-02
        -0.51736E-02
        -0.51736E-02
        -0.51736E-02
        -0.51736E-02
        -0.51736E-02
        -0.51736E-02
        -0.51736E-02
        -0.51736E-02
        -0.51736E-02
        -0.51736E-02
        -0.51736E-02
        -0.51736E-02
        -0.51736E-02
        -0.51736E-02
        -0.51736E-02
        -0.51736E-02
        -0.51736E-02
        -0.51736E-02
        -0.51736E-02
        -0.51736E-02
        -0.51736E-02
        -0.51736E-02
        -0.51736E-02
        -0.51736E-02
        -0.51736E-02
        -0.51736E-02
        -0.51736E-02
        -0.51736E-02
        -0.51736E-02
        -0.51736E-02
        -0.51736E-02
        -0.51736E-02
        -0.51736E-02
        -0.51736E-02
        -0.51736E-02
        -0.51736E-02
        -0.51736E-02
        -0.51736E-02
        -0.51736E-02
        -0.51736E-02
        -0.51736E-02
        -0.51736E-02
        -0.51736E-02
        -0.51736E-02
        -0.51736E-02
        -0.51736E-02
        -0.51736E-02
        -0.51736E-02
        -0.51736E-02
        -0.51736E-02
        -0.51736E-02
        -0.51736E-02
        -0.51736E-02
        -0.51736E-02
        -0.51736E-02
        -0.51736E-02
        -0.51736E-02
        -0.51736E-02
        -0.51736E-02
        -0.51736E-02
        -0.51736E-02
        -0.51736E-02
        -0.51736E-02
        -0.51736E-02
        -0.51736E-02
        -0.51736E-02
        -0.51736E-02
        -0.51736E-02
        -0.51736E-02
        -0.51736E-02
        -0.51736E-02
        -0.51736E-02
        -0.51736E-02
        -0.51736E-02
        -0.51736E-02
        -0.51736E-02
        -0.51736E-02
        -0.51736E-02
        -0.51736E-02
        -0.51736E-02
        -0.51736E-02
        -0.51736E-02
        -0.51736E-02
        -0.51736E-02
        -0.51736E-02
        -0.51736E-02
        -0.51736E-02
        -0.51736E-02
        -0.51736E-02
        -0.51736E-02
        -0.51736E-02
        -0.51736E-02
        -0.51736E-02
        -0.51736E-02
        -0.51736E-02
        -0.51736E-02
        -0.51736E-02
        -0.51736E-02
        -0.51736E-02
        -0.51736E-02
        -0.51736E-02
        -0.51736E-02
        -0.51736E-02
        -0.51736E-02
        -0.51736E-02
        -0.51736E-02
        -0.51736E-02
        -0.51736E-02
        -0.51736E-02
        -0.51736E-02
        -0.51736E-02
        -0.51736E-02
        -0.51736E-02
        -0.51736E-02
        -0.51736E-02
        -0.51736E-02
        -0.51736E-02
        -0.51736E-02
        -0.51736E-02
        -0.51736E-02
        -0.51736E-02
        -0.51736E-02
        -0.51736E-02
        -0.51736E-02
        -0.51736E-02
        -0.51736E-02
        -0.51736E-02
        -0.51736E-02
        -0.51736E-02
        -0.51736E-02
        -0.51736E-02
        -0.51736E-02
        -0.51736E-02
        -0.51736E-02
        -0.51736E-02
        -0.51736E-02
        -0.51736E-02
        -0.51736E-02
        -0.51736E-02
        -0.51736E-02
        -0.51736E-02
        -0.51736E-02
        -0.51736E-02
        -0.51736E-02
        -0.51736E-02
        -0.51736E-02
        -0.51736E-02
        -0.51736E-02
        -0.51736E-02
        -0.51736E-02
        -0.51736E-02
        -0.51736E-02
        -0.51736E-02
        -0.51736E-02
        -0.51736E-02
        -0.51736E-02
        -0.51736E-02
        -0.51736E-02
        -0.51736E-02
        -0.51736E-02
        -0.51736E-02
        -0.51736E-02
        -0.51736E-02
        -0.51736E-02
        -0.51736E-02
        -0.51736E-02
        -0.51736E-02
        -0.51736E-02
        -0.51736E-02
        -0.51736E-02
        -0.51736E-02
        -0.51736E-02
        -0.51736E-02
        -0.51736E-02
        -0.51736E-02
        -0.51736E-02
        -0.51736E-02
        -0.51736E-02
        -0.51736E-02
        -0.51736E-02
        -0.51736E-02
        -0.51736E-02
        -0.51736E-02
        -0.51736E-02
        -0.51736E-02
        -0.51736E-02
        -0.51736E-02
        -0.51736E-02
        -0.51736E-02
        -0.51736E-02
        -0.51736E-02
        -0.51736E-02
        -0.51736E-02
        -0.51736E-02
        -0.51736E-02
        -0.51736E-02
        -0.51736E-02
        -0.51736E-02
        -0.51736E-02
        -0.51736E-02
        -0.51736E-02
        -0.51736E-02
        -0.51736E-02
        -0.51736E-02
        -0.51736E-02
        -0.51736E-02
        -0.51736E-02
        -0.51736E-02
        -0.51736E-02
        -0.51736E-02
        -0.51736E-02
        -0.51736E-02
        -0.51736E-02
        -0.51736E-02
        -0.51736E-02
        -0.51736E-02
        -0.51736E-02
        -0.51736E-02
        -0.51736E-02
        -0.51736E-02
        -0.51736E-02
        -0.51736E-02
        -0.51736E-02
        -0.51736E-02
        -0.51736E-02
        -0.51736E-02
        -0.51736E-02
        -0.51736E-02
        -0.51736E-02
        -0.51736E-02
        -0.51736E-02
        -0.51736E-02
        -0.51736E-02
        -0.51736E-02
        -0.51736E-02
        -0.51736E-02
        -0.51736E-02
        -0.51736E-02
        -0.51736E-02
        -0.51736E-02
        -0.51736E-02
        -0.51736E-02
        -0.51736E-02
        -0.51736E-02
        -0.51736E-02
        -0.51736E-02
        -0.51736E-02
        -0.51736E-02
        -0.51736E-02
        -0.51736E-02
        -0.51736E-02
        -0.51736E-02
        -0.51736E-02
        -0.51736E-02
        -0.51736E-02
        -0.51736E-02
        -0.51736E-02
        -0.51736E-02
        -0.51736E-02
        -0.51736E-02
        -0.51736E-02
        -0.51736E-02
        -0.51736E-02
        -0.51736E-02
        -0.51736E-02
        -0.51736E-02
        -0.51736E-02
        -0.51736E-02
        -0.51736E-02
        -0.51736E-02
        -0.51736E-02
        -0.51736E-02
        -0.51736E-02
        -0.51736E-02
        -0.51736E-02
        -0.51736E-02
        -0.51736E-02
        -0.51736E-02
        -0.51736E-02
        -0.51736E-02
        -0.51736E-02
        -0.51736E-02
        -0.51736E-02
        -0.51736E-02
        -0.51736E-02
        -0.51736E-02
        -0.51736E-02
        -0.51736E-02
        -0.51736E-02
        -0.51736E-02
        -0.51736E-02
        -0.51736E-02
        -0.51736E-02
        -0.51736E-02
        -0.51736E-02
        -0.51736E-02
        -0.51736E-02
        -0.51736E-02
        -0.51736E-02
        -0.51736E-02
        -0.51736E-02
        -0.51736E-02
        -0.51736E-02
        -0.51736E-02
        -0.51736E-02
        -0.51736E-02
        -0.51736E-02
        -0.51736E-02
        -0.51736E-02
        -0.51736E-02
        -0.51736E-02
        -0.51736E-02
        -0.51736E-02
        -0.51736E-02
        -0.51736E-02
        -0.51736E-02
        -0.51736E-02
        -0.51736E-02
        -0.51736E-02
        -0.51736E-02
        -0.51736E-02
        -0.51736E-02
        -0.51736E-02
        -0.51736E-02
        -0.51736E-02
        -0.51736E-02
        -0.51736E-02
        -0.51736E-02
        -0.51736E-02
        -0.51736E-02
        -0.51736E-02
        -0.51736E-02
        -0.51736E-02
        -0.51736E-02
        -0.51736E-02
        -0.51736E-02
        -0.51736E-02
        -0.51736E-02
        -0.51736E-02
        -0.51736E-02
        -0.51736E-02
        -0.51736E-02
        -0.51736E-02
        -0.51736E-02
        -0.51736E-02
        -0.51736E-02
        -0.51736E-02
        -0.51736E-02
        -0.51736E-02
        -0.51736E-02
        -0.51736E-02
        -0.51736E-02
        -0.51736E-02
        -0.51736E-02
        -0.51736E-02
        -0.51736E-02
        -0.51736E-02
        -0.51736E-02
        -0.51736E-02
        -0.51736E-02
        -0.51736E-02
        -0.51736E-02
        -0.51736E-02
        -0.51736E-02
        -0.51736E-02
        -0.51736E-02
        -0.51736E-02
        -0.51736E-02
        -0.51736E-02
        -0.51736E-02
        -0.51736E-02
        -0.51736E-02
        -0.51736E-02
        -0.51736E-02
        -0.51736E-02
        -0.51736E-02
        -0.51736E-02
        -0.51736E-02
        -0.51736E-02
        -0.51736E-02
        -0.51736E-02
        -0.51736E-02
        -0.51736E-02
        -0.51736E-02
        -0.51736E-02
        -0.51736E-02
        -0.51736E-02
        -0.51736E-02
        -0.51736E-02
        -0.51736E-02
        -0.51736E-02
        -0.51736E-02
        -0.51736E-02
        -0.51736E-02
        -0.51736E-02
        -0.51736E-02
        -0.51736E-02
        -0.51736E-02
        -0.51736E-02
        -0.51736E-02
        -0.51736E-02
        -0.51736E-02
        -0.51736E-02
        -0.51736E-02
        -0.51736E-02
        -0.51736E-02
        -0.51736E-02
        -0.51736E-02
        -0.51736E-02
        -0.51736E-02
        -0.51736E-02
        -0.51736E-02
        -0.51736E-02
        -0.51736E-02
        -0.51736E-02
        -0.51736E-02
        -0.51736E-02
        -0.51736E-02
        -0.51736E-02
        -0.51736E-02
        -0.51736E-02
        -0.51736E-02
        -0.51736E-02
        -0.51736E-02
        -0.51736E-02
        -0.51736E-02
        -0.51736E-02
        -0.51736E-02
        -0.51736E-02
        -0.51736E-02
        -0.51736E-02
        -0.51736E-02
        -0.51736E-02
        -0.51736E-02
        -0.51736E-02
        -0.51736E-02
        -0.51736E-02
        -0.51736E-02
        -0.51736E-02
        -0.51736E-02
        -0.51736E-02
        -0.51736E-02
        -0.51736E-02
        -0.51736E-02
        -0.51736E-02
        -0.51736E-02
        -0.51736E-02
        -0.51736E-02
        -0.51736E-02
        -0.51736E-02
        -0.51736E-02
        -0.51736E-02
        -0.51736E-02
        -0.51736E-02
        -0.51736E-02
        -0.51736E-02
        -0.51736E-02
        -0.51736E-02
        -0.51736E-02
        -0.51736E-02
        -0.51736E-02
        -0.51736E-02
        -0.51736E-02
        -0.51736E-02
        -0.51736E-02
        -0.51736E-02
        -0.51736E-02
        -0.51736E-02
        -0.51736E-02
        -0.51736E-02
        -0.51736E-02
        -0.51736E-02
        -0.51736E-02
        -0.51736E-02
        -0.51736E-02
        -0.51736E-02
        -0.51736E-02
        -0.51736E-02
        -0.51736E-02
        -0.51736E-02
        -0.51736E-02
        -0.51736E-02
        -0.51736E-02
        -0.51736E-02
        -0.51736E-02
        -0.51736E-02
        -0.51736E-02
        -0.51736E-02
        -0.51736E-02
        -0.51736E-02
        -0.51736E-02
        -0.51736E-02
        -0.51736E-02
        -0.51736E-02
        -0.51736E-02
        -0.51736E-02
        -0.51736E-02
        -0.51736E-02
        -0.51736E-02
        -0.51736E-02
        -0.51736E-02
        -0.51736E-02
        -0.51736E-02
        -0.51736E-02
        -0.51736E-02
        -0.51736E-02
        -0.51736E-02
        -0.51736E-02
        -0.51736E-02
        -0.51736E-02
        -0.51736E-02
        -0.51736E-02
        -0.51736E-02
        -0.51736E-02
        -0.51736E-02
        -0.51736E-02
        -0.51736E-02
        -0.51736E-02
        -0.51736E-02
        -0.51736E-02
        -0.51736E-02
        -0.51736E-02
        -0.51736E-02
        -0.51736E-02
        -0.51736E-02
        -0.51736E-02
        -0.51736E-02
        -0.51736E-02
        -0.51736E-02
        -0.51736E-02
        -0.51736E-02
        -0.51736E-02
        -0.51736E-02
        -0.51736E-02
        -0.51736E-02
        -0.51736E-02
        -0.51736E-02
        -0.51736E-02
        -0.51736E-02
        -0.51736E-02
        -0.51736E-02
        -0.51736E-02
        -0.51736E-02
        -0.51736E-02
        -0.51736E-02
        -0.51736E-02
        -0.51736E-02
        -0.51736E-02
        -0.51736E-02
        -0.51736E-02
        -0.51736E-02
        -0.51736E-02
        -0.51736E-02
        -0.51736E-02
        -0.51736E-02
        -0.51736E-02
        -0.51736E-02
        -0.51736E-02
        -0.51736E-02
        -0.51736E-02
        -0.51736E-02
        -0.51736E-02
        -0.51736E-02
        -0.51736E-02
        -0.51736E-02
        -0.51736E-02
        -0.51736E-02
        -0.51736E-02
        -0.51736E-02
        -0.51736E-02
        -0.51736E-02
        -0.51736E-02
        -0.51736E-02
        -0.51736E-02
        -0.51736E-02
        -0.51736E-02
        -0.51736E-02
        -0.51736E-02
        -0.51736E-02
        -0.51736E-02
        -0.51736E-02
        -0.51736E-02
        -0.51736E-02
        -0.51736E-02
        -0.51736E-02
        -0.51736E-02
        -0.51736E-02
        -0.51736E-02
        -0.51736E-02
        -0.51736E-02
        -0.51736E-02
        -0.51736E-02
        -0.51736E-02
        -0.51736E-02
        -0.51736E-02
        -0.51736E-02
        -0.51736E-02
        -0.51736E-02
        -0.51736E-02
        -0.51736E-02
        -0.51736E-02
        -0.51736E-02
        -0.51736E-02
        -0.51736E-02
        -0.51736E-02
        -0.51736E-02
        -0.51736E-02
        -0.51736E-02
        -0.51736E-02
        -0.51736E-02
        -0.51736E-02
        -0.51736E-02
        -0.51736E-02
        -0.51736E-02
        -0.51736E-02
        -0.51736E-02
        -0.51736E-02
        -0.51736E-02
        -0.51736E-02
        -0.51736E-02
        -0.51736E-02
        -0.51736E-02
        -0.51736E-02
        -0.51736E-02
        -0.51736E-02
        -0.51736E-02
        -0.51736E-02
        -0.51736E-02
        -0.51736E-02
        -0.51736E-02
        -0.51736E-02
        -0.51736E-02
        -0.51736E-02
        -0.51736E-02
        -0.51736E-02
        -0.51736E-02
        -0.51736E-02
        -0.51736E-02
        -0.51736E-02
        -0.51736E-02
        -0.51736E-02
        -0.51736E-02
        -0.51736E-02
        -0.51736E-02
        -0.51736E-02
        -0.51736E-02
        -0.51736E-02
        -0.51736E-02
        -0.51736E-02
        -0.51736E-02
        -0.51736E-02
        -0.51736E-02
        -0.51736E-02
        -0.51736E-02
        -0.51736E-02
        -0.51736E-02
        -0.51736E-02
        -0.51736E-02
        -0.51736E-02
        -0.51736E-02
        -0.51736E-02
        -0.51736E-02
        -0.51736E-02
        -0.51736E-02
        -0.51736E-02
        -0.51736E-02
        -0.51736E-02
        -0.51736E-02
        -0.51736E-02
        -0.51736E-02
        -0.51736E-02
        -0.51736E-02
        -0.51736E-02
        -0.51736E-02
        -0.51736E-02
        -0.51736E-02
        -0.51736E-02
        -0.51736E-02
        -0.51736E-02
        -0.51736E-02
        -0.51736E-02
        -0.51736E-02
        -0.51736E-02
        -0.51736E-02
        -0.51736E-02
        -0.51736E-02
        -0.51736E-02
        -0.51736E-02
        -0.51736E-02
        -0.51736E-02
        -0.51736E-02
        -0.51736E-02
        -0.51736E-02
        -0.51736E-02
        -0.51736E-02
        -0.51736E-02
        -0.51736E-02
        -0.51736E-02
        -0.51736E-02
        -0.51736E-02
        -0.51736E-02
        -0.51736E-02
        -0.51736E-02
        -0.51736E-02
        -0.51736E-02
        -0.51736E-02
        -0.51736E-02
        -0.51736E-02
        -0.51736E-02
        -0.51736E-02
        -0.51736E-02
        -0.51736E-02
        -0.51736E-02
        -0.51736E-02
        -0.51736E-02
        -0.51736E-02
        -0.51736E-02
        -0.51736E-02
        -0.51736E-02
        -0.51736E-02
        -0.51736E-02
        -0.51736E-02
        -0.51736E-02
        -0.51736E-02
        -0.51736E-02
        -0.51736E-02
        -0.51736E-02
        -0.51736E-02
        -0.51736E-02
        -0.51736E-02
        -0.51736E-02
        -0.51736E-02
        -0.51736E-02
        -0.51736E-02
        -0.51736E-02
        -0.51736E-02
        -0.51736E-02
        -0.51736E-02
        -0.51736E-02
        -0.51736E-02
        -0.51736E-02
        -0.51736E-02
        -0.51736E-02
        -0.51736E-02
        -0.51736E-02
        -0.51736E-02
        -0.51736E-02
        -0.51736E-02
        -0.51736E-02
        -0.51736E-02
        -0.51736E-02
        -0.51736E-02
        -0.51736E-02
        -0.51736E-02
        -0.51736E-02
        -0.51736E-02
        -0.51736E-02
        -0.51736E-02
        -0.51736E-02
        -0.51736E-02
        -0.51736E-02
        -0.51736E-02
        -0.51736E-02
        -0.51736E-02
        -0.51736E-02
        -0.51736E-02
        -0.51736E-02
        -0.51736E-02
        -0.51736E-02
        -0.51736E-02
        -0.51736E-02
        -0.51736E-02
        -0.51736E-02
        -0.51736E-02
        -0.51736E-02
        -0.51736E-02
        -0.51736E-02
        -0.51736E-02
        -0.51736E-02
        -0.51736E-02
        -0.51736E-02
        -0.51736E-02
        -0.51736E-02
        -0.51736E-02
        -0.51736E-02
        -0.51736E-02
        -0.51736E-02
        -0.51736E-02
        -0.51736E-02
        -0.51736E-02
        -0.51736E-02
        -0.51736E-02
        -0.51736E-02
        -0.51736E-02
        -0.51736E-02
        -0.51736E-02
        -0.51736E-02
        -0.51736E-02
        -0.51736E-02
        -0.51736E-02
        -0.51736E-02
        -0.51736E-02
        -0.51736E-02
        -0.51736E-02
        -0.51736E-02
        -0.51736E-02
        -0.51736E-02
        -0.51736E-02
        -0.51736E-02
        -0.51736E-02
        -0.51736E-02
        -0.51736E-02
        -0.51736E-02
        -0.51736E-02
        -0.51736E-02
        -0.51736E-02
        -0.51736E-02
        -0.51736E-02
        -0.51736E-02
        -0.51736E-02
        -0.51736E-02
        -0.51736E-02
        -0.51736E-02
        -0.51736E-02
        -0.51736E-02
        -0.51736E-02
        -0.51736E-02
        -0.51736E-02
        -0.51736E-02
        -0.51736E-02
        -0.51736E-02
        -0.51736E-02
        -0.51736E-02
        -0.51736E-02
        -0.51736E-02
        -0.51736E-02
        -0.51736E-02
        -0.51736E-02
        -0.51736E-02
        -0.51736E-02
        -0.51736E-02
        -0.51736E-02
        -0.51736E-02
        -0.51736E-02
        -0.51736E-02
        -0.51736E-02
        -0.51736E-02
        -0.51736E-02
        -0.51736E-02
        -0.51736E-02
        -0.51736E-02
        -0.51736E-02
        -0.51736E-02
        -0.51736E-02
        -0.51736E-02
        -0.51736E-02
        -0.51736E-02
        -0.51736E-02
        -0.51736E-02
        -0.51736E-02
        -0.51736E-02
        -0.51736E-02
        -0.51736E-02
        -0.51736E-02
        -0.51736E-02
        -0.51736E-02
        -0.51736E-02
        -0.51736E-02
        -0.51736E-02
        -0.51736E-02
        -0.51736E-02
        -0.51736E-02
        -0.51736E-02
        -0.51736E-02
        -0.51736E-02
        -0.51736E-02
        -0.51736E-02
        -0.51736E-02
        -0.51736E-02
        -0.51736E-02
        -0.51736E-02
        -0.51736E-02
        -0.51736E-02
        -0.51736E-02
        -0.51736E-02
        -0.51736E-02
        -0.51736E-02
        -0.51736E-02
        -0.51736E-02
        -0.51736E-02
        -0.51736E-02
        -0.51736E-02
        -0.51736E-02
        -0.51736E-02
        -0.51736E-02
        -0.51736E-02
        -0.51736E-02
        -0.51736E-02
        -0.51736E-02
        -0.51736E-02
        -0.51736E-02
        -0.51736E-02
        -0.51736E-02
        -0.51736E-02
        -0.51736E-02
        -0.51736E-02
        -0.51736E-02
        -0.51736E-02
        -0.51736E-02
        -0.51736E-02
        -0.51736E-02
        -0.51736E-02
        -0.51736E-02
        -0.51736E-02
        -0.51736E-02
        -0.51736E-02
        -0.51736E-02
        -0.51736E-02
        -0.51736E-02
        -0.51736E-02
        -0.51736E-02
        -0.51736E-02
        -0.51736E-02
        -0.51736E-02
        -0.51736E-02
        -0.51736E-02
        -0.51736E-02
        -0.51736E-02
        -0.51736E-02
        -0.51736E-02
        -0.51736E-02
        -0.51736E-02
        -0.51736E-02
        -0.51736E-02
        -0.51736E-02
        -0.51736E-02
        -0.51736E-02
        -0.51736E-02
        -0.51736E-02
        -0.51736E-02
        -0.51736E-02
        -0.51736E-02
        -0.51736E-02
        -0.51736E-02
        -0.51736E-02
        -0.51736E-02
        -0.51736E-02
        -0.51736E-02
        -0.51736E-02
        -0.51736E-02
        -0.51736E-02
        -0.51736E-02
        -0.51736E-02
        -0.51736E-02
        -0.51736E-02
        -0.51736E-02
        -0.51736E-02
        -0.51736E-02
        -0.51736E-02
        -0.51736E-02
        -0.51736E-02
        -0.51736E-02
        -0.51736E-02
        -0.51736E-02
        -0.51736E-02
        -0.51736E-02
        -0.51736E-02
        -0.51736E-02
        -0.51736E-02
        -0.51736E-02
        -0.51736E-02
        -0.51736E-02
        -0.51736E-02
        -0.51736E-02
        -0.51736E-02
        -0.51736E-02
        -0.51736E-02
        -0.51736E-02
        -0.51736E-02
        -0.51736E-02
        -0.51736E-02
        -0.51736E-02
        -0.51736E-02
        -0.51736E-02
        -0.51736E-02
        -0.51736E-02
        -0.51736E-02
        -0.51736E-02
        -0.51736E-02
        -0.51736E-02
        -0.51736E-02
        -0.51736E-02
        -0.51736E-02
        -0.51736E-02
        -0.51736E-02
        -0.51736E-02
        -0.51736E-02
        -0.51736E-02
        -0.51736E-02
        -0.51736E-02
        -0.51736E-02
        -0.51736E-02
        -0.51736E-02
        -0.51736E-02
        -0.51736E-02
        -0.51736E-02
        -0.51736E-02
        -0.51736E-02
        -0.51736E-02
        -0.51736E-02
        -0.51736E-02
        -0.51736E-02
        -0.51736E-02
        -0.51736E-02
        -0.51736E-02
        -0.51736E-02
        -0.51736E-02
        -0.51736E-02
        -0.51736E-02
        -0.51736E-02
        -0.51736E-02
        -0.51736E-02
        -0.51736E-02
        -0.51736E-02
        -0.51736E-02
        -0.51736E-02
        -0.51736E-02
        -0.51736E-02
        -0.51736E-02
        -0.51736E-02
        -0.51736E-02
        -0.51736E-02
        -0.51736E-02
        -0.51736E-02
        -0.51736E-02
        -0.51736E-02
        -0.51736E-02
        -0.51736E-02
        -0.51736E-02
        -0.51736E-02
        -0.51736E-02
        -0.51736E-02
        -0.51736E-02
        -0.51736E-02
        -0.51736E-02
        -0.51736E-02
        -0.51736E-02
        -0.51736E-02
        -0.51736E-02
        -0.51736E-02
        -0.51736E-02
        -0.51736E-02
        -0.51736E-02
        -0.51736E-02
        -0.51736E-02
        -0.51736E-02
        -0.51736E-02
        -0.51736E-02
        -0.51736E-02
        -0.51736E-02
        -0.51736E-02
        -0.51736E-02
        -0.51736E-02
        -0.51736E-02
        -0.51736E-02
        -0.51736E-02
        -0.51736E-02
        -0.51736E-02
        -0.51736E-02
        -0.51736E-02
        -0.51736E-02
        -0.51736E-02
        -0.51736E-02
        -0.51736E-02
        -0.51736E-02
        -0.51736E-02
        -0.51736E-02
        -0.51736E-02
        -0.51736E-02
        -0.51736E-02
        -0.51736E-02
        -0.51736E-02
        -0.51736E-02
        -0.51736E-02
        -0.51736E-02
        -0.51736E-02
        -0.51736E-02
        -0.51736E-02
        -0.51736E-02
        -0.51736E-02
        -0.51736E-02
        -0.51736E-02
        -0.51736E-02
        -0.51736E-02
        -0.51736E-02
        -0.51736E-02
        -0.51736E-02
        -0.51736E-02
        -0.51736E-02
        -0.51736E-02
        -0.51736E-02
        -0.51736E-02
        -0.51736E-02
        -0.51736E-02
        -0.51736E-02
        -0.51736E-02
        -0.51736E-02
        -0.51736E-02
        -0.51736E-02
        -0.51736E-02
        -0.51736E-02
        -0.51736E-02
        -0.51736E-02
        -0.51736E-02
        -0.51736E-02
        -0.51736E-02
        -0.51736E-02
        -0.51736E-02
        -0.51736E-02
        -0.51736E-02
        -0.51736E-02
        -0.51736E-02
        -0.51736E-02
        -0.51736E-02
        -0.51736E-02
        -0.51736E-02
        -0.51736E-02
        -0.51736E-02
        -0.51736E-02
        -0.51736E-02
        -0.51736E-02
        -0.51736E-02
        -0.51736E-02
        -0.51736E-02
        -0.51736E-02
        -0.51736E-02
        -0.51736E-02
        -0.51736E-02
        -0.51736E-02
        -0.51736E-02
        -0.51736E-02
        -0.51736E-02
        -0.51736E-02
        -0.51736E-02
        -0.51736E-02
        -0.51736E-02
        -0.51736E-02
        -0.51736E-02
        -0.51736E-02
        -0.51736E-02
        -0.51736E-02
        -0.51736E-02
        -0.51736E-02
        -0.51736E-02
        -0.51736E-02
        -0.51736E-02
        -0.51736E-02
        -0.51736E-02
        -0.51736E-02
        -0.51736E-02
        -0.51736E-02
        -0.51736E-02
        -0.51736E-02
        -0.51736E-02
        -0.51736E-02
        -0.51736E-02
        -0.51736E-02
        -0.51736E-02
        -0.51736E-02
        -0.51736E-02
        -0.51736E-02
        -0.51736E-02
        -0.51736E-02
        -0.51736E-02
        -0.51736E-02
        -0.51736E-02
        -0.51736E-02
        -0.51736E-02
        -0.51736E-02
        -0.51736E-02
        -0.51736E-02
        -0.51736E-02
        -0.51736E-02
        -0.51736E-02
        -0.51736E-02
        -0.51736E-02
        -0.51736E-02
        -0.51736E-02
        -0.51736E-02
        -0.51736E-02
        -0.51736E-02
        -0.51736E-02
        -0.51736E-02
        -0.51736E-02
        -0.51736E-02
        -0.51736E-02
        -0.51736E-02
        -0.51736E-02
        -0.51736E-02
        -0.51736E-02
        -0.51736E-02
        -0.51736E-02
        -0.51736E-02
        -0.51736E-02
        -0.51736E-02
        -0.51736E-02
        -0.51736E-02
        -0.51736E-02
  
SCALARS                     velocity_x  double 1
LOOKUP_TABLE default
         0.00000E+00
         0.00000E+00
         0.00000E+00
         0.00000E+00
         0.00000E+00
         0.00000E+00
         0.00000E+00
         0.00000E+00
         0.00000E+00
         0.00000E+00
         0.00000E+00
         0.00000E+00
         0.00000E+00
         0.00000E+00
         0.00000E+00
         0.00000E+00
         0.00000E+00
         0.00000E+00
         0.00000E+00
         0.00000E+00
         0.00000E+00
         0.00000E+00
         0.00000E+00
         0.00000E+00
         0.00000E+00
         0.00000E+00
         0.00000E+00
         0.00000E+00
         0.00000E+00
         0.00000E+00
         0.00000E+00
         0.00000E+00
         0.00000E+00
         0.00000E+00
         0.00000E+00
         0.00000E+00
         0.00000E+00
         0.00000E+00
         0.00000E+00
         0.00000E+00
         0.00000E+00
         0.00000E+00
         0.00000E+00
         0.00000E+00
         0.00000E+00
         0.00000E+00
         0.00000E+00
         0.00000E+00
         0.00000E+00
         0.00000E+00
         0.00000E+00
         0.00000E+00
         0.00000E+00
         0.00000E+00
         0.00000E+00
         0.00000E+00
         0.00000E+00
         0.00000E+00
         0.00000E+00
         0.00000E+00
         0.00000E+00
         0.00000E+00
         0.00000E+00
         0.00000E+00
         0.00000E+00
         0.00000E+00
         0.00000E+00
         0.00000E+00
         0.00000E+00
         0.00000E+00
         0.00000E+00
         0.00000E+00
         0.00000E+00
         0.00000E+00
         0.00000E+00
         0.00000E+00
         0.00000E+00
         0.00000E+00
         0.00000E+00
         0.00000E+00
         0.00000E+00
         0.00000E+00
         0.00000E+00
         0.00000E+00
         0.00000E+00
         0.00000E+00
         0.00000E+00
         0.00000E+00
         0.00000E+00
         0.00000E+00
         0.00000E+00
         0.00000E+00
         0.00000E+00
         0.00000E+00
         0.00000E+00
         0.00000E+00
         0.00000E+00
         0.00000E+00
         0.00000E+00
         0.00000E+00
         0.00000E+00
         0.00000E+00
         0.00000E+00
         0.00000E+00
         0.00000E+00
         0.00000E+00
         0.00000E+00
         0.00000E+00
         0.00000E+00
         0.00000E+00
         0.00000E+00
         0.00000E+00
         0.00000E+00
         0.00000E+00
         0.00000E+00
         0.00000E+00
         0.00000E+00
         0.00000E+00
         0.00000E+00
         0.00000E+00
         0.00000E+00
         0.00000E+00
         0.00000E+00
         0.00000E+00
         0.00000E+00
         0.00000E+00
         0.00000E+00
         0.00000E+00
         0.00000E+00
         0.00000E+00
         0.00000E+00
         0.00000E+00
         0.00000E+00
         0.00000E+00
         0.00000E+00
         0.00000E+00
         0.00000E+00
         0.00000E+00
         0.00000E+00
         0.00000E+00
         0.00000E+00
         0.00000E+00
         0.00000E+00
         0.00000E+00
         0.00000E+00
         0.00000E+00
         0.00000E+00
         0.00000E+00
         0.00000E+00
         0.00000E+00
         0.00000E+00
         0.00000E+00
         0.00000E+00
         0.00000E+00
         0.00000E+00
         0.00000E+00
         0.00000E+00
         0.00000E+00
         0.00000E+00
         0.00000E+00
         0.00000E+00
         0.00000E+00
         0.00000E+00
         0.00000E+00
         0.00000E+00
         0.00000E+00
         0.00000E+00
         0.00000E+00
         0.00000E+00
         0.00000E+00
         0.00000E+00
         0.00000E+00
         0.00000E+00
         0.00000E+00
         0.00000E+00
         0.00000E+00
         0.00000E+00
         0.00000E+00
         0.00000E+00
         0.00000E+00
         0.00000E+00
         0.00000E+00
         0.00000E+00
         0.00000E+00
         0.00000E+00
         0.00000E+00
         0.00000E+00
         0.00000E+00
         0.00000E+00
         0.00000E+00
         0.00000E+00
         0.00000E+00
         0.00000E+00
         0.00000E+00
         0.00000E+00
         0.00000E+00
         0.00000E+00
         0.00000E+00
         0.00000E+00
         0.00000E+00
         0.00000E+00
         0.00000E+00
         0.00000E+00
         0.00000E+00
         0.00000E+00
         0.00000E+00
         0.00000E+00
         0.00000E+00
         0.00000E+00
         0.00000E+00
         0.00000E+00
         0.00000E+00
         0.00000E+00
         0.00000E+00
         0.00000E+00
         0.00000E+00
         0.00000E+00
         0.00000E+00
         0.00000E+00
         0.00000E+00
         0.00000E+00
         0.00000E+00
         0.00000E+00
         0.00000E+00
         0.00000E+00
         0.00000E+00
         0.00000E+00
         0.00000E+00
         0.00000E+00
         0.00000E+00
         0.00000E+00
         0.00000E+00
         0.00000E+00
         0.00000E+00
         0.00000E+00
         0.00000E+00
         0.00000E+00
         0.00000E+00
         0.00000E+00
         0.00000E+00
         0.00000E+00
         0.00000E+00
         0.00000E+00
         0.00000E+00
         0.00000E+00
         0.00000E+00
         0.00000E+00
         0.00000E+00
         0.00000E+00
         0.00000E+00
         0.00000E+00
         0.00000E+00
         0.00000E+00
         0.00000E+00
         0.00000E+00
         0.00000E+00
         0.00000E+00
         0.00000E+00
         0.00000E+00
         0.00000E+00
         0.00000E+00
         0.00000E+00
         0.00000E+00
         0.00000E+00
         0.00000E+00
         0.00000E+00
         0.00000E+00
         0.00000E+00
         0.00000E+00
         0.00000E+00
         0.00000E+00
         0.00000E+00
         0.00000E+00
         0.00000E+00
         0.00000E+00
         0.00000E+00
         0.00000E+00
         0.00000E+00
         0.00000E+00
         0.00000E+00
         0.00000E+00
         0.00000E+00
         0.00000E+00
         0.00000E+00
         0.00000E+00
         0.00000E+00
         0.00000E+00
         0.00000E+00
         0.00000E+00
         0.00000E+00
         0.00000E+00
         0.00000E+00
         0.00000E+00
         0.00000E+00
         0.00000E+00
         0.00000E+00
         0.00000E+00
         0.00000E+00
         0.00000E+00
         0.00000E+00
         0.00000E+00
         0.00000E+00
         0.00000E+00
         0.00000E+00
         0.00000E+00
         0.00000E+00
         0.00000E+00
         0.00000E+00
         0.00000E+00
         0.00000E+00
         0.00000E+00
         0.00000E+00
         0.00000E+00
         0.00000E+00
         0.00000E+00
         0.00000E+00
         0.00000E+00
         0.00000E+00
         0.00000E+00
         0.00000E+00
         0.00000E+00
         0.00000E+00
         0.00000E+00
         0.00000E+00
         0.00000E+00
         0.00000E+00
         0.00000E+00
         0.00000E+00
         0.00000E+00
         0.00000E+00
         0.00000E+00
         0.00000E+00
         0.00000E+00
         0.00000E+00
         0.00000E+00
         0.00000E+00
         0.00000E+00
         0.00000E+00
         0.00000E+00
         0.00000E+00
         0.00000E+00
         0.00000E+00
         0.00000E+00
         0.00000E+00
         0.00000E+00
         0.00000E+00
         0.00000E+00
         0.00000E+00
         0.00000E+00
         0.00000E+00
         0.00000E+00
         0.00000E+00
         0.00000E+00
         0.00000E+00
         0.00000E+00
         0.00000E+00
         0.00000E+00
         0.00000E+00
         0.00000E+00
         0.00000E+00
         0.00000E+00
         0.00000E+00
         0.00000E+00
         0.00000E+00
         0.00000E+00
         0.00000E+00
         0.00000E+00
         0.00000E+00
         0.00000E+00
         0.00000E+00
         0.00000E+00
         0.00000E+00
         0.00000E+00
         0.00000E+00
         0.00000E+00
         0.00000E+00
         0.00000E+00
         0.00000E+00
         0.00000E+00
         0.00000E+00
         0.00000E+00
         0.00000E+00
         0.00000E+00
         0.00000E+00
         0.00000E+00
         0.00000E+00
         0.00000E+00
         0.00000E+00
         0.00000E+00
         0.00000E+00
         0.00000E+00
         0.00000E+00
         0.00000E+00
         0.00000E+00
         0.00000E+00
         0.00000E+00
         0.00000E+00
         0.00000E+00
         0.00000E+00
         0.00000E+00
         0.00000E+00
         0.00000E+00
         0.00000E+00
         0.00000E+00
         0.00000E+00
         0.00000E+00
         0.00000E+00
         0.00000E+00
         0.00000E+00
         0.00000E+00
         0.00000E+00
         0.00000E+00
         0.00000E+00
         0.00000E+00
         0.00000E+00
         0.00000E+00
         0.00000E+00
         0.00000E+00
         0.00000E+00
         0.00000E+00
         0.00000E+00
         0.00000E+00
         0.00000E+00
         0.00000E+00
         0.00000E+00
         0.00000E+00
         0.00000E+00
         0.00000E+00
         0.00000E+00
         0.00000E+00
         0.00000E+00
         0.00000E+00
         0.00000E+00
         0.00000E+00
         0.00000E+00
         0.00000E+00
         0.00000E+00
         0.00000E+00
         0.00000E+00
         0.00000E+00
         0.00000E+00
         0.00000E+00
         0.00000E+00
         0.00000E+00
         0.00000E+00
         0.00000E+00
         0.00000E+00
         0.00000E+00
         0.00000E+00
         0.00000E+00
         0.00000E+00
         0.00000E+00
         0.00000E+00
         0.00000E+00
         0.00000E+00
         0.00000E+00
         0.00000E+00
         0.00000E+00
         0.00000E+00
         0.00000E+00
         0.00000E+00
         0.00000E+00
         0.00000E+00
         0.00000E+00
         0.00000E+00
         0.00000E+00
         0.00000E+00
         0.00000E+00
         0.00000E+00
         0.00000E+00
         0.00000E+00
         0.00000E+00
         0.00000E+00
         0.00000E+00
         0.00000E+00
         0.00000E+00
         0.00000E+00
         0.00000E+00
         0.00000E+00
         0.00000E+00
         0.00000E+00
         0.00000E+00
         0.00000E+00
         0.00000E+00
         0.00000E+00
         0.00000E+00
         0.00000E+00
         0.00000E+00
         0.00000E+00
         0.00000E+00
         0.00000E+00
         0.00000E+00
         0.00000E+00
         0.00000E+00
         0.00000E+00
         0.00000E+00
         0.00000E+00
         0.00000E+00
         0.00000E+00
         0.00000E+00
         0.00000E+00
         0.00000E+00
         0.00000E+00
         0.00000E+00
         0.00000E+00
         0.00000E+00
         0.00000E+00
         0.00000E+00
         0.00000E+00
         0.00000E+00
         0.00000E+00
         0.00000E+00
         0.00000E+00
         0.00000E+00
         0.00000E+00
         0.00000E+00
         0.00000E+00
         0.00000E+00
         0.00000E+00
         0.00000E+00
         0.00000E+00
         0.00000E+00
         0.00000E+00
         0.00000E+00
         0.00000E+00
         0.00000E+00
         0.00000E+00
         0.00000E+00
         0.00000E+00
         0.00000E+00
         0.00000E+00
         0.00000E+00
         0.00000E+00
         0.00000E+00
         0.00000E+00
         0.00000E+00
         0.00000E+00
         0.00000E+00
         0.00000E+00
         0.00000E+00
         0.00000E+00
         0.00000E+00
         0.00000E+00
         0.00000E+00
         0.00000E+00
         0.00000E+00
         0.00000E+00
         0.00000E+00
         0.00000E+00
         0.00000E+00
         0.00000E+00
         0.00000E+00
         0.00000E+00
         0.00000E+00
         0.00000E+00
         0.00000E+00
         0.00000E+00
         0.00000E+00
         0.00000E+00
         0.00000E+00
         0.00000E+00
         0.00000E+00
         0.00000E+00
         0.00000E+00
         0.00000E+00
         0.00000E+00
         0.00000E+00
         0.00000E+00
         0.00000E+00
         0.00000E+00
         0.00000E+00
         0.00000E+00
         0.00000E+00
         0.00000E+00
         0.00000E+00
         0.00000E+00
         0.00000E+00
         0.00000E+00
         0.00000E+00
         0.00000E+00
         0.00000E+00
         0.00000E+00
         0.00000E+00
         0.00000E+00
         0.00000E+00
         0.00000E+00
         0.00000E+00
         0.00000E+00
         0.00000E+00
         0.00000E+00
         0.00000E+00
         0.00000E+00
         0.00000E+00
         0.00000E+00
         0.00000E+00
         0.00000E+00
         0.00000E+00
         0.00000E+00
         0.00000E+00
         0.00000E+00
         0.00000E+00
         0.00000E+00
         0.00000E+00
         0.00000E+00
         0.00000E+00
         0.00000E+00
         0.00000E+00
         0.00000E+00
         0.00000E+00
         0.00000E+00
         0.00000E+00
         0.00000E+00
         0.00000E+00
         0.00000E+00
         0.00000E+00
         0.00000E+00
         0.00000E+00
         0.00000E+00
         0.00000E+00
         0.00000E+00
         0.00000E+00
         0.00000E+00
         0.00000E+00
         0.00000E+00
         0.00000E+00
         0.00000E+00
         0.00000E+00
         0.00000E+00
         0.00000E+00
         0.00000E+00
         0.00000E+00
         0.00000E+00
         0.00000E+00
         0.00000E+00
         0.00000E+00
         0.00000E+00
         0.00000E+00
         0.00000E+00
         0.00000E+00
         0.00000E+00
         0.00000E+00
         0.00000E+00
         0.00000E+00
         0.00000E+00
         0.00000E+00
         0.00000E+00
         0.00000E+00
         0.00000E+00
         0.00000E+00
         0.00000E+00
         0.00000E+00
         0.00000E+00
         0.00000E+00
         0.00000E+00
         0.00000E+00
         0.00000E+00
         0.00000E+00
         0.00000E+00
         0.00000E+00
         0.00000E+00
         0.00000E+00
         0.00000E+00
         0.00000E+00
         0.00000E+00
         0.00000E+00
         0.00000E+00
         0.00000E+00
         0.00000E+00
         0.00000E+00
         0.00000E+00
         0.00000E+00
         0.00000E+00
         0.00000E+00
         0.00000E+00
         0.00000E+00
         0.00000E+00
         0.00000E+00
         0.00000E+00
         0.00000E+00
         0.00000E+00
         0.00000E+00
         0.00000E+00
         0.00000E+00
         0.00000E+00
         0.00000E+00
         0.00000E+00
         0.00000E+00
         0.00000E+00
         0.00000E+00
         0.00000E+00
         0.00000E+00
         0.00000E+00
         0.00000E+00
         0.00000E+00
         0.00000E+00
         0.00000E+00
         0.00000E+00
         0.00000E+00
         0.00000E+00
         0.00000E+00
         0.00000E+00
         0.00000E+00
         0.00000E+00
         0.00000E+00
         0.00000E+00
         0.00000E+00
         0.00000E+00
         0.00000E+00
         0.00000E+00
         0.00000E+00
         0.00000E+00
         0.00000E+00
         0.00000E+00
         0.00000E+00
         0.00000E+00
         0.00000E+00
         0.00000E+00
         0.00000E+00
         0.00000E+00
         0.00000E+00
         0.00000E+00
         0.00000E+00
         0.00000E+00
         0.00000E+00
         0.00000E+00
         0.00000E+00
         0.00000E+00
         0.00000E+00
         0.00000E+00
         0.00000E+00
         0.00000E+00
         0.00000E+00
         0.00000E+00
         0.00000E+00
         0.00000E+00
         0.00000E+00
         0.00000E+00
         0.00000E+00
         0.00000E+00
         0.00000E+00
         0.00000E+00
         0.00000E+00
         0.00000E+00
         0.00000E+00
         0.00000E+00
         0.00000E+00
         0.00000E+00
         0.00000E+00
         0.00000E+00
         0.00000E+00
         0.00000E+00
         0.00000E+00
         0.00000E+00
         0.00000E+00
         0.00000E+00
         0.00000E+00
         0.00000E+00
         0.00000E+00
         0.00000E+00
         0.00000E+00
         0.00000E+00
         0.00000E+00
         0.00000E+00
         0.00000E+00
         0.00000E+00
         0.00000E+00
         0.00000E+00
         0.00000E+00
         0.00000E+00
         0.00000E+00
         0.00000E+00
         0.00000E+00
         0.00000E+00
         0.00000E+00
         0.00000E+00
         0.00000E+00
         0.00000E+00
         0.00000E+00
         0.00000E+00
         0.00000E+00
         0.00000E+00
         0.00000E+00
         0.00000E+00
         0.00000E+00
         0.00000E+00
         0.00000E+00
         0.00000E+00
         0.00000E+00
         0.00000E+00
         0.00000E+00
         0.00000E+00
         0.00000E+00
         0.00000E+00
         0.00000E+00
         0.00000E+00
         0.00000E+00
         0.00000E+00
         0.00000E+00
         0.00000E+00
         0.00000E+00
         0.00000E+00
         0.00000E+00
         0.00000E+00
         0.00000E+00
         0.00000E+00
         0.00000E+00
         0.00000E+00
         0.00000E+00
         0.00000E+00
         0.00000E+00
         0.00000E+00
         0.00000E+00
         0.00000E+00
         0.00000E+00
         0.00000E+00
         0.00000E+00
         0.00000E+00
         0.00000E+00
         0.00000E+00
         0.00000E+00
         0.00000E+00
         0.00000E+00
         0.00000E+00
         0.00000E+00
         0.00000E+00
         0.00000E+00
         0.00000E+00
         0.00000E+00
         0.00000E+00
         0.00000E+00
         0.00000E+00
         0.00000E+00
         0.00000E+00
         0.00000E+00
         0.00000E+00
         0.00000E+00
         0.00000E+00
         0.00000E+00
         0.00000E+00
         0.00000E+00
         0.00000E+00
         0.00000E+00
         0.00000E+00
         0.00000E+00
         0.00000E+00
         0.00000E+00
         0.00000E+00
         0.00000E+00
         0.00000E+00
         0.00000E+00
         0.00000E+00
         0.00000E+00
         0.00000E+00
         0.00000E+00
         0.00000E+00
         0.00000E+00
         0.00000E+00
         0.00000E+00
         0.00000E+00
         0.00000E+00
         0.00000E+00
         0.00000E+00
         0.00000E+00
         0.00000E+00
         0.00000E+00
         0.00000E+00
         0.00000E+00
         0.00000E+00
         0.00000E+00
         0.00000E+00
         0.00000E+00
         0.00000E+00
         0.00000E+00
         0.00000E+00
         0.00000E+00
         0.00000E+00
         0.00000E+00
         0.00000E+00
         0.00000E+00
         0.00000E+00
         0.00000E+00
         0.00000E+00
         0.00000E+00
         0.00000E+00
         0.00000E+00
         0.00000E+00
         0.00000E+00
         0.00000E+00
         0.00000E+00
         0.00000E+00
         0.00000E+00
         0.00000E+00
         0.00000E+00
         0.00000E+00
         0.00000E+00
         0.00000E+00
         0.00000E+00
         0.00000E+00
         0.00000E+00
         0.00000E+00
         0.00000E+00
         0.00000E+00
         0.00000E+00
         0.00000E+00
         0.00000E+00
         0.00000E+00
         0.00000E+00
         0.00000E+00
         0.00000E+00
         0.00000E+00
         0.00000E+00
         0.00000E+00
         0.00000E+00
         0.00000E+00
         0.00000E+00
         0.00000E+00
         0.00000E+00
         0.00000E+00
         0.00000E+00
         0.00000E+00
         0.00000E+00
         0.00000E+00
         0.00000E+00
         0.00000E+00
         0.00000E+00
         0.00000E+00
         0.00000E+00
         0.00000E+00
         0.00000E+00
         0.00000E+00
         0.00000E+00
         0.00000E+00
         0.00000E+00
         0.00000E+00
         0.00000E+00
         0.00000E+00
         0.00000E+00
         0.00000E+00
         0.00000E+00
         0.00000E+00
         0.00000E+00
         0.00000E+00
         0.00000E+00
         0.00000E+00
         0.00000E+00
         0.00000E+00
         0.00000E+00
         0.00000E+00
         0.00000E+00
         0.00000E+00
         0.00000E+00
         0.00000E+00
         0.00000E+00
         0.00000E+00
         0.00000E+00
         0.00000E+00
         0.00000E+00
         0.00000E+00
         0.00000E+00
         0.00000E+00
         0.00000E+00
         0.00000E+00
         0.00000E+00
         0.00000E+00
         0.00000E+00
         0.00000E+00
         0.00000E+00
         0.00000E+00
         0.00000E+00
         0.00000E+00
         0.00000E+00
         0.00000E+00
         0.00000E+00
         0.00000E+00
         0.00000E+00
         0.00000E+00
         0.00000E+00
         0.00000E+00
         0.00000E+00
         0.00000E+00
         0.00000E+00
         0.00000E+00
         0.00000E+00
         0.00000E+00
         0.00000E+00
         0.00000E+00
         0.00000E+00
         0.00000E+00
         0.00000E+00
         0.00000E+00
         0.00000E+00
         0.00000E+00
         0.00000E+00
         0.00000E+00
         0.00000E+00
         0.00000E+00
         0.00000E+00
         0.00000E+00
         0.00000E+00
         0.00000E+00
         0.00000E+00
         0.00000E+00
         0.00000E+00
         0.00000E+00
         0.00000E+00
         0.00000E+00
         0.00000E+00
         0.00000E+00
         0.00000E+00
         0.00000E+00
         0.00000E+00
         0.00000E+00
         0.00000E+00
         0.00000E+00
         0.00000E+00
         0.00000E+00
         0.00000E+00
         0.00000E+00
         0.00000E+00
         0.00000E+00
         0.00000E+00
         0.00000E+00
         0.00000E+00
         0.00000E+00
         0.00000E+00
         0.00000E+00
         0.00000E+00
         0.00000E+00
         0.00000E+00
         0.00000E+00
         0.00000E+00
         0.00000E+00
         0.00000E+00
         0.00000E+00
         0.00000E+00
         0.00000E+00
         0.00000E+00
         0.00000E+00
         0.00000E+00
         0.00000E+00
         0.00000E+00
         0.00000E+00
         0.00000E+00
         0.00000E+00
         0.00000E+00
         0.00000E+00
         0.00000E+00
         0.00000E+00
         0.00000E+00
         0.00000E+00
         0.00000E+00
         0.00000E+00
         0.00000E+00
         0.00000E+00
         0.00000E+00
         0.00000E+00
         0.00000E+00
         0.00000E+00
         0.00000E+00
         0.00000E+00
         0.00000E+00
         0.00000E+00
         0.00000E+00
         0.00000E+00
         0.00000E+00
         0.00000E+00
         0.00000E+00
         0.00000E+00
         0.00000E+00
         0.00000E+00
         0.00000E+00
         0.00000E+00
         0.00000E+00
         0.00000E+00
         0.00000E+00
         0.00000E+00
         0.00000E+00
         0.00000E+00
         0.00000E+00
         0.00000E+00
         0.00000E+00
         0.00000E+00
         0.00000E+00
         0.00000E+00
         0.00000E+00
         0.00000E+00
         0.00000E+00
         0.00000E+00
         0.00000E+00
         0.00000E+00
         0.00000E+00
         0.00000E+00
         0.00000E+00
         0.00000E+00
         0.00000E+00
         0.00000E+00
         0.00000E+00
         0.00000E+00
         0.00000E+00
         0.00000E+00
         0.00000E+00
         0.00000E+00
         0.00000E+00
         0.00000E+00
         0.00000E+00
         0.00000E+00
         0.00000E+00
         0.00000E+00
         0.00000E+00
         0.00000E+00
         0.00000E+00
         0.00000E+00
         0.00000E+00
         0.00000E+00
         0.00000E+00
         0.00000E+00
         0.00000E+00
         0.00000E+00
         0.00000E+00
         0.00000E+00
         0.00000E+00
         0.00000E+00
         0.00000E+00
         0.00000E+00
         0.00000E+00
         0.00000E+00
         0.00000E+00
         0.00000E+00
         0.00000E+00
         0.00000E+00
         0.00000E+00
         0.00000E+00
         0.00000E+00
         0.00000E+00
         0.00000E+00
         0.00000E+00
         0.00000E+00
         0.00000E+00
         0.00000E+00
         0.00000E+00
         0.00000E+00
         0.00000E+00
         0.00000E+00
         0.00000E+00
         0.00000E+00
         0.00000E+00
         0.00000E+00
         0.00000E+00
         0.00000E+00
         0.00000E+00
         0.00000E+00
         0.00000E+00
         0.00000E+00
         0.00000E+00
         0.00000E+00
         0.00000E+00
         0.00000E+00
         0.00000E+00
         0.00000E+00
         0.00000E+00
         0.00000E+00
         0.00000E+00
         0.00000E+00
         0.00000E+00
         0.00000E+00
         0.00000E+00
         0.00000E+00
         0.00000E+00
         0.00000E+00
         0.00000E+00
         0.00000E+00
         0.00000E+00
         0.00000E+00
         0.00000E+00
         0.00000E+00
         0.00000E+00
         0.00000E+00
         0.00000E+00
         0.00000E+00
         0.00000E+00
         0.00000E+00
         0.00000E+00
         0.00000E+00
         0.00000E+00
         0.00000E+00
         0.00000E+00
         0.00000E+00
         0.00000E+00
         0.00000E+00
         0.00000E+00
         0.00000E+00
         0.00000E+00
         0.00000E+00
         0.00000E+00
         0.00000E+00
         0.00000E+00
         0.00000E+00
         0.00000E+00
         0.00000E+00
         0.00000E+00
         0.00000E+00
         0.00000E+00
         0.00000E+00
         0.00000E+00
         0.00000E+00
         0.00000E+00
         0.00000E+00
         0.00000E+00
         0.00000E+00
         0.00000E+00
         0.00000E+00
         0.00000E+00
         0.00000E+00
         0.00000E+00
         0.00000E+00
         0.00000E+00
         0.00000E+00
         0.00000E+00
         0.00000E+00
         0.00000E+00
         0.00000E+00
         0.00000E+00
         0.00000E+00
         0.00000E+00
         0.00000E+00
         0.00000E+00
         0.00000E+00
         0.00000E+00
         0.00000E+00
         0.00000E+00
         0.00000E+00
         0.00000E+00
         0.00000E+00
         0.00000E+00
         0.00000E+00
         0.00000E+00
         0.00000E+00
         0.00000E+00
         0.00000E+00
         0.00000E+00
         0.00000E+00
         0.00000E+00
         0.00000E+00
         0.00000E+00
         0.00000E+00
         0.00000E+00
         0.00000E+00
         0.00000E+00
         0.00000E+00
         0.00000E+00
         0.00000E+00
         0.00000E+00
         0.00000E+00
         0.00000E+00
         0.00000E+00
         0.00000E+00
         0.00000E+00
         0.00000E+00
         0.00000E+00
         0.00000E+00
         0.00000E+00
         0.00000E+00
         0.00000E+00
         0.00000E+00
         0.00000E+00
         0.00000E+00
         0.00000E+00
         0.00000E+00
         0.00000E+00
         0.00000E+00
         0.00000E+00
         0.00000E+00
         0.00000E+00
         0.00000E+00
         0.00000E+00
         0.00000E+00
         0.00000E+00
         0.00000E+00
         0.00000E+00
         0.00000E+00
         0.00000E+00
         0.00000E+00
         0.00000E+00
         0.00000E+00
         0.00000E+00
         0.00000E+00
         0.00000E+00
         0.00000E+00
         0.00000E+00
         0.00000E+00
         0.00000E+00
         0.00000E+00
         0.00000E+00
         0.00000E+00
         0.00000E+00
         0.00000E+00
         0.00000E+00
         0.00000E+00
         0.00000E+00
         0.00000E+00
         0.00000E+00
         0.00000E+00
         0.00000E+00
         0.00000E+00
         0.00000E+00
         0.00000E+00
         0.00000E+00
         0.00000E+00
         0.00000E+00
         0.00000E+00
         0.00000E+00
         0.00000E+00
         0.00000E+00
         0.00000E+00
         0.00000E+00
         0.00000E+00
         0.00000E+00
         0.00000E+00
         0.00000E+00
         0.00000E+00
         0.00000E+00
         0.00000E+00
         0.00000E+00
         0.00000E+00
         0.00000E+00
         0.00000E+00
         0.00000E+00
         0.00000E+00
         0.00000E+00
         0.00000E+00
         0.00000E+00
         0.00000E+00
         0.00000E+00
         0.00000E+00
         0.00000E+00
         0.00000E+00
         0.00000E+00
         0.00000E+00
         0.00000E+00
         0.00000E+00
         0.00000E+00
         0.00000E+00
         0.00000E+00
         0.00000E+00
         0.00000E+00
         0.00000E+00
         0.00000E+00
         0.00000E+00
         0.00000E+00
         0.00000E+00
         0.00000E+00
         0.00000E+00
         0.00000E+00
         0.00000E+00
         0.00000E+00
         0.00000E+00
         0.00000E+00
         0.00000E+00
         0.00000E+00
         0.00000E+00
         0.00000E+00
         0.00000E+00
         0.00000E+00
         0.00000E+00
         0.00000E+00
         0.00000E+00
         0.00000E+00
         0.00000E+00
         0.00000E+00
         0.00000E+00
         0.00000E+00
         0.00000E+00
         0.00000E+00
         0.00000E+00
         0.00000E+00
         0.00000E+00
         0.00000E+00
         0.00000E+00
         0.00000E+00
         0.00000E+00
         0.00000E+00
         0.00000E+00
         0.00000E+00
         0.00000E+00
         0.00000E+00
         0.00000E+00
         0.00000E+00
         0.00000E+00
         0.00000E+00
         0.00000E+00
         0.00000E+00
         0.00000E+00
         0.00000E+00
         0.00000E+00
         0.00000E+00
         0.00000E+00
         0.00000E+00
         0.00000E+00
         0.00000E+00
         0.00000E+00
         0.00000E+00
         0.00000E+00
         0.00000E+00
         0.00000E+00
         0.00000E+00
         0.00000E+00
         0.00000E+00
         0.00000E+00
         0.00000E+00
         0.00000E+00
         0.00000E+00
         0.00000E+00
         0.00000E+00
         0.00000E+00
         0.00000E+00
         0.00000E+00
         0.00000E+00
         0.00000E+00
         0.00000E+00
         0.00000E+00
         0.00000E+00
         0.00000E+00
         0.00000E+00
         0.00000E+00
         0.00000E+00
         0.00000E+00
         0.00000E+00
         0.00000E+00
         0.00000E+00
         0.00000E+00
         0.00000E+00
         0.00000E+00
         0.00000E+00
         0.00000E+00
         0.00000E+00
         0.00000E+00
         0.00000E+00
         0.00000E+00
         0.00000E+00
         0.00000E+00
         0.00000E+00
         0.00000E+00
         0.00000E+00
         0.00000E+00
         0.00000E+00
         0.00000E+00
         0.00000E+00
         0.00000E+00
         0.00000E+00
         0.00000E+00
         0.00000E+00
         0.00000E+00
         0.00000E+00
         0.00000E+00
         0.00000E+00
         0.00000E+00
         0.00000E+00
         0.00000E+00
         0.00000E+00
         0.00000E+00
         0.00000E+00
         0.00000E+00
         0.00000E+00
         0.00000E+00
         0.00000E+00
         0.00000E+00
         0.00000E+00
         0.00000E+00
         0.00000E+00
         0.00000E+00
         0.00000E+00
         0.00000E+00
         0.00000E+00
         0.00000E+00
         0.00000E+00
         0.00000E+00
         0.00000E+00
         0.00000E+00
         0.00000E+00
         0.00000E+00
         0.00000E+00
         0.00000E+00
         0.00000E+00
         0.00000E+00
         0.00000E+00
         0.00000E+00
         0.00000E+00
         0.00000E+00
         0.00000E+00
         0.00000E+00
         0.00000E+00
         0.00000E+00
         0.00000E+00
         0.00000E+00
         0.00000E+00
         0.00000E+00
         0.00000E+00
         0.00000E+00
         0.00000E+00
         0.00000E+00
         0.00000E+00
         0.00000E+00
         0.00000E+00
         0.00000E+00
         0.00000E+00
         0.00000E+00
         0.00000E+00
         0.00000E+00
         0.00000E+00
         0.00000E+00
         0.00000E+00
         0.00000E+00
         0.00000E+00
         0.00000E+00
         0.00000E+00
         0.00000E+00
         0.00000E+00
         0.00000E+00
         0.00000E+00
         0.00000E+00
         0.00000E+00
         0.00000E+00
         0.00000E+00
         0.00000E+00
         0.00000E+00
         0.00000E+00
         0.00000E+00
         0.00000E+00
         0.00000E+00
         0.00000E+00
         0.00000E+00
         0.00000E+00
         0.00000E+00
         0.00000E+00
         0.00000E+00
         0.00000E+00
         0.00000E+00
         0.00000E+00
         0.00000E+00
         0.00000E+00
         0.00000E+00
         0.00000E+00
         0.00000E+00
         0.00000E+00
         0.00000E+00
         0.00000E+00
         0.00000E+00
         0.00000E+00
         0.00000E+00
         0.00000E+00
         0.00000E+00
         0.00000E+00
         0.00000E+00
         0.00000E+00
         0.00000E+00
         0.00000E+00
         0.00000E+00
         0.00000E+00
         0.00000E+00
         0.00000E+00
         0.00000E+00
         0.00000E+00
         0.00000E+00
         0.00000E+00
         0.00000E+00
         0.00000E+00
         0.00000E+00
         0.00000E+00
         0.00000E+00
         0.00000E+00
         0.00000E+00
         0.00000E+00
         0.00000E+00
         0.00000E+00
         0.00000E+00
         0.00000E+00
         0.00000E+00
         0.00000E+00
         0.00000E+00
         0.00000E+00
         0.00000E+00
         0.00000E+00
         0.00000E+00
         0.00000E+00
         0.00000E+00
         0.00000E+00
         0.00000E+00
         0.00000E+00
         0.00000E+00
         0.00000E+00
         0.00000E+00
         0.00000E+00
         0.00000E+00
         0.00000E+00
         0.00000E+00
         0.00000E+00
         0.00000E+00
         0.00000E+00
         0.00000E+00
         0.00000E+00
         0.00000E+00
         0.00000E+00
         0.00000E+00
         0.00000E+00
         0.00000E+00
         0.00000E+00
         0.00000E+00
         0.00000E+00
         0.00000E+00
         0.00000E+00
         0.00000E+00
         0.00000E+00
         0.00000E+00
         0.00000E+00
         0.00000E+00
         0.00000E+00
         0.00000E+00
         0.00000E+00
         0.00000E+00
         0.00000E+00
         0.00000E+00
         0.00000E+00
         0.00000E+00
         0.00000E+00
         0.00000E+00
         0.00000E+00
         0.00000E+00
         0.00000E+00
         0.00000E+00
         0.00000E+00
         0.00000E+00
         0.00000E+00
         0.00000E+00
         0.00000E+00
         0.00000E+00
         0.00000E+00
         0.00000E+00
         0.00000E+00
         0.00000E+00
         0.00000E+00
         0.00000E+00
         0.00000E+00
         0.00000E+00
         0.00000E+00
         0.00000E+00
         0.00000E+00
         0.00000E+00
         0.00000E+00
         0.00000E+00
         0.00000E+00
         0.00000E+00
         0.00000E+00
         0.00000E+00
         0.00000E+00
         0.00000E+00
         0.00000E+00
         0.00000E+00
         0.00000E+00
         0.00000E+00
         0.00000E+00
         0.00000E+00
         0.00000E+00
         0.00000E+00
         0.00000E+00
         0.00000E+00
         0.00000E+00
         0.00000E+00
         0.00000E+00
         0.00000E+00
         0.00000E+00
         0.00000E+00
         0.00000E+00
         0.00000E+00
         0.00000E+00
         0.00000E+00
         0.00000E+00
         0.00000E+00
         0.00000E+00
         0.00000E+00
         0.00000E+00
         0.00000E+00
         0.00000E+00
         0.00000E+00
         0.00000E+00
         0.00000E+00
         0.00000E+00
         0.00000E+00
         0.00000E+00
         0.00000E+00
         0.00000E+00
         0.00000E+00
         0.00000E+00
         0.00000E+00
         0.00000E+00
         0.00000E+00
         0.00000E+00
         0.00000E+00
         0.00000E+00
         0.00000E+00
         0.00000E+00
         0.00000E+00
         0.00000E+00
         0.00000E+00
         0.00000E+00
         0.00000E+00
         0.00000E+00
         0.00000E+00
         0.00000E+00
         0.00000E+00
         0.00000E+00
         0.00000E+00
         0.00000E+00
         0.00000E+00
         0.00000E+00
         0.00000E+00
         0.00000E+00
         0.00000E+00
         0.00000E+00
         0.00000E+00
         0.00000E+00
         0.00000E+00
         0.00000E+00
         0.00000E+00
         0.00000E+00
         0.00000E+00
         0.00000E+00
         0.00000E+00
         0.00000E+00
         0.00000E+00
         0.00000E+00
         0.00000E+00
         0.00000E+00
         0.00000E+00
         0.00000E+00
         0.00000E+00
         0.00000E+00
         0.00000E+00
         0.00000E+00
         0.00000E+00
         0.00000E+00
         0.00000E+00
         0.00000E+00
         0.00000E+00
         0.00000E+00
         0.00000E+00
         0.00000E+00
         0.00000E+00
         0.00000E+00
         0.00000E+00
         0.00000E+00
         0.00000E+00
         0.00000E+00
         0.00000E+00
         0.00000E+00
         0.00000E+00
         0.00000E+00
         0.00000E+00
         0.00000E+00
         0.00000E+00
         0.00000E+00
         0.00000E+00
         0.00000E+00
         0.00000E+00
         0.00000E+00
         0.00000E+00
         0.00000E+00
         0.00000E+00
         0.00000E+00
         0.00000E+00
         0.00000E+00
         0.00000E+00
         0.00000E+00
         0.00000E+00
         0.00000E+00
         0.00000E+00
         0.00000E+00
         0.00000E+00
         0.00000E+00
         0.00000E+00
         0.00000E+00
         0.00000E+00
         0.00000E+00
         0.00000E+00
         0.00000E+00
         0.00000E+00
         0.00000E+00
         0.00000E+00
         0.00000E+00
         0.00000E+00
         0.00000E+00
         0.00000E+00
         0.00000E+00
         0.00000E+00
         0.00000E+00
         0.00000E+00
         0.00000E+00
         0.00000E+00
         0.00000E+00
         0.00000E+00
         0.00000E+00
         0.00000E+00
         0.00000E+00
         0.00000E+00
         0.00000E+00
         0.00000E+00
         0.00000E+00
         0.00000E+00
         0.00000E+00
         0.00000E+00
         0.00000E+00
         0.00000E+00
         0.00000E+00
         0.00000E+00
         0.00000E+00
         0.00000E+00
         0.00000E+00
         0.00000E+00
         0.00000E+00
         0.00000E+00
         0.00000E+00
         0.00000E+00
         0.00000E+00
         0.00000E+00
         0.00000E+00
         0.00000E+00
         0.00000E+00
         0.00000E+00
         0.00000E+00
         0.00000E+00
         0.00000E+00
         0.00000E+00
         0.00000E+00
         0.00000E+00
         0.00000E+00
         0.00000E+00
         0.00000E+00
         0.00000E+00
         0.00000E+00
         0.00000E+00
         0.00000E+00
         0.00000E+00
         0.00000E+00
         0.00000E+00
         0.00000E+00
         0.00000E+00
         0.00000E+00
         0.00000E+00
         0.00000E+00
         0.00000E+00
         0.00000E+00
         0.00000E+00
         0.00000E+00
         0.00000E+00
         0.00000E+00
         0.00000E+00
         0.00000E+00
         0.00000E+00
         0.00000E+00
         0.00000E+00
         0.00000E+00
         0.00000E+00
         0.00000E+00
         0.00000E+00
         0.00000E+00
         0.00000E+00
         0.00000E+00
         0.00000E+00
         0.00000E+00
         0.00000E+00
         0.00000E+00
         0.00000E+00
         0.00000E+00
         0.00000E+00
         0.00000E+00
         0.00000E+00
         0.00000E+00
         0.00000E+00
         0.00000E+00
         0.00000E+00
         0.00000E+00
         0.00000E+00
         0.00000E+00
         0.00000E+00
         0.00000E+00
         0.00000E+00
         0.00000E+00
         0.00000E+00
         0.00000E+00
         0.00000E+00
         0.00000E+00
         0.00000E+00
         0.00000E+00
         0.00000E+00
         0.00000E+00
         0.00000E+00
         0.00000E+00
         0.00000E+00
         0.00000E+00
         0.00000E+00
         0.00000E+00
         0.00000E+00
         0.00000E+00
         0.00000E+00
         0.00000E+00
         0.00000E+00
         0.00000E+00
         0.00000E+00
         0.00000E+00
         0.00000E+00
         0.00000E+00
         0.00000E+00
         0.00000E+00
         0.00000E+00
         0.00000E+00
         0.00000E+00
         0.00000E+00
         0.00000E+00
         0.00000E+00
         0.00000E+00
         0.00000E+00
         0.00000E+00
         0.00000E+00
         0.00000E+00
         0.00000E+00
         0.00000E+00
         0.00000E+00
         0.00000E+00
         0.00000E+00
         0.00000E+00
         0.00000E+00
         0.00000E+00
         0.00000E+00
         0.00000E+00
         0.00000E+00
         0.00000E+00
         0.00000E+00
         0.00000E+00
         0.00000E+00
         0.00000E+00
         0.00000E+00
         0.00000E+00
         0.00000E+00
         0.00000E+00
         0.00000E+00
         0.00000E+00
         0.00000E+00
         0.00000E+00
         0.00000E+00
         0.00000E+00
         0.00000E+00
  
SCALARS                     velocity_y  double 1
LOOKUP_TABLE default
         0.00000E+00
         0.00000E+00
         0.00000E+00
         0.00000E+00
         0.00000E+00
         0.00000E+00
         0.00000E+00
         0.00000E+00
         0.00000E+00
         0.00000E+00
         0.00000E+00
         0.00000E+00
         0.00000E+00
         0.00000E+00
         0.00000E+00
         0.00000E+00
         0.00000E+00
         0.00000E+00
         0.00000E+00
         0.00000E+00
         0.00000E+00
         0.00000E+00
         0.00000E+00
         0.00000E+00
         0.00000E+00
         0.00000E+00
         0.00000E+00
         0.00000E+00
         0.00000E+00
         0.00000E+00
         0.00000E+00
         0.00000E+00
         0.00000E+00
         0.00000E+00
         0.00000E+00
         0.00000E+00
         0.00000E+00
         0.00000E+00
         0.00000E+00
         0.00000E+00
         0.00000E+00
         0.00000E+00
         0.00000E+00
         0.00000E+00
         0.00000E+00
         0.00000E+00
         0.00000E+00
         0.00000E+00
         0.00000E+00
         0.00000E+00
         0.00000E+00
         0.00000E+00
         0.00000E+00
         0.00000E+00
         0.00000E+00
         0.00000E+00
         0.00000E+00
         0.00000E+00
         0.00000E+00
         0.00000E+00
         0.00000E+00
         0.00000E+00
         0.00000E+00
         0.00000E+00
         0.00000E+00
         0.00000E+00
         0.00000E+00
         0.00000E+00
         0.00000E+00
         0.00000E+00
         0.00000E+00
         0.00000E+00
         0.00000E+00
         0.00000E+00
         0.00000E+00
         0.00000E+00
         0.00000E+00
         0.00000E+00
         0.00000E+00
         0.00000E+00
         0.00000E+00
         0.00000E+00
         0.00000E+00
         0.00000E+00
         0.00000E+00
         0.00000E+00
         0.00000E+00
         0.00000E+00
         0.00000E+00
         0.00000E+00
         0.00000E+00
         0.00000E+00
         0.00000E+00
         0.00000E+00
         0.00000E+00
         0.00000E+00
         0.00000E+00
         0.00000E+00
         0.00000E+00
         0.00000E+00
         0.00000E+00
         0.00000E+00
         0.00000E+00
         0.00000E+00
         0.00000E+00
         0.00000E+00
         0.00000E+00
         0.00000E+00
         0.00000E+00
         0.00000E+00
         0.00000E+00
         0.00000E+00
         0.00000E+00
         0.00000E+00
         0.00000E+00
         0.00000E+00
         0.00000E+00
         0.00000E+00
         0.00000E+00
         0.00000E+00
         0.00000E+00
         0.00000E+00
         0.00000E+00
         0.00000E+00
         0.00000E+00
         0.00000E+00
         0.00000E+00
         0.00000E+00
         0.00000E+00
         0.00000E+00
         0.00000E+00
         0.00000E+00
         0.00000E+00
         0.00000E+00
         0.00000E+00
         0.00000E+00
         0.00000E+00
         0.00000E+00
         0.00000E+00
         0.00000E+00
         0.00000E+00
         0.00000E+00
         0.00000E+00
         0.00000E+00
         0.00000E+00
         0.00000E+00
         0.00000E+00
         0.00000E+00
         0.00000E+00
         0.00000E+00
         0.00000E+00
         0.00000E+00
         0.00000E+00
         0.00000E+00
         0.00000E+00
         0.00000E+00
         0.00000E+00
         0.00000E+00
         0.00000E+00
         0.00000E+00
         0.00000E+00
         0.00000E+00
         0.00000E+00
         0.00000E+00
         0.00000E+00
         0.00000E+00
         0.00000E+00
         0.00000E+00
         0.00000E+00
         0.00000E+00
         0.00000E+00
         0.00000E+00
         0.00000E+00
         0.00000E+00
         0.00000E+00
         0.00000E+00
         0.00000E+00
         0.00000E+00
         0.00000E+00
         0.00000E+00
         0.00000E+00
         0.00000E+00
         0.00000E+00
         0.00000E+00
         0.00000E+00
         0.00000E+00
         0.00000E+00
         0.00000E+00
         0.00000E+00
         0.00000E+00
         0.00000E+00
         0.00000E+00
         0.00000E+00
         0.00000E+00
         0.00000E+00
         0.00000E+00
         0.00000E+00
         0.00000E+00
         0.00000E+00
         0.00000E+00
         0.00000E+00
         0.00000E+00
         0.00000E+00
         0.00000E+00
         0.00000E+00
         0.00000E+00
         0.00000E+00
         0.00000E+00
         0.00000E+00
         0.00000E+00
         0.00000E+00
         0.00000E+00
         0.00000E+00
         0.00000E+00
         0.00000E+00
         0.00000E+00
         0.00000E+00
         0.00000E+00
         0.00000E+00
         0.00000E+00
         0.00000E+00
         0.00000E+00
         0.00000E+00
         0.00000E+00
         0.00000E+00
         0.00000E+00
         0.00000E+00
         0.00000E+00
         0.00000E+00
         0.00000E+00
         0.00000E+00
         0.00000E+00
         0.00000E+00
         0.00000E+00
         0.00000E+00
         0.00000E+00
         0.00000E+00
         0.00000E+00
         0.00000E+00
         0.00000E+00
         0.00000E+00
         0.00000E+00
         0.00000E+00
         0.00000E+00
         0.00000E+00
         0.00000E+00
         0.00000E+00
         0.00000E+00
         0.00000E+00
         0.00000E+00
         0.00000E+00
         0.00000E+00
         0.00000E+00
         0.00000E+00
         0.00000E+00
         0.00000E+00
         0.00000E+00
         0.00000E+00
         0.00000E+00
         0.00000E+00
         0.00000E+00
         0.00000E+00
         0.00000E+00
         0.00000E+00
         0.00000E+00
         0.00000E+00
         0.00000E+00
         0.00000E+00
         0.00000E+00
         0.00000E+00
         0.00000E+00
         0.00000E+00
         0.00000E+00
         0.00000E+00
         0.00000E+00
         0.00000E+00
         0.00000E+00
         0.00000E+00
         0.00000E+00
         0.00000E+00
         0.00000E+00
         0.00000E+00
         0.00000E+00
         0.00000E+00
         0.00000E+00
         0.00000E+00
         0.00000E+00
         0.00000E+00
         0.00000E+00
         0.00000E+00
         0.00000E+00
         0.00000E+00
         0.00000E+00
         0.00000E+00
         0.00000E+00
         0.00000E+00
         0.00000E+00
         0.00000E+00
         0.00000E+00
         0.00000E+00
         0.00000E+00
         0.00000E+00
         0.00000E+00
         0.00000E+00
         0.00000E+00
         0.00000E+00
         0.00000E+00
         0.00000E+00
         0.00000E+00
         0.00000E+00
         0.00000E+00
         0.00000E+00
         0.00000E+00
         0.00000E+00
         0.00000E+00
         0.00000E+00
         0.00000E+00
         0.00000E+00
         0.00000E+00
         0.00000E+00
         0.00000E+00
         0.00000E+00
         0.00000E+00
         0.00000E+00
         0.00000E+00
         0.00000E+00
         0.00000E+00
         0.00000E+00
         0.00000E+00
         0.00000E+00
         0.00000E+00
         0.00000E+00
         0.00000E+00
         0.00000E+00
         0.00000E+00
         0.00000E+00
         0.00000E+00
         0.00000E+00
         0.00000E+00
         0.00000E+00
         0.00000E+00
         0.00000E+00
         0.00000E+00
         0.00000E+00
         0.00000E+00
         0.00000E+00
         0.00000E+00
         0.00000E+00
         0.00000E+00
         0.00000E+00
         0.00000E+00
         0.00000E+00
         0.00000E+00
         0.00000E+00
         0.00000E+00
         0.00000E+00
         0.00000E+00
         0.00000E+00
         0.00000E+00
         0.00000E+00
         0.00000E+00
         0.00000E+00
         0.00000E+00
         0.00000E+00
         0.00000E+00
         0.00000E+00
         0.00000E+00
         0.00000E+00
         0.00000E+00
         0.00000E+00
         0.00000E+00
         0.00000E+00
         0.00000E+00
         0.00000E+00
         0.00000E+00
         0.00000E+00
         0.00000E+00
         0.00000E+00
         0.00000E+00
         0.00000E+00
         0.00000E+00
         0.00000E+00
         0.00000E+00
         0.00000E+00
         0.00000E+00
         0.00000E+00
         0.00000E+00
         0.00000E+00
         0.00000E+00
         0.00000E+00
         0.00000E+00
         0.00000E+00
         0.00000E+00
         0.00000E+00
         0.00000E+00
         0.00000E+00
         0.00000E+00
         0.00000E+00
         0.00000E+00
         0.00000E+00
         0.00000E+00
         0.00000E+00
         0.00000E+00
         0.00000E+00
         0.00000E+00
         0.00000E+00
         0.00000E+00
         0.00000E+00
         0.00000E+00
         0.00000E+00
         0.00000E+00
         0.00000E+00
         0.00000E+00
         0.00000E+00
         0.00000E+00
         0.00000E+00
         0.00000E+00
         0.00000E+00
         0.00000E+00
         0.00000E+00
         0.00000E+00
         0.00000E+00
         0.00000E+00
         0.00000E+00
         0.00000E+00
         0.00000E+00
         0.00000E+00
         0.00000E+00
         0.00000E+00
         0.00000E+00
         0.00000E+00
         0.00000E+00
         0.00000E+00
         0.00000E+00
         0.00000E+00
         0.00000E+00
         0.00000E+00
         0.00000E+00
         0.00000E+00
         0.00000E+00
         0.00000E+00
         0.00000E+00
         0.00000E+00
         0.00000E+00
         0.00000E+00
         0.00000E+00
         0.00000E+00
         0.00000E+00
         0.00000E+00
         0.00000E+00
         0.00000E+00
         0.00000E+00
         0.00000E+00
         0.00000E+00
         0.00000E+00
         0.00000E+00
         0.00000E+00
         0.00000E+00
         0.00000E+00
         0.00000E+00
         0.00000E+00
         0.00000E+00
         0.00000E+00
         0.00000E+00
         0.00000E+00
         0.00000E+00
         0.00000E+00
         0.00000E+00
         0.00000E+00
         0.00000E+00
         0.00000E+00
         0.00000E+00
         0.00000E+00
         0.00000E+00
         0.00000E+00
         0.00000E+00
         0.00000E+00
         0.00000E+00
         0.00000E+00
         0.00000E+00
         0.00000E+00
         0.00000E+00
         0.00000E+00
         0.00000E+00
         0.00000E+00
         0.00000E+00
         0.00000E+00
         0.00000E+00
         0.00000E+00
         0.00000E+00
         0.00000E+00
         0.00000E+00
         0.00000E+00
         0.00000E+00
         0.00000E+00
         0.00000E+00
         0.00000E+00
         0.00000E+00
         0.00000E+00
         0.00000E+00
         0.00000E+00
         0.00000E+00
         0.00000E+00
         0.00000E+00
         0.00000E+00
         0.00000E+00
         0.00000E+00
         0.00000E+00
         0.00000E+00
         0.00000E+00
         0.00000E+00
         0.00000E+00
         0.00000E+00
         0.00000E+00
         0.00000E+00
         0.00000E+00
         0.00000E+00
         0.00000E+00
         0.00000E+00
         0.00000E+00
         0.00000E+00
         0.00000E+00
         0.00000E+00
         0.00000E+00
         0.00000E+00
         0.00000E+00
         0.00000E+00
         0.00000E+00
         0.00000E+00
         0.00000E+00
         0.00000E+00
         0.00000E+00
         0.00000E+00
         0.00000E+00
         0.00000E+00
         0.00000E+00
         0.00000E+00
         0.00000E+00
         0.00000E+00
         0.00000E+00
         0.00000E+00
         0.00000E+00
         0.00000E+00
         0.00000E+00
         0.00000E+00
         0.00000E+00
         0.00000E+00
         0.00000E+00
         0.00000E+00
         0.00000E+00
         0.00000E+00
         0.00000E+00
         0.00000E+00
         0.00000E+00
         0.00000E+00
         0.00000E+00
         0.00000E+00
         0.00000E+00
         0.00000E+00
         0.00000E+00
         0.00000E+00
         0.00000E+00
         0.00000E+00
         0.00000E+00
         0.00000E+00
         0.00000E+00
         0.00000E+00
         0.00000E+00
         0.00000E+00
         0.00000E+00
         0.00000E+00
         0.00000E+00
         0.00000E+00
         0.00000E+00
         0.00000E+00
         0.00000E+00
         0.00000E+00
         0.00000E+00
         0.00000E+00
         0.00000E+00
         0.00000E+00
         0.00000E+00
         0.00000E+00
         0.00000E+00
         0.00000E+00
         0.00000E+00
         0.00000E+00
         0.00000E+00
         0.00000E+00
         0.00000E+00
         0.00000E+00
         0.00000E+00
         0.00000E+00
         0.00000E+00
         0.00000E+00
         0.00000E+00
         0.00000E+00
         0.00000E+00
         0.00000E+00
         0.00000E+00
         0.00000E+00
         0.00000E+00
         0.00000E+00
         0.00000E+00
         0.00000E+00
         0.00000E+00
         0.00000E+00
         0.00000E+00
         0.00000E+00
         0.00000E+00
         0.00000E+00
         0.00000E+00
         0.00000E+00
         0.00000E+00
         0.00000E+00
         0.00000E+00
         0.00000E+00
         0.00000E+00
         0.00000E+00
         0.00000E+00
         0.00000E+00
         0.00000E+00
         0.00000E+00
         0.00000E+00
         0.00000E+00
         0.00000E+00
         0.00000E+00
         0.00000E+00
         0.00000E+00
         0.00000E+00
         0.00000E+00
         0.00000E+00
         0.00000E+00
         0.00000E+00
         0.00000E+00
         0.00000E+00
         0.00000E+00
         0.00000E+00
         0.00000E+00
         0.00000E+00
         0.00000E+00
         0.00000E+00
         0.00000E+00
         0.00000E+00
         0.00000E+00
         0.00000E+00
         0.00000E+00
         0.00000E+00
         0.00000E+00
         0.00000E+00
         0.00000E+00
         0.00000E+00
         0.00000E+00
         0.00000E+00
         0.00000E+00
         0.00000E+00
         0.00000E+00
         0.00000E+00
         0.00000E+00
         0.00000E+00
         0.00000E+00
         0.00000E+00
         0.00000E+00
         0.00000E+00
         0.00000E+00
         0.00000E+00
         0.00000E+00
         0.00000E+00
         0.00000E+00
         0.00000E+00
         0.00000E+00
         0.00000E+00
         0.00000E+00
         0.00000E+00
         0.00000E+00
         0.00000E+00
         0.00000E+00
         0.00000E+00
         0.00000E+00
         0.00000E+00
         0.00000E+00
         0.00000E+00
         0.00000E+00
         0.00000E+00
         0.00000E+00
         0.00000E+00
         0.00000E+00
         0.00000E+00
         0.00000E+00
         0.00000E+00
         0.00000E+00
         0.00000E+00
         0.00000E+00
         0.00000E+00
         0.00000E+00
         0.00000E+00
         0.00000E+00
         0.00000E+00
         0.00000E+00
         0.00000E+00
         0.00000E+00
         0.00000E+00
         0.00000E+00
         0.00000E+00
         0.00000E+00
         0.00000E+00
         0.00000E+00
         0.00000E+00
         0.00000E+00
         0.00000E+00
         0.00000E+00
         0.00000E+00
         0.00000E+00
         0.00000E+00
         0.00000E+00
         0.00000E+00
         0.00000E+00
         0.00000E+00
         0.00000E+00
         0.00000E+00
         0.00000E+00
         0.00000E+00
         0.00000E+00
         0.00000E+00
         0.00000E+00
         0.00000E+00
         0.00000E+00
         0.00000E+00
         0.00000E+00
         0.00000E+00
         0.00000E+00
         0.00000E+00
         0.00000E+00
         0.00000E+00
         0.00000E+00
         0.00000E+00
         0.00000E+00
         0.00000E+00
         0.00000E+00
         0.00000E+00
         0.00000E+00
         0.00000E+00
         0.00000E+00
         0.00000E+00
         0.00000E+00
         0.00000E+00
         0.00000E+00
         0.00000E+00
         0.00000E+00
         0.00000E+00
         0.00000E+00
         0.00000E+00
         0.00000E+00
         0.00000E+00
         0.00000E+00
         0.00000E+00
         0.00000E+00
         0.00000E+00
         0.00000E+00
         0.00000E+00
         0.00000E+00
         0.00000E+00
         0.00000E+00
         0.00000E+00
         0.00000E+00
         0.00000E+00
         0.00000E+00
         0.00000E+00
         0.00000E+00
         0.00000E+00
         0.00000E+00
         0.00000E+00
         0.00000E+00
         0.00000E+00
         0.00000E+00
         0.00000E+00
         0.00000E+00
         0.00000E+00
         0.00000E+00
         0.00000E+00
         0.00000E+00
         0.00000E+00
         0.00000E+00
         0.00000E+00
         0.00000E+00
         0.00000E+00
         0.00000E+00
         0.00000E+00
         0.00000E+00
         0.00000E+00
         0.00000E+00
         0.00000E+00
         0.00000E+00
         0.00000E+00
         0.00000E+00
         0.00000E+00
         0.00000E+00
         0.00000E+00
         0.00000E+00
         0.00000E+00
         0.00000E+00
         0.00000E+00
         0.00000E+00
         0.00000E+00
         0.00000E+00
         0.00000E+00
         0.00000E+00
         0.00000E+00
         0.00000E+00
         0.00000E+00
         0.00000E+00
         0.00000E+00
         0.00000E+00
         0.00000E+00
         0.00000E+00
         0.00000E+00
         0.00000E+00
         0.00000E+00
         0.00000E+00
         0.00000E+00
         0.00000E+00
         0.00000E+00
         0.00000E+00
         0.00000E+00
         0.00000E+00
         0.00000E+00
         0.00000E+00
         0.00000E+00
         0.00000E+00
         0.00000E+00
         0.00000E+00
         0.00000E+00
         0.00000E+00
         0.00000E+00
         0.00000E+00
         0.00000E+00
         0.00000E+00
         0.00000E+00
         0.00000E+00
         0.00000E+00
         0.00000E+00
         0.00000E+00
         0.00000E+00
         0.00000E+00
         0.00000E+00
         0.00000E+00
         0.00000E+00
         0.00000E+00
         0.00000E+00
         0.00000E+00
         0.00000E+00
         0.00000E+00
         0.00000E+00
         0.00000E+00
         0.00000E+00
         0.00000E+00
         0.00000E+00
         0.00000E+00
         0.00000E+00
         0.00000E+00
         0.00000E+00
         0.00000E+00
         0.00000E+00
         0.00000E+00
         0.00000E+00
         0.00000E+00
         0.00000E+00
         0.00000E+00
         0.00000E+00
         0.00000E+00
         0.00000E+00
         0.00000E+00
         0.00000E+00
         0.00000E+00
         0.00000E+00
         0.00000E+00
         0.00000E+00
         0.00000E+00
         0.00000E+00
         0.00000E+00
         0.00000E+00
         0.00000E+00
         0.00000E+00
         0.00000E+00
         0.00000E+00
         0.00000E+00
         0.00000E+00
         0.00000E+00
         0.00000E+00
         0.00000E+00
         0.00000E+00
         0.00000E+00
         0.00000E+00
         0.00000E+00
         0.00000E+00
         0.00000E+00
         0.00000E+00
         0.00000E+00
         0.00000E+00
         0.00000E+00
         0.00000E+00
         0.00000E+00
         0.00000E+00
         0.00000E+00
         0.00000E+00
         0.00000E+00
         0.00000E+00
         0.00000E+00
         0.00000E+00
         0.00000E+00
         0.00000E+00
         0.00000E+00
         0.00000E+00
         0.00000E+00
         0.00000E+00
         0.00000E+00
         0.00000E+00
         0.00000E+00
         0.00000E+00
         0.00000E+00
         0.00000E+00
         0.00000E+00
         0.00000E+00
         0.00000E+00
         0.00000E+00
         0.00000E+00
         0.00000E+00
         0.00000E+00
         0.00000E+00
         0.00000E+00
         0.00000E+00
         0.00000E+00
         0.00000E+00
         0.00000E+00
         0.00000E+00
         0.00000E+00
         0.00000E+00
         0.00000E+00
         0.00000E+00
         0.00000E+00
         0.00000E+00
         0.00000E+00
         0.00000E+00
         0.00000E+00
         0.00000E+00
         0.00000E+00
         0.00000E+00
         0.00000E+00
         0.00000E+00
         0.00000E+00
         0.00000E+00
         0.00000E+00
         0.00000E+00
         0.00000E+00
         0.00000E+00
         0.00000E+00
         0.00000E+00
         0.00000E+00
         0.00000E+00
         0.00000E+00
         0.00000E+00
         0.00000E+00
         0.00000E+00
         0.00000E+00
         0.00000E+00
         0.00000E+00
         0.00000E+00
         0.00000E+00
         0.00000E+00
         0.00000E+00
         0.00000E+00
         0.00000E+00
         0.00000E+00
         0.00000E+00
         0.00000E+00
         0.00000E+00
         0.00000E+00
         0.00000E+00
         0.00000E+00
         0.00000E+00
         0.00000E+00
         0.00000E+00
         0.00000E+00
         0.00000E+00
         0.00000E+00
         0.00000E+00
         0.00000E+00
         0.00000E+00
         0.00000E+00
         0.00000E+00
         0.00000E+00
         0.00000E+00
         0.00000E+00
         0.00000E+00
         0.00000E+00
         0.00000E+00
         0.00000E+00
         0.00000E+00
         0.00000E+00
         0.00000E+00
         0.00000E+00
         0.00000E+00
         0.00000E+00
         0.00000E+00
         0.00000E+00
         0.00000E+00
         0.00000E+00
         0.00000E+00
         0.00000E+00
         0.00000E+00
         0.00000E+00
         0.00000E+00
         0.00000E+00
         0.00000E+00
         0.00000E+00
         0.00000E+00
         0.00000E+00
         0.00000E+00
         0.00000E+00
         0.00000E+00
         0.00000E+00
         0.00000E+00
         0.00000E+00
         0.00000E+00
         0.00000E+00
         0.00000E+00
         0.00000E+00
         0.00000E+00
         0.00000E+00
         0.00000E+00
         0.00000E+00
         0.00000E+00
         0.00000E+00
         0.00000E+00
         0.00000E+00
         0.00000E+00
         0.00000E+00
         0.00000E+00
         0.00000E+00
         0.00000E+00
         0.00000E+00
         0.00000E+00
         0.00000E+00
         0.00000E+00
         0.00000E+00
         0.00000E+00
         0.00000E+00
         0.00000E+00
         0.00000E+00
         0.00000E+00
         0.00000E+00
         0.00000E+00
         0.00000E+00
         0.00000E+00
         0.00000E+00
         0.00000E+00
         0.00000E+00
         0.00000E+00
         0.00000E+00
         0.00000E+00
         0.00000E+00
         0.00000E+00
         0.00000E+00
         0.00000E+00
         0.00000E+00
         0.00000E+00
         0.00000E+00
         0.00000E+00
         0.00000E+00
         0.00000E+00
         0.00000E+00
         0.00000E+00
         0.00000E+00
         0.00000E+00
         0.00000E+00
         0.00000E+00
         0.00000E+00
         0.00000E+00
         0.00000E+00
         0.00000E+00
         0.00000E+00
         0.00000E+00
         0.00000E+00
         0.00000E+00
         0.00000E+00
         0.00000E+00
         0.00000E+00
         0.00000E+00
         0.00000E+00
         0.00000E+00
         0.00000E+00
         0.00000E+00
         0.00000E+00
         0.00000E+00
         0.00000E+00
         0.00000E+00
         0.00000E+00
         0.00000E+00
         0.00000E+00
         0.00000E+00
         0.00000E+00
         0.00000E+00
         0.00000E+00
         0.00000E+00
         0.00000E+00
         0.00000E+00
         0.00000E+00
         0.00000E+00
         0.00000E+00
         0.00000E+00
         0.00000E+00
         0.00000E+00
         0.00000E+00
         0.00000E+00
         0.00000E+00
         0.00000E+00
         0.00000E+00
         0.00000E+00
         0.00000E+00
         0.00000E+00
         0.00000E+00
         0.00000E+00
         0.00000E+00
         0.00000E+00
         0.00000E+00
         0.00000E+00
         0.00000E+00
         0.00000E+00
         0.00000E+00
         0.00000E+00
         0.00000E+00
         0.00000E+00
         0.00000E+00
         0.00000E+00
         0.00000E+00
         0.00000E+00
         0.00000E+00
         0.00000E+00
         0.00000E+00
         0.00000E+00
         0.00000E+00
         0.00000E+00
         0.00000E+00
         0.00000E+00
         0.00000E+00
         0.00000E+00
         0.00000E+00
         0.00000E+00
         0.00000E+00
         0.00000E+00
         0.00000E+00
         0.00000E+00
         0.00000E+00
         0.00000E+00
         0.00000E+00
         0.00000E+00
         0.00000E+00
         0.00000E+00
         0.00000E+00
         0.00000E+00
         0.00000E+00
         0.00000E+00
         0.00000E+00
         0.00000E+00
         0.00000E+00
         0.00000E+00
         0.00000E+00
         0.00000E+00
         0.00000E+00
         0.00000E+00
         0.00000E+00
         0.00000E+00
         0.00000E+00
         0.00000E+00
         0.00000E+00
         0.00000E+00
         0.00000E+00
         0.00000E+00
         0.00000E+00
         0.00000E+00
         0.00000E+00
         0.00000E+00
         0.00000E+00
         0.00000E+00
         0.00000E+00
         0.00000E+00
         0.00000E+00
         0.00000E+00
         0.00000E+00
         0.00000E+00
         0.00000E+00
         0.00000E+00
         0.00000E+00
         0.00000E+00
         0.00000E+00
         0.00000E+00
         0.00000E+00
         0.00000E+00
         0.00000E+00
         0.00000E+00
         0.00000E+00
         0.00000E+00
         0.00000E+00
         0.00000E+00
         0.00000E+00
         0.00000E+00
         0.00000E+00
         0.00000E+00
         0.00000E+00
         0.00000E+00
         0.00000E+00
         0.00000E+00
         0.00000E+00
         0.00000E+00
         0.00000E+00
         0.00000E+00
         0.00000E+00
         0.00000E+00
         0.00000E+00
         0.00000E+00
         0.00000E+00
         0.00000E+00
         0.00000E+00
         0.00000E+00
         0.00000E+00
         0.00000E+00
         0.00000E+00
         0.00000E+00
         0.00000E+00
         0.00000E+00
         0.00000E+00
         0.00000E+00
         0.00000E+00
         0.00000E+00
         0.00000E+00
         0.00000E+00
         0.00000E+00
         0.00000E+00
         0.00000E+00
         0.00000E+00
         0.00000E+00
         0.00000E+00
         0.00000E+00
         0.00000E+00
         0.00000E+00
         0.00000E+00
         0.00000E+00
         0.00000E+00
         0.00000E+00
         0.00000E+00
         0.00000E+00
         0.00000E+00
         0.00000E+00
         0.00000E+00
         0.00000E+00
         0.00000E+00
         0.00000E+00
         0.00000E+00
         0.00000E+00
         0.00000E+00
         0.00000E+00
         0.00000E+00
         0.00000E+00
         0.00000E+00
         0.00000E+00
         0.00000E+00
         0.00000E+00
         0.00000E+00
         0.00000E+00
         0.00000E+00
         0.00000E+00
         0.00000E+00
         0.00000E+00
         0.00000E+00
         0.00000E+00
         0.00000E+00
         0.00000E+00
         0.00000E+00
         0.00000E+00
         0.00000E+00
         0.00000E+00
         0.00000E+00
         0.00000E+00
         0.00000E+00
         0.00000E+00
         0.00000E+00
         0.00000E+00
         0.00000E+00
         0.00000E+00
         0.00000E+00
         0.00000E+00
         0.00000E+00
         0.00000E+00
         0.00000E+00
         0.00000E+00
         0.00000E+00
         0.00000E+00
         0.00000E+00
         0.00000E+00
         0.00000E+00
         0.00000E+00
         0.00000E+00
         0.00000E+00
         0.00000E+00
         0.00000E+00
         0.00000E+00
         0.00000E+00
         0.00000E+00
         0.00000E+00
         0.00000E+00
         0.00000E+00
         0.00000E+00
         0.00000E+00
         0.00000E+00
         0.00000E+00
         0.00000E+00
         0.00000E+00
         0.00000E+00
         0.00000E+00
         0.00000E+00
         0.00000E+00
         0.00000E+00
         0.00000E+00
         0.00000E+00
         0.00000E+00
         0.00000E+00
         0.00000E+00
         0.00000E+00
         0.00000E+00
         0.00000E+00
         0.00000E+00
         0.00000E+00
         0.00000E+00
         0.00000E+00
         0.00000E+00
         0.00000E+00
         0.00000E+00
         0.00000E+00
         0.00000E+00
         0.00000E+00
         0.00000E+00
         0.00000E+00
         0.00000E+00
         0.00000E+00
         0.00000E+00
         0.00000E+00
         0.00000E+00
         0.00000E+00
         0.00000E+00
         0.00000E+00
         0.00000E+00
         0.00000E+00
         0.00000E+00
         0.00000E+00
         0.00000E+00
         0.00000E+00
         0.00000E+00
         0.00000E+00
         0.00000E+00
         0.00000E+00
         0.00000E+00
         0.00000E+00
         0.00000E+00
         0.00000E+00
         0.00000E+00
         0.00000E+00
         0.00000E+00
         0.00000E+00
         0.00000E+00
         0.00000E+00
         0.00000E+00
         0.00000E+00
         0.00000E+00
         0.00000E+00
         0.00000E+00
         0.00000E+00
         0.00000E+00
         0.00000E+00
         0.00000E+00
         0.00000E+00
         0.00000E+00
         0.00000E+00
         0.00000E+00
         0.00000E+00
         0.00000E+00
         0.00000E+00
         0.00000E+00
         0.00000E+00
         0.00000E+00
         0.00000E+00
         0.00000E+00
         0.00000E+00
         0.00000E+00
         0.00000E+00
         0.00000E+00
         0.00000E+00
         0.00000E+00
         0.00000E+00
         0.00000E+00
         0.00000E+00
         0.00000E+00
         0.00000E+00
         0.00000E+00
         0.00000E+00
         0.00000E+00
         0.00000E+00
         0.00000E+00
         0.00000E+00
         0.00000E+00
         0.00000E+00
         0.00000E+00
         0.00000E+00
         0.00000E+00
         0.00000E+00
         0.00000E+00
         0.00000E+00
         0.00000E+00
         0.00000E+00
         0.00000E+00
         0.00000E+00
         0.00000E+00
         0.00000E+00
         0.00000E+00
         0.00000E+00
         0.00000E+00
         0.00000E+00
         0.00000E+00
         0.00000E+00
         0.00000E+00
         0.00000E+00
         0.00000E+00
         0.00000E+00
         0.00000E+00
         0.00000E+00
         0.00000E+00
         0.00000E+00
         0.00000E+00
         0.00000E+00
         0.00000E+00
         0.00000E+00
         0.00000E+00
         0.00000E+00
         0.00000E+00
         0.00000E+00
         0.00000E+00
         0.00000E+00
         0.00000E+00
         0.00000E+00
         0.00000E+00
         0.00000E+00
         0.00000E+00
         0.00000E+00
         0.00000E+00
         0.00000E+00
         0.00000E+00
         0.00000E+00
         0.00000E+00
         0.00000E+00
         0.00000E+00
         0.00000E+00
         0.00000E+00
         0.00000E+00
         0.00000E+00
         0.00000E+00
         0.00000E+00
         0.00000E+00
         0.00000E+00
         0.00000E+00
         0.00000E+00
         0.00000E+00
         0.00000E+00
         0.00000E+00
         0.00000E+00
         0.00000E+00
         0.00000E+00
         0.00000E+00
         0.00000E+00
         0.00000E+00
         0.00000E+00
         0.00000E+00
         0.00000E+00
         0.00000E+00
         0.00000E+00
         0.00000E+00
         0.00000E+00
         0.00000E+00
         0.00000E+00
         0.00000E+00
         0.00000E+00
         0.00000E+00
         0.00000E+00
         0.00000E+00
         0.00000E+00
         0.00000E+00
         0.00000E+00
         0.00000E+00
         0.00000E+00
         0.00000E+00
         0.00000E+00
         0.00000E+00
         0.00000E+00
         0.00000E+00
         0.00000E+00
         0.00000E+00
         0.00000E+00
         0.00000E+00
         0.00000E+00
         0.00000E+00
         0.00000E+00
         0.00000E+00
         0.00000E+00
         0.00000E+00
         0.00000E+00
         0.00000E+00
         0.00000E+00
         0.00000E+00
         0.00000E+00
         0.00000E+00
         0.00000E+00
         0.00000E+00
         0.00000E+00
         0.00000E+00
         0.00000E+00
         0.00000E+00
         0.00000E+00
         0.00000E+00
         0.00000E+00
         0.00000E+00
         0.00000E+00
         0.00000E+00
         0.00000E+00
         0.00000E+00
         0.00000E+00
         0.00000E+00
         0.00000E+00
         0.00000E+00
         0.00000E+00
         0.00000E+00
         0.00000E+00
         0.00000E+00
         0.00000E+00
         0.00000E+00
         0.00000E+00
         0.00000E+00
         0.00000E+00
         0.00000E+00
         0.00000E+00
         0.00000E+00
         0.00000E+00
         0.00000E+00
         0.00000E+00
         0.00000E+00
         0.00000E+00
         0.00000E+00
         0.00000E+00
         0.00000E+00
         0.00000E+00
         0.00000E+00
         0.00000E+00
         0.00000E+00
         0.00000E+00
         0.00000E+00
         0.00000E+00
         0.00000E+00
         0.00000E+00
         0.00000E+00
         0.00000E+00
         0.00000E+00
         0.00000E+00
         0.00000E+00
         0.00000E+00
         0.00000E+00
         0.00000E+00
         0.00000E+00
         0.00000E+00
         0.00000E+00
         0.00000E+00
         0.00000E+00
         0.00000E+00
         0.00000E+00
         0.00000E+00
         0.00000E+00
         0.00000E+00
         0.00000E+00
         0.00000E+00
         0.00000E+00
         0.00000E+00
         0.00000E+00
         0.00000E+00
         0.00000E+00
         0.00000E+00
         0.00000E+00
         0.00000E+00
         0.00000E+00
         0.00000E+00
         0.00000E+00
         0.00000E+00
         0.00000E+00
         0.00000E+00
         0.00000E+00
         0.00000E+00
         0.00000E+00
         0.00000E+00
         0.00000E+00
         0.00000E+00
         0.00000E+00
         0.00000E+00
         0.00000E+00
         0.00000E+00
         0.00000E+00
         0.00000E+00
         0.00000E+00
         0.00000E+00
         0.00000E+00
         0.00000E+00
         0.00000E+00
         0.00000E+00
         0.00000E+00
         0.00000E+00
         0.00000E+00
         0.00000E+00
         0.00000E+00
         0.00000E+00
         0.00000E+00
         0.00000E+00
         0.00000E+00
         0.00000E+00
         0.00000E+00
         0.00000E+00
         0.00000E+00
         0.00000E+00
         0.00000E+00
         0.00000E+00
         0.00000E+00
         0.00000E+00
         0.00000E+00
         0.00000E+00
         0.00000E+00
         0.00000E+00
         0.00000E+00
         0.00000E+00
         0.00000E+00
         0.00000E+00
         0.00000E+00
         0.00000E+00
         0.00000E+00
         0.00000E+00
         0.00000E+00
         0.00000E+00
         0.00000E+00
         0.00000E+00
         0.00000E+00
         0.00000E+00
         0.00000E+00
         0.00000E+00
         0.00000E+00
         0.00000E+00
         0.00000E+00
         0.00000E+00
         0.00000E+00
         0.00000E+00
         0.00000E+00
         0.00000E+00
         0.00000E+00
         0.00000E+00
         0.00000E+00
         0.00000E+00
         0.00000E+00
         0.00000E+00
         0.00000E+00
         0.00000E+00
         0.00000E+00
         0.00000E+00
         0.00000E+00
         0.00000E+00
         0.00000E+00
         0.00000E+00
         0.00000E+00
         0.00000E+00
         0.00000E+00
         0.00000E+00
         0.00000E+00
         0.00000E+00
         0.00000E+00
         0.00000E+00
         0.00000E+00
         0.00000E+00
         0.00000E+00
         0.00000E+00
         0.00000E+00
         0.00000E+00
         0.00000E+00
         0.00000E+00
         0.00000E+00
         0.00000E+00
         0.00000E+00
         0.00000E+00
         0.00000E+00
         0.00000E+00
         0.00000E+00
         0.00000E+00
         0.00000E+00
         0.00000E+00
         0.00000E+00
         0.00000E+00
         0.00000E+00
         0.00000E+00
         0.00000E+00
         0.00000E+00
         0.00000E+00
         0.00000E+00
         0.00000E+00
         0.00000E+00
         0.00000E+00
         0.00000E+00
         0.00000E+00
         0.00000E+00
         0.00000E+00
         0.00000E+00
         0.00000E+00
         0.00000E+00
         0.00000E+00
         0.00000E+00
         0.00000E+00
         0.00000E+00
         0.00000E+00
         0.00000E+00
         0.00000E+00
         0.00000E+00
         0.00000E+00
         0.00000E+00
         0.00000E+00
         0.00000E+00
         0.00000E+00
         0.00000E+00
         0.00000E+00
         0.00000E+00
         0.00000E+00
         0.00000E+00
         0.00000E+00
         0.00000E+00
         0.00000E+00
         0.00000E+00
         0.00000E+00
         0.00000E+00
         0.00000E+00
         0.00000E+00
         0.00000E+00
         0.00000E+00
         0.00000E+00
         0.00000E+00
         0.00000E+00
         0.00000E+00
         0.00000E+00
         0.00000E+00
         0.00000E+00
         0.00000E+00
         0.00000E+00
         0.00000E+00
         0.00000E+00
         0.00000E+00
         0.00000E+00
         0.00000E+00
         0.00000E+00
         0.00000E+00
         0.00000E+00
         0.00000E+00
         0.00000E+00
         0.00000E+00
         0.00000E+00
         0.00000E+00
         0.00000E+00
         0.00000E+00
         0.00000E+00
         0.00000E+00
         0.00000E+00
         0.00000E+00
         0.00000E+00
         0.00000E+00
         0.00000E+00
         0.00000E+00
         0.00000E+00
         0.00000E+00
         0.00000E+00
         0.00000E+00
         0.00000E+00
         0.00000E+00
         0.00000E+00
         0.00000E+00
         0.00000E+00
         0.00000E+00
         0.00000E+00
         0.00000E+00
         0.00000E+00
         0.00000E+00
         0.00000E+00
         0.00000E+00
         0.00000E+00
         0.00000E+00
         0.00000E+00
         0.00000E+00
         0.00000E+00
         0.00000E+00
         0.00000E+00
         0.00000E+00
         0.00000E+00
         0.00000E+00
         0.00000E+00
         0.00000E+00
         0.00000E+00
         0.00000E+00
         0.00000E+00
         0.00000E+00
         0.00000E+00
         0.00000E+00
         0.00000E+00
         0.00000E+00
         0.00000E+00
         0.00000E+00
         0.00000E+00
         0.00000E+00
         0.00000E+00
         0.00000E+00
         0.00000E+00
         0.00000E+00
         0.00000E+00
         0.00000E+00
         0.00000E+00
         0.00000E+00
         0.00000E+00
         0.00000E+00
         0.00000E+00
         0.00000E+00
         0.00000E+00
         0.00000E+00
         0.00000E+00
         0.00000E+00
         0.00000E+00
         0.00000E+00
         0.00000E+00
         0.00000E+00
         0.00000E+00
         0.00000E+00
         0.00000E+00
         0.00000E+00
         0.00000E+00
         0.00000E+00
         0.00000E+00
         0.00000E+00
         0.00000E+00
         0.00000E+00
         0.00000E+00
         0.00000E+00
         0.00000E+00
         0.00000E+00
         0.00000E+00
         0.00000E+00
         0.00000E+00
         0.00000E+00
         0.00000E+00
         0.00000E+00
         0.00000E+00
         0.00000E+00
         0.00000E+00
         0.00000E+00
         0.00000E+00
         0.00000E+00
         0.00000E+00
         0.00000E+00
         0.00000E+00
         0.00000E+00
         0.00000E+00
         0.00000E+00
         0.00000E+00
         0.00000E+00
         0.00000E+00
         0.00000E+00
         0.00000E+00
         0.00000E+00
         0.00000E+00
         0.00000E+00
         0.00000E+00
         0.00000E+00
         0.00000E+00
         0.00000E+00
         0.00000E+00
         0.00000E+00
         0.00000E+00
         0.00000E+00
         0.00000E+00
         0.00000E+00
         0.00000E+00
         0.00000E+00
         0.00000E+00
         0.00000E+00
         0.00000E+00
         0.00000E+00
         0.00000E+00
         0.00000E+00
         0.00000E+00
         0.00000E+00
         0.00000E+00
         0.00000E+00
         0.00000E+00
         0.00000E+00
         0.00000E+00
         0.00000E+00
         0.00000E+00
         0.00000E+00
         0.00000E+00
         0.00000E+00
         0.00000E+00
         0.00000E+00
         0.00000E+00
         0.00000E+00
         0.00000E+00
         0.00000E+00
         0.00000E+00
         0.00000E+00
         0.00000E+00
         0.00000E+00
         0.00000E+00
         0.00000E+00
         0.00000E+00
         0.00000E+00
         0.00000E+00
         0.00000E+00
         0.00000E+00
         0.00000E+00
         0.00000E+00
         0.00000E+00
         0.00000E+00
         0.00000E+00
         0.00000E+00
         0.00000E+00
         0.00000E+00
         0.00000E+00
         0.00000E+00
         0.00000E+00
         0.00000E+00
         0.00000E+00
         0.00000E+00
         0.00000E+00
         0.00000E+00
         0.00000E+00
         0.00000E+00
         0.00000E+00
         0.00000E+00
         0.00000E+00
         0.00000E+00
  
SCALARS                     velocity_z  double 1
LOOKUP_TABLE default
        -0.37300E+03
        -0.37300E+03
        -0.37300E+03
        -0.37300E+03
         0.00000E+00
         0.00000E+00
         0.00000E+00
         0.00000E+00
        -0.37300E+03
        -0.37300E+03
         0.00000E+00
         0.00000E+00
        -0.37300E+03
        -0.37300E+03
         0.00000E+00
         0.00000E+00
        -0.37300E+03
        -0.37300E+03
         0.00000E+00
         0.00000E+00
        -0.37300E+03
        -0.37300E+03
        -0.37300E+03
         0.00000E+00
         0.00000E+00
         0.00000E+00
        -0.37300E+03
        -0.37300E+03
         0.00000E+00
         0.00000E+00
        -0.37300E+03
        -0.37300E+03
        -0.37300E+03
         0.00000E+00
         0.00000E+00
         0.00000E+00
        -0.37300E+03
        -0.37300E+03
         0.00000E+00
         0.00000E+00
        -0.37300E+03
        -0.37300E+03
         0.00000E+00
         0.00000E+00
        -0.37300E+03
        -0.37300E+03
         0.00000E+00
         0.00000E+00
        -0.37300E+03
         0.00000E+00
        -0.37300E+03
         0.00000E+00
        -0.37300E+03
         0.00000E+00
        -0.37300E+03
         0.00000E+00
        -0.37300E+03
        -0.37300E+03
         0.00000E+00
         0.00000E+00
        -0.37300E+03
        -0.37300E+03
         0.00000E+00
         0.00000E+00
        -0.37300E+03
         0.00000E+00
        -0.37300E+03
         0.00000E+00
        -0.37300E+03
        -0.37300E+03
         0.00000E+00
         0.00000E+00
        -0.37300E+03
         0.00000E+00
        -0.37300E+03
         0.00000E+00
        -0.37300E+03
         0.00000E+00
        -0.37300E+03
         0.00000E+00
        -0.37300E+03
        -0.37300E+03
         0.00000E+00
         0.00000E+00
        -0.37300E+03
         0.00000E+00
        -0.37300E+03
         0.00000E+00
        -0.37300E+03
         0.00000E+00
        -0.37300E+03
        -0.37300E+03
         0.00000E+00
         0.00000E+00
        -0.37300E+03
         0.00000E+00
        -0.37300E+03
         0.00000E+00
        -0.37300E+03
         0.00000E+00
        -0.37300E+03
        -0.37300E+03
         0.00000E+00
         0.00000E+00
        -0.37300E+03
        -0.37300E+03
         0.00000E+00
         0.00000E+00
        -0.37300E+03
         0.00000E+00
        -0.37300E+03
         0.00000E+00
        -0.37300E+03
         0.00000E+00
        -0.37300E+03
         0.00000E+00
        -0.37300E+03
         0.00000E+00
        -0.37300E+03
         0.00000E+00
        -0.37300E+03
         0.00000E+00
        -0.37300E+03
         0.00000E+00
        -0.37300E+03
         0.00000E+00
        -0.37300E+03
         0.00000E+00
        -0.37300E+03
         0.00000E+00
        -0.37300E+03
         0.00000E+00
        -0.37300E+03
         0.00000E+00
        -0.37300E+03
         0.00000E+00
        -0.37300E+03
         0.00000E+00
        -0.37300E+03
         0.00000E+00
        -0.37300E+03
         0.00000E+00
        -0.37300E+03
         0.00000E+00
        -0.37300E+03
         0.00000E+00
        -0.37300E+03
         0.00000E+00
        -0.37300E+03
         0.00000E+00
        -0.37300E+03
         0.00000E+00
        -0.37300E+03
         0.00000E+00
        -0.37300E+03
         0.00000E+00
        -0.37300E+03
        -0.37300E+03
        -0.37300E+03
        -0.37300E+03
        -0.37300E+03
        -0.37300E+03
        -0.37300E+03
        -0.37300E+03
        -0.37300E+03
        -0.37300E+03
        -0.37300E+03
        -0.37300E+03
        -0.37300E+03
        -0.37300E+03
        -0.37300E+03
        -0.37300E+03
        -0.37300E+03
        -0.37300E+03
        -0.37300E+03
        -0.37300E+03
        -0.37300E+03
        -0.37300E+03
        -0.37300E+03
        -0.37300E+03
        -0.37300E+03
        -0.37300E+03
        -0.37300E+03
        -0.37300E+03
        -0.37300E+03
        -0.37300E+03
        -0.37300E+03
        -0.37300E+03
        -0.37300E+03
        -0.37300E+03
        -0.37300E+03
        -0.37300E+03
        -0.37300E+03
        -0.37300E+03
        -0.37300E+03
        -0.37300E+03
        -0.37300E+03
        -0.37300E+03
        -0.37300E+03
        -0.37300E+03
        -0.37300E+03
        -0.37300E+03
        -0.37300E+03
        -0.37300E+03
        -0.37300E+03
        -0.37300E+03
        -0.37300E+03
        -0.37300E+03
        -0.37300E+03
        -0.37300E+03
        -0.37300E+03
        -0.37300E+03
        -0.37300E+03
        -0.37300E+03
        -0.37300E+03
        -0.37300E+03
        -0.37300E+03
        -0.37300E+03
        -0.37300E+03
        -0.37300E+03
        -0.37300E+03
        -0.37300E+03
        -0.37300E+03
        -0.37300E+03
        -0.37300E+03
        -0.37300E+03
        -0.37300E+03
        -0.37300E+03
        -0.37300E+03
        -0.37300E+03
        -0.37300E+03
        -0.37300E+03
        -0.37300E+03
        -0.37300E+03
        -0.37300E+03
        -0.37300E+03
        -0.37300E+03
        -0.37300E+03
        -0.37300E+03
        -0.37300E+03
        -0.37300E+03
        -0.37300E+03
        -0.37300E+03
        -0.37300E+03
        -0.37300E+03
        -0.37300E+03
        -0.37300E+03
        -0.37300E+03
        -0.37300E+03
        -0.37300E+03
        -0.37300E+03
        -0.37300E+03
        -0.37300E+03
        -0.37300E+03
        -0.37300E+03
        -0.37300E+03
        -0.37300E+03
        -0.37300E+03
        -0.37300E+03
        -0.37300E+03
        -0.37300E+03
        -0.37300E+03
        -0.37300E+03
        -0.37300E+03
        -0.37300E+03
        -0.37300E+03
        -0.37300E+03
        -0.37300E+03
        -0.37300E+03
        -0.37300E+03
        -0.37300E+03
        -0.37300E+03
        -0.37300E+03
        -0.37300E+03
        -0.37300E+03
        -0.37300E+03
        -0.37300E+03
        -0.37300E+03
        -0.37300E+03
        -0.37300E+03
        -0.37300E+03
        -0.37300E+03
        -0.37300E+03
        -0.37300E+03
        -0.37300E+03
        -0.37300E+03
        -0.37300E+03
        -0.37300E+03
        -0.37300E+03
        -0.37300E+03
        -0.37300E+03
        -0.37300E+03
        -0.37300E+03
        -0.37300E+03
        -0.37300E+03
        -0.37300E+03
        -0.37300E+03
        -0.37300E+03
        -0.37300E+03
        -0.37300E+03
        -0.37300E+03
        -0.37300E+03
        -0.37300E+03
        -0.37300E+03
        -0.37300E+03
        -0.37300E+03
        -0.37300E+03
        -0.37300E+03
        -0.37300E+03
        -0.37300E+03
        -0.37300E+03
        -0.37300E+03
        -0.37300E+03
        -0.37300E+03
        -0.37300E+03
        -0.37300E+03
        -0.37300E+03
        -0.37300E+03
        -0.37300E+03
        -0.37300E+03
        -0.37300E+03
        -0.37300E+03
        -0.37300E+03
        -0.37300E+03
        -0.37300E+03
        -0.37300E+03
        -0.37300E+03
        -0.37300E+03
        -0.37300E+03
        -0.37300E+03
        -0.37300E+03
        -0.37300E+03
        -0.37300E+03
        -0.37300E+03
        -0.37300E+03
        -0.37300E+03
        -0.37300E+03
        -0.37300E+03
        -0.37300E+03
        -0.37300E+03
        -0.37300E+03
        -0.37300E+03
        -0.37300E+03
        -0.37300E+03
        -0.37300E+03
        -0.37300E+03
        -0.37300E+03
        -0.37300E+03
        -0.37300E+03
        -0.37300E+03
        -0.37300E+03
        -0.37300E+03
        -0.37300E+03
        -0.37300E+03
        -0.37300E+03
        -0.37300E+03
        -0.37300E+03
        -0.37300E+03
        -0.37300E+03
        -0.37300E+03
        -0.37300E+03
        -0.37300E+03
        -0.37300E+03
        -0.37300E+03
        -0.37300E+03
        -0.37300E+03
        -0.37300E+03
        -0.37300E+03
        -0.37300E+03
        -0.37300E+03
        -0.37300E+03
        -0.37300E+03
        -0.37300E+03
        -0.37300E+03
        -0.37300E+03
        -0.37300E+03
        -0.37300E+03
        -0.37300E+03
        -0.37300E+03
        -0.37300E+03
        -0.37300E+03
        -0.37300E+03
        -0.37300E+03
        -0.37300E+03
        -0.37300E+03
        -0.37300E+03
        -0.37300E+03
        -0.37300E+03
        -0.37300E+03
        -0.37300E+03
        -0.37300E+03
        -0.37300E+03
        -0.37300E+03
        -0.37300E+03
        -0.37300E+03
        -0.37300E+03
        -0.37300E+03
        -0.37300E+03
        -0.37300E+03
        -0.37300E+03
        -0.37300E+03
        -0.37300E+03
        -0.37300E+03
        -0.37300E+03
        -0.37300E+03
        -0.37300E+03
        -0.37300E+03
        -0.37300E+03
        -0.37300E+03
        -0.37300E+03
        -0.37300E+03
        -0.37300E+03
        -0.37300E+03
        -0.37300E+03
        -0.37300E+03
        -0.37300E+03
        -0.37300E+03
        -0.37300E+03
        -0.37300E+03
        -0.37300E+03
        -0.37300E+03
        -0.37300E+03
        -0.37300E+03
        -0.37300E+03
        -0.37300E+03
        -0.37300E+03
        -0.37300E+03
        -0.37300E+03
        -0.37300E+03
        -0.37300E+03
        -0.37300E+03
        -0.37300E+03
        -0.37300E+03
        -0.37300E+03
        -0.37300E+03
        -0.37300E+03
        -0.37300E+03
        -0.37300E+03
        -0.37300E+03
        -0.37300E+03
        -0.37300E+03
        -0.37300E+03
        -0.37300E+03
        -0.37300E+03
        -0.37300E+03
        -0.37300E+03
        -0.37300E+03
        -0.37300E+03
        -0.37300E+03
        -0.37300E+03
        -0.37300E+03
        -0.37300E+03
        -0.37300E+03
        -0.37300E+03
        -0.37300E+03
        -0.37300E+03
        -0.37300E+03
        -0.37300E+03
        -0.37300E+03
        -0.37300E+03
        -0.37300E+03
        -0.37300E+03
        -0.37300E+03
        -0.37300E+03
        -0.37300E+03
        -0.37300E+03
        -0.37300E+03
        -0.37300E+03
        -0.37300E+03
        -0.37300E+03
        -0.37300E+03
        -0.37300E+03
        -0.37300E+03
        -0.37300E+03
        -0.37300E+03
        -0.37300E+03
        -0.37300E+03
        -0.37300E+03
        -0.37300E+03
        -0.37300E+03
        -0.37300E+03
        -0.37300E+03
        -0.37300E+03
        -0.37300E+03
        -0.37300E+03
        -0.37300E+03
        -0.37300E+03
        -0.37300E+03
        -0.37300E+03
        -0.37300E+03
        -0.37300E+03
        -0.37300E+03
        -0.37300E+03
        -0.37300E+03
        -0.37300E+03
        -0.37300E+03
        -0.37300E+03
        -0.37300E+03
        -0.37300E+03
        -0.37300E+03
        -0.37300E+03
        -0.37300E+03
        -0.37300E+03
        -0.37300E+03
        -0.37300E+03
        -0.37300E+03
        -0.37300E+03
        -0.37300E+03
        -0.37300E+03
        -0.37300E+03
        -0.37300E+03
        -0.37300E+03
        -0.37300E+03
        -0.37300E+03
        -0.37300E+03
        -0.37300E+03
        -0.37300E+03
        -0.37300E+03
        -0.37300E+03
        -0.37300E+03
        -0.37300E+03
        -0.37300E+03
        -0.37300E+03
        -0.37300E+03
        -0.37300E+03
        -0.37300E+03
        -0.37300E+03
        -0.37300E+03
        -0.37300E+03
        -0.37300E+03
        -0.37300E+03
        -0.37300E+03
        -0.37300E+03
        -0.37300E+03
        -0.37300E+03
        -0.37300E+03
        -0.37300E+03
        -0.37300E+03
        -0.37300E+03
        -0.37300E+03
        -0.37300E+03
        -0.37300E+03
        -0.37300E+03
        -0.37300E+03
        -0.37300E+03
        -0.37300E+03
        -0.37300E+03
        -0.37300E+03
        -0.37300E+03
        -0.37300E+03
        -0.37300E+03
        -0.37300E+03
        -0.37300E+03
        -0.37300E+03
        -0.37300E+03
        -0.37300E+03
        -0.37300E+03
        -0.37300E+03
        -0.37300E+03
        -0.37300E+03
        -0.37300E+03
        -0.37300E+03
        -0.37300E+03
        -0.37300E+03
        -0.37300E+03
        -0.37300E+03
        -0.37300E+03
        -0.37300E+03
        -0.37300E+03
        -0.37300E+03
        -0.37300E+03
        -0.37300E+03
        -0.37300E+03
        -0.37300E+03
        -0.37300E+03
        -0.37300E+03
        -0.37300E+03
        -0.37300E+03
        -0.37300E+03
        -0.37300E+03
        -0.37300E+03
        -0.37300E+03
        -0.37300E+03
        -0.37300E+03
        -0.37300E+03
        -0.37300E+03
        -0.37300E+03
        -0.37300E+03
        -0.37300E+03
        -0.37300E+03
        -0.37300E+03
        -0.37300E+03
        -0.37300E+03
        -0.37300E+03
        -0.37300E+03
        -0.37300E+03
        -0.37300E+03
        -0.37300E+03
        -0.37300E+03
        -0.37300E+03
        -0.37300E+03
        -0.37300E+03
        -0.37300E+03
        -0.37300E+03
        -0.37300E+03
        -0.37300E+03
        -0.37300E+03
        -0.37300E+03
        -0.37300E+03
        -0.37300E+03
        -0.37300E+03
        -0.37300E+03
        -0.37300E+03
        -0.37300E+03
        -0.37300E+03
        -0.37300E+03
        -0.37300E+03
        -0.37300E+03
        -0.37300E+03
        -0.37300E+03
        -0.37300E+03
        -0.37300E+03
        -0.37300E+03
        -0.37300E+03
        -0.37300E+03
        -0.37300E+03
        -0.37300E+03
        -0.37300E+03
        -0.37300E+03
        -0.37300E+03
        -0.37300E+03
        -0.37300E+03
        -0.37300E+03
        -0.37300E+03
        -0.37300E+03
        -0.37300E+03
        -0.37300E+03
        -0.37300E+03
        -0.37300E+03
        -0.37300E+03
        -0.37300E+03
        -0.37300E+03
        -0.37300E+03
        -0.37300E+03
        -0.37300E+03
        -0.37300E+03
        -0.37300E+03
        -0.37300E+03
        -0.37300E+03
        -0.37300E+03
        -0.37300E+03
        -0.37300E+03
        -0.37300E+03
        -0.37300E+03
        -0.37300E+03
        -0.37300E+03
        -0.37300E+03
        -0.37300E+03
        -0.37300E+03
        -0.37300E+03
        -0.37300E+03
        -0.37300E+03
        -0.37300E+03
        -0.37300E+03
        -0.37300E+03
        -0.37300E+03
        -0.37300E+03
        -0.37300E+03
        -0.37300E+03
        -0.37300E+03
        -0.37300E+03
        -0.37300E+03
        -0.37300E+03
        -0.37300E+03
        -0.37300E+03
        -0.37300E+03
        -0.37300E+03
        -0.37300E+03
        -0.37300E+03
        -0.37300E+03
        -0.37300E+03
        -0.37300E+03
        -0.37300E+03
        -0.37300E+03
        -0.37300E+03
        -0.37300E+03
        -0.37300E+03
        -0.37300E+03
        -0.37300E+03
        -0.37300E+03
        -0.37300E+03
        -0.37300E+03
        -0.37300E+03
        -0.37300E+03
        -0.37300E+03
        -0.37300E+03
        -0.37300E+03
        -0.37300E+03
        -0.37300E+03
        -0.37300E+03
        -0.37300E+03
        -0.37300E+03
        -0.37300E+03
        -0.37300E+03
        -0.37300E+03
        -0.37300E+03
        -0.37300E+03
        -0.37300E+03
        -0.37300E+03
        -0.37300E+03
        -0.37300E+03
        -0.37300E+03
        -0.37300E+03
        -0.37300E+03
        -0.37300E+03
        -0.37300E+03
        -0.37300E+03
        -0.37300E+03
        -0.37300E+03
        -0.37300E+03
        -0.37300E+03
        -0.37300E+03
        -0.37300E+03
        -0.37300E+03
        -0.37300E+03
        -0.37300E+03
        -0.37300E+03
        -0.37300E+03
        -0.37300E+03
        -0.37300E+03
        -0.37300E+03
        -0.37300E+03
        -0.37300E+03
        -0.37300E+03
        -0.37300E+03
        -0.37300E+03
        -0.37300E+03
        -0.37300E+03
        -0.37300E+03
        -0.37300E+03
        -0.37300E+03
        -0.37300E+03
        -0.37300E+03
        -0.37300E+03
        -0.37300E+03
        -0.37300E+03
        -0.37300E+03
        -0.37300E+03
        -0.37300E+03
        -0.37300E+03
        -0.37300E+03
        -0.37300E+03
        -0.37300E+03
        -0.37300E+03
        -0.37300E+03
        -0.37300E+03
        -0.37300E+03
        -0.37300E+03
        -0.37300E+03
        -0.37300E+03
        -0.37300E+03
        -0.37300E+03
        -0.37300E+03
        -0.37300E+03
        -0.37300E+03
        -0.37300E+03
        -0.37300E+03
        -0.37300E+03
        -0.37300E+03
        -0.37300E+03
        -0.37300E+03
        -0.37300E+03
        -0.37300E+03
        -0.37300E+03
        -0.37300E+03
        -0.37300E+03
        -0.37300E+03
        -0.37300E+03
        -0.37300E+03
        -0.37300E+03
        -0.37300E+03
        -0.37300E+03
        -0.37300E+03
        -0.37300E+03
        -0.37300E+03
        -0.37300E+03
        -0.37300E+03
        -0.37300E+03
        -0.37300E+03
        -0.37300E+03
        -0.37300E+03
        -0.37300E+03
        -0.37300E+03
        -0.37300E+03
        -0.37300E+03
        -0.37300E+03
        -0.37300E+03
        -0.37300E+03
        -0.37300E+03
        -0.37300E+03
        -0.37300E+03
        -0.37300E+03
        -0.37300E+03
        -0.37300E+03
        -0.37300E+03
        -0.37300E+03
        -0.37300E+03
        -0.37300E+03
        -0.37300E+03
        -0.37300E+03
        -0.37300E+03
        -0.37300E+03
        -0.37300E+03
        -0.37300E+03
        -0.37300E+03
        -0.37300E+03
        -0.37300E+03
        -0.37300E+03
        -0.37300E+03
        -0.37300E+03
        -0.37300E+03
        -0.37300E+03
        -0.37300E+03
        -0.37300E+03
        -0.37300E+03
        -0.37300E+03
        -0.37300E+03
        -0.37300E+03
        -0.37300E+03
        -0.37300E+03
        -0.37300E+03
        -0.37300E+03
        -0.37300E+03
        -0.37300E+03
        -0.37300E+03
        -0.37300E+03
        -0.37300E+03
        -0.37300E+03
        -0.37300E+03
        -0.37300E+03
        -0.37300E+03
        -0.37300E+03
        -0.37300E+03
        -0.37300E+03
        -0.37300E+03
        -0.37300E+03
        -0.37300E+03
        -0.37300E+03
        -0.37300E+03
        -0.37300E+03
        -0.37300E+03
        -0.37300E+03
        -0.37300E+03
        -0.37300E+03
        -0.37300E+03
        -0.37300E+03
        -0.37300E+03
        -0.37300E+03
        -0.37300E+03
        -0.37300E+03
        -0.37300E+03
        -0.37300E+03
        -0.37300E+03
        -0.37300E+03
        -0.37300E+03
        -0.37300E+03
        -0.37300E+03
        -0.37300E+03
        -0.37300E+03
        -0.37300E+03
        -0.37300E+03
        -0.37300E+03
        -0.37300E+03
        -0.37300E+03
        -0.37300E+03
        -0.37300E+03
        -0.37300E+03
        -0.37300E+03
        -0.37300E+03
        -0.37300E+03
        -0.37300E+03
        -0.37300E+03
        -0.37300E+03
        -0.37300E+03
        -0.37300E+03
        -0.37300E+03
        -0.37300E+03
        -0.37300E+03
        -0.37300E+03
        -0.37300E+03
        -0.37300E+03
        -0.37300E+03
        -0.37300E+03
        -0.37300E+03
        -0.37300E+03
        -0.37300E+03
        -0.37300E+03
        -0.37300E+03
        -0.37300E+03
        -0.37300E+03
        -0.37300E+03
        -0.37300E+03
        -0.37300E+03
        -0.37300E+03
        -0.37300E+03
        -0.37300E+03
        -0.37300E+03
        -0.37300E+03
        -0.37300E+03
        -0.37300E+03
        -0.37300E+03
        -0.37300E+03
        -0.37300E+03
        -0.37300E+03
        -0.37300E+03
        -0.37300E+03
        -0.37300E+03
        -0.37300E+03
        -0.37300E+03
        -0.37300E+03
        -0.37300E+03
        -0.37300E+03
        -0.37300E+03
        -0.37300E+03
        -0.37300E+03
        -0.37300E+03
        -0.37300E+03
        -0.37300E+03
        -0.37300E+03
        -0.37300E+03
        -0.37300E+03
        -0.37300E+03
        -0.37300E+03
        -0.37300E+03
        -0.37300E+03
        -0.37300E+03
        -0.37300E+03
        -0.37300E+03
        -0.37300E+03
        -0.37300E+03
        -0.37300E+03
        -0.37300E+03
        -0.37300E+03
        -0.37300E+03
        -0.37300E+03
        -0.37300E+03
        -0.37300E+03
        -0.37300E+03
        -0.37300E+03
        -0.37300E+03
        -0.37300E+03
        -0.37300E+03
        -0.37300E+03
        -0.37300E+03
        -0.37300E+03
        -0.37300E+03
        -0.37300E+03
        -0.37300E+03
        -0.37300E+03
        -0.37300E+03
        -0.37300E+03
        -0.37300E+03
        -0.37300E+03
        -0.37300E+03
        -0.37300E+03
        -0.37300E+03
        -0.37300E+03
        -0.37300E+03
        -0.37300E+03
        -0.37300E+03
        -0.37300E+03
        -0.37300E+03
        -0.37300E+03
        -0.37300E+03
        -0.37300E+03
        -0.37300E+03
        -0.37300E+03
        -0.37300E+03
        -0.37300E+03
        -0.37300E+03
        -0.37300E+03
        -0.37300E+03
        -0.37300E+03
        -0.37300E+03
        -0.37300E+03
        -0.37300E+03
        -0.37300E+03
        -0.37300E+03
        -0.37300E+03
        -0.37300E+03
        -0.37300E+03
        -0.37300E+03
        -0.37300E+03
        -0.37300E+03
        -0.37300E+03
        -0.37300E+03
        -0.37300E+03
        -0.37300E+03
        -0.37300E+03
        -0.37300E+03
        -0.37300E+03
        -0.37300E+03
        -0.37300E+03
        -0.37300E+03
        -0.37300E+03
        -0.37300E+03
        -0.37300E+03
        -0.37300E+03
        -0.37300E+03
        -0.37300E+03
        -0.37300E+03
        -0.37300E+03
        -0.37300E+03
        -0.37300E+03
        -0.37300E+03
        -0.37300E+03
        -0.37300E+03
        -0.37300E+03
        -0.37300E+03
        -0.37300E+03
        -0.37300E+03
        -0.37300E+03
        -0.37300E+03
        -0.37300E+03
        -0.37300E+03
        -0.37300E+03
        -0.37300E+03
        -0.37300E+03
        -0.37300E+03
        -0.37300E+03
        -0.37300E+03
        -0.37300E+03
        -0.37300E+03
        -0.37300E+03
        -0.37300E+03
        -0.37300E+03
        -0.37300E+03
        -0.37300E+03
        -0.37300E+03
        -0.37300E+03
        -0.37300E+03
        -0.37300E+03
        -0.37300E+03
        -0.37300E+03
        -0.37300E+03
        -0.37300E+03
        -0.37300E+03
        -0.37300E+03
        -0.37300E+03
        -0.37300E+03
        -0.37300E+03
        -0.37300E+03
        -0.37300E+03
        -0.37300E+03
        -0.37300E+03
        -0.37300E+03
        -0.37300E+03
        -0.37300E+03
        -0.37300E+03
        -0.37300E+03
        -0.37300E+03
        -0.37300E+03
        -0.37300E+03
        -0.37300E+03
        -0.37300E+03
        -0.37300E+03
        -0.37300E+03
        -0.37300E+03
        -0.37300E+03
        -0.37300E+03
        -0.37300E+03
        -0.37300E+03
        -0.37300E+03
        -0.37300E+03
        -0.37300E+03
        -0.37300E+03
        -0.37300E+03
        -0.37300E+03
        -0.37300E+03
        -0.37300E+03
        -0.37300E+03
        -0.37300E+03
        -0.37300E+03
        -0.37300E+03
        -0.37300E+03
        -0.37300E+03
        -0.37300E+03
        -0.37300E+03
        -0.37300E+03
        -0.37300E+03
        -0.37300E+03
        -0.37300E+03
        -0.37300E+03
        -0.37300E+03
        -0.37300E+03
        -0.37300E+03
        -0.37300E+03
        -0.37300E+03
        -0.37300E+03
        -0.37300E+03
        -0.37300E+03
        -0.37300E+03
        -0.37300E+03
        -0.37300E+03
        -0.37300E+03
        -0.37300E+03
        -0.37300E+03
        -0.37300E+03
        -0.37300E+03
        -0.37300E+03
        -0.37300E+03
        -0.37300E+03
        -0.37300E+03
        -0.37300E+03
        -0.37300E+03
        -0.37300E+03
        -0.37300E+03
        -0.37300E+03
        -0.37300E+03
        -0.37300E+03
        -0.37300E+03
        -0.37300E+03
        -0.37300E+03
        -0.37300E+03
        -0.37300E+03
        -0.37300E+03
        -0.37300E+03
        -0.37300E+03
        -0.37300E+03
        -0.37300E+03
        -0.37300E+03
        -0.37300E+03
        -0.37300E+03
        -0.37300E+03
        -0.37300E+03
        -0.37300E+03
        -0.37300E+03
        -0.37300E+03
        -0.37300E+03
        -0.37300E+03
        -0.37300E+03
        -0.37300E+03
        -0.37300E+03
        -0.37300E+03
        -0.37300E+03
        -0.37300E+03
        -0.37300E+03
        -0.37300E+03
        -0.37300E+03
        -0.37300E+03
        -0.37300E+03
        -0.37300E+03
        -0.37300E+03
        -0.37300E+03
        -0.37300E+03
        -0.37300E+03
        -0.37300E+03
        -0.37300E+03
        -0.37300E+03
        -0.37300E+03
        -0.37300E+03
        -0.37300E+03
        -0.37300E+03
        -0.37300E+03
        -0.37300E+03
        -0.37300E+03
        -0.37300E+03
        -0.37300E+03
        -0.37300E+03
        -0.37300E+03
        -0.37300E+03
        -0.37300E+03
        -0.37300E+03
        -0.37300E+03
        -0.37300E+03
        -0.37300E+03
        -0.37300E+03
        -0.37300E+03
        -0.37300E+03
        -0.37300E+03
        -0.37300E+03
        -0.37300E+03
        -0.37300E+03
        -0.37300E+03
        -0.37300E+03
        -0.37300E+03
        -0.37300E+03
        -0.37300E+03
        -0.37300E+03
        -0.37300E+03
        -0.37300E+03
        -0.37300E+03
        -0.37300E+03
        -0.37300E+03
        -0.37300E+03
        -0.37300E+03
        -0.37300E+03
        -0.37300E+03
        -0.37300E+03
        -0.37300E+03
        -0.37300E+03
        -0.37300E+03
        -0.37300E+03
        -0.37300E+03
        -0.37300E+03
        -0.37300E+03
        -0.37300E+03
        -0.37300E+03
        -0.37300E+03
        -0.37300E+03
        -0.37300E+03
        -0.37300E+03
        -0.37300E+03
        -0.37300E+03
        -0.37300E+03
        -0.37300E+03
        -0.37300E+03
        -0.37300E+03
        -0.37300E+03
        -0.37300E+03
        -0.37300E+03
        -0.37300E+03
        -0.37300E+03
        -0.37300E+03
        -0.37300E+03
        -0.37300E+03
        -0.37300E+03
        -0.37300E+03
        -0.37300E+03
        -0.37300E+03
        -0.37300E+03
        -0.37300E+03
        -0.37300E+03
        -0.37300E+03
        -0.37300E+03
        -0.37300E+03
        -0.37300E+03
        -0.37300E+03
        -0.37300E+03
        -0.37300E+03
        -0.37300E+03
        -0.37300E+03
        -0.37300E+03
        -0.37300E+03
        -0.37300E+03
        -0.37300E+03
        -0.37300E+03
        -0.37300E+03
        -0.37300E+03
        -0.37300E+03
        -0.37300E+03
        -0.37300E+03
        -0.37300E+03
        -0.37300E+03
        -0.37300E+03
        -0.37300E+03
        -0.37300E+03
        -0.37300E+03
        -0.37300E+03
        -0.37300E+03
        -0.37300E+03
        -0.37300E+03
        -0.37300E+03
        -0.37300E+03
        -0.37300E+03
        -0.37300E+03
        -0.37300E+03
        -0.37300E+03
        -0.37300E+03
        -0.37300E+03
        -0.37300E+03
        -0.37300E+03
        -0.37300E+03
        -0.37300E+03
        -0.37300E+03
        -0.37300E+03
        -0.37300E+03
        -0.37300E+03
        -0.37300E+03
        -0.37300E+03
        -0.37300E+03
        -0.37300E+03
        -0.37300E+03
        -0.37300E+03
        -0.37300E+03
        -0.37300E+03
        -0.37300E+03
        -0.37300E+03
        -0.37300E+03
        -0.37300E+03
        -0.37300E+03
        -0.37300E+03
        -0.37300E+03
        -0.37300E+03
        -0.37300E+03
        -0.37300E+03
        -0.37300E+03
        -0.37300E+03
        -0.37300E+03
        -0.37300E+03
        -0.37300E+03
        -0.37300E+03
        -0.37300E+03
        -0.37300E+03
        -0.37300E+03
        -0.37300E+03
        -0.37300E+03
        -0.37300E+03
        -0.37300E+03
        -0.37300E+03
        -0.37300E+03
        -0.37300E+03
        -0.37300E+03
        -0.37300E+03
        -0.37300E+03
        -0.37300E+03
        -0.37300E+03
        -0.37300E+03
        -0.37300E+03
        -0.37300E+03
        -0.37300E+03
        -0.37300E+03
        -0.37300E+03
        -0.37300E+03
        -0.37300E+03
        -0.37300E+03
        -0.37300E+03
        -0.37300E+03
        -0.37300E+03
        -0.37300E+03
        -0.37300E+03
        -0.37300E+03
        -0.37300E+03
        -0.37300E+03
        -0.37300E+03
        -0.37300E+03
        -0.37300E+03
        -0.37300E+03
        -0.37300E+03
        -0.37300E+03
        -0.37300E+03
        -0.37300E+03
        -0.37300E+03
        -0.37300E+03
        -0.37300E+03
        -0.37300E+03
        -0.37300E+03
        -0.37300E+03
        -0.37300E+03
        -0.37300E+03
        -0.37300E+03
        -0.37300E+03
        -0.37300E+03
        -0.37300E+03
        -0.37300E+03
        -0.37300E+03
        -0.37300E+03
        -0.37300E+03
        -0.37300E+03
        -0.37300E+03
        -0.37300E+03
        -0.37300E+03
        -0.37300E+03
        -0.37300E+03
        -0.37300E+03
        -0.37300E+03
        -0.37300E+03
        -0.37300E+03
        -0.37300E+03
        -0.37300E+03
        -0.37300E+03
        -0.37300E+03
        -0.37300E+03
        -0.37300E+03
        -0.37300E+03
        -0.37300E+03
        -0.37300E+03
        -0.37300E+03
        -0.37300E+03
        -0.37300E+03
        -0.37300E+03
        -0.37300E+03
        -0.37300E+03
        -0.37300E+03
        -0.37300E+03
        -0.37300E+03
        -0.37300E+03
        -0.37300E+03
        -0.37300E+03
        -0.37300E+03
        -0.37300E+03
        -0.37300E+03
        -0.37300E+03
        -0.37300E+03
        -0.37300E+03
        -0.37300E+03
        -0.37300E+03
        -0.37300E+03
        -0.37300E+03
        -0.37300E+03
        -0.37300E+03
        -0.37300E+03
        -0.37300E+03
        -0.37300E+03
        -0.37300E+03
        -0.37300E+03
        -0.37300E+03
        -0.37300E+03
        -0.37300E+03
        -0.37300E+03
        -0.37300E+03
        -0.37300E+03
        -0.37300E+03
        -0.37300E+03
        -0.37300E+03
        -0.37300E+03
        -0.37300E+03
        -0.37300E+03
        -0.37300E+03
        -0.37300E+03
        -0.37300E+03
        -0.37300E+03
        -0.37300E+03
        -0.37300E+03
        -0.37300E+03
        -0.37300E+03
        -0.37300E+03
        -0.37300E+03
        -0.37300E+03
        -0.37300E+03
        -0.37300E+03
        -0.37300E+03
        -0.37300E+03
        -0.37300E+03
        -0.37300E+03
        -0.37300E+03
        -0.37300E+03
        -0.37300E+03
        -0.37300E+03
        -0.37300E+03
        -0.37300E+03
        -0.37300E+03
        -0.37300E+03
        -0.37300E+03
        -0.37300E+03
        -0.37300E+03
        -0.37300E+03
        -0.37300E+03
        -0.37300E+03
        -0.37300E+03
        -0.37300E+03
        -0.37300E+03
        -0.37300E+03
        -0.37300E+03
        -0.37300E+03
        -0.37300E+03
        -0.37300E+03
        -0.37300E+03
        -0.37300E+03
        -0.37300E+03
        -0.37300E+03
        -0.37300E+03
        -0.37300E+03
        -0.37300E+03
        -0.37300E+03
        -0.37300E+03
        -0.37300E+03
        -0.37300E+03
        -0.37300E+03
        -0.37300E+03
        -0.37300E+03
        -0.37300E+03
        -0.37300E+03
        -0.37300E+03
        -0.37300E+03
        -0.37300E+03
        -0.37300E+03
        -0.37300E+03
        -0.37300E+03
        -0.37300E+03
        -0.37300E+03
        -0.37300E+03
        -0.37300E+03
        -0.37300E+03
        -0.37300E+03
        -0.37300E+03
        -0.37300E+03
        -0.37300E+03
        -0.37300E+03
        -0.37300E+03
        -0.37300E+03
        -0.37300E+03
        -0.37300E+03
        -0.37300E+03
        -0.37300E+03
        -0.37300E+03
        -0.37300E+03
        -0.37300E+03
        -0.37300E+03
        -0.37300E+03
        -0.37300E+03
        -0.37300E+03
        -0.37300E+03
        -0.37300E+03
        -0.37300E+03
        -0.37300E+03
        -0.37300E+03
        -0.37300E+03
        -0.37300E+03
        -0.37300E+03
        -0.37300E+03
        -0.37300E+03
        -0.37300E+03
        -0.37300E+03
        -0.37300E+03
        -0.37300E+03
        -0.37300E+03
        -0.37300E+03
        -0.37300E+03
        -0.37300E+03
        -0.37300E+03
        -0.37300E+03
        -0.37300E+03
        -0.37300E+03
        -0.37300E+03
        -0.37300E+03
        -0.37300E+03
        -0.37300E+03
        -0.37300E+03
        -0.37300E+03
        -0.37300E+03
        -0.37300E+03
        -0.37300E+03
        -0.37300E+03
        -0.37300E+03
        -0.37300E+03
        -0.37300E+03
        -0.37300E+03
        -0.37300E+03
        -0.37300E+03
        -0.37300E+03
        -0.37300E+03
        -0.37300E+03
        -0.37300E+03
        -0.37300E+03
        -0.37300E+03
        -0.37300E+03
        -0.37300E+03
        -0.37300E+03
        -0.37300E+03
        -0.37300E+03
        -0.37300E+03
        -0.37300E+03
        -0.37300E+03
        -0.37300E+03
        -0.37300E+03
        -0.37300E+03
        -0.37300E+03
        -0.37300E+03
        -0.37300E+03
        -0.37300E+03
        -0.37300E+03
        -0.37300E+03
        -0.37300E+03
        -0.37300E+03
        -0.37300E+03
        -0.37300E+03
        -0.37300E+03
        -0.37300E+03
        -0.37300E+03
        -0.37300E+03
        -0.37300E+03
        -0.37300E+03
        -0.37300E+03
        -0.37300E+03
        -0.37300E+03
        -0.37300E+03
        -0.37300E+03
        -0.37300E+03
        -0.37300E+03
        -0.37300E+03
        -0.37300E+03
        -0.37300E+03
        -0.37300E+03
        -0.37300E+03
        -0.37300E+03
        -0.37300E+03
        -0.37300E+03
        -0.37300E+03
        -0.37300E+03
        -0.37300E+03
        -0.37300E+03
        -0.37300E+03
        -0.37300E+03
        -0.37300E+03
        -0.37300E+03
        -0.37300E+03
        -0.37300E+03
        -0.37300E+03
        -0.37300E+03
        -0.37300E+03
        -0.37300E+03
        -0.37300E+03
        -0.37300E+03
        -0.37300E+03
        -0.37300E+03
        -0.37300E+03
        -0.37300E+03
        -0.37300E+03
        -0.37300E+03
        -0.37300E+03
        -0.37300E+03
        -0.37300E+03
        -0.37300E+03
        -0.37300E+03
        -0.37300E+03
        -0.37300E+03
        -0.37300E+03
        -0.37300E+03
        -0.37300E+03
        -0.37300E+03
        -0.37300E+03
        -0.37300E+03
        -0.37300E+03
        -0.37300E+03
        -0.37300E+03
        -0.37300E+03
        -0.37300E+03
        -0.37300E+03
        -0.37300E+03
        -0.37300E+03
        -0.37300E+03
        -0.37300E+03
        -0.37300E+03
        -0.37300E+03
        -0.37300E+03
        -0.37300E+03
        -0.37300E+03
        -0.37300E+03
        -0.37300E+03
        -0.37300E+03
        -0.37300E+03
        -0.37300E+03
        -0.37300E+03
        -0.37300E+03
        -0.37300E+03
        -0.37300E+03
        -0.37300E+03
        -0.37300E+03
        -0.37300E+03
        -0.37300E+03
        -0.37300E+03
        -0.37300E+03
        -0.37300E+03
        -0.37300E+03
        -0.37300E+03
        -0.37300E+03
        -0.37300E+03
        -0.37300E+03
        -0.37300E+03
        -0.37300E+03
        -0.37300E+03
        -0.37300E+03
        -0.37300E+03
        -0.37300E+03
        -0.37300E+03
        -0.37300E+03
        -0.37300E+03
        -0.37300E+03
        -0.37300E+03
        -0.37300E+03
        -0.37300E+03
        -0.37300E+03
        -0.37300E+03
        -0.37300E+03
        -0.37300E+03
        -0.37300E+03
        -0.37300E+03
        -0.37300E+03
        -0.37300E+03
        -0.37300E+03
        -0.37300E+03
        -0.37300E+03
        -0.37300E+03
        -0.37300E+03
        -0.37300E+03
        -0.37300E+03
        -0.37300E+03
        -0.37300E+03
        -0.37300E+03
        -0.37300E+03
        -0.37300E+03
        -0.37300E+03
        -0.37300E+03
        -0.37300E+03
        -0.37300E+03
        -0.37300E+03
        -0.37300E+03
        -0.37300E+03
        -0.37300E+03
        -0.37300E+03
        -0.37300E+03
        -0.37300E+03
        -0.37300E+03
        -0.37300E+03
        -0.37300E+03
        -0.37300E+03
        -0.37300E+03
        -0.37300E+03
        -0.37300E+03
        -0.37300E+03
        -0.37300E+03
        -0.37300E+03
        -0.37300E+03
        -0.37300E+03
        -0.37300E+03
        -0.37300E+03
        -0.37300E+03
        -0.37300E+03
        -0.37300E+03
        -0.37300E+03
        -0.37300E+03
        -0.37300E+03
        -0.37300E+03
        -0.37300E+03
        -0.37300E+03
        -0.37300E+03
        -0.37300E+03
        -0.37300E+03
        -0.37300E+03
        -0.37300E+03
        -0.37300E+03
        -0.37300E+03
        -0.37300E+03
        -0.37300E+03
        -0.37300E+03
        -0.37300E+03
        -0.37300E+03
        -0.37300E+03
        -0.37300E+03
        -0.37300E+03
        -0.37300E+03
        -0.37300E+03
        -0.37300E+03
        -0.37300E+03
        -0.37300E+03
        -0.37300E+03
        -0.37300E+03
        -0.37300E+03
        -0.37300E+03
        -0.37300E+03
        -0.37300E+03
        -0.37300E+03
        -0.37300E+03
        -0.37300E+03
        -0.37300E+03
        -0.37300E+03
        -0.37300E+03
        -0.37300E+03
        -0.37300E+03
        -0.37300E+03
        -0.37300E+03
        -0.37300E+03
        -0.37300E+03
        -0.37300E+03
        -0.37300E+03
        -0.37300E+03
        -0.37300E+03
        -0.37300E+03
        -0.37300E+03
        -0.37300E+03
        -0.37300E+03
        -0.37300E+03
        -0.37300E+03
        -0.37300E+03
        -0.37300E+03
        -0.37300E+03
        -0.37300E+03
        -0.37300E+03
        -0.37300E+03
        -0.37300E+03
        -0.37300E+03
        -0.37300E+03
        -0.37300E+03
        -0.37300E+03
        -0.37300E+03
        -0.37300E+03
        -0.37300E+03
        -0.37300E+03
        -0.37300E+03
        -0.37300E+03
        -0.37300E+03
        -0.37300E+03
        -0.37300E+03
        -0.37300E+03
        -0.37300E+03
        -0.37300E+03
        -0.37300E+03
        -0.37300E+03
        -0.37300E+03
        -0.37300E+03
        -0.37300E+03
        -0.37300E+03
        -0.37300E+03
        -0.37300E+03
        -0.37300E+03
        -0.37300E+03
        -0.37300E+03
        -0.37300E+03
        -0.37300E+03
        -0.37300E+03
        -0.37300E+03
        -0.37300E+03
        -0.37300E+03
        -0.37300E+03
        -0.37300E+03
        -0.37300E+03
        -0.37300E+03
        -0.37300E+03
        -0.37300E+03
        -0.37300E+03
        -0.37300E+03
        -0.37300E+03
        -0.37300E+03
        -0.37300E+03
        -0.37300E+03
        -0.37300E+03
        -0.37300E+03
        -0.37300E+03
        -0.37300E+03
        -0.37300E+03
        -0.37300E+03
        -0.37300E+03
        -0.37300E+03
        -0.37300E+03
        -0.37300E+03
        -0.37300E+03
        -0.37300E+03
        -0.37300E+03
        -0.37300E+03
        -0.37300E+03
        -0.37300E+03
        -0.37300E+03
        -0.37300E+03
        -0.37300E+03
        -0.37300E+03
        -0.37300E+03
        -0.37300E+03
        -0.37300E+03
        -0.37300E+03
        -0.37300E+03
        -0.37300E+03
        -0.37300E+03
        -0.37300E+03
        -0.37300E+03
        -0.37300E+03
        -0.37300E+03
        -0.37300E+03
        -0.37300E+03
        -0.37300E+03
        -0.37300E+03
        -0.37300E+03
        -0.37300E+03
        -0.37300E+03
        -0.37300E+03
        -0.37300E+03
        -0.37300E+03
        -0.37300E+03
        -0.37300E+03
        -0.37300E+03
        -0.37300E+03
        -0.37300E+03
        -0.37300E+03
        -0.37300E+03
        -0.37300E+03
        -0.37300E+03
        -0.37300E+03
        -0.37300E+03
        -0.37300E+03
        -0.37300E+03
        -0.37300E+03
        -0.37300E+03
        -0.37300E+03
        -0.37300E+03
        -0.37300E+03
        -0.37300E+03
        -0.37300E+03
        -0.37300E+03
        -0.37300E+03
        -0.37300E+03
        -0.37300E+03
        -0.37300E+03
        -0.37300E+03
        -0.37300E+03
        -0.37300E+03
        -0.37300E+03
        -0.37300E+03
        -0.37300E+03
        -0.37300E+03
        -0.37300E+03
        -0.37300E+03
        -0.37300E+03
        -0.37300E+03
        -0.37300E+03
        -0.37300E+03
        -0.37300E+03
        -0.37300E+03
        -0.37300E+03
        -0.37300E+03
        -0.37300E+03
        -0.37300E+03
        -0.37300E+03
        -0.37300E+03
        -0.37300E+03
        -0.37300E+03
        -0.37300E+03
        -0.37300E+03
        -0.37300E+03
        -0.37300E+03
        -0.37300E+03
        -0.37300E+03
        -0.37300E+03
        -0.37300E+03
        -0.37300E+03
        -0.37300E+03
        -0.37300E+03
        -0.37300E+03
        -0.37300E+03
        -0.37300E+03
        -0.37300E+03
        -0.37300E+03
        -0.37300E+03
        -0.37300E+03
        -0.37300E+03
        -0.37300E+03
        -0.37300E+03
        -0.37300E+03
        -0.37300E+03
        -0.37300E+03
        -0.37300E+03
        -0.37300E+03
        -0.37300E+03
        -0.37300E+03
        -0.37300E+03
        -0.37300E+03
        -0.37300E+03
        -0.37300E+03
        -0.37300E+03
        -0.37300E+03
        -0.37300E+03
  
SCALARS                 acceleration_x  double 1
LOOKUP_TABLE default
         0.00000E+00
         0.00000E+00
         0.00000E+00
         0.00000E+00
         0.00000E+00
         0.00000E+00
         0.00000E+00
         0.00000E+00
         0.00000E+00
         0.00000E+00
         0.00000E+00
         0.00000E+00
         0.00000E+00
         0.00000E+00
         0.00000E+00
         0.00000E+00
         0.00000E+00
         0.00000E+00
         0.00000E+00
         0.00000E+00
         0.00000E+00
         0.00000E+00
         0.00000E+00
         0.00000E+00
         0.00000E+00
         0.00000E+00
         0.00000E+00
         0.00000E+00
         0.00000E+00
         0.00000E+00
         0.00000E+00
         0.00000E+00
         0.00000E+00
         0.00000E+00
         0.00000E+00
         0.00000E+00
         0.00000E+00
         0.00000E+00
         0.00000E+00
         0.00000E+00
         0.00000E+00
         0.00000E+00
         0.00000E+00
         0.00000E+00
         0.00000E+00
         0.00000E+00
         0.00000E+00
         0.00000E+00
         0.00000E+00
         0.00000E+00
         0.00000E+00
         0.00000E+00
         0.00000E+00
         0.00000E+00
         0.00000E+00
         0.00000E+00
         0.00000E+00
         0.00000E+00
         0.00000E+00
         0.00000E+00
         0.00000E+00
         0.00000E+00
         0.00000E+00
         0.00000E+00
         0.00000E+00
         0.00000E+00
         0.00000E+00
         0.00000E+00
         0.00000E+00
         0.00000E+00
         0.00000E+00
         0.00000E+00
         0.00000E+00
         0.00000E+00
         0.00000E+00
         0.00000E+00
         0.00000E+00
         0.00000E+00
         0.00000E+00
         0.00000E+00
         0.00000E+00
         0.00000E+00
         0.00000E+00
         0.00000E+00
         0.00000E+00
         0.00000E+00
         0.00000E+00
         0.00000E+00
         0.00000E+00
         0.00000E+00
         0.00000E+00
         0.00000E+00
         0.00000E+00
         0.00000E+00
         0.00000E+00
         0.00000E+00
         0.00000E+00
         0.00000E+00
         0.00000E+00
         0.00000E+00
         0.00000E+00
         0.00000E+00
         0.00000E+00
         0.00000E+00
         0.00000E+00
         0.00000E+00
         0.00000E+00
         0.00000E+00
         0.00000E+00
         0.00000E+00
         0.00000E+00
         0.00000E+00
         0.00000E+00
         0.00000E+00
         0.00000E+00
         0.00000E+00
         0.00000E+00
         0.00000E+00
         0.00000E+00
         0.00000E+00
         0.00000E+00
         0.00000E+00
         0.00000E+00
         0.00000E+00
         0.00000E+00
         0.00000E+00
         0.00000E+00
         0.00000E+00
         0.00000E+00
         0.00000E+00
         0.00000E+00
         0.00000E+00
         0.00000E+00
         0.00000E+00
         0.00000E+00
         0.00000E+00
         0.00000E+00
         0.00000E+00
         0.00000E+00
         0.00000E+00
         0.00000E+00
         0.00000E+00
         0.00000E+00
         0.00000E+00
         0.00000E+00
         0.00000E+00
         0.00000E+00
         0.00000E+00
         0.00000E+00
         0.00000E+00
         0.00000E+00
         0.00000E+00
         0.00000E+00
         0.00000E+00
         0.00000E+00
         0.00000E+00
         0.00000E+00
         0.00000E+00
         0.00000E+00
         0.00000E+00
         0.00000E+00
         0.00000E+00
         0.00000E+00
         0.00000E+00
         0.00000E+00
         0.00000E+00
         0.00000E+00
         0.00000E+00
         0.00000E+00
         0.00000E+00
         0.00000E+00
         0.00000E+00
         0.00000E+00
         0.00000E+00
         0.00000E+00
         0.00000E+00
         0.00000E+00
         0.00000E+00
         0.00000E+00
         0.00000E+00
         0.00000E+00
         0.00000E+00
         0.00000E+00
         0.00000E+00
         0.00000E+00
         0.00000E+00
         0.00000E+00
         0.00000E+00
         0.00000E+00
         0.00000E+00
         0.00000E+00
         0.00000E+00
         0.00000E+00
         0.00000E+00
         0.00000E+00
         0.00000E+00
         0.00000E+00
         0.00000E+00
         0.00000E+00
         0.00000E+00
         0.00000E+00
         0.00000E+00
         0.00000E+00
         0.00000E+00
         0.00000E+00
         0.00000E+00
         0.00000E+00
         0.00000E+00
         0.00000E+00
         0.00000E+00
         0.00000E+00
         0.00000E+00
         0.00000E+00
         0.00000E+00
         0.00000E+00
         0.00000E+00
         0.00000E+00
         0.00000E+00
         0.00000E+00
         0.00000E+00
         0.00000E+00
         0.00000E+00
         0.00000E+00
         0.00000E+00
         0.00000E+00
         0.00000E+00
         0.00000E+00
         0.00000E+00
         0.00000E+00
         0.00000E+00
         0.00000E+00
         0.00000E+00
         0.00000E+00
         0.00000E+00
         0.00000E+00
         0.00000E+00
         0.00000E+00
         0.00000E+00
         0.00000E+00
         0.00000E+00
         0.00000E+00
         0.00000E+00
         0.00000E+00
         0.00000E+00
         0.00000E+00
         0.00000E+00
         0.00000E+00
         0.00000E+00
         0.00000E+00
         0.00000E+00
         0.00000E+00
         0.00000E+00
         0.00000E+00
         0.00000E+00
         0.00000E+00
         0.00000E+00
         0.00000E+00
         0.00000E+00
         0.00000E+00
         0.00000E+00
         0.00000E+00
         0.00000E+00
         0.00000E+00
         0.00000E+00
         0.00000E+00
         0.00000E+00
         0.00000E+00
         0.00000E+00
         0.00000E+00
         0.00000E+00
         0.00000E+00
         0.00000E+00
         0.00000E+00
         0.00000E+00
         0.00000E+00
         0.00000E+00
         0.00000E+00
         0.00000E+00
         0.00000E+00
         0.00000E+00
         0.00000E+00
         0.00000E+00
         0.00000E+00
         0.00000E+00
         0.00000E+00
         0.00000E+00
         0.00000E+00
         0.00000E+00
         0.00000E+00
         0.00000E+00
         0.00000E+00
         0.00000E+00
         0.00000E+00
         0.00000E+00
         0.00000E+00
         0.00000E+00
         0.00000E+00
         0.00000E+00
         0.00000E+00
         0.00000E+00
         0.00000E+00
         0.00000E+00
         0.00000E+00
         0.00000E+00
         0.00000E+00
         0.00000E+00
         0.00000E+00
         0.00000E+00
         0.00000E+00
         0.00000E+00
         0.00000E+00
         0.00000E+00
         0.00000E+00
         0.00000E+00
         0.00000E+00
         0.00000E+00
         0.00000E+00
         0.00000E+00
         0.00000E+00
         0.00000E+00
         0.00000E+00
         0.00000E+00
         0.00000E+00
         0.00000E+00
         0.00000E+00
         0.00000E+00
         0.00000E+00
         0.00000E+00
         0.00000E+00
         0.00000E+00
         0.00000E+00
         0.00000E+00
         0.00000E+00
         0.00000E+00
         0.00000E+00
         0.00000E+00
         0.00000E+00
         0.00000E+00
         0.00000E+00
         0.00000E+00
         0.00000E+00
         0.00000E+00
         0.00000E+00
         0.00000E+00
         0.00000E+00
         0.00000E+00
         0.00000E+00
         0.00000E+00
         0.00000E+00
         0.00000E+00
         0.00000E+00
         0.00000E+00
         0.00000E+00
         0.00000E+00
         0.00000E+00
         0.00000E+00
         0.00000E+00
         0.00000E+00
         0.00000E+00
         0.00000E+00
         0.00000E+00
         0.00000E+00
         0.00000E+00
         0.00000E+00
         0.00000E+00
         0.00000E+00
         0.00000E+00
         0.00000E+00
         0.00000E+00
         0.00000E+00
         0.00000E+00
         0.00000E+00
         0.00000E+00
         0.00000E+00
         0.00000E+00
         0.00000E+00
         0.00000E+00
         0.00000E+00
         0.00000E+00
         0.00000E+00
         0.00000E+00
         0.00000E+00
         0.00000E+00
         0.00000E+00
         0.00000E+00
         0.00000E+00
         0.00000E+00
         0.00000E+00
         0.00000E+00
         0.00000E+00
         0.00000E+00
         0.00000E+00
         0.00000E+00
         0.00000E+00
         0.00000E+00
         0.00000E+00
         0.00000E+00
         0.00000E+00
         0.00000E+00
         0.00000E+00
         0.00000E+00
         0.00000E+00
         0.00000E+00
         0.00000E+00
         0.00000E+00
         0.00000E+00
         0.00000E+00
         0.00000E+00
         0.00000E+00
         0.00000E+00
         0.00000E+00
         0.00000E+00
         0.00000E+00
         0.00000E+00
         0.00000E+00
         0.00000E+00
         0.00000E+00
         0.00000E+00
         0.00000E+00
         0.00000E+00
         0.00000E+00
         0.00000E+00
         0.00000E+00
         0.00000E+00
         0.00000E+00
         0.00000E+00
         0.00000E+00
         0.00000E+00
         0.00000E+00
         0.00000E+00
         0.00000E+00
         0.00000E+00
         0.00000E+00
         0.00000E+00
         0.00000E+00
         0.00000E+00
         0.00000E+00
         0.00000E+00
         0.00000E+00
         0.00000E+00
         0.00000E+00
         0.00000E+00
         0.00000E+00
         0.00000E+00
         0.00000E+00
         0.00000E+00
         0.00000E+00
         0.00000E+00
         0.00000E+00
         0.00000E+00
         0.00000E+00
         0.00000E+00
         0.00000E+00
         0.00000E+00
         0.00000E+00
         0.00000E+00
         0.00000E+00
         0.00000E+00
         0.00000E+00
         0.00000E+00
         0.00000E+00
         0.00000E+00
         0.00000E+00
         0.00000E+00
         0.00000E+00
         0.00000E+00
         0.00000E+00
         0.00000E+00
         0.00000E+00
         0.00000E+00
         0.00000E+00
         0.00000E+00
         0.00000E+00
         0.00000E+00
         0.00000E+00
         0.00000E+00
         0.00000E+00
         0.00000E+00
         0.00000E+00
         0.00000E+00
         0.00000E+00
         0.00000E+00
         0.00000E+00
         0.00000E+00
         0.00000E+00
         0.00000E+00
         0.00000E+00
         0.00000E+00
         0.00000E+00
         0.00000E+00
         0.00000E+00
         0.00000E+00
         0.00000E+00
         0.00000E+00
         0.00000E+00
         0.00000E+00
         0.00000E+00
         0.00000E+00
         0.00000E+00
         0.00000E+00
         0.00000E+00
         0.00000E+00
         0.00000E+00
         0.00000E+00
         0.00000E+00
         0.00000E+00
         0.00000E+00
         0.00000E+00
         0.00000E+00
         0.00000E+00
         0.00000E+00
         0.00000E+00
         0.00000E+00
         0.00000E+00
         0.00000E+00
         0.00000E+00
         0.00000E+00
         0.00000E+00
         0.00000E+00
         0.00000E+00
         0.00000E+00
         0.00000E+00
         0.00000E+00
         0.00000E+00
         0.00000E+00
         0.00000E+00
         0.00000E+00
         0.00000E+00
         0.00000E+00
         0.00000E+00
         0.00000E+00
         0.00000E+00
         0.00000E+00
         0.00000E+00
         0.00000E+00
         0.00000E+00
         0.00000E+00
         0.00000E+00
         0.00000E+00
         0.00000E+00
         0.00000E+00
         0.00000E+00
         0.00000E+00
         0.00000E+00
         0.00000E+00
         0.00000E+00
         0.00000E+00
         0.00000E+00
         0.00000E+00
         0.00000E+00
         0.00000E+00
         0.00000E+00
         0.00000E+00
         0.00000E+00
         0.00000E+00
         0.00000E+00
         0.00000E+00
         0.00000E+00
         0.00000E+00
         0.00000E+00
         0.00000E+00
         0.00000E+00
         0.00000E+00
         0.00000E+00
         0.00000E+00
         0.00000E+00
         0.00000E+00
         0.00000E+00
         0.00000E+00
         0.00000E+00
         0.00000E+00
         0.00000E+00
         0.00000E+00
         0.00000E+00
         0.00000E+00
         0.00000E+00
         0.00000E+00
         0.00000E+00
         0.00000E+00
         0.00000E+00
         0.00000E+00
         0.00000E+00
         0.00000E+00
         0.00000E+00
         0.00000E+00
         0.00000E+00
         0.00000E+00
         0.00000E+00
         0.00000E+00
         0.00000E+00
         0.00000E+00
         0.00000E+00
         0.00000E+00
         0.00000E+00
         0.00000E+00
         0.00000E+00
         0.00000E+00
         0.00000E+00
         0.00000E+00
         0.00000E+00
         0.00000E+00
         0.00000E+00
         0.00000E+00
         0.00000E+00
         0.00000E+00
         0.00000E+00
         0.00000E+00
         0.00000E+00
         0.00000E+00
         0.00000E+00
         0.00000E+00
         0.00000E+00
         0.00000E+00
         0.00000E+00
         0.00000E+00
         0.00000E+00
         0.00000E+00
         0.00000E+00
         0.00000E+00
         0.00000E+00
         0.00000E+00
         0.00000E+00
         0.00000E+00
         0.00000E+00
         0.00000E+00
         0.00000E+00
         0.00000E+00
         0.00000E+00
         0.00000E+00
         0.00000E+00
         0.00000E+00
         0.00000E+00
         0.00000E+00
         0.00000E+00
         0.00000E+00
         0.00000E+00
         0.00000E+00
         0.00000E+00
         0.00000E+00
         0.00000E+00
         0.00000E+00
         0.00000E+00
         0.00000E+00
         0.00000E+00
         0.00000E+00
         0.00000E+00
         0.00000E+00
         0.00000E+00
         0.00000E+00
         0.00000E+00
         0.00000E+00
         0.00000E+00
         0.00000E+00
         0.00000E+00
         0.00000E+00
         0.00000E+00
         0.00000E+00
         0.00000E+00
         0.00000E+00
         0.00000E+00
         0.00000E+00
         0.00000E+00
         0.00000E+00
         0.00000E+00
         0.00000E+00
         0.00000E+00
         0.00000E+00
         0.00000E+00
         0.00000E+00
         0.00000E+00
         0.00000E+00
         0.00000E+00
         0.00000E+00
         0.00000E+00
         0.00000E+00
         0.00000E+00
         0.00000E+00
         0.00000E+00
         0.00000E+00
         0.00000E+00
         0.00000E+00
         0.00000E+00
         0.00000E+00
         0.00000E+00
         0.00000E+00
         0.00000E+00
         0.00000E+00
         0.00000E+00
         0.00000E+00
         0.00000E+00
         0.00000E+00
         0.00000E+00
         0.00000E+00
         0.00000E+00
         0.00000E+00
         0.00000E+00
         0.00000E+00
         0.00000E+00
         0.00000E+00
         0.00000E+00
         0.00000E+00
         0.00000E+00
         0.00000E+00
         0.00000E+00
         0.00000E+00
         0.00000E+00
         0.00000E+00
         0.00000E+00
         0.00000E+00
         0.00000E+00
         0.00000E+00
         0.00000E+00
         0.00000E+00
         0.00000E+00
         0.00000E+00
         0.00000E+00
         0.00000E+00
         0.00000E+00
         0.00000E+00
         0.00000E+00
         0.00000E+00
         0.00000E+00
         0.00000E+00
         0.00000E+00
         0.00000E+00
         0.00000E+00
         0.00000E+00
         0.00000E+00
         0.00000E+00
         0.00000E+00
         0.00000E+00
         0.00000E+00
         0.00000E+00
         0.00000E+00
         0.00000E+00
         0.00000E+00
         0.00000E+00
         0.00000E+00
         0.00000E+00
         0.00000E+00
         0.00000E+00
         0.00000E+00
         0.00000E+00
         0.00000E+00
         0.00000E+00
         0.00000E+00
         0.00000E+00
         0.00000E+00
         0.00000E+00
         0.00000E+00
         0.00000E+00
         0.00000E+00
         0.00000E+00
         0.00000E+00
         0.00000E+00
         0.00000E+00
         0.00000E+00
         0.00000E+00
         0.00000E+00
         0.00000E+00
         0.00000E+00
         0.00000E+00
         0.00000E+00
         0.00000E+00
         0.00000E+00
         0.00000E+00
         0.00000E+00
         0.00000E+00
         0.00000E+00
         0.00000E+00
         0.00000E+00
         0.00000E+00
         0.00000E+00
         0.00000E+00
         0.00000E+00
         0.00000E+00
         0.00000E+00
         0.00000E+00
         0.00000E+00
         0.00000E+00
         0.00000E+00
         0.00000E+00
         0.00000E+00
         0.00000E+00
         0.00000E+00
         0.00000E+00
         0.00000E+00
         0.00000E+00
         0.00000E+00
         0.00000E+00
         0.00000E+00
         0.00000E+00
         0.00000E+00
         0.00000E+00
         0.00000E+00
         0.00000E+00
         0.00000E+00
         0.00000E+00
         0.00000E+00
         0.00000E+00
         0.00000E+00
         0.00000E+00
         0.00000E+00
         0.00000E+00
         0.00000E+00
         0.00000E+00
         0.00000E+00
         0.00000E+00
         0.00000E+00
         0.00000E+00
         0.00000E+00
         0.00000E+00
         0.00000E+00
         0.00000E+00
         0.00000E+00
         0.00000E+00
         0.00000E+00
         0.00000E+00
         0.00000E+00
         0.00000E+00
         0.00000E+00
         0.00000E+00
         0.00000E+00
         0.00000E+00
         0.00000E+00
         0.00000E+00
         0.00000E+00
         0.00000E+00
         0.00000E+00
         0.00000E+00
         0.00000E+00
         0.00000E+00
         0.00000E+00
         0.00000E+00
         0.00000E+00
         0.00000E+00
         0.00000E+00
         0.00000E+00
         0.00000E+00
         0.00000E+00
         0.00000E+00
         0.00000E+00
         0.00000E+00
         0.00000E+00
         0.00000E+00
         0.00000E+00
         0.00000E+00
         0.00000E+00
         0.00000E+00
         0.00000E+00
         0.00000E+00
         0.00000E+00
         0.00000E+00
         0.00000E+00
         0.00000E+00
         0.00000E+00
         0.00000E+00
         0.00000E+00
         0.00000E+00
         0.00000E+00
         0.00000E+00
         0.00000E+00
         0.00000E+00
         0.00000E+00
         0.00000E+00
         0.00000E+00
         0.00000E+00
         0.00000E+00
         0.00000E+00
         0.00000E+00
         0.00000E+00
         0.00000E+00
         0.00000E+00
         0.00000E+00
         0.00000E+00
         0.00000E+00
         0.00000E+00
         0.00000E+00
         0.00000E+00
         0.00000E+00
         0.00000E+00
         0.00000E+00
         0.00000E+00
         0.00000E+00
         0.00000E+00
         0.00000E+00
         0.00000E+00
         0.00000E+00
         0.00000E+00
         0.00000E+00
         0.00000E+00
         0.00000E+00
         0.00000E+00
         0.00000E+00
         0.00000E+00
         0.00000E+00
         0.00000E+00
         0.00000E+00
         0.00000E+00
         0.00000E+00
         0.00000E+00
         0.00000E+00
         0.00000E+00
         0.00000E+00
         0.00000E+00
         0.00000E+00
         0.00000E+00
         0.00000E+00
         0.00000E+00
         0.00000E+00
         0.00000E+00
         0.00000E+00
         0.00000E+00
         0.00000E+00
         0.00000E+00
         0.00000E+00
         0.00000E+00
         0.00000E+00
         0.00000E+00
         0.00000E+00
         0.00000E+00
         0.00000E+00
         0.00000E+00
         0.00000E+00
         0.00000E+00
         0.00000E+00
         0.00000E+00
         0.00000E+00
         0.00000E+00
         0.00000E+00
         0.00000E+00
         0.00000E+00
         0.00000E+00
         0.00000E+00
         0.00000E+00
         0.00000E+00
         0.00000E+00
         0.00000E+00
         0.00000E+00
         0.00000E+00
         0.00000E+00
         0.00000E+00
         0.00000E+00
         0.00000E+00
         0.00000E+00
         0.00000E+00
         0.00000E+00
         0.00000E+00
         0.00000E+00
         0.00000E+00
         0.00000E+00
         0.00000E+00
         0.00000E+00
         0.00000E+00
         0.00000E+00
         0.00000E+00
         0.00000E+00
         0.00000E+00
         0.00000E+00
         0.00000E+00
         0.00000E+00
         0.00000E+00
         0.00000E+00
         0.00000E+00
         0.00000E+00
         0.00000E+00
         0.00000E+00
         0.00000E+00
         0.00000E+00
         0.00000E+00
         0.00000E+00
         0.00000E+00
         0.00000E+00
         0.00000E+00
         0.00000E+00
         0.00000E+00
         0.00000E+00
         0.00000E+00
         0.00000E+00
         0.00000E+00
         0.00000E+00
         0.00000E+00
         0.00000E+00
         0.00000E+00
         0.00000E+00
         0.00000E+00
         0.00000E+00
         0.00000E+00
         0.00000E+00
         0.00000E+00
         0.00000E+00
         0.00000E+00
         0.00000E+00
         0.00000E+00
         0.00000E+00
         0.00000E+00
         0.00000E+00
         0.00000E+00
         0.00000E+00
         0.00000E+00
         0.00000E+00
         0.00000E+00
         0.00000E+00
         0.00000E+00
         0.00000E+00
         0.00000E+00
         0.00000E+00
         0.00000E+00
         0.00000E+00
         0.00000E+00
         0.00000E+00
         0.00000E+00
         0.00000E+00
         0.00000E+00
         0.00000E+00
         0.00000E+00
         0.00000E+00
         0.00000E+00
         0.00000E+00
         0.00000E+00
         0.00000E+00
         0.00000E+00
         0.00000E+00
         0.00000E+00
         0.00000E+00
         0.00000E+00
         0.00000E+00
         0.00000E+00
         0.00000E+00
         0.00000E+00
         0.00000E+00
         0.00000E+00
         0.00000E+00
         0.00000E+00
         0.00000E+00
         0.00000E+00
         0.00000E+00
         0.00000E+00
         0.00000E+00
         0.00000E+00
         0.00000E+00
         0.00000E+00
         0.00000E+00
         0.00000E+00
         0.00000E+00
         0.00000E+00
         0.00000E+00
         0.00000E+00
         0.00000E+00
         0.00000E+00
         0.00000E+00
         0.00000E+00
         0.00000E+00
         0.00000E+00
         0.00000E+00
         0.00000E+00
         0.00000E+00
         0.00000E+00
         0.00000E+00
         0.00000E+00
         0.00000E+00
         0.00000E+00
         0.00000E+00
         0.00000E+00
         0.00000E+00
         0.00000E+00
         0.00000E+00
         0.00000E+00
         0.00000E+00
         0.00000E+00
         0.00000E+00
         0.00000E+00
         0.00000E+00
         0.00000E+00
         0.00000E+00
         0.00000E+00
         0.00000E+00
         0.00000E+00
         0.00000E+00
         0.00000E+00
         0.00000E+00
         0.00000E+00
         0.00000E+00
         0.00000E+00
         0.00000E+00
         0.00000E+00
         0.00000E+00
         0.00000E+00
         0.00000E+00
         0.00000E+00
         0.00000E+00
         0.00000E+00
         0.00000E+00
         0.00000E+00
         0.00000E+00
         0.00000E+00
         0.00000E+00
         0.00000E+00
         0.00000E+00
         0.00000E+00
         0.00000E+00
         0.00000E+00
         0.00000E+00
         0.00000E+00
         0.00000E+00
         0.00000E+00
         0.00000E+00
         0.00000E+00
         0.00000E+00
         0.00000E+00
         0.00000E+00
         0.00000E+00
         0.00000E+00
         0.00000E+00
         0.00000E+00
         0.00000E+00
         0.00000E+00
         0.00000E+00
         0.00000E+00
         0.00000E+00
         0.00000E+00
         0.00000E+00
         0.00000E+00
         0.00000E+00
         0.00000E+00
         0.00000E+00
         0.00000E+00
         0.00000E+00
         0.00000E+00
         0.00000E+00
         0.00000E+00
         0.00000E+00
         0.00000E+00
         0.00000E+00
         0.00000E+00
         0.00000E+00
         0.00000E+00
         0.00000E+00
         0.00000E+00
         0.00000E+00
         0.00000E+00
         0.00000E+00
         0.00000E+00
         0.00000E+00
         0.00000E+00
         0.00000E+00
         0.00000E+00
         0.00000E+00
         0.00000E+00
         0.00000E+00
         0.00000E+00
         0.00000E+00
         0.00000E+00
         0.00000E+00
         0.00000E+00
         0.00000E+00
         0.00000E+00
         0.00000E+00
         0.00000E+00
         0.00000E+00
         0.00000E+00
         0.00000E+00
         0.00000E+00
         0.00000E+00
         0.00000E+00
         0.00000E+00
         0.00000E+00
         0.00000E+00
         0.00000E+00
         0.00000E+00
         0.00000E+00
         0.00000E+00
         0.00000E+00
         0.00000E+00
         0.00000E+00
         0.00000E+00
         0.00000E+00
         0.00000E+00
         0.00000E+00
         0.00000E+00
         0.00000E+00
         0.00000E+00
         0.00000E+00
         0.00000E+00
         0.00000E+00
         0.00000E+00
         0.00000E+00
         0.00000E+00
         0.00000E+00
         0.00000E+00
         0.00000E+00
         0.00000E+00
         0.00000E+00
         0.00000E+00
         0.00000E+00
         0.00000E+00
         0.00000E+00
         0.00000E+00
         0.00000E+00
         0.00000E+00
         0.00000E+00
         0.00000E+00
         0.00000E+00
         0.00000E+00
         0.00000E+00
         0.00000E+00
         0.00000E+00
         0.00000E+00
         0.00000E+00
         0.00000E+00
         0.00000E+00
         0.00000E+00
         0.00000E+00
         0.00000E+00
         0.00000E+00
         0.00000E+00
         0.00000E+00
         0.00000E+00
         0.00000E+00
         0.00000E+00
         0.00000E+00
         0.00000E+00
         0.00000E+00
         0.00000E+00
         0.00000E+00
         0.00000E+00
         0.00000E+00
         0.00000E+00
         0.00000E+00
         0.00000E+00
         0.00000E+00
         0.00000E+00
         0.00000E+00
         0.00000E+00
         0.00000E+00
         0.00000E+00
         0.00000E+00
         0.00000E+00
         0.00000E+00
         0.00000E+00
         0.00000E+00
         0.00000E+00
         0.00000E+00
         0.00000E+00
         0.00000E+00
         0.00000E+00
         0.00000E+00
         0.00000E+00
         0.00000E+00
         0.00000E+00
         0.00000E+00
         0.00000E+00
         0.00000E+00
         0.00000E+00
         0.00000E+00
         0.00000E+00
         0.00000E+00
         0.00000E+00
         0.00000E+00
         0.00000E+00
         0.00000E+00
         0.00000E+00
         0.00000E+00
         0.00000E+00
         0.00000E+00
         0.00000E+00
         0.00000E+00
         0.00000E+00
         0.00000E+00
         0.00000E+00
         0.00000E+00
         0.00000E+00
         0.00000E+00
         0.00000E+00
         0.00000E+00
         0.00000E+00
         0.00000E+00
         0.00000E+00
         0.00000E+00
         0.00000E+00
         0.00000E+00
         0.00000E+00
         0.00000E+00
         0.00000E+00
         0.00000E+00
         0.00000E+00
         0.00000E+00
         0.00000E+00
         0.00000E+00
         0.00000E+00
         0.00000E+00
         0.00000E+00
         0.00000E+00
         0.00000E+00
         0.00000E+00
         0.00000E+00
         0.00000E+00
         0.00000E+00
         0.00000E+00
         0.00000E+00
         0.00000E+00
         0.00000E+00
         0.00000E+00
         0.00000E+00
         0.00000E+00
         0.00000E+00
         0.00000E+00
         0.00000E+00
         0.00000E+00
         0.00000E+00
         0.00000E+00
         0.00000E+00
         0.00000E+00
         0.00000E+00
         0.00000E+00
         0.00000E+00
         0.00000E+00
         0.00000E+00
         0.00000E+00
         0.00000E+00
         0.00000E+00
         0.00000E+00
         0.00000E+00
         0.00000E+00
         0.00000E+00
         0.00000E+00
         0.00000E+00
         0.00000E+00
         0.00000E+00
         0.00000E+00
         0.00000E+00
         0.00000E+00
         0.00000E+00
         0.00000E+00
         0.00000E+00
         0.00000E+00
         0.00000E+00
         0.00000E+00
         0.00000E+00
         0.00000E+00
         0.00000E+00
         0.00000E+00
         0.00000E+00
         0.00000E+00
         0.00000E+00
         0.00000E+00
         0.00000E+00
         0.00000E+00
         0.00000E+00
         0.00000E+00
         0.00000E+00
         0.00000E+00
         0.00000E+00
         0.00000E+00
         0.00000E+00
         0.00000E+00
         0.00000E+00
         0.00000E+00
         0.00000E+00
         0.00000E+00
         0.00000E+00
         0.00000E+00
         0.00000E+00
         0.00000E+00
         0.00000E+00
         0.00000E+00
         0.00000E+00
         0.00000E+00
         0.00000E+00
         0.00000E+00
         0.00000E+00
         0.00000E+00
         0.00000E+00
         0.00000E+00
         0.00000E+00
         0.00000E+00
         0.00000E+00
         0.00000E+00
         0.00000E+00
         0.00000E+00
         0.00000E+00
         0.00000E+00
         0.00000E+00
         0.00000E+00
         0.00000E+00
         0.00000E+00
         0.00000E+00
         0.00000E+00
         0.00000E+00
         0.00000E+00
         0.00000E+00
         0.00000E+00
         0.00000E+00
         0.00000E+00
         0.00000E+00
         0.00000E+00
         0.00000E+00
         0.00000E+00
         0.00000E+00
         0.00000E+00
         0.00000E+00
         0.00000E+00
         0.00000E+00
         0.00000E+00
         0.00000E+00
         0.00000E+00
         0.00000E+00
         0.00000E+00
         0.00000E+00
         0.00000E+00
         0.00000E+00
         0.00000E+00
         0.00000E+00
         0.00000E+00
         0.00000E+00
         0.00000E+00
         0.00000E+00
         0.00000E+00
         0.00000E+00
         0.00000E+00
         0.00000E+00
         0.00000E+00
         0.00000E+00
         0.00000E+00
         0.00000E+00
         0.00000E+00
         0.00000E+00
         0.00000E+00
         0.00000E+00
         0.00000E+00
         0.00000E+00
         0.00000E+00
         0.00000E+00
         0.00000E+00
         0.00000E+00
         0.00000E+00
         0.00000E+00
         0.00000E+00
         0.00000E+00
         0.00000E+00
         0.00000E+00
         0.00000E+00
         0.00000E+00
         0.00000E+00
         0.00000E+00
         0.00000E+00
         0.00000E+00
         0.00000E+00
         0.00000E+00
         0.00000E+00
         0.00000E+00
         0.00000E+00
         0.00000E+00
         0.00000E+00
         0.00000E+00
         0.00000E+00
         0.00000E+00
         0.00000E+00
         0.00000E+00
         0.00000E+00
         0.00000E+00
         0.00000E+00
         0.00000E+00
         0.00000E+00
         0.00000E+00
         0.00000E+00
         0.00000E+00
         0.00000E+00
         0.00000E+00
         0.00000E+00
         0.00000E+00
         0.00000E+00
         0.00000E+00
         0.00000E+00
         0.00000E+00
         0.00000E+00
         0.00000E+00
         0.00000E+00
         0.00000E+00
         0.00000E+00
         0.00000E+00
         0.00000E+00
         0.00000E+00
         0.00000E+00
         0.00000E+00
         0.00000E+00
         0.00000E+00
         0.00000E+00
         0.00000E+00
         0.00000E+00
         0.00000E+00
         0.00000E+00
         0.00000E+00
         0.00000E+00
         0.00000E+00
         0.00000E+00
         0.00000E+00
         0.00000E+00
         0.00000E+00
         0.00000E+00
         0.00000E+00
         0.00000E+00
         0.00000E+00
         0.00000E+00
         0.00000E+00
         0.00000E+00
         0.00000E+00
         0.00000E+00
         0.00000E+00
         0.00000E+00
         0.00000E+00
         0.00000E+00
         0.00000E+00
         0.00000E+00
         0.00000E+00
         0.00000E+00
         0.00000E+00
         0.00000E+00
         0.00000E+00
         0.00000E+00
         0.00000E+00
         0.00000E+00
         0.00000E+00
         0.00000E+00
         0.00000E+00
         0.00000E+00
         0.00000E+00
         0.00000E+00
         0.00000E+00
         0.00000E+00
         0.00000E+00
         0.00000E+00
         0.00000E+00
         0.00000E+00
         0.00000E+00
         0.00000E+00
         0.00000E+00
         0.00000E+00
         0.00000E+00
         0.00000E+00
         0.00000E+00
         0.00000E+00
         0.00000E+00
         0.00000E+00
         0.00000E+00
         0.00000E+00
         0.00000E+00
         0.00000E+00
         0.00000E+00
         0.00000E+00
         0.00000E+00
         0.00000E+00
         0.00000E+00
         0.00000E+00
         0.00000E+00
         0.00000E+00
         0.00000E+00
         0.00000E+00
         0.00000E+00
         0.00000E+00
         0.00000E+00
         0.00000E+00
         0.00000E+00
         0.00000E+00
         0.00000E+00
         0.00000E+00
         0.00000E+00
         0.00000E+00
         0.00000E+00
         0.00000E+00
         0.00000E+00
         0.00000E+00
         0.00000E+00
         0.00000E+00
         0.00000E+00
         0.00000E+00
         0.00000E+00
         0.00000E+00
         0.00000E+00
         0.00000E+00
         0.00000E+00
         0.00000E+00
         0.00000E+00
         0.00000E+00
         0.00000E+00
         0.00000E+00
         0.00000E+00
         0.00000E+00
         0.00000E+00
         0.00000E+00
         0.00000E+00
         0.00000E+00
         0.00000E+00
         0.00000E+00
         0.00000E+00
         0.00000E+00
         0.00000E+00
         0.00000E+00
         0.00000E+00
         0.00000E+00
         0.00000E+00
         0.00000E+00
         0.00000E+00
         0.00000E+00
         0.00000E+00
         0.00000E+00
         0.00000E+00
         0.00000E+00
         0.00000E+00
         0.00000E+00
         0.00000E+00
         0.00000E+00
         0.00000E+00
         0.00000E+00
         0.00000E+00
         0.00000E+00
         0.00000E+00
         0.00000E+00
         0.00000E+00
         0.00000E+00
         0.00000E+00
         0.00000E+00
         0.00000E+00
         0.00000E+00
         0.00000E+00
         0.00000E+00
         0.00000E+00
         0.00000E+00
         0.00000E+00
         0.00000E+00
         0.00000E+00
         0.00000E+00
         0.00000E+00
         0.00000E+00
         0.00000E+00
         0.00000E+00
         0.00000E+00
         0.00000E+00
         0.00000E+00
         0.00000E+00
         0.00000E+00
         0.00000E+00
         0.00000E+00
         0.00000E+00
         0.00000E+00
         0.00000E+00
         0.00000E+00
         0.00000E+00
         0.00000E+00
         0.00000E+00
         0.00000E+00
         0.00000E+00
         0.00000E+00
         0.00000E+00
         0.00000E+00
         0.00000E+00
         0.00000E+00
         0.00000E+00
         0.00000E+00
         0.00000E+00
         0.00000E+00
         0.00000E+00
         0.00000E+00
         0.00000E+00
         0.00000E+00
         0.00000E+00
         0.00000E+00
         0.00000E+00
         0.00000E+00
         0.00000E+00
         0.00000E+00
         0.00000E+00
         0.00000E+00
         0.00000E+00
         0.00000E+00
         0.00000E+00
         0.00000E+00
         0.00000E+00
         0.00000E+00
         0.00000E+00
         0.00000E+00
         0.00000E+00
         0.00000E+00
         0.00000E+00
         0.00000E+00
         0.00000E+00
         0.00000E+00
         0.00000E+00
         0.00000E+00
         0.00000E+00
         0.00000E+00
         0.00000E+00
         0.00000E+00
         0.00000E+00
         0.00000E+00
         0.00000E+00
         0.00000E+00
         0.00000E+00
         0.00000E+00
         0.00000E+00
         0.00000E+00
         0.00000E+00
         0.00000E+00
         0.00000E+00
         0.00000E+00
         0.00000E+00
         0.00000E+00
         0.00000E+00
         0.00000E+00
         0.00000E+00
         0.00000E+00
         0.00000E+00
         0.00000E+00
         0.00000E+00
         0.00000E+00
         0.00000E+00
         0.00000E+00
         0.00000E+00
         0.00000E+00
         0.00000E+00
         0.00000E+00
         0.00000E+00
         0.00000E+00
         0.00000E+00
         0.00000E+00
         0.00000E+00
         0.00000E+00
         0.00000E+00
         0.00000E+00
         0.00000E+00
         0.00000E+00
         0.00000E+00
         0.00000E+00
         0.00000E+00
         0.00000E+00
         0.00000E+00
         0.00000E+00
         0.00000E+00
         0.00000E+00
         0.00000E+00
         0.00000E+00
         0.00000E+00
         0.00000E+00
         0.00000E+00
         0.00000E+00
         0.00000E+00
         0.00000E+00
         0.00000E+00
         0.00000E+00
         0.00000E+00
         0.00000E+00
         0.00000E+00
         0.00000E+00
         0.00000E+00
         0.00000E+00
         0.00000E+00
         0.00000E+00
         0.00000E+00
         0.00000E+00
         0.00000E+00
         0.00000E+00
         0.00000E+00
         0.00000E+00
         0.00000E+00
         0.00000E+00
         0.00000E+00
         0.00000E+00
         0.00000E+00
         0.00000E+00
         0.00000E+00
         0.00000E+00
         0.00000E+00
         0.00000E+00
         0.00000E+00
         0.00000E+00
         0.00000E+00
         0.00000E+00
         0.00000E+00
         0.00000E+00
         0.00000E+00
         0.00000E+00
         0.00000E+00
         0.00000E+00
         0.00000E+00
         0.00000E+00
         0.00000E+00
         0.00000E+00
         0.00000E+00
         0.00000E+00
         0.00000E+00
         0.00000E+00
         0.00000E+00
         0.00000E+00
         0.00000E+00
         0.00000E+00
         0.00000E+00
         0.00000E+00
         0.00000E+00
         0.00000E+00
         0.00000E+00
         0.00000E+00
         0.00000E+00
         0.00000E+00
         0.00000E+00
         0.00000E+00
         0.00000E+00
         0.00000E+00
         0.00000E+00
         0.00000E+00
         0.00000E+00
         0.00000E+00
         0.00000E+00
         0.00000E+00
         0.00000E+00
         0.00000E+00
         0.00000E+00
         0.00000E+00
         0.00000E+00
         0.00000E+00
         0.00000E+00
         0.00000E+00
         0.00000E+00
         0.00000E+00
         0.00000E+00
         0.00000E+00
         0.00000E+00
         0.00000E+00
         0.00000E+00
         0.00000E+00
         0.00000E+00
         0.00000E+00
         0.00000E+00
         0.00000E+00
         0.00000E+00
         0.00000E+00
         0.00000E+00
         0.00000E+00
         0.00000E+00
         0.00000E+00
         0.00000E+00
         0.00000E+00
         0.00000E+00
         0.00000E+00
         0.00000E+00
         0.00000E+00
         0.00000E+00
         0.00000E+00
         0.00000E+00
         0.00000E+00
         0.00000E+00
         0.00000E+00
         0.00000E+00
         0.00000E+00
         0.00000E+00
         0.00000E+00
         0.00000E+00
         0.00000E+00
         0.00000E+00
         0.00000E+00
         0.00000E+00
         0.00000E+00
         0.00000E+00
         0.00000E+00
         0.00000E+00
         0.00000E+00
         0.00000E+00
         0.00000E+00
         0.00000E+00
         0.00000E+00
         0.00000E+00
         0.00000E+00
         0.00000E+00
         0.00000E+00
         0.00000E+00
         0.00000E+00
         0.00000E+00
         0.00000E+00
         0.00000E+00
         0.00000E+00
         0.00000E+00
         0.00000E+00
         0.00000E+00
         0.00000E+00
         0.00000E+00
         0.00000E+00
         0.00000E+00
         0.00000E+00
         0.00000E+00
         0.00000E+00
         0.00000E+00
         0.00000E+00
         0.00000E+00
         0.00000E+00
         0.00000E+00
         0.00000E+00
         0.00000E+00
         0.00000E+00
         0.00000E+00
         0.00000E+00
         0.00000E+00
         0.00000E+00
         0.00000E+00
         0.00000E+00
         0.00000E+00
         0.00000E+00
         0.00000E+00
         0.00000E+00
         0.00000E+00
         0.00000E+00
         0.00000E+00
         0.00000E+00
         0.00000E+00
         0.00000E+00
         0.00000E+00
         0.00000E+00
         0.00000E+00
         0.00000E+00
         0.00000E+00
         0.00000E+00
         0.00000E+00
         0.00000E+00
         0.00000E+00
         0.00000E+00
         0.00000E+00
         0.00000E+00
         0.00000E+00
         0.00000E+00
         0.00000E+00
         0.00000E+00
         0.00000E+00
         0.00000E+00
         0.00000E+00
         0.00000E+00
         0.00000E+00
         0.00000E+00
         0.00000E+00
         0.00000E+00
         0.00000E+00
         0.00000E+00
         0.00000E+00
         0.00000E+00
         0.00000E+00
         0.00000E+00
         0.00000E+00
         0.00000E+00
         0.00000E+00
         0.00000E+00
         0.00000E+00
         0.00000E+00
         0.00000E+00
  
SCALARS                 acceleration_y  double 1
LOOKUP_TABLE default
         0.00000E+00
         0.00000E+00
         0.00000E+00
         0.00000E+00
         0.00000E+00
         0.00000E+00
         0.00000E+00
         0.00000E+00
         0.00000E+00
         0.00000E+00
         0.00000E+00
         0.00000E+00
         0.00000E+00
         0.00000E+00
         0.00000E+00
         0.00000E+00
         0.00000E+00
         0.00000E+00
         0.00000E+00
         0.00000E+00
         0.00000E+00
         0.00000E+00
         0.00000E+00
         0.00000E+00
         0.00000E+00
         0.00000E+00
         0.00000E+00
         0.00000E+00
         0.00000E+00
         0.00000E+00
         0.00000E+00
         0.00000E+00
         0.00000E+00
         0.00000E+00
         0.00000E+00
         0.00000E+00
         0.00000E+00
         0.00000E+00
         0.00000E+00
         0.00000E+00
         0.00000E+00
         0.00000E+00
         0.00000E+00
         0.00000E+00
         0.00000E+00
         0.00000E+00
         0.00000E+00
         0.00000E+00
         0.00000E+00
         0.00000E+00
         0.00000E+00
         0.00000E+00
         0.00000E+00
         0.00000E+00
         0.00000E+00
         0.00000E+00
         0.00000E+00
         0.00000E+00
         0.00000E+00
         0.00000E+00
         0.00000E+00
         0.00000E+00
         0.00000E+00
         0.00000E+00
         0.00000E+00
         0.00000E+00
         0.00000E+00
         0.00000E+00
         0.00000E+00
         0.00000E+00
         0.00000E+00
         0.00000E+00
         0.00000E+00
         0.00000E+00
         0.00000E+00
         0.00000E+00
         0.00000E+00
         0.00000E+00
         0.00000E+00
         0.00000E+00
         0.00000E+00
         0.00000E+00
         0.00000E+00
         0.00000E+00
         0.00000E+00
         0.00000E+00
         0.00000E+00
         0.00000E+00
         0.00000E+00
         0.00000E+00
         0.00000E+00
         0.00000E+00
         0.00000E+00
         0.00000E+00
         0.00000E+00
         0.00000E+00
         0.00000E+00
         0.00000E+00
         0.00000E+00
         0.00000E+00
         0.00000E+00
         0.00000E+00
         0.00000E+00
         0.00000E+00
         0.00000E+00
         0.00000E+00
         0.00000E+00
         0.00000E+00
         0.00000E+00
         0.00000E+00
         0.00000E+00
         0.00000E+00
         0.00000E+00
         0.00000E+00
         0.00000E+00
         0.00000E+00
         0.00000E+00
         0.00000E+00
         0.00000E+00
         0.00000E+00
         0.00000E+00
         0.00000E+00
         0.00000E+00
         0.00000E+00
         0.00000E+00
         0.00000E+00
         0.00000E+00
         0.00000E+00
         0.00000E+00
         0.00000E+00
         0.00000E+00
         0.00000E+00
         0.00000E+00
         0.00000E+00
         0.00000E+00
         0.00000E+00
         0.00000E+00
         0.00000E+00
         0.00000E+00
         0.00000E+00
         0.00000E+00
         0.00000E+00
         0.00000E+00
         0.00000E+00
         0.00000E+00
         0.00000E+00
         0.00000E+00
         0.00000E+00
         0.00000E+00
         0.00000E+00
         0.00000E+00
         0.00000E+00
         0.00000E+00
         0.00000E+00
         0.00000E+00
         0.00000E+00
         0.00000E+00
         0.00000E+00
         0.00000E+00
         0.00000E+00
         0.00000E+00
         0.00000E+00
         0.00000E+00
         0.00000E+00
         0.00000E+00
         0.00000E+00
         0.00000E+00
         0.00000E+00
         0.00000E+00
         0.00000E+00
         0.00000E+00
         0.00000E+00
         0.00000E+00
         0.00000E+00
         0.00000E+00
         0.00000E+00
         0.00000E+00
         0.00000E+00
         0.00000E+00
         0.00000E+00
         0.00000E+00
         0.00000E+00
         0.00000E+00
         0.00000E+00
         0.00000E+00
         0.00000E+00
         0.00000E+00
         0.00000E+00
         0.00000E+00
         0.00000E+00
         0.00000E+00
         0.00000E+00
         0.00000E+00
         0.00000E+00
         0.00000E+00
         0.00000E+00
         0.00000E+00
         0.00000E+00
         0.00000E+00
         0.00000E+00
         0.00000E+00
         0.00000E+00
         0.00000E+00
         0.00000E+00
         0.00000E+00
         0.00000E+00
         0.00000E+00
         0.00000E+00
         0.00000E+00
         0.00000E+00
         0.00000E+00
         0.00000E+00
         0.00000E+00
         0.00000E+00
         0.00000E+00
         0.00000E+00
         0.00000E+00
         0.00000E+00
         0.00000E+00
         0.00000E+00
         0.00000E+00
         0.00000E+00
         0.00000E+00
         0.00000E+00
         0.00000E+00
         0.00000E+00
         0.00000E+00
         0.00000E+00
         0.00000E+00
         0.00000E+00
         0.00000E+00
         0.00000E+00
         0.00000E+00
         0.00000E+00
         0.00000E+00
         0.00000E+00
         0.00000E+00
         0.00000E+00
         0.00000E+00
         0.00000E+00
         0.00000E+00
         0.00000E+00
         0.00000E+00
         0.00000E+00
         0.00000E+00
         0.00000E+00
         0.00000E+00
         0.00000E+00
         0.00000E+00
         0.00000E+00
         0.00000E+00
         0.00000E+00
         0.00000E+00
         0.00000E+00
         0.00000E+00
         0.00000E+00
         0.00000E+00
         0.00000E+00
         0.00000E+00
         0.00000E+00
         0.00000E+00
         0.00000E+00
         0.00000E+00
         0.00000E+00
         0.00000E+00
         0.00000E+00
         0.00000E+00
         0.00000E+00
         0.00000E+00
         0.00000E+00
         0.00000E+00
         0.00000E+00
         0.00000E+00
         0.00000E+00
         0.00000E+00
         0.00000E+00
         0.00000E+00
         0.00000E+00
         0.00000E+00
         0.00000E+00
         0.00000E+00
         0.00000E+00
         0.00000E+00
         0.00000E+00
         0.00000E+00
         0.00000E+00
         0.00000E+00
         0.00000E+00
         0.00000E+00
         0.00000E+00
         0.00000E+00
         0.00000E+00
         0.00000E+00
         0.00000E+00
         0.00000E+00
         0.00000E+00
         0.00000E+00
         0.00000E+00
         0.00000E+00
         0.00000E+00
         0.00000E+00
         0.00000E+00
         0.00000E+00
         0.00000E+00
         0.00000E+00
         0.00000E+00
         0.00000E+00
         0.00000E+00
         0.00000E+00
         0.00000E+00
         0.00000E+00
         0.00000E+00
         0.00000E+00
         0.00000E+00
         0.00000E+00
         0.00000E+00
         0.00000E+00
         0.00000E+00
         0.00000E+00
         0.00000E+00
         0.00000E+00
         0.00000E+00
         0.00000E+00
         0.00000E+00
         0.00000E+00
         0.00000E+00
         0.00000E+00
         0.00000E+00
         0.00000E+00
         0.00000E+00
         0.00000E+00
         0.00000E+00
         0.00000E+00
         0.00000E+00
         0.00000E+00
         0.00000E+00
         0.00000E+00
         0.00000E+00
         0.00000E+00
         0.00000E+00
         0.00000E+00
         0.00000E+00
         0.00000E+00
         0.00000E+00
         0.00000E+00
         0.00000E+00
         0.00000E+00
         0.00000E+00
         0.00000E+00
         0.00000E+00
         0.00000E+00
         0.00000E+00
         0.00000E+00
         0.00000E+00
         0.00000E+00
         0.00000E+00
         0.00000E+00
         0.00000E+00
         0.00000E+00
         0.00000E+00
         0.00000E+00
         0.00000E+00
         0.00000E+00
         0.00000E+00
         0.00000E+00
         0.00000E+00
         0.00000E+00
         0.00000E+00
         0.00000E+00
         0.00000E+00
         0.00000E+00
         0.00000E+00
         0.00000E+00
         0.00000E+00
         0.00000E+00
         0.00000E+00
         0.00000E+00
         0.00000E+00
         0.00000E+00
         0.00000E+00
         0.00000E+00
         0.00000E+00
         0.00000E+00
         0.00000E+00
         0.00000E+00
         0.00000E+00
         0.00000E+00
         0.00000E+00
         0.00000E+00
         0.00000E+00
         0.00000E+00
         0.00000E+00
         0.00000E+00
         0.00000E+00
         0.00000E+00
         0.00000E+00
         0.00000E+00
         0.00000E+00
         0.00000E+00
         0.00000E+00
         0.00000E+00
         0.00000E+00
         0.00000E+00
         0.00000E+00
         0.00000E+00
         0.00000E+00
         0.00000E+00
         0.00000E+00
         0.00000E+00
         0.00000E+00
         0.00000E+00
         0.00000E+00
         0.00000E+00
         0.00000E+00
         0.00000E+00
         0.00000E+00
         0.00000E+00
         0.00000E+00
         0.00000E+00
         0.00000E+00
         0.00000E+00
         0.00000E+00
         0.00000E+00
         0.00000E+00
         0.00000E+00
         0.00000E+00
         0.00000E+00
         0.00000E+00
         0.00000E+00
         0.00000E+00
         0.00000E+00
         0.00000E+00
         0.00000E+00
         0.00000E+00
         0.00000E+00
         0.00000E+00
         0.00000E+00
         0.00000E+00
         0.00000E+00
         0.00000E+00
         0.00000E+00
         0.00000E+00
         0.00000E+00
         0.00000E+00
         0.00000E+00
         0.00000E+00
         0.00000E+00
         0.00000E+00
         0.00000E+00
         0.00000E+00
         0.00000E+00
         0.00000E+00
         0.00000E+00
         0.00000E+00
         0.00000E+00
         0.00000E+00
         0.00000E+00
         0.00000E+00
         0.00000E+00
         0.00000E+00
         0.00000E+00
         0.00000E+00
         0.00000E+00
         0.00000E+00
         0.00000E+00
         0.00000E+00
         0.00000E+00
         0.00000E+00
         0.00000E+00
         0.00000E+00
         0.00000E+00
         0.00000E+00
         0.00000E+00
         0.00000E+00
         0.00000E+00
         0.00000E+00
         0.00000E+00
         0.00000E+00
         0.00000E+00
         0.00000E+00
         0.00000E+00
         0.00000E+00
         0.00000E+00
         0.00000E+00
         0.00000E+00
         0.00000E+00
         0.00000E+00
         0.00000E+00
         0.00000E+00
         0.00000E+00
         0.00000E+00
         0.00000E+00
         0.00000E+00
         0.00000E+00
         0.00000E+00
         0.00000E+00
         0.00000E+00
         0.00000E+00
         0.00000E+00
         0.00000E+00
         0.00000E+00
         0.00000E+00
         0.00000E+00
         0.00000E+00
         0.00000E+00
         0.00000E+00
         0.00000E+00
         0.00000E+00
         0.00000E+00
         0.00000E+00
         0.00000E+00
         0.00000E+00
         0.00000E+00
         0.00000E+00
         0.00000E+00
         0.00000E+00
         0.00000E+00
         0.00000E+00
         0.00000E+00
         0.00000E+00
         0.00000E+00
         0.00000E+00
         0.00000E+00
         0.00000E+00
         0.00000E+00
         0.00000E+00
         0.00000E+00
         0.00000E+00
         0.00000E+00
         0.00000E+00
         0.00000E+00
         0.00000E+00
         0.00000E+00
         0.00000E+00
         0.00000E+00
         0.00000E+00
         0.00000E+00
         0.00000E+00
         0.00000E+00
         0.00000E+00
         0.00000E+00
         0.00000E+00
         0.00000E+00
         0.00000E+00
         0.00000E+00
         0.00000E+00
         0.00000E+00
         0.00000E+00
         0.00000E+00
         0.00000E+00
         0.00000E+00
         0.00000E+00
         0.00000E+00
         0.00000E+00
         0.00000E+00
         0.00000E+00
         0.00000E+00
         0.00000E+00
         0.00000E+00
         0.00000E+00
         0.00000E+00
         0.00000E+00
         0.00000E+00
         0.00000E+00
         0.00000E+00
         0.00000E+00
         0.00000E+00
         0.00000E+00
         0.00000E+00
         0.00000E+00
         0.00000E+00
         0.00000E+00
         0.00000E+00
         0.00000E+00
         0.00000E+00
         0.00000E+00
         0.00000E+00
         0.00000E+00
         0.00000E+00
         0.00000E+00
         0.00000E+00
         0.00000E+00
         0.00000E+00
         0.00000E+00
         0.00000E+00
         0.00000E+00
         0.00000E+00
         0.00000E+00
         0.00000E+00
         0.00000E+00
         0.00000E+00
         0.00000E+00
         0.00000E+00
         0.00000E+00
         0.00000E+00
         0.00000E+00
         0.00000E+00
         0.00000E+00
         0.00000E+00
         0.00000E+00
         0.00000E+00
         0.00000E+00
         0.00000E+00
         0.00000E+00
         0.00000E+00
         0.00000E+00
         0.00000E+00
         0.00000E+00
         0.00000E+00
         0.00000E+00
         0.00000E+00
         0.00000E+00
         0.00000E+00
         0.00000E+00
         0.00000E+00
         0.00000E+00
         0.00000E+00
         0.00000E+00
         0.00000E+00
         0.00000E+00
         0.00000E+00
         0.00000E+00
         0.00000E+00
         0.00000E+00
         0.00000E+00
         0.00000E+00
         0.00000E+00
         0.00000E+00
         0.00000E+00
         0.00000E+00
         0.00000E+00
         0.00000E+00
         0.00000E+00
         0.00000E+00
         0.00000E+00
         0.00000E+00
         0.00000E+00
         0.00000E+00
         0.00000E+00
         0.00000E+00
         0.00000E+00
         0.00000E+00
         0.00000E+00
         0.00000E+00
         0.00000E+00
         0.00000E+00
         0.00000E+00
         0.00000E+00
         0.00000E+00
         0.00000E+00
         0.00000E+00
         0.00000E+00
         0.00000E+00
         0.00000E+00
         0.00000E+00
         0.00000E+00
         0.00000E+00
         0.00000E+00
         0.00000E+00
         0.00000E+00
         0.00000E+00
         0.00000E+00
         0.00000E+00
         0.00000E+00
         0.00000E+00
         0.00000E+00
         0.00000E+00
         0.00000E+00
         0.00000E+00
         0.00000E+00
         0.00000E+00
         0.00000E+00
         0.00000E+00
         0.00000E+00
         0.00000E+00
         0.00000E+00
         0.00000E+00
         0.00000E+00
         0.00000E+00
         0.00000E+00
         0.00000E+00
         0.00000E+00
         0.00000E+00
         0.00000E+00
         0.00000E+00
         0.00000E+00
         0.00000E+00
         0.00000E+00
         0.00000E+00
         0.00000E+00
         0.00000E+00
         0.00000E+00
         0.00000E+00
         0.00000E+00
         0.00000E+00
         0.00000E+00
         0.00000E+00
         0.00000E+00
         0.00000E+00
         0.00000E+00
         0.00000E+00
         0.00000E+00
         0.00000E+00
         0.00000E+00
         0.00000E+00
         0.00000E+00
         0.00000E+00
         0.00000E+00
         0.00000E+00
         0.00000E+00
         0.00000E+00
         0.00000E+00
         0.00000E+00
         0.00000E+00
         0.00000E+00
         0.00000E+00
         0.00000E+00
         0.00000E+00
         0.00000E+00
         0.00000E+00
         0.00000E+00
         0.00000E+00
         0.00000E+00
         0.00000E+00
         0.00000E+00
         0.00000E+00
         0.00000E+00
         0.00000E+00
         0.00000E+00
         0.00000E+00
         0.00000E+00
         0.00000E+00
         0.00000E+00
         0.00000E+00
         0.00000E+00
         0.00000E+00
         0.00000E+00
         0.00000E+00
         0.00000E+00
         0.00000E+00
         0.00000E+00
         0.00000E+00
         0.00000E+00
         0.00000E+00
         0.00000E+00
         0.00000E+00
         0.00000E+00
         0.00000E+00
         0.00000E+00
         0.00000E+00
         0.00000E+00
         0.00000E+00
         0.00000E+00
         0.00000E+00
         0.00000E+00
         0.00000E+00
         0.00000E+00
         0.00000E+00
         0.00000E+00
         0.00000E+00
         0.00000E+00
         0.00000E+00
         0.00000E+00
         0.00000E+00
         0.00000E+00
         0.00000E+00
         0.00000E+00
         0.00000E+00
         0.00000E+00
         0.00000E+00
         0.00000E+00
         0.00000E+00
         0.00000E+00
         0.00000E+00
         0.00000E+00
         0.00000E+00
         0.00000E+00
         0.00000E+00
         0.00000E+00
         0.00000E+00
         0.00000E+00
         0.00000E+00
         0.00000E+00
         0.00000E+00
         0.00000E+00
         0.00000E+00
         0.00000E+00
         0.00000E+00
         0.00000E+00
         0.00000E+00
         0.00000E+00
         0.00000E+00
         0.00000E+00
         0.00000E+00
         0.00000E+00
         0.00000E+00
         0.00000E+00
         0.00000E+00
         0.00000E+00
         0.00000E+00
         0.00000E+00
         0.00000E+00
         0.00000E+00
         0.00000E+00
         0.00000E+00
         0.00000E+00
         0.00000E+00
         0.00000E+00
         0.00000E+00
         0.00000E+00
         0.00000E+00
         0.00000E+00
         0.00000E+00
         0.00000E+00
         0.00000E+00
         0.00000E+00
         0.00000E+00
         0.00000E+00
         0.00000E+00
         0.00000E+00
         0.00000E+00
         0.00000E+00
         0.00000E+00
         0.00000E+00
         0.00000E+00
         0.00000E+00
         0.00000E+00
         0.00000E+00
         0.00000E+00
         0.00000E+00
         0.00000E+00
         0.00000E+00
         0.00000E+00
         0.00000E+00
         0.00000E+00
         0.00000E+00
         0.00000E+00
         0.00000E+00
         0.00000E+00
         0.00000E+00
         0.00000E+00
         0.00000E+00
         0.00000E+00
         0.00000E+00
         0.00000E+00
         0.00000E+00
         0.00000E+00
         0.00000E+00
         0.00000E+00
         0.00000E+00
         0.00000E+00
         0.00000E+00
         0.00000E+00
         0.00000E+00
         0.00000E+00
         0.00000E+00
         0.00000E+00
         0.00000E+00
         0.00000E+00
         0.00000E+00
         0.00000E+00
         0.00000E+00
         0.00000E+00
         0.00000E+00
         0.00000E+00
         0.00000E+00
         0.00000E+00
         0.00000E+00
         0.00000E+00
         0.00000E+00
         0.00000E+00
         0.00000E+00
         0.00000E+00
         0.00000E+00
         0.00000E+00
         0.00000E+00
         0.00000E+00
         0.00000E+00
         0.00000E+00
         0.00000E+00
         0.00000E+00
         0.00000E+00
         0.00000E+00
         0.00000E+00
         0.00000E+00
         0.00000E+00
         0.00000E+00
         0.00000E+00
         0.00000E+00
         0.00000E+00
         0.00000E+00
         0.00000E+00
         0.00000E+00
         0.00000E+00
         0.00000E+00
         0.00000E+00
         0.00000E+00
         0.00000E+00
         0.00000E+00
         0.00000E+00
         0.00000E+00
         0.00000E+00
         0.00000E+00
         0.00000E+00
         0.00000E+00
         0.00000E+00
         0.00000E+00
         0.00000E+00
         0.00000E+00
         0.00000E+00
         0.00000E+00
         0.00000E+00
         0.00000E+00
         0.00000E+00
         0.00000E+00
         0.00000E+00
         0.00000E+00
         0.00000E+00
         0.00000E+00
         0.00000E+00
         0.00000E+00
         0.00000E+00
         0.00000E+00
         0.00000E+00
         0.00000E+00
         0.00000E+00
         0.00000E+00
         0.00000E+00
         0.00000E+00
         0.00000E+00
         0.00000E+00
         0.00000E+00
         0.00000E+00
         0.00000E+00
         0.00000E+00
         0.00000E+00
         0.00000E+00
         0.00000E+00
         0.00000E+00
         0.00000E+00
         0.00000E+00
         0.00000E+00
         0.00000E+00
         0.00000E+00
         0.00000E+00
         0.00000E+00
         0.00000E+00
         0.00000E+00
         0.00000E+00
         0.00000E+00
         0.00000E+00
         0.00000E+00
         0.00000E+00
         0.00000E+00
         0.00000E+00
         0.00000E+00
         0.00000E+00
         0.00000E+00
         0.00000E+00
         0.00000E+00
         0.00000E+00
         0.00000E+00
         0.00000E+00
         0.00000E+00
         0.00000E+00
         0.00000E+00
         0.00000E+00
         0.00000E+00
         0.00000E+00
         0.00000E+00
         0.00000E+00
         0.00000E+00
         0.00000E+00
         0.00000E+00
         0.00000E+00
         0.00000E+00
         0.00000E+00
         0.00000E+00
         0.00000E+00
         0.00000E+00
         0.00000E+00
         0.00000E+00
         0.00000E+00
         0.00000E+00
         0.00000E+00
         0.00000E+00
         0.00000E+00
         0.00000E+00
         0.00000E+00
         0.00000E+00
         0.00000E+00
         0.00000E+00
         0.00000E+00
         0.00000E+00
         0.00000E+00
         0.00000E+00
         0.00000E+00
         0.00000E+00
         0.00000E+00
         0.00000E+00
         0.00000E+00
         0.00000E+00
         0.00000E+00
         0.00000E+00
         0.00000E+00
         0.00000E+00
         0.00000E+00
         0.00000E+00
         0.00000E+00
         0.00000E+00
         0.00000E+00
         0.00000E+00
         0.00000E+00
         0.00000E+00
         0.00000E+00
         0.00000E+00
         0.00000E+00
         0.00000E+00
         0.00000E+00
         0.00000E+00
         0.00000E+00
         0.00000E+00
         0.00000E+00
         0.00000E+00
         0.00000E+00
         0.00000E+00
         0.00000E+00
         0.00000E+00
         0.00000E+00
         0.00000E+00
         0.00000E+00
         0.00000E+00
         0.00000E+00
         0.00000E+00
         0.00000E+00
         0.00000E+00
         0.00000E+00
         0.00000E+00
         0.00000E+00
         0.00000E+00
         0.00000E+00
         0.00000E+00
         0.00000E+00
         0.00000E+00
         0.00000E+00
         0.00000E+00
         0.00000E+00
         0.00000E+00
         0.00000E+00
         0.00000E+00
         0.00000E+00
         0.00000E+00
         0.00000E+00
         0.00000E+00
         0.00000E+00
         0.00000E+00
         0.00000E+00
         0.00000E+00
         0.00000E+00
         0.00000E+00
         0.00000E+00
         0.00000E+00
         0.00000E+00
         0.00000E+00
         0.00000E+00
         0.00000E+00
         0.00000E+00
         0.00000E+00
         0.00000E+00
         0.00000E+00
         0.00000E+00
         0.00000E+00
         0.00000E+00
         0.00000E+00
         0.00000E+00
         0.00000E+00
         0.00000E+00
         0.00000E+00
         0.00000E+00
         0.00000E+00
         0.00000E+00
         0.00000E+00
         0.00000E+00
         0.00000E+00
         0.00000E+00
         0.00000E+00
         0.00000E+00
         0.00000E+00
         0.00000E+00
         0.00000E+00
         0.00000E+00
         0.00000E+00
         0.00000E+00
         0.00000E+00
         0.00000E+00
         0.00000E+00
         0.00000E+00
         0.00000E+00
         0.00000E+00
         0.00000E+00
         0.00000E+00
         0.00000E+00
         0.00000E+00
         0.00000E+00
         0.00000E+00
         0.00000E+00
         0.00000E+00
         0.00000E+00
         0.00000E+00
         0.00000E+00
         0.00000E+00
         0.00000E+00
         0.00000E+00
         0.00000E+00
         0.00000E+00
         0.00000E+00
         0.00000E+00
         0.00000E+00
         0.00000E+00
         0.00000E+00
         0.00000E+00
         0.00000E+00
         0.00000E+00
         0.00000E+00
         0.00000E+00
         0.00000E+00
         0.00000E+00
         0.00000E+00
         0.00000E+00
         0.00000E+00
         0.00000E+00
         0.00000E+00
         0.00000E+00
         0.00000E+00
         0.00000E+00
         0.00000E+00
         0.00000E+00
         0.00000E+00
         0.00000E+00
         0.00000E+00
         0.00000E+00
         0.00000E+00
         0.00000E+00
         0.00000E+00
         0.00000E+00
         0.00000E+00
         0.00000E+00
         0.00000E+00
         0.00000E+00
         0.00000E+00
         0.00000E+00
         0.00000E+00
         0.00000E+00
         0.00000E+00
         0.00000E+00
         0.00000E+00
         0.00000E+00
         0.00000E+00
         0.00000E+00
         0.00000E+00
         0.00000E+00
         0.00000E+00
         0.00000E+00
         0.00000E+00
         0.00000E+00
         0.00000E+00
         0.00000E+00
         0.00000E+00
         0.00000E+00
         0.00000E+00
         0.00000E+00
         0.00000E+00
         0.00000E+00
         0.00000E+00
         0.00000E+00
         0.00000E+00
         0.00000E+00
         0.00000E+00
         0.00000E+00
         0.00000E+00
         0.00000E+00
         0.00000E+00
         0.00000E+00
         0.00000E+00
         0.00000E+00
         0.00000E+00
         0.00000E+00
         0.00000E+00
         0.00000E+00
         0.00000E+00
         0.00000E+00
         0.00000E+00
         0.00000E+00
         0.00000E+00
         0.00000E+00
         0.00000E+00
         0.00000E+00
         0.00000E+00
         0.00000E+00
         0.00000E+00
         0.00000E+00
         0.00000E+00
         0.00000E+00
         0.00000E+00
         0.00000E+00
         0.00000E+00
         0.00000E+00
         0.00000E+00
         0.00000E+00
         0.00000E+00
         0.00000E+00
         0.00000E+00
         0.00000E+00
         0.00000E+00
         0.00000E+00
         0.00000E+00
         0.00000E+00
         0.00000E+00
         0.00000E+00
         0.00000E+00
         0.00000E+00
         0.00000E+00
         0.00000E+00
         0.00000E+00
         0.00000E+00
         0.00000E+00
         0.00000E+00
         0.00000E+00
         0.00000E+00
         0.00000E+00
         0.00000E+00
         0.00000E+00
         0.00000E+00
         0.00000E+00
         0.00000E+00
         0.00000E+00
         0.00000E+00
         0.00000E+00
         0.00000E+00
         0.00000E+00
         0.00000E+00
         0.00000E+00
         0.00000E+00
         0.00000E+00
         0.00000E+00
         0.00000E+00
         0.00000E+00
         0.00000E+00
         0.00000E+00
         0.00000E+00
         0.00000E+00
         0.00000E+00
         0.00000E+00
         0.00000E+00
         0.00000E+00
         0.00000E+00
         0.00000E+00
         0.00000E+00
         0.00000E+00
         0.00000E+00
         0.00000E+00
         0.00000E+00
         0.00000E+00
         0.00000E+00
         0.00000E+00
         0.00000E+00
         0.00000E+00
         0.00000E+00
         0.00000E+00
         0.00000E+00
         0.00000E+00
         0.00000E+00
         0.00000E+00
         0.00000E+00
         0.00000E+00
         0.00000E+00
         0.00000E+00
         0.00000E+00
         0.00000E+00
         0.00000E+00
         0.00000E+00
         0.00000E+00
         0.00000E+00
         0.00000E+00
         0.00000E+00
         0.00000E+00
         0.00000E+00
         0.00000E+00
         0.00000E+00
         0.00000E+00
         0.00000E+00
         0.00000E+00
         0.00000E+00
         0.00000E+00
         0.00000E+00
         0.00000E+00
         0.00000E+00
         0.00000E+00
         0.00000E+00
         0.00000E+00
         0.00000E+00
         0.00000E+00
         0.00000E+00
         0.00000E+00
         0.00000E+00
         0.00000E+00
         0.00000E+00
         0.00000E+00
         0.00000E+00
         0.00000E+00
         0.00000E+00
         0.00000E+00
         0.00000E+00
         0.00000E+00
         0.00000E+00
         0.00000E+00
         0.00000E+00
         0.00000E+00
         0.00000E+00
         0.00000E+00
         0.00000E+00
         0.00000E+00
         0.00000E+00
         0.00000E+00
         0.00000E+00
         0.00000E+00
         0.00000E+00
         0.00000E+00
         0.00000E+00
         0.00000E+00
         0.00000E+00
         0.00000E+00
         0.00000E+00
         0.00000E+00
         0.00000E+00
         0.00000E+00
         0.00000E+00
         0.00000E+00
         0.00000E+00
         0.00000E+00
         0.00000E+00
         0.00000E+00
         0.00000E+00
         0.00000E+00
         0.00000E+00
         0.00000E+00
         0.00000E+00
         0.00000E+00
         0.00000E+00
         0.00000E+00
         0.00000E+00
         0.00000E+00
         0.00000E+00
         0.00000E+00
         0.00000E+00
         0.00000E+00
         0.00000E+00
         0.00000E+00
         0.00000E+00
         0.00000E+00
         0.00000E+00
         0.00000E+00
         0.00000E+00
         0.00000E+00
         0.00000E+00
         0.00000E+00
         0.00000E+00
         0.00000E+00
         0.00000E+00
         0.00000E+00
         0.00000E+00
         0.00000E+00
         0.00000E+00
         0.00000E+00
         0.00000E+00
         0.00000E+00
         0.00000E+00
         0.00000E+00
         0.00000E+00
         0.00000E+00
         0.00000E+00
         0.00000E+00
         0.00000E+00
         0.00000E+00
         0.00000E+00
         0.00000E+00
         0.00000E+00
         0.00000E+00
         0.00000E+00
         0.00000E+00
         0.00000E+00
         0.00000E+00
         0.00000E+00
         0.00000E+00
         0.00000E+00
         0.00000E+00
         0.00000E+00
         0.00000E+00
         0.00000E+00
         0.00000E+00
         0.00000E+00
         0.00000E+00
         0.00000E+00
         0.00000E+00
         0.00000E+00
         0.00000E+00
         0.00000E+00
         0.00000E+00
         0.00000E+00
         0.00000E+00
         0.00000E+00
         0.00000E+00
         0.00000E+00
         0.00000E+00
         0.00000E+00
         0.00000E+00
         0.00000E+00
         0.00000E+00
         0.00000E+00
         0.00000E+00
         0.00000E+00
         0.00000E+00
         0.00000E+00
         0.00000E+00
         0.00000E+00
         0.00000E+00
         0.00000E+00
         0.00000E+00
         0.00000E+00
         0.00000E+00
         0.00000E+00
         0.00000E+00
         0.00000E+00
         0.00000E+00
         0.00000E+00
         0.00000E+00
         0.00000E+00
         0.00000E+00
         0.00000E+00
         0.00000E+00
         0.00000E+00
         0.00000E+00
         0.00000E+00
         0.00000E+00
         0.00000E+00
         0.00000E+00
         0.00000E+00
         0.00000E+00
         0.00000E+00
         0.00000E+00
         0.00000E+00
         0.00000E+00
         0.00000E+00
         0.00000E+00
         0.00000E+00
         0.00000E+00
         0.00000E+00
         0.00000E+00
         0.00000E+00
         0.00000E+00
         0.00000E+00
         0.00000E+00
         0.00000E+00
         0.00000E+00
         0.00000E+00
         0.00000E+00
         0.00000E+00
         0.00000E+00
         0.00000E+00
         0.00000E+00
         0.00000E+00
         0.00000E+00
         0.00000E+00
         0.00000E+00
         0.00000E+00
         0.00000E+00
         0.00000E+00
         0.00000E+00
         0.00000E+00
         0.00000E+00
         0.00000E+00
         0.00000E+00
         0.00000E+00
         0.00000E+00
         0.00000E+00
         0.00000E+00
         0.00000E+00
         0.00000E+00
         0.00000E+00
         0.00000E+00
         0.00000E+00
         0.00000E+00
         0.00000E+00
         0.00000E+00
         0.00000E+00
         0.00000E+00
         0.00000E+00
         0.00000E+00
         0.00000E+00
         0.00000E+00
         0.00000E+00
         0.00000E+00
         0.00000E+00
         0.00000E+00
         0.00000E+00
         0.00000E+00
         0.00000E+00
         0.00000E+00
         0.00000E+00
         0.00000E+00
         0.00000E+00
         0.00000E+00
         0.00000E+00
         0.00000E+00
         0.00000E+00
         0.00000E+00
         0.00000E+00
         0.00000E+00
         0.00000E+00
         0.00000E+00
         0.00000E+00
         0.00000E+00
         0.00000E+00
         0.00000E+00
         0.00000E+00
         0.00000E+00
         0.00000E+00
         0.00000E+00
         0.00000E+00
         0.00000E+00
         0.00000E+00
         0.00000E+00
         0.00000E+00
         0.00000E+00
         0.00000E+00
         0.00000E+00
         0.00000E+00
         0.00000E+00
         0.00000E+00
         0.00000E+00
         0.00000E+00
         0.00000E+00
         0.00000E+00
         0.00000E+00
         0.00000E+00
         0.00000E+00
         0.00000E+00
         0.00000E+00
         0.00000E+00
         0.00000E+00
         0.00000E+00
         0.00000E+00
         0.00000E+00
         0.00000E+00
         0.00000E+00
         0.00000E+00
         0.00000E+00
         0.00000E+00
         0.00000E+00
         0.00000E+00
         0.00000E+00
         0.00000E+00
         0.00000E+00
         0.00000E+00
         0.00000E+00
         0.00000E+00
         0.00000E+00
         0.00000E+00
         0.00000E+00
         0.00000E+00
         0.00000E+00
         0.00000E+00
         0.00000E+00
         0.00000E+00
         0.00000E+00
         0.00000E+00
         0.00000E+00
         0.00000E+00
         0.00000E+00
         0.00000E+00
         0.00000E+00
         0.00000E+00
         0.00000E+00
         0.00000E+00
         0.00000E+00
         0.00000E+00
         0.00000E+00
         0.00000E+00
         0.00000E+00
         0.00000E+00
         0.00000E+00
         0.00000E+00
         0.00000E+00
         0.00000E+00
         0.00000E+00
         0.00000E+00
         0.00000E+00
         0.00000E+00
         0.00000E+00
         0.00000E+00
         0.00000E+00
         0.00000E+00
         0.00000E+00
         0.00000E+00
         0.00000E+00
         0.00000E+00
         0.00000E+00
         0.00000E+00
         0.00000E+00
         0.00000E+00
         0.00000E+00
         0.00000E+00
         0.00000E+00
         0.00000E+00
         0.00000E+00
         0.00000E+00
         0.00000E+00
         0.00000E+00
         0.00000E+00
         0.00000E+00
         0.00000E+00
         0.00000E+00
         0.00000E+00
         0.00000E+00
         0.00000E+00
         0.00000E+00
         0.00000E+00
         0.00000E+00
         0.00000E+00
         0.00000E+00
         0.00000E+00
         0.00000E+00
         0.00000E+00
         0.00000E+00
         0.00000E+00
         0.00000E+00
         0.00000E+00
         0.00000E+00
         0.00000E+00
         0.00000E+00
         0.00000E+00
         0.00000E+00
         0.00000E+00
         0.00000E+00
         0.00000E+00
         0.00000E+00
         0.00000E+00
         0.00000E+00
         0.00000E+00
         0.00000E+00
         0.00000E+00
         0.00000E+00
         0.00000E+00
         0.00000E+00
         0.00000E+00
         0.00000E+00
         0.00000E+00
         0.00000E+00
         0.00000E+00
         0.00000E+00
         0.00000E+00
         0.00000E+00
         0.00000E+00
         0.00000E+00
         0.00000E+00
         0.00000E+00
         0.00000E+00
         0.00000E+00
         0.00000E+00
         0.00000E+00
         0.00000E+00
         0.00000E+00
         0.00000E+00
         0.00000E+00
         0.00000E+00
         0.00000E+00
         0.00000E+00
         0.00000E+00
         0.00000E+00
         0.00000E+00
         0.00000E+00
         0.00000E+00
         0.00000E+00
         0.00000E+00
         0.00000E+00
         0.00000E+00
         0.00000E+00
         0.00000E+00
         0.00000E+00
         0.00000E+00
         0.00000E+00
         0.00000E+00
         0.00000E+00
         0.00000E+00
         0.00000E+00
         0.00000E+00
         0.00000E+00
         0.00000E+00
         0.00000E+00
         0.00000E+00
         0.00000E+00
         0.00000E+00
         0.00000E+00
         0.00000E+00
         0.00000E+00
         0.00000E+00
         0.00000E+00
         0.00000E+00
         0.00000E+00
         0.00000E+00
         0.00000E+00
         0.00000E+00
         0.00000E+00
         0.00000E+00
         0.00000E+00
         0.00000E+00
         0.00000E+00
         0.00000E+00
         0.00000E+00
         0.00000E+00
         0.00000E+00
         0.00000E+00
         0.00000E+00
         0.00000E+00
         0.00000E+00
         0.00000E+00
         0.00000E+00
         0.00000E+00
         0.00000E+00
         0.00000E+00
         0.00000E+00
         0.00000E+00
         0.00000E+00
         0.00000E+00
         0.00000E+00
         0.00000E+00
         0.00000E+00
         0.00000E+00
         0.00000E+00
         0.00000E+00
         0.00000E+00
         0.00000E+00
         0.00000E+00
         0.00000E+00
         0.00000E+00
         0.00000E+00
         0.00000E+00
         0.00000E+00
         0.00000E+00
         0.00000E+00
         0.00000E+00
         0.00000E+00
         0.00000E+00
         0.00000E+00
         0.00000E+00
         0.00000E+00
         0.00000E+00
         0.00000E+00
         0.00000E+00
         0.00000E+00
         0.00000E+00
         0.00000E+00
         0.00000E+00
         0.00000E+00
         0.00000E+00
         0.00000E+00
         0.00000E+00
         0.00000E+00
         0.00000E+00
         0.00000E+00
         0.00000E+00
         0.00000E+00
         0.00000E+00
         0.00000E+00
         0.00000E+00
         0.00000E+00
         0.00000E+00
         0.00000E+00
         0.00000E+00
         0.00000E+00
         0.00000E+00
         0.00000E+00
         0.00000E+00
         0.00000E+00
         0.00000E+00
         0.00000E+00
         0.00000E+00
         0.00000E+00
         0.00000E+00
         0.00000E+00
         0.00000E+00
         0.00000E+00
         0.00000E+00
         0.00000E+00
         0.00000E+00
         0.00000E+00
         0.00000E+00
         0.00000E+00
         0.00000E+00
         0.00000E+00
         0.00000E+00
         0.00000E+00
         0.00000E+00
         0.00000E+00
         0.00000E+00
         0.00000E+00
         0.00000E+00
         0.00000E+00
         0.00000E+00
         0.00000E+00
         0.00000E+00
         0.00000E+00
         0.00000E+00
         0.00000E+00
         0.00000E+00
         0.00000E+00
         0.00000E+00
         0.00000E+00
         0.00000E+00
         0.00000E+00
         0.00000E+00
         0.00000E+00
         0.00000E+00
         0.00000E+00
         0.00000E+00
         0.00000E+00
         0.00000E+00
         0.00000E+00
         0.00000E+00
         0.00000E+00
         0.00000E+00
         0.00000E+00
         0.00000E+00
         0.00000E+00
         0.00000E+00
         0.00000E+00
         0.00000E+00
         0.00000E+00
         0.00000E+00
         0.00000E+00
         0.00000E+00
         0.00000E+00
         0.00000E+00
         0.00000E+00
         0.00000E+00
         0.00000E+00
         0.00000E+00
         0.00000E+00
         0.00000E+00
         0.00000E+00
         0.00000E+00
         0.00000E+00
         0.00000E+00
         0.00000E+00
         0.00000E+00
         0.00000E+00
         0.00000E+00
         0.00000E+00
         0.00000E+00
         0.00000E+00
         0.00000E+00
         0.00000E+00
         0.00000E+00
         0.00000E+00
         0.00000E+00
         0.00000E+00
         0.00000E+00
         0.00000E+00
         0.00000E+00
         0.00000E+00
         0.00000E+00
         0.00000E+00
         0.00000E+00
         0.00000E+00
         0.00000E+00
         0.00000E+00
         0.00000E+00
         0.00000E+00
         0.00000E+00
         0.00000E+00
         0.00000E+00
         0.00000E+00
         0.00000E+00
         0.00000E+00
         0.00000E+00
         0.00000E+00
         0.00000E+00
         0.00000E+00
         0.00000E+00
         0.00000E+00
         0.00000E+00
         0.00000E+00
         0.00000E+00
         0.00000E+00
         0.00000E+00
         0.00000E+00
         0.00000E+00
         0.00000E+00
         0.00000E+00
         0.00000E+00
         0.00000E+00
         0.00000E+00
         0.00000E+00
         0.00000E+00
         0.00000E+00
         0.00000E+00
         0.00000E+00
         0.00000E+00
         0.00000E+00
         0.00000E+00
         0.00000E+00
         0.00000E+00
         0.00000E+00
         0.00000E+00
         0.00000E+00
         0.00000E+00
         0.00000E+00
         0.00000E+00
         0.00000E+00
         0.00000E+00
         0.00000E+00
         0.00000E+00
         0.00000E+00
         0.00000E+00
         0.00000E+00
         0.00000E+00
         0.00000E+00
         0.00000E+00
         0.00000E+00
         0.00000E+00
         0.00000E+00
         0.00000E+00
         0.00000E+00
         0.00000E+00
         0.00000E+00
         0.00000E+00
         0.00000E+00
         0.00000E+00
         0.00000E+00
         0.00000E+00
         0.00000E+00
         0.00000E+00
         0.00000E+00
         0.00000E+00
         0.00000E+00
         0.00000E+00
         0.00000E+00
         0.00000E+00
         0.00000E+00
         0.00000E+00
  
SCALARS                 acceleration_z  double 1
LOOKUP_TABLE default
         0.00000E+00
         0.00000E+00
         0.00000E+00
         0.00000E+00
         0.00000E+00
         0.00000E+00
         0.00000E+00
         0.00000E+00
         0.00000E+00
         0.00000E+00
         0.00000E+00
         0.00000E+00
         0.00000E+00
         0.00000E+00
         0.00000E+00
         0.00000E+00
         0.00000E+00
         0.00000E+00
         0.00000E+00
         0.00000E+00
         0.00000E+00
         0.00000E+00
         0.00000E+00
         0.00000E+00
         0.00000E+00
         0.00000E+00
         0.00000E+00
         0.00000E+00
         0.00000E+00
         0.00000E+00
         0.00000E+00
         0.00000E+00
         0.00000E+00
         0.00000E+00
         0.00000E+00
         0.00000E+00
         0.00000E+00
         0.00000E+00
         0.00000E+00
         0.00000E+00
         0.00000E+00
         0.00000E+00
         0.00000E+00
         0.00000E+00
         0.00000E+00
         0.00000E+00
         0.00000E+00
         0.00000E+00
         0.00000E+00
         0.00000E+00
         0.00000E+00
         0.00000E+00
         0.00000E+00
         0.00000E+00
         0.00000E+00
         0.00000E+00
         0.00000E+00
         0.00000E+00
         0.00000E+00
         0.00000E+00
         0.00000E+00
         0.00000E+00
         0.00000E+00
         0.00000E+00
         0.00000E+00
         0.00000E+00
         0.00000E+00
         0.00000E+00
         0.00000E+00
         0.00000E+00
         0.00000E+00
         0.00000E+00
         0.00000E+00
         0.00000E+00
         0.00000E+00
         0.00000E+00
         0.00000E+00
         0.00000E+00
         0.00000E+00
         0.00000E+00
         0.00000E+00
         0.00000E+00
         0.00000E+00
         0.00000E+00
         0.00000E+00
         0.00000E+00
         0.00000E+00
         0.00000E+00
         0.00000E+00
         0.00000E+00
         0.00000E+00
         0.00000E+00
         0.00000E+00
         0.00000E+00
         0.00000E+00
         0.00000E+00
         0.00000E+00
         0.00000E+00
         0.00000E+00
         0.00000E+00
         0.00000E+00
         0.00000E+00
         0.00000E+00
         0.00000E+00
         0.00000E+00
         0.00000E+00
         0.00000E+00
         0.00000E+00
         0.00000E+00
         0.00000E+00
         0.00000E+00
         0.00000E+00
         0.00000E+00
         0.00000E+00
         0.00000E+00
         0.00000E+00
         0.00000E+00
         0.00000E+00
         0.00000E+00
         0.00000E+00
         0.00000E+00
         0.00000E+00
         0.00000E+00
         0.00000E+00
         0.00000E+00
         0.00000E+00
         0.00000E+00
         0.00000E+00
         0.00000E+00
         0.00000E+00
         0.00000E+00
         0.00000E+00
         0.00000E+00
         0.00000E+00
         0.00000E+00
         0.00000E+00
         0.00000E+00
         0.00000E+00
         0.00000E+00
         0.00000E+00
         0.00000E+00
         0.00000E+00
         0.00000E+00
         0.00000E+00
         0.00000E+00
         0.00000E+00
         0.00000E+00
         0.00000E+00
         0.00000E+00
         0.00000E+00
         0.00000E+00
         0.00000E+00
         0.00000E+00
         0.00000E+00
         0.00000E+00
         0.00000E+00
         0.00000E+00
         0.00000E+00
         0.00000E+00
         0.00000E+00
         0.00000E+00
         0.00000E+00
         0.00000E+00
         0.00000E+00
         0.00000E+00
         0.00000E+00
         0.00000E+00
         0.00000E+00
         0.00000E+00
         0.00000E+00
         0.00000E+00
         0.00000E+00
         0.00000E+00
         0.00000E+00
         0.00000E+00
         0.00000E+00
         0.00000E+00
         0.00000E+00
         0.00000E+00
         0.00000E+00
         0.00000E+00
         0.00000E+00
         0.00000E+00
         0.00000E+00
         0.00000E+00
         0.00000E+00
         0.00000E+00
         0.00000E+00
         0.00000E+00
         0.00000E+00
         0.00000E+00
         0.00000E+00
         0.00000E+00
         0.00000E+00
         0.00000E+00
         0.00000E+00
         0.00000E+00
         0.00000E+00
         0.00000E+00
         0.00000E+00
         0.00000E+00
         0.00000E+00
         0.00000E+00
         0.00000E+00
         0.00000E+00
         0.00000E+00
         0.00000E+00
         0.00000E+00
         0.00000E+00
         0.00000E+00
         0.00000E+00
         0.00000E+00
         0.00000E+00
         0.00000E+00
         0.00000E+00
         0.00000E+00
         0.00000E+00
         0.00000E+00
         0.00000E+00
         0.00000E+00
         0.00000E+00
         0.00000E+00
         0.00000E+00
         0.00000E+00
         0.00000E+00
         0.00000E+00
         0.00000E+00
         0.00000E+00
         0.00000E+00
         0.00000E+00
         0.00000E+00
         0.00000E+00
         0.00000E+00
         0.00000E+00
         0.00000E+00
         0.00000E+00
         0.00000E+00
         0.00000E+00
         0.00000E+00
         0.00000E+00
         0.00000E+00
         0.00000E+00
         0.00000E+00
         0.00000E+00
         0.00000E+00
         0.00000E+00
         0.00000E+00
         0.00000E+00
         0.00000E+00
         0.00000E+00
         0.00000E+00
         0.00000E+00
         0.00000E+00
         0.00000E+00
         0.00000E+00
         0.00000E+00
         0.00000E+00
         0.00000E+00
         0.00000E+00
         0.00000E+00
         0.00000E+00
         0.00000E+00
         0.00000E+00
         0.00000E+00
         0.00000E+00
         0.00000E+00
         0.00000E+00
         0.00000E+00
         0.00000E+00
         0.00000E+00
         0.00000E+00
         0.00000E+00
         0.00000E+00
         0.00000E+00
         0.00000E+00
         0.00000E+00
         0.00000E+00
         0.00000E+00
         0.00000E+00
         0.00000E+00
         0.00000E+00
         0.00000E+00
         0.00000E+00
         0.00000E+00
         0.00000E+00
         0.00000E+00
         0.00000E+00
         0.00000E+00
         0.00000E+00
         0.00000E+00
         0.00000E+00
         0.00000E+00
         0.00000E+00
         0.00000E+00
         0.00000E+00
         0.00000E+00
         0.00000E+00
         0.00000E+00
         0.00000E+00
         0.00000E+00
         0.00000E+00
         0.00000E+00
         0.00000E+00
         0.00000E+00
         0.00000E+00
         0.00000E+00
         0.00000E+00
         0.00000E+00
         0.00000E+00
         0.00000E+00
         0.00000E+00
         0.00000E+00
         0.00000E+00
         0.00000E+00
         0.00000E+00
         0.00000E+00
         0.00000E+00
         0.00000E+00
         0.00000E+00
         0.00000E+00
         0.00000E+00
         0.00000E+00
         0.00000E+00
         0.00000E+00
         0.00000E+00
         0.00000E+00
         0.00000E+00
         0.00000E+00
         0.00000E+00
         0.00000E+00
         0.00000E+00
         0.00000E+00
         0.00000E+00
         0.00000E+00
         0.00000E+00
         0.00000E+00
         0.00000E+00
         0.00000E+00
         0.00000E+00
         0.00000E+00
         0.00000E+00
         0.00000E+00
         0.00000E+00
         0.00000E+00
         0.00000E+00
         0.00000E+00
         0.00000E+00
         0.00000E+00
         0.00000E+00
         0.00000E+00
         0.00000E+00
         0.00000E+00
         0.00000E+00
         0.00000E+00
         0.00000E+00
         0.00000E+00
         0.00000E+00
         0.00000E+00
         0.00000E+00
         0.00000E+00
         0.00000E+00
         0.00000E+00
         0.00000E+00
         0.00000E+00
         0.00000E+00
         0.00000E+00
         0.00000E+00
         0.00000E+00
         0.00000E+00
         0.00000E+00
         0.00000E+00
         0.00000E+00
         0.00000E+00
         0.00000E+00
         0.00000E+00
         0.00000E+00
         0.00000E+00
         0.00000E+00
         0.00000E+00
         0.00000E+00
         0.00000E+00
         0.00000E+00
         0.00000E+00
         0.00000E+00
         0.00000E+00
         0.00000E+00
         0.00000E+00
         0.00000E+00
         0.00000E+00
         0.00000E+00
         0.00000E+00
         0.00000E+00
         0.00000E+00
         0.00000E+00
         0.00000E+00
         0.00000E+00
         0.00000E+00
         0.00000E+00
         0.00000E+00
         0.00000E+00
         0.00000E+00
         0.00000E+00
         0.00000E+00
         0.00000E+00
         0.00000E+00
         0.00000E+00
         0.00000E+00
         0.00000E+00
         0.00000E+00
         0.00000E+00
         0.00000E+00
         0.00000E+00
         0.00000E+00
         0.00000E+00
         0.00000E+00
         0.00000E+00
         0.00000E+00
         0.00000E+00
         0.00000E+00
         0.00000E+00
         0.00000E+00
         0.00000E+00
         0.00000E+00
         0.00000E+00
         0.00000E+00
         0.00000E+00
         0.00000E+00
         0.00000E+00
         0.00000E+00
         0.00000E+00
         0.00000E+00
         0.00000E+00
         0.00000E+00
         0.00000E+00
         0.00000E+00
         0.00000E+00
         0.00000E+00
         0.00000E+00
         0.00000E+00
         0.00000E+00
         0.00000E+00
         0.00000E+00
         0.00000E+00
         0.00000E+00
         0.00000E+00
         0.00000E+00
         0.00000E+00
         0.00000E+00
         0.00000E+00
         0.00000E+00
         0.00000E+00
         0.00000E+00
         0.00000E+00
         0.00000E+00
         0.00000E+00
         0.00000E+00
         0.00000E+00
         0.00000E+00
         0.00000E+00
         0.00000E+00
         0.00000E+00
         0.00000E+00
         0.00000E+00
         0.00000E+00
         0.00000E+00
         0.00000E+00
         0.00000E+00
         0.00000E+00
         0.00000E+00
         0.00000E+00
         0.00000E+00
         0.00000E+00
         0.00000E+00
         0.00000E+00
         0.00000E+00
         0.00000E+00
         0.00000E+00
         0.00000E+00
         0.00000E+00
         0.00000E+00
         0.00000E+00
         0.00000E+00
         0.00000E+00
         0.00000E+00
         0.00000E+00
         0.00000E+00
         0.00000E+00
         0.00000E+00
         0.00000E+00
         0.00000E+00
         0.00000E+00
         0.00000E+00
         0.00000E+00
         0.00000E+00
         0.00000E+00
         0.00000E+00
         0.00000E+00
         0.00000E+00
         0.00000E+00
         0.00000E+00
         0.00000E+00
         0.00000E+00
         0.00000E+00
         0.00000E+00
         0.00000E+00
         0.00000E+00
         0.00000E+00
         0.00000E+00
         0.00000E+00
         0.00000E+00
         0.00000E+00
         0.00000E+00
         0.00000E+00
         0.00000E+00
         0.00000E+00
         0.00000E+00
         0.00000E+00
         0.00000E+00
         0.00000E+00
         0.00000E+00
         0.00000E+00
         0.00000E+00
         0.00000E+00
         0.00000E+00
         0.00000E+00
         0.00000E+00
         0.00000E+00
         0.00000E+00
         0.00000E+00
         0.00000E+00
         0.00000E+00
         0.00000E+00
         0.00000E+00
         0.00000E+00
         0.00000E+00
         0.00000E+00
         0.00000E+00
         0.00000E+00
         0.00000E+00
         0.00000E+00
         0.00000E+00
         0.00000E+00
         0.00000E+00
         0.00000E+00
         0.00000E+00
         0.00000E+00
         0.00000E+00
         0.00000E+00
         0.00000E+00
         0.00000E+00
         0.00000E+00
         0.00000E+00
         0.00000E+00
         0.00000E+00
         0.00000E+00
         0.00000E+00
         0.00000E+00
         0.00000E+00
         0.00000E+00
         0.00000E+00
         0.00000E+00
         0.00000E+00
         0.00000E+00
         0.00000E+00
         0.00000E+00
         0.00000E+00
         0.00000E+00
         0.00000E+00
         0.00000E+00
         0.00000E+00
         0.00000E+00
         0.00000E+00
         0.00000E+00
         0.00000E+00
         0.00000E+00
         0.00000E+00
         0.00000E+00
         0.00000E+00
         0.00000E+00
         0.00000E+00
         0.00000E+00
         0.00000E+00
         0.00000E+00
         0.00000E+00
         0.00000E+00
         0.00000E+00
         0.00000E+00
         0.00000E+00
         0.00000E+00
         0.00000E+00
         0.00000E+00
         0.00000E+00
         0.00000E+00
         0.00000E+00
         0.00000E+00
         0.00000E+00
         0.00000E+00
         0.00000E+00
         0.00000E+00
         0.00000E+00
         0.00000E+00
         0.00000E+00
         0.00000E+00
         0.00000E+00
         0.00000E+00
         0.00000E+00
         0.00000E+00
         0.00000E+00
         0.00000E+00
         0.00000E+00
         0.00000E+00
         0.00000E+00
         0.00000E+00
         0.00000E+00
         0.00000E+00
         0.00000E+00
         0.00000E+00
         0.00000E+00
         0.00000E+00
         0.00000E+00
         0.00000E+00
         0.00000E+00
         0.00000E+00
         0.00000E+00
         0.00000E+00
         0.00000E+00
         0.00000E+00
         0.00000E+00
         0.00000E+00
         0.00000E+00
         0.00000E+00
         0.00000E+00
         0.00000E+00
         0.00000E+00
         0.00000E+00
         0.00000E+00
         0.00000E+00
         0.00000E+00
         0.00000E+00
         0.00000E+00
         0.00000E+00
         0.00000E+00
         0.00000E+00
         0.00000E+00
         0.00000E+00
         0.00000E+00
         0.00000E+00
         0.00000E+00
         0.00000E+00
         0.00000E+00
         0.00000E+00
         0.00000E+00
         0.00000E+00
         0.00000E+00
         0.00000E+00
         0.00000E+00
         0.00000E+00
         0.00000E+00
         0.00000E+00
         0.00000E+00
         0.00000E+00
         0.00000E+00
         0.00000E+00
         0.00000E+00
         0.00000E+00
         0.00000E+00
         0.00000E+00
         0.00000E+00
         0.00000E+00
         0.00000E+00
         0.00000E+00
         0.00000E+00
         0.00000E+00
         0.00000E+00
         0.00000E+00
         0.00000E+00
         0.00000E+00
         0.00000E+00
         0.00000E+00
         0.00000E+00
         0.00000E+00
         0.00000E+00
         0.00000E+00
         0.00000E+00
         0.00000E+00
         0.00000E+00
         0.00000E+00
         0.00000E+00
         0.00000E+00
         0.00000E+00
         0.00000E+00
         0.00000E+00
         0.00000E+00
         0.00000E+00
         0.00000E+00
         0.00000E+00
         0.00000E+00
         0.00000E+00
         0.00000E+00
         0.00000E+00
         0.00000E+00
         0.00000E+00
         0.00000E+00
         0.00000E+00
         0.00000E+00
         0.00000E+00
         0.00000E+00
         0.00000E+00
         0.00000E+00
         0.00000E+00
         0.00000E+00
         0.00000E+00
         0.00000E+00
         0.00000E+00
         0.00000E+00
         0.00000E+00
         0.00000E+00
         0.00000E+00
         0.00000E+00
         0.00000E+00
         0.00000E+00
         0.00000E+00
         0.00000E+00
         0.00000E+00
         0.00000E+00
         0.00000E+00
         0.00000E+00
         0.00000E+00
         0.00000E+00
         0.00000E+00
         0.00000E+00
         0.00000E+00
         0.00000E+00
         0.00000E+00
         0.00000E+00
         0.00000E+00
         0.00000E+00
         0.00000E+00
         0.00000E+00
         0.00000E+00
         0.00000E+00
         0.00000E+00
         0.00000E+00
         0.00000E+00
         0.00000E+00
         0.00000E+00
         0.00000E+00
         0.00000E+00
         0.00000E+00
         0.00000E+00
         0.00000E+00
         0.00000E+00
         0.00000E+00
         0.00000E+00
         0.00000E+00
         0.00000E+00
         0.00000E+00
         0.00000E+00
         0.00000E+00
         0.00000E+00
         0.00000E+00
         0.00000E+00
         0.00000E+00
         0.00000E+00
         0.00000E+00
         0.00000E+00
         0.00000E+00
         0.00000E+00
         0.00000E+00
         0.00000E+00
         0.00000E+00
         0.00000E+00
         0.00000E+00
         0.00000E+00
         0.00000E+00
         0.00000E+00
         0.00000E+00
         0.00000E+00
         0.00000E+00
         0.00000E+00
         0.00000E+00
         0.00000E+00
         0.00000E+00
         0.00000E+00
         0.00000E+00
         0.00000E+00
         0.00000E+00
         0.00000E+00
         0.00000E+00
         0.00000E+00
         0.00000E+00
         0.00000E+00
         0.00000E+00
         0.00000E+00
         0.00000E+00
         0.00000E+00
         0.00000E+00
         0.00000E+00
         0.00000E+00
         0.00000E+00
         0.00000E+00
         0.00000E+00
         0.00000E+00
         0.00000E+00
         0.00000E+00
         0.00000E+00
         0.00000E+00
         0.00000E+00
         0.00000E+00
         0.00000E+00
         0.00000E+00
         0.00000E+00
         0.00000E+00
         0.00000E+00
         0.00000E+00
         0.00000E+00
         0.00000E+00
         0.00000E+00
         0.00000E+00
         0.00000E+00
         0.00000E+00
         0.00000E+00
         0.00000E+00
         0.00000E+00
         0.00000E+00
         0.00000E+00
         0.00000E+00
         0.00000E+00
         0.00000E+00
         0.00000E+00
         0.00000E+00
         0.00000E+00
         0.00000E+00
         0.00000E+00
         0.00000E+00
         0.00000E+00
         0.00000E+00
         0.00000E+00
         0.00000E+00
         0.00000E+00
         0.00000E+00
         0.00000E+00
         0.00000E+00
         0.00000E+00
         0.00000E+00
         0.00000E+00
         0.00000E+00
         0.00000E+00
         0.00000E+00
         0.00000E+00
         0.00000E+00
         0.00000E+00
         0.00000E+00
         0.00000E+00
         0.00000E+00
         0.00000E+00
         0.00000E+00
         0.00000E+00
         0.00000E+00
         0.00000E+00
         0.00000E+00
         0.00000E+00
         0.00000E+00
         0.00000E+00
         0.00000E+00
         0.00000E+00
         0.00000E+00
         0.00000E+00
         0.00000E+00
         0.00000E+00
         0.00000E+00
         0.00000E+00
         0.00000E+00
         0.00000E+00
         0.00000E+00
         0.00000E+00
         0.00000E+00
         0.00000E+00
         0.00000E+00
         0.00000E+00
         0.00000E+00
         0.00000E+00
         0.00000E+00
         0.00000E+00
         0.00000E+00
         0.00000E+00
         0.00000E+00
         0.00000E+00
         0.00000E+00
         0.00000E+00
         0.00000E+00
         0.00000E+00
         0.00000E+00
         0.00000E+00
         0.00000E+00
         0.00000E+00
         0.00000E+00
         0.00000E+00
         0.00000E+00
         0.00000E+00
         0.00000E+00
         0.00000E+00
         0.00000E+00
         0.00000E+00
         0.00000E+00
         0.00000E+00
         0.00000E+00
         0.00000E+00
         0.00000E+00
         0.00000E+00
         0.00000E+00
         0.00000E+00
         0.00000E+00
         0.00000E+00
         0.00000E+00
         0.00000E+00
         0.00000E+00
         0.00000E+00
         0.00000E+00
         0.00000E+00
         0.00000E+00
         0.00000E+00
         0.00000E+00
         0.00000E+00
         0.00000E+00
         0.00000E+00
         0.00000E+00
         0.00000E+00
         0.00000E+00
         0.00000E+00
         0.00000E+00
         0.00000E+00
         0.00000E+00
         0.00000E+00
         0.00000E+00
         0.00000E+00
         0.00000E+00
         0.00000E+00
         0.00000E+00
         0.00000E+00
         0.00000E+00
         0.00000E+00
         0.00000E+00
         0.00000E+00
         0.00000E+00
         0.00000E+00
         0.00000E+00
         0.00000E+00
         0.00000E+00
         0.00000E+00
         0.00000E+00
         0.00000E+00
         0.00000E+00
         0.00000E+00
         0.00000E+00
         0.00000E+00
         0.00000E+00
         0.00000E+00
         0.00000E+00
         0.00000E+00
         0.00000E+00
         0.00000E+00
         0.00000E+00
         0.00000E+00
         0.00000E+00
         0.00000E+00
         0.00000E+00
         0.00000E+00
         0.00000E+00
         0.00000E+00
         0.00000E+00
         0.00000E+00
         0.00000E+00
         0.00000E+00
         0.00000E+00
         0.00000E+00
         0.00000E+00
         0.00000E+00
         0.00000E+00
         0.00000E+00
         0.00000E+00
         0.00000E+00
         0.00000E+00
         0.00000E+00
         0.00000E+00
         0.00000E+00
         0.00000E+00
         0.00000E+00
         0.00000E+00
         0.00000E+00
         0.00000E+00
         0.00000E+00
         0.00000E+00
         0.00000E+00
         0.00000E+00
         0.00000E+00
         0.00000E+00
         0.00000E+00
         0.00000E+00
         0.00000E+00
         0.00000E+00
         0.00000E+00
         0.00000E+00
         0.00000E+00
         0.00000E+00
         0.00000E+00
         0.00000E+00
         0.00000E+00
         0.00000E+00
         0.00000E+00
         0.00000E+00
         0.00000E+00
         0.00000E+00
         0.00000E+00
         0.00000E+00
         0.00000E+00
         0.00000E+00
         0.00000E+00
         0.00000E+00
         0.00000E+00
         0.00000E+00
         0.00000E+00
         0.00000E+00
         0.00000E+00
         0.00000E+00
         0.00000E+00
         0.00000E+00
         0.00000E+00
         0.00000E+00
         0.00000E+00
         0.00000E+00
         0.00000E+00
         0.00000E+00
         0.00000E+00
         0.00000E+00
         0.00000E+00
         0.00000E+00
         0.00000E+00
         0.00000E+00
         0.00000E+00
         0.00000E+00
         0.00000E+00
         0.00000E+00
         0.00000E+00
         0.00000E+00
         0.00000E+00
         0.00000E+00
         0.00000E+00
         0.00000E+00
         0.00000E+00
         0.00000E+00
         0.00000E+00
         0.00000E+00
         0.00000E+00
         0.00000E+00
         0.00000E+00
         0.00000E+00
         0.00000E+00
         0.00000E+00
         0.00000E+00
         0.00000E+00
         0.00000E+00
         0.00000E+00
         0.00000E+00
         0.00000E+00
         0.00000E+00
         0.00000E+00
         0.00000E+00
         0.00000E+00
         0.00000E+00
         0.00000E+00
         0.00000E+00
         0.00000E+00
         0.00000E+00
         0.00000E+00
         0.00000E+00
         0.00000E+00
         0.00000E+00
         0.00000E+00
         0.00000E+00
         0.00000E+00
         0.00000E+00
         0.00000E+00
         0.00000E+00
         0.00000E+00
         0.00000E+00
         0.00000E+00
         0.00000E+00
         0.00000E+00
         0.00000E+00
         0.00000E+00
         0.00000E+00
         0.00000E+00
         0.00000E+00
         0.00000E+00
         0.00000E+00
         0.00000E+00
         0.00000E+00
         0.00000E+00
         0.00000E+00
         0.00000E+00
         0.00000E+00
         0.00000E+00
         0.00000E+00
         0.00000E+00
         0.00000E+00
         0.00000E+00
         0.00000E+00
         0.00000E+00
         0.00000E+00
         0.00000E+00
         0.00000E+00
         0.00000E+00
         0.00000E+00
         0.00000E+00
         0.00000E+00
         0.00000E+00
         0.00000E+00
         0.00000E+00
         0.00000E+00
         0.00000E+00
         0.00000E+00
         0.00000E+00
         0.00000E+00
         0.00000E+00
         0.00000E+00
         0.00000E+00
         0.00000E+00
         0.00000E+00
         0.00000E+00
         0.00000E+00
         0.00000E+00
         0.00000E+00
         0.00000E+00
         0.00000E+00
         0.00000E+00
         0.00000E+00
         0.00000E+00
         0.00000E+00
         0.00000E+00
         0.00000E+00
         0.00000E+00
         0.00000E+00
         0.00000E+00
         0.00000E+00
         0.00000E+00
         0.00000E+00
         0.00000E+00
         0.00000E+00
         0.00000E+00
         0.00000E+00
         0.00000E+00
         0.00000E+00
         0.00000E+00
         0.00000E+00
         0.00000E+00
         0.00000E+00
         0.00000E+00
         0.00000E+00
         0.00000E+00
         0.00000E+00
         0.00000E+00
         0.00000E+00
         0.00000E+00
         0.00000E+00
         0.00000E+00
         0.00000E+00
         0.00000E+00
         0.00000E+00
         0.00000E+00
         0.00000E+00
         0.00000E+00
         0.00000E+00
         0.00000E+00
         0.00000E+00
         0.00000E+00
         0.00000E+00
         0.00000E+00
         0.00000E+00
         0.00000E+00
         0.00000E+00
         0.00000E+00
         0.00000E+00
         0.00000E+00
         0.00000E+00
         0.00000E+00
         0.00000E+00
         0.00000E+00
         0.00000E+00
         0.00000E+00
         0.00000E+00
         0.00000E+00
         0.00000E+00
         0.00000E+00
         0.00000E+00
         0.00000E+00
         0.00000E+00
         0.00000E+00
         0.00000E+00
         0.00000E+00
         0.00000E+00
         0.00000E+00
         0.00000E+00
         0.00000E+00
         0.00000E+00
         0.00000E+00
         0.00000E+00
         0.00000E+00
         0.00000E+00
         0.00000E+00
         0.00000E+00
         0.00000E+00
         0.00000E+00
         0.00000E+00
         0.00000E+00
         0.00000E+00
         0.00000E+00
         0.00000E+00
         0.00000E+00
         0.00000E+00
         0.00000E+00
         0.00000E+00
         0.00000E+00
         0.00000E+00
         0.00000E+00
         0.00000E+00
         0.00000E+00
         0.00000E+00
         0.00000E+00
         0.00000E+00
         0.00000E+00
         0.00000E+00
         0.00000E+00
         0.00000E+00
         0.00000E+00
         0.00000E+00
         0.00000E+00
         0.00000E+00
         0.00000E+00
         0.00000E+00
         0.00000E+00
         0.00000E+00
         0.00000E+00
         0.00000E+00
         0.00000E+00
         0.00000E+00
         0.00000E+00
         0.00000E+00
         0.00000E+00
         0.00000E+00
         0.00000E+00
         0.00000E+00
         0.00000E+00
         0.00000E+00
         0.00000E+00
         0.00000E+00
         0.00000E+00
         0.00000E+00
         0.00000E+00
         0.00000E+00
         0.00000E+00
         0.00000E+00
         0.00000E+00
         0.00000E+00
         0.00000E+00
         0.00000E+00
         0.00000E+00
         0.00000E+00
         0.00000E+00
         0.00000E+00
         0.00000E+00
         0.00000E+00
         0.00000E+00
         0.00000E+00
         0.00000E+00
         0.00000E+00
         0.00000E+00
         0.00000E+00
         0.00000E+00
         0.00000E+00
         0.00000E+00
         0.00000E+00
         0.00000E+00
         0.00000E+00
         0.00000E+00
         0.00000E+00
         0.00000E+00
         0.00000E+00
         0.00000E+00
         0.00000E+00
         0.00000E+00
         0.00000E+00
         0.00000E+00
         0.00000E+00
         0.00000E+00
         0.00000E+00
         0.00000E+00
         0.00000E+00
         0.00000E+00
         0.00000E+00
         0.00000E+00
         0.00000E+00
         0.00000E+00
         0.00000E+00
         0.00000E+00
         0.00000E+00
         0.00000E+00
         0.00000E+00
         0.00000E+00
         0.00000E+00
         0.00000E+00
         0.00000E+00
         0.00000E+00
         0.00000E+00
         0.00000E+00
         0.00000E+00
         0.00000E+00
         0.00000E+00
         0.00000E+00
         0.00000E+00
         0.00000E+00
         0.00000E+00
         0.00000E+00
         0.00000E+00
         0.00000E+00
         0.00000E+00
         0.00000E+00
         0.00000E+00
         0.00000E+00
         0.00000E+00
         0.00000E+00
         0.00000E+00
         0.00000E+00
         0.00000E+00
         0.00000E+00
         0.00000E+00
         0.00000E+00
         0.00000E+00
         0.00000E+00
         0.00000E+00
         0.00000E+00
         0.00000E+00
         0.00000E+00
         0.00000E+00
         0.00000E+00
         0.00000E+00
         0.00000E+00
         0.00000E+00
         0.00000E+00
         0.00000E+00
         0.00000E+00
         0.00000E+00
         0.00000E+00
         0.00000E+00
         0.00000E+00
         0.00000E+00
         0.00000E+00
         0.00000E+00
         0.00000E+00
         0.00000E+00
         0.00000E+00
         0.00000E+00
         0.00000E+00
         0.00000E+00
         0.00000E+00
         0.00000E+00
         0.00000E+00
         0.00000E+00
         0.00000E+00
         0.00000E+00
         0.00000E+00
         0.00000E+00
         0.00000E+00
         0.00000E+00
         0.00000E+00
         0.00000E+00
         0.00000E+00
         0.00000E+00
         0.00000E+00
         0.00000E+00
         0.00000E+00
         0.00000E+00
         0.00000E+00
         0.00000E+00
         0.00000E+00
         0.00000E+00
         0.00000E+00
         0.00000E+00
         0.00000E+00
         0.00000E+00
         0.00000E+00
         0.00000E+00
         0.00000E+00
         0.00000E+00
         0.00000E+00
         0.00000E+00
         0.00000E+00
         0.00000E+00
         0.00000E+00
         0.00000E+00
         0.00000E+00
         0.00000E+00
         0.00000E+00
         0.00000E+00
         0.00000E+00
         0.00000E+00
         0.00000E+00
         0.00000E+00
         0.00000E+00
         0.00000E+00
         0.00000E+00
         0.00000E+00
         0.00000E+00
         0.00000E+00
         0.00000E+00
         0.00000E+00
         0.00000E+00
         0.00000E+00
         0.00000E+00
         0.00000E+00
         0.00000E+00
         0.00000E+00
         0.00000E+00
         0.00000E+00
         0.00000E+00
         0.00000E+00
         0.00000E+00
         0.00000E+00
         0.00000E+00
         0.00000E+00
         0.00000E+00
         0.00000E+00
         0.00000E+00
         0.00000E+00
         0.00000E+00
         0.00000E+00
         0.00000E+00
         0.00000E+00
         0.00000E+00
         0.00000E+00
         0.00000E+00
         0.00000E+00
         0.00000E+00
         0.00000E+00
         0.00000E+00
         0.00000E+00
         0.00000E+00
         0.00000E+00
         0.00000E+00
         0.00000E+00
         0.00000E+00
         0.00000E+00
         0.00000E+00
         0.00000E+00
         0.00000E+00
         0.00000E+00
         0.00000E+00
         0.00000E+00
         0.00000E+00
         0.00000E+00
         0.00000E+00
         0.00000E+00
         0.00000E+00
         0.00000E+00
         0.00000E+00
         0.00000E+00
         0.00000E+00
         0.00000E+00
         0.00000E+00
         0.00000E+00
         0.00000E+00
         0.00000E+00
         0.00000E+00
         0.00000E+00
         0.00000E+00
         0.00000E+00
         0.00000E+00
         0.00000E+00
         0.00000E+00
         0.00000E+00
         0.00000E+00
         0.00000E+00
         0.00000E+00
         0.00000E+00
         0.00000E+00
         0.00000E+00
         0.00000E+00
         0.00000E+00
         0.00000E+00
         0.00000E+00
         0.00000E+00
         0.00000E+00
         0.00000E+00
         0.00000E+00
         0.00000E+00
         0.00000E+00
         0.00000E+00
         0.00000E+00
         0.00000E+00
         0.00000E+00
         0.00000E+00
         0.00000E+00
         0.00000E+00
         0.00000E+00
         0.00000E+00
         0.00000E+00
         0.00000E+00
         0.00000E+00
         0.00000E+00
         0.00000E+00
         0.00000E+00
         0.00000E+00
         0.00000E+00
         0.00000E+00
         0.00000E+00
         0.00000E+00
         0.00000E+00
         0.00000E+00
         0.00000E+00
         0.00000E+00
         0.00000E+00
         0.00000E+00
         0.00000E+00
         0.00000E+00
         0.00000E+00
         0.00000E+00
         0.00000E+00
         0.00000E+00
         0.00000E+00
         0.00000E+00
         0.00000E+00
         0.00000E+00
         0.00000E+00
         0.00000E+00
         0.00000E+00
         0.00000E+00
         0.00000E+00
         0.00000E+00
         0.00000E+00
         0.00000E+00
         0.00000E+00
         0.00000E+00
         0.00000E+00
         0.00000E+00
         0.00000E+00
         0.00000E+00
         0.00000E+00
         0.00000E+00
         0.00000E+00
         0.00000E+00
         0.00000E+00
         0.00000E+00
         0.00000E+00
         0.00000E+00
         0.00000E+00
         0.00000E+00
         0.00000E+00
         0.00000E+00
         0.00000E+00
         0.00000E+00
         0.00000E+00
         0.00000E+00
         0.00000E+00
         0.00000E+00
         0.00000E+00
         0.00000E+00
         0.00000E+00
         0.00000E+00
         0.00000E+00
         0.00000E+00
         0.00000E+00
         0.00000E+00
         0.00000E+00
         0.00000E+00
         0.00000E+00
         0.00000E+00
         0.00000E+00
         0.00000E+00
         0.00000E+00
         0.00000E+00
         0.00000E+00
         0.00000E+00
         0.00000E+00
         0.00000E+00
         0.00000E+00
         0.00000E+00
         0.00000E+00
         0.00000E+00
         0.00000E+00
         0.00000E+00
         0.00000E+00
         0.00000E+00
         0.00000E+00
         0.00000E+00
         0.00000E+00
         0.00000E+00
         0.00000E+00
         0.00000E+00
         0.00000E+00
         0.00000E+00
         0.00000E+00
         0.00000E+00
         0.00000E+00
         0.00000E+00
         0.00000E+00
         0.00000E+00
         0.00000E+00
         0.00000E+00
         0.00000E+00
         0.00000E+00
         0.00000E+00
         0.00000E+00
         0.00000E+00
         0.00000E+00
         0.00000E+00
         0.00000E+00
         0.00000E+00
         0.00000E+00
         0.00000E+00
         0.00000E+00
         0.00000E+00
         0.00000E+00
         0.00000E+00
         0.00000E+00
         0.00000E+00
         0.00000E+00
         0.00000E+00
         0.00000E+00
         0.00000E+00
         0.00000E+00
         0.00000E+00
         0.00000E+00
         0.00000E+00
         0.00000E+00
         0.00000E+00
         0.00000E+00
         0.00000E+00
         0.00000E+00
         0.00000E+00
         0.00000E+00
         0.00000E+00
         0.00000E+00
         0.00000E+00
         0.00000E+00
         0.00000E+00
         0.00000E+00
         0.00000E+00
         0.00000E+00
         0.00000E+00
         0.00000E+00
         0.00000E+00
         0.00000E+00
         0.00000E+00
         0.00000E+00
         0.00000E+00
         0.00000E+00
         0.00000E+00
         0.00000E+00
         0.00000E+00
         0.00000E+00
         0.00000E+00
         0.00000E+00
         0.00000E+00
         0.00000E+00
         0.00000E+00
         0.00000E+00
         0.00000E+00
         0.00000E+00
         0.00000E+00
         0.00000E+00
         0.00000E+00
         0.00000E+00
         0.00000E+00
         0.00000E+00
         0.00000E+00
         0.00000E+00
         0.00000E+00
         0.00000E+00
         0.00000E+00
         0.00000E+00
         0.00000E+00
         0.00000E+00
         0.00000E+00
         0.00000E+00
         0.00000E+00
         0.00000E+00
         0.00000E+00
         0.00000E+00
         0.00000E+00
         0.00000E+00
         0.00000E+00
         0.00000E+00
         0.00000E+00
         0.00000E+00
         0.00000E+00
         0.00000E+00
         0.00000E+00
         0.00000E+00
         0.00000E+00
         0.00000E+00
         0.00000E+00
         0.00000E+00
         0.00000E+00
         0.00000E+00
         0.00000E+00
         0.00000E+00
         0.00000E+00
         0.00000E+00
         0.00000E+00
         0.00000E+00
         0.00000E+00
         0.00000E+00
         0.00000E+00
         0.00000E+00
         0.00000E+00
         0.00000E+00
         0.00000E+00
         0.00000E+00
         0.00000E+00
         0.00000E+00
         0.00000E+00
         0.00000E+00
         0.00000E+00
         0.00000E+00
         0.00000E+00
         0.00000E+00
         0.00000E+00
         0.00000E+00
         0.00000E+00
         0.00000E+00
         0.00000E+00
         0.00000E+00
         0.00000E+00
         0.00000E+00
         0.00000E+00
         0.00000E+00
         0.00000E+00
         0.00000E+00
         0.00000E+00
         0.00000E+00
         0.00000E+00
         0.00000E+00
         0.00000E+00
         0.00000E+00
         0.00000E+00
         0.00000E+00
         0.00000E+00
         0.00000E+00
         0.00000E+00
         0.00000E+00
         0.00000E+00
         0.00000E+00
         0.00000E+00
         0.00000E+00
         0.00000E+00
         0.00000E+00
         0.00000E+00
         0.00000E+00
         0.00000E+00
         0.00000E+00
         0.00000E+00
         0.00000E+00
         0.00000E+00
         0.00000E+00
         0.00000E+00
         0.00000E+00
         0.00000E+00
         0.00000E+00
         0.00000E+00
         0.00000E+00
         0.00000E+00
         0.00000E+00
         0.00000E+00
         0.00000E+00
         0.00000E+00
         0.00000E+00
         0.00000E+00
         0.00000E+00
         0.00000E+00
         0.00000E+00
         0.00000E+00
         0.00000E+00
         0.00000E+00
         0.00000E+00
         0.00000E+00
         0.00000E+00
         0.00000E+00
         0.00000E+00
         0.00000E+00
         0.00000E+00
         0.00000E+00
         0.00000E+00
         0.00000E+00
         0.00000E+00
         0.00000E+00
         0.00000E+00
         0.00000E+00
         0.00000E+00
         0.00000E+00
         0.00000E+00
         0.00000E+00
         0.00000E+00
         0.00000E+00
         0.00000E+00
         0.00000E+00
         0.00000E+00
         0.00000E+00
         0.00000E+00
         0.00000E+00
         0.00000E+00
         0.00000E+00
         0.00000E+00
         0.00000E+00
         0.00000E+00
         0.00000E+00
         0.00000E+00
         0.00000E+00
         0.00000E+00
         0.00000E+00
         0.00000E+00
         0.00000E+00
         0.00000E+00
         0.00000E+00
         0.00000E+00
         0.00000E+00
         0.00000E+00
         0.00000E+00
         0.00000E+00
         0.00000E+00
         0.00000E+00
         0.00000E+00
         0.00000E+00
         0.00000E+00
         0.00000E+00
         0.00000E+00
         0.00000E+00
         0.00000E+00
         0.00000E+00
         0.00000E+00
         0.00000E+00
         0.00000E+00
         0.00000E+00
         0.00000E+00
         0.00000E+00
         0.00000E+00
         0.00000E+00
         0.00000E+00
         0.00000E+00
         0.00000E+00
         0.00000E+00
         0.00000E+00
         0.00000E+00
         0.00000E+00
         0.00000E+00
         0.00000E+00
         0.00000E+00
         0.00000E+00
         0.00000E+00
         0.00000E+00
         0.00000E+00
         0.00000E+00
         0.00000E+00
         0.00000E+00
         0.00000E+00
         0.00000E+00
         0.00000E+00
         0.00000E+00
         0.00000E+00
         0.00000E+00
         0.00000E+00
         0.00000E+00
         0.00000E+00
         0.00000E+00
         0.00000E+00
         0.00000E+00
         0.00000E+00
         0.00000E+00
         0.00000E+00
         0.00000E+00
         0.00000E+00
         0.00000E+00
         0.00000E+00
         0.00000E+00
         0.00000E+00
         0.00000E+00
         0.00000E+00
         0.00000E+00
         0.00000E+00
         0.00000E+00
         0.00000E+00
         0.00000E+00
         0.00000E+00
         0.00000E+00
         0.00000E+00
         0.00000E+00
         0.00000E+00
         0.00000E+00
         0.00000E+00
         0.00000E+00
         0.00000E+00
         0.00000E+00
         0.00000E+00
         0.00000E+00
         0.00000E+00
         0.00000E+00
         0.00000E+00
         0.00000E+00
         0.00000E+00
         0.00000E+00
         0.00000E+00
         0.00000E+00
         0.00000E+00
         0.00000E+00
         0.00000E+00
         0.00000E+00
         0.00000E+00
         0.00000E+00
         0.00000E+00
         0.00000E+00
         0.00000E+00
         0.00000E+00
         0.00000E+00
         0.00000E+00
         0.00000E+00
         0.00000E+00
         0.00000E+00
         0.00000E+00
         0.00000E+00
         0.00000E+00
         0.00000E+00
         0.00000E+00
         0.00000E+00
         0.00000E+00
         0.00000E+00
         0.00000E+00
         0.00000E+00
         0.00000E+00
         0.00000E+00
         0.00000E+00
         0.00000E+00
         0.00000E+00
         0.00000E+00
         0.00000E+00
         0.00000E+00
         0.00000E+00
         0.00000E+00
         0.00000E+00
         0.00000E+00
         0.00000E+00
         0.00000E+00
  
SCALARS                         fint_x  double 1
LOOKUP_TABLE default
         0.00000E+00
         0.00000E+00
         0.00000E+00
         0.00000E+00
         0.00000E+00
         0.00000E+00
         0.00000E+00
         0.00000E+00
         0.00000E+00
         0.00000E+00
         0.00000E+00
         0.00000E+00
         0.00000E+00
         0.00000E+00
         0.00000E+00
         0.00000E+00
         0.00000E+00
         0.00000E+00
         0.00000E+00
         0.00000E+00
         0.00000E+00
         0.00000E+00
         0.00000E+00
         0.00000E+00
         0.00000E+00
         0.00000E+00
         0.00000E+00
         0.00000E+00
         0.00000E+00
         0.00000E+00
         0.00000E+00
         0.00000E+00
         0.00000E+00
         0.00000E+00
         0.00000E+00
         0.00000E+00
         0.00000E+00
         0.00000E+00
         0.00000E+00
         0.00000E+00
         0.00000E+00
         0.00000E+00
         0.00000E+00
         0.00000E+00
         0.00000E+00
         0.00000E+00
         0.00000E+00
         0.00000E+00
         0.00000E+00
         0.00000E+00
         0.00000E+00
         0.00000E+00
         0.00000E+00
         0.00000E+00
         0.00000E+00
         0.00000E+00
         0.00000E+00
         0.00000E+00
         0.00000E+00
         0.00000E+00
         0.00000E+00
         0.00000E+00
         0.00000E+00
         0.00000E+00
         0.00000E+00
         0.00000E+00
         0.00000E+00
         0.00000E+00
         0.00000E+00
         0.00000E+00
         0.00000E+00
         0.00000E+00
         0.00000E+00
         0.00000E+00
         0.00000E+00
         0.00000E+00
         0.00000E+00
         0.00000E+00
         0.00000E+00
         0.00000E+00
         0.00000E+00
         0.00000E+00
         0.00000E+00
         0.00000E+00
         0.00000E+00
         0.00000E+00
         0.00000E+00
         0.00000E+00
         0.00000E+00
         0.00000E+00
         0.00000E+00
         0.00000E+00
         0.00000E+00
         0.00000E+00
         0.00000E+00
         0.00000E+00
         0.00000E+00
         0.00000E+00
         0.00000E+00
         0.00000E+00
         0.00000E+00
         0.00000E+00
         0.00000E+00
         0.00000E+00
         0.00000E+00
         0.00000E+00
         0.00000E+00
         0.00000E+00
         0.00000E+00
         0.00000E+00
         0.00000E+00
         0.00000E+00
         0.00000E+00
         0.00000E+00
         0.00000E+00
         0.00000E+00
         0.00000E+00
         0.00000E+00
         0.00000E+00
         0.00000E+00
         0.00000E+00
         0.00000E+00
         0.00000E+00
         0.00000E+00
         0.00000E+00
         0.00000E+00
         0.00000E+00
         0.00000E+00
         0.00000E+00
         0.00000E+00
         0.00000E+00
         0.00000E+00
         0.00000E+00
         0.00000E+00
         0.00000E+00
         0.00000E+00
         0.00000E+00
         0.00000E+00
         0.00000E+00
         0.00000E+00
         0.00000E+00
         0.00000E+00
         0.00000E+00
         0.00000E+00
         0.00000E+00
         0.00000E+00
         0.00000E+00
         0.00000E+00
         0.00000E+00
         0.00000E+00
         0.00000E+00
         0.00000E+00
         0.00000E+00
         0.00000E+00
         0.00000E+00
         0.00000E+00
         0.00000E+00
         0.00000E+00
         0.00000E+00
         0.00000E+00
         0.00000E+00
         0.00000E+00
         0.00000E+00
         0.00000E+00
         0.00000E+00
         0.00000E+00
         0.00000E+00
         0.00000E+00
         0.00000E+00
         0.00000E+00
         0.00000E+00
         0.00000E+00
         0.00000E+00
         0.00000E+00
         0.00000E+00
         0.00000E+00
         0.00000E+00
         0.00000E+00
         0.00000E+00
         0.00000E+00
         0.00000E+00
         0.00000E+00
         0.00000E+00
         0.00000E+00
         0.00000E+00
         0.00000E+00
         0.00000E+00
         0.00000E+00
         0.00000E+00
         0.00000E+00
         0.00000E+00
         0.00000E+00
         0.00000E+00
         0.00000E+00
         0.00000E+00
         0.00000E+00
         0.00000E+00
         0.00000E+00
         0.00000E+00
         0.00000E+00
         0.00000E+00
         0.00000E+00
         0.00000E+00
         0.00000E+00
         0.00000E+00
         0.00000E+00
         0.00000E+00
         0.00000E+00
         0.00000E+00
         0.00000E+00
         0.00000E+00
         0.00000E+00
         0.00000E+00
         0.00000E+00
         0.00000E+00
         0.00000E+00
         0.00000E+00
         0.00000E+00
         0.00000E+00
         0.00000E+00
         0.00000E+00
         0.00000E+00
         0.00000E+00
         0.00000E+00
         0.00000E+00
         0.00000E+00
         0.00000E+00
         0.00000E+00
         0.00000E+00
         0.00000E+00
         0.00000E+00
         0.00000E+00
         0.00000E+00
         0.00000E+00
         0.00000E+00
         0.00000E+00
         0.00000E+00
         0.00000E+00
         0.00000E+00
         0.00000E+00
         0.00000E+00
         0.00000E+00
         0.00000E+00
         0.00000E+00
         0.00000E+00
         0.00000E+00
         0.00000E+00
         0.00000E+00
         0.00000E+00
         0.00000E+00
         0.00000E+00
         0.00000E+00
         0.00000E+00
         0.00000E+00
         0.00000E+00
         0.00000E+00
         0.00000E+00
         0.00000E+00
         0.00000E+00
         0.00000E+00
         0.00000E+00
         0.00000E+00
         0.00000E+00
         0.00000E+00
         0.00000E+00
         0.00000E+00
         0.00000E+00
         0.00000E+00
         0.00000E+00
         0.00000E+00
         0.00000E+00
         0.00000E+00
         0.00000E+00
         0.00000E+00
         0.00000E+00
         0.00000E+00
         0.00000E+00
         0.00000E+00
         0.00000E+00
         0.00000E+00
         0.00000E+00
         0.00000E+00
         0.00000E+00
         0.00000E+00
         0.00000E+00
         0.00000E+00
         0.00000E+00
         0.00000E+00
         0.00000E+00
         0.00000E+00
         0.00000E+00
         0.00000E+00
         0.00000E+00
         0.00000E+00
         0.00000E+00
         0.00000E+00
         0.00000E+00
         0.00000E+00
         0.00000E+00
         0.00000E+00
         0.00000E+00
         0.00000E+00
         0.00000E+00
         0.00000E+00
         0.00000E+00
         0.00000E+00
         0.00000E+00
         0.00000E+00
         0.00000E+00
         0.00000E+00
         0.00000E+00
         0.00000E+00
         0.00000E+00
         0.00000E+00
         0.00000E+00
         0.00000E+00
         0.00000E+00
         0.00000E+00
         0.00000E+00
         0.00000E+00
         0.00000E+00
         0.00000E+00
         0.00000E+00
         0.00000E+00
         0.00000E+00
         0.00000E+00
         0.00000E+00
         0.00000E+00
         0.00000E+00
         0.00000E+00
         0.00000E+00
         0.00000E+00
         0.00000E+00
         0.00000E+00
         0.00000E+00
         0.00000E+00
         0.00000E+00
         0.00000E+00
         0.00000E+00
         0.00000E+00
         0.00000E+00
         0.00000E+00
         0.00000E+00
         0.00000E+00
         0.00000E+00
         0.00000E+00
         0.00000E+00
         0.00000E+00
         0.00000E+00
         0.00000E+00
         0.00000E+00
         0.00000E+00
         0.00000E+00
         0.00000E+00
         0.00000E+00
         0.00000E+00
         0.00000E+00
         0.00000E+00
         0.00000E+00
         0.00000E+00
         0.00000E+00
         0.00000E+00
         0.00000E+00
         0.00000E+00
         0.00000E+00
         0.00000E+00
         0.00000E+00
         0.00000E+00
         0.00000E+00
         0.00000E+00
         0.00000E+00
         0.00000E+00
         0.00000E+00
         0.00000E+00
         0.00000E+00
         0.00000E+00
         0.00000E+00
         0.00000E+00
         0.00000E+00
         0.00000E+00
         0.00000E+00
         0.00000E+00
         0.00000E+00
         0.00000E+00
         0.00000E+00
         0.00000E+00
         0.00000E+00
         0.00000E+00
         0.00000E+00
         0.00000E+00
         0.00000E+00
         0.00000E+00
         0.00000E+00
         0.00000E+00
         0.00000E+00
         0.00000E+00
         0.00000E+00
         0.00000E+00
         0.00000E+00
         0.00000E+00
         0.00000E+00
         0.00000E+00
         0.00000E+00
         0.00000E+00
         0.00000E+00
         0.00000E+00
         0.00000E+00
         0.00000E+00
         0.00000E+00
         0.00000E+00
         0.00000E+00
         0.00000E+00
         0.00000E+00
         0.00000E+00
         0.00000E+00
         0.00000E+00
         0.00000E+00
         0.00000E+00
         0.00000E+00
         0.00000E+00
         0.00000E+00
         0.00000E+00
         0.00000E+00
         0.00000E+00
         0.00000E+00
         0.00000E+00
         0.00000E+00
         0.00000E+00
         0.00000E+00
         0.00000E+00
         0.00000E+00
         0.00000E+00
         0.00000E+00
         0.00000E+00
         0.00000E+00
         0.00000E+00
         0.00000E+00
         0.00000E+00
         0.00000E+00
         0.00000E+00
         0.00000E+00
         0.00000E+00
         0.00000E+00
         0.00000E+00
         0.00000E+00
         0.00000E+00
         0.00000E+00
         0.00000E+00
         0.00000E+00
         0.00000E+00
         0.00000E+00
         0.00000E+00
         0.00000E+00
         0.00000E+00
         0.00000E+00
         0.00000E+00
         0.00000E+00
         0.00000E+00
         0.00000E+00
         0.00000E+00
         0.00000E+00
         0.00000E+00
         0.00000E+00
         0.00000E+00
         0.00000E+00
         0.00000E+00
         0.00000E+00
         0.00000E+00
         0.00000E+00
         0.00000E+00
         0.00000E+00
         0.00000E+00
         0.00000E+00
         0.00000E+00
         0.00000E+00
         0.00000E+00
         0.00000E+00
         0.00000E+00
         0.00000E+00
         0.00000E+00
         0.00000E+00
         0.00000E+00
         0.00000E+00
         0.00000E+00
         0.00000E+00
         0.00000E+00
         0.00000E+00
         0.00000E+00
         0.00000E+00
         0.00000E+00
         0.00000E+00
         0.00000E+00
         0.00000E+00
         0.00000E+00
         0.00000E+00
         0.00000E+00
         0.00000E+00
         0.00000E+00
         0.00000E+00
         0.00000E+00
         0.00000E+00
         0.00000E+00
         0.00000E+00
         0.00000E+00
         0.00000E+00
         0.00000E+00
         0.00000E+00
         0.00000E+00
         0.00000E+00
         0.00000E+00
         0.00000E+00
         0.00000E+00
         0.00000E+00
         0.00000E+00
         0.00000E+00
         0.00000E+00
         0.00000E+00
         0.00000E+00
         0.00000E+00
         0.00000E+00
         0.00000E+00
         0.00000E+00
         0.00000E+00
         0.00000E+00
         0.00000E+00
         0.00000E+00
         0.00000E+00
         0.00000E+00
         0.00000E+00
         0.00000E+00
         0.00000E+00
         0.00000E+00
         0.00000E+00
         0.00000E+00
         0.00000E+00
         0.00000E+00
         0.00000E+00
         0.00000E+00
         0.00000E+00
         0.00000E+00
         0.00000E+00
         0.00000E+00
         0.00000E+00
         0.00000E+00
         0.00000E+00
         0.00000E+00
         0.00000E+00
         0.00000E+00
         0.00000E+00
         0.00000E+00
         0.00000E+00
         0.00000E+00
         0.00000E+00
         0.00000E+00
         0.00000E+00
         0.00000E+00
         0.00000E+00
         0.00000E+00
         0.00000E+00
         0.00000E+00
         0.00000E+00
         0.00000E+00
         0.00000E+00
         0.00000E+00
         0.00000E+00
         0.00000E+00
         0.00000E+00
         0.00000E+00
         0.00000E+00
         0.00000E+00
         0.00000E+00
         0.00000E+00
         0.00000E+00
         0.00000E+00
         0.00000E+00
         0.00000E+00
         0.00000E+00
         0.00000E+00
         0.00000E+00
         0.00000E+00
         0.00000E+00
         0.00000E+00
         0.00000E+00
         0.00000E+00
         0.00000E+00
         0.00000E+00
         0.00000E+00
         0.00000E+00
         0.00000E+00
         0.00000E+00
         0.00000E+00
         0.00000E+00
         0.00000E+00
         0.00000E+00
         0.00000E+00
         0.00000E+00
         0.00000E+00
         0.00000E+00
         0.00000E+00
         0.00000E+00
         0.00000E+00
         0.00000E+00
         0.00000E+00
         0.00000E+00
         0.00000E+00
         0.00000E+00
         0.00000E+00
         0.00000E+00
         0.00000E+00
         0.00000E+00
         0.00000E+00
         0.00000E+00
         0.00000E+00
         0.00000E+00
         0.00000E+00
         0.00000E+00
         0.00000E+00
         0.00000E+00
         0.00000E+00
         0.00000E+00
         0.00000E+00
         0.00000E+00
         0.00000E+00
         0.00000E+00
         0.00000E+00
         0.00000E+00
         0.00000E+00
         0.00000E+00
         0.00000E+00
         0.00000E+00
         0.00000E+00
         0.00000E+00
         0.00000E+00
         0.00000E+00
         0.00000E+00
         0.00000E+00
         0.00000E+00
         0.00000E+00
         0.00000E+00
         0.00000E+00
         0.00000E+00
         0.00000E+00
         0.00000E+00
         0.00000E+00
         0.00000E+00
         0.00000E+00
         0.00000E+00
         0.00000E+00
         0.00000E+00
         0.00000E+00
         0.00000E+00
         0.00000E+00
         0.00000E+00
         0.00000E+00
         0.00000E+00
         0.00000E+00
         0.00000E+00
         0.00000E+00
         0.00000E+00
         0.00000E+00
         0.00000E+00
         0.00000E+00
         0.00000E+00
         0.00000E+00
         0.00000E+00
         0.00000E+00
         0.00000E+00
         0.00000E+00
         0.00000E+00
         0.00000E+00
         0.00000E+00
         0.00000E+00
         0.00000E+00
         0.00000E+00
         0.00000E+00
         0.00000E+00
         0.00000E+00
         0.00000E+00
         0.00000E+00
         0.00000E+00
         0.00000E+00
         0.00000E+00
         0.00000E+00
         0.00000E+00
         0.00000E+00
         0.00000E+00
         0.00000E+00
         0.00000E+00
         0.00000E+00
         0.00000E+00
         0.00000E+00
         0.00000E+00
         0.00000E+00
         0.00000E+00
         0.00000E+00
         0.00000E+00
         0.00000E+00
         0.00000E+00
         0.00000E+00
         0.00000E+00
         0.00000E+00
         0.00000E+00
         0.00000E+00
         0.00000E+00
         0.00000E+00
         0.00000E+00
         0.00000E+00
         0.00000E+00
         0.00000E+00
         0.00000E+00
         0.00000E+00
         0.00000E+00
         0.00000E+00
         0.00000E+00
         0.00000E+00
         0.00000E+00
         0.00000E+00
         0.00000E+00
         0.00000E+00
         0.00000E+00
         0.00000E+00
         0.00000E+00
         0.00000E+00
         0.00000E+00
         0.00000E+00
         0.00000E+00
         0.00000E+00
         0.00000E+00
         0.00000E+00
         0.00000E+00
         0.00000E+00
         0.00000E+00
         0.00000E+00
         0.00000E+00
         0.00000E+00
         0.00000E+00
         0.00000E+00
         0.00000E+00
         0.00000E+00
         0.00000E+00
         0.00000E+00
         0.00000E+00
         0.00000E+00
         0.00000E+00
         0.00000E+00
         0.00000E+00
         0.00000E+00
         0.00000E+00
         0.00000E+00
         0.00000E+00
         0.00000E+00
         0.00000E+00
         0.00000E+00
         0.00000E+00
         0.00000E+00
         0.00000E+00
         0.00000E+00
         0.00000E+00
         0.00000E+00
         0.00000E+00
         0.00000E+00
         0.00000E+00
         0.00000E+00
         0.00000E+00
         0.00000E+00
         0.00000E+00
         0.00000E+00
         0.00000E+00
         0.00000E+00
         0.00000E+00
         0.00000E+00
         0.00000E+00
         0.00000E+00
         0.00000E+00
         0.00000E+00
         0.00000E+00
         0.00000E+00
         0.00000E+00
         0.00000E+00
         0.00000E+00
         0.00000E+00
         0.00000E+00
         0.00000E+00
         0.00000E+00
         0.00000E+00
         0.00000E+00
         0.00000E+00
         0.00000E+00
         0.00000E+00
         0.00000E+00
         0.00000E+00
         0.00000E+00
         0.00000E+00
         0.00000E+00
         0.00000E+00
         0.00000E+00
         0.00000E+00
         0.00000E+00
         0.00000E+00
         0.00000E+00
         0.00000E+00
         0.00000E+00
         0.00000E+00
         0.00000E+00
         0.00000E+00
         0.00000E+00
         0.00000E+00
         0.00000E+00
         0.00000E+00
         0.00000E+00
         0.00000E+00
         0.00000E+00
         0.00000E+00
         0.00000E+00
         0.00000E+00
         0.00000E+00
         0.00000E+00
         0.00000E+00
         0.00000E+00
         0.00000E+00
         0.00000E+00
         0.00000E+00
         0.00000E+00
         0.00000E+00
         0.00000E+00
         0.00000E+00
         0.00000E+00
         0.00000E+00
         0.00000E+00
         0.00000E+00
         0.00000E+00
         0.00000E+00
         0.00000E+00
         0.00000E+00
         0.00000E+00
         0.00000E+00
         0.00000E+00
         0.00000E+00
         0.00000E+00
         0.00000E+00
         0.00000E+00
         0.00000E+00
         0.00000E+00
         0.00000E+00
         0.00000E+00
         0.00000E+00
         0.00000E+00
         0.00000E+00
         0.00000E+00
         0.00000E+00
         0.00000E+00
         0.00000E+00
         0.00000E+00
         0.00000E+00
         0.00000E+00
         0.00000E+00
         0.00000E+00
         0.00000E+00
         0.00000E+00
         0.00000E+00
         0.00000E+00
         0.00000E+00
         0.00000E+00
         0.00000E+00
         0.00000E+00
         0.00000E+00
         0.00000E+00
         0.00000E+00
         0.00000E+00
         0.00000E+00
         0.00000E+00
         0.00000E+00
         0.00000E+00
         0.00000E+00
         0.00000E+00
         0.00000E+00
         0.00000E+00
         0.00000E+00
         0.00000E+00
         0.00000E+00
         0.00000E+00
         0.00000E+00
         0.00000E+00
         0.00000E+00
         0.00000E+00
         0.00000E+00
         0.00000E+00
         0.00000E+00
         0.00000E+00
         0.00000E+00
         0.00000E+00
         0.00000E+00
         0.00000E+00
         0.00000E+00
         0.00000E+00
         0.00000E+00
         0.00000E+00
         0.00000E+00
         0.00000E+00
         0.00000E+00
         0.00000E+00
         0.00000E+00
         0.00000E+00
         0.00000E+00
         0.00000E+00
         0.00000E+00
         0.00000E+00
         0.00000E+00
         0.00000E+00
         0.00000E+00
         0.00000E+00
         0.00000E+00
         0.00000E+00
         0.00000E+00
         0.00000E+00
         0.00000E+00
         0.00000E+00
         0.00000E+00
         0.00000E+00
         0.00000E+00
         0.00000E+00
         0.00000E+00
         0.00000E+00
         0.00000E+00
         0.00000E+00
         0.00000E+00
         0.00000E+00
         0.00000E+00
         0.00000E+00
         0.00000E+00
         0.00000E+00
         0.00000E+00
         0.00000E+00
         0.00000E+00
         0.00000E+00
         0.00000E+00
         0.00000E+00
         0.00000E+00
         0.00000E+00
         0.00000E+00
         0.00000E+00
         0.00000E+00
         0.00000E+00
         0.00000E+00
         0.00000E+00
         0.00000E+00
         0.00000E+00
         0.00000E+00
         0.00000E+00
         0.00000E+00
         0.00000E+00
         0.00000E+00
         0.00000E+00
         0.00000E+00
         0.00000E+00
         0.00000E+00
         0.00000E+00
         0.00000E+00
         0.00000E+00
         0.00000E+00
         0.00000E+00
         0.00000E+00
         0.00000E+00
         0.00000E+00
         0.00000E+00
         0.00000E+00
         0.00000E+00
         0.00000E+00
         0.00000E+00
         0.00000E+00
         0.00000E+00
         0.00000E+00
         0.00000E+00
         0.00000E+00
         0.00000E+00
         0.00000E+00
         0.00000E+00
         0.00000E+00
         0.00000E+00
         0.00000E+00
         0.00000E+00
         0.00000E+00
         0.00000E+00
         0.00000E+00
         0.00000E+00
         0.00000E+00
         0.00000E+00
         0.00000E+00
         0.00000E+00
         0.00000E+00
         0.00000E+00
         0.00000E+00
         0.00000E+00
         0.00000E+00
         0.00000E+00
         0.00000E+00
         0.00000E+00
         0.00000E+00
         0.00000E+00
         0.00000E+00
         0.00000E+00
         0.00000E+00
         0.00000E+00
         0.00000E+00
         0.00000E+00
         0.00000E+00
         0.00000E+00
         0.00000E+00
         0.00000E+00
         0.00000E+00
         0.00000E+00
         0.00000E+00
         0.00000E+00
         0.00000E+00
         0.00000E+00
         0.00000E+00
         0.00000E+00
         0.00000E+00
         0.00000E+00
         0.00000E+00
         0.00000E+00
         0.00000E+00
         0.00000E+00
         0.00000E+00
         0.00000E+00
         0.00000E+00
         0.00000E+00
         0.00000E+00
         0.00000E+00
         0.00000E+00
         0.00000E+00
         0.00000E+00
         0.00000E+00
         0.00000E+00
         0.00000E+00
         0.00000E+00
         0.00000E+00
         0.00000E+00
         0.00000E+00
         0.00000E+00
         0.00000E+00
         0.00000E+00
         0.00000E+00
         0.00000E+00
         0.00000E+00
         0.00000E+00
         0.00000E+00
         0.00000E+00
         0.00000E+00
         0.00000E+00
         0.00000E+00
         0.00000E+00
         0.00000E+00
         0.00000E+00
         0.00000E+00
         0.00000E+00
         0.00000E+00
         0.00000E+00
         0.00000E+00
         0.00000E+00
         0.00000E+00
         0.00000E+00
         0.00000E+00
         0.00000E+00
         0.00000E+00
         0.00000E+00
         0.00000E+00
         0.00000E+00
         0.00000E+00
         0.00000E+00
         0.00000E+00
         0.00000E+00
         0.00000E+00
         0.00000E+00
         0.00000E+00
         0.00000E+00
         0.00000E+00
         0.00000E+00
         0.00000E+00
         0.00000E+00
         0.00000E+00
         0.00000E+00
         0.00000E+00
         0.00000E+00
         0.00000E+00
         0.00000E+00
         0.00000E+00
         0.00000E+00
         0.00000E+00
         0.00000E+00
         0.00000E+00
         0.00000E+00
         0.00000E+00
         0.00000E+00
         0.00000E+00
         0.00000E+00
         0.00000E+00
         0.00000E+00
         0.00000E+00
         0.00000E+00
         0.00000E+00
         0.00000E+00
         0.00000E+00
         0.00000E+00
         0.00000E+00
         0.00000E+00
         0.00000E+00
         0.00000E+00
         0.00000E+00
         0.00000E+00
         0.00000E+00
         0.00000E+00
         0.00000E+00
         0.00000E+00
         0.00000E+00
         0.00000E+00
         0.00000E+00
         0.00000E+00
         0.00000E+00
         0.00000E+00
         0.00000E+00
         0.00000E+00
         0.00000E+00
         0.00000E+00
         0.00000E+00
         0.00000E+00
         0.00000E+00
         0.00000E+00
         0.00000E+00
         0.00000E+00
         0.00000E+00
         0.00000E+00
         0.00000E+00
         0.00000E+00
         0.00000E+00
         0.00000E+00
         0.00000E+00
         0.00000E+00
         0.00000E+00
         0.00000E+00
         0.00000E+00
         0.00000E+00
         0.00000E+00
         0.00000E+00
         0.00000E+00
         0.00000E+00
         0.00000E+00
         0.00000E+00
         0.00000E+00
         0.00000E+00
         0.00000E+00
         0.00000E+00
         0.00000E+00
         0.00000E+00
         0.00000E+00
         0.00000E+00
         0.00000E+00
         0.00000E+00
         0.00000E+00
         0.00000E+00
         0.00000E+00
         0.00000E+00
         0.00000E+00
         0.00000E+00
         0.00000E+00
         0.00000E+00
         0.00000E+00
         0.00000E+00
         0.00000E+00
         0.00000E+00
         0.00000E+00
         0.00000E+00
         0.00000E+00
         0.00000E+00
         0.00000E+00
         0.00000E+00
         0.00000E+00
         0.00000E+00
         0.00000E+00
         0.00000E+00
         0.00000E+00
         0.00000E+00
         0.00000E+00
         0.00000E+00
         0.00000E+00
         0.00000E+00
         0.00000E+00
         0.00000E+00
         0.00000E+00
         0.00000E+00
         0.00000E+00
         0.00000E+00
         0.00000E+00
         0.00000E+00
         0.00000E+00
         0.00000E+00
         0.00000E+00
         0.00000E+00
         0.00000E+00
         0.00000E+00
         0.00000E+00
         0.00000E+00
         0.00000E+00
         0.00000E+00
         0.00000E+00
         0.00000E+00
         0.00000E+00
         0.00000E+00
         0.00000E+00
         0.00000E+00
         0.00000E+00
         0.00000E+00
         0.00000E+00
         0.00000E+00
         0.00000E+00
         0.00000E+00
         0.00000E+00
         0.00000E+00
         0.00000E+00
         0.00000E+00
         0.00000E+00
         0.00000E+00
         0.00000E+00
         0.00000E+00
         0.00000E+00
         0.00000E+00
         0.00000E+00
         0.00000E+00
         0.00000E+00
         0.00000E+00
         0.00000E+00
         0.00000E+00
         0.00000E+00
         0.00000E+00
         0.00000E+00
         0.00000E+00
         0.00000E+00
         0.00000E+00
         0.00000E+00
         0.00000E+00
         0.00000E+00
         0.00000E+00
         0.00000E+00
         0.00000E+00
         0.00000E+00
         0.00000E+00
         0.00000E+00
         0.00000E+00
         0.00000E+00
         0.00000E+00
         0.00000E+00
         0.00000E+00
         0.00000E+00
         0.00000E+00
         0.00000E+00
         0.00000E+00
         0.00000E+00
         0.00000E+00
         0.00000E+00
         0.00000E+00
         0.00000E+00
         0.00000E+00
         0.00000E+00
         0.00000E+00
         0.00000E+00
         0.00000E+00
         0.00000E+00
         0.00000E+00
         0.00000E+00
         0.00000E+00
         0.00000E+00
         0.00000E+00
         0.00000E+00
         0.00000E+00
         0.00000E+00
         0.00000E+00
         0.00000E+00
         0.00000E+00
         0.00000E+00
         0.00000E+00
         0.00000E+00
         0.00000E+00
         0.00000E+00
         0.00000E+00
         0.00000E+00
         0.00000E+00
         0.00000E+00
         0.00000E+00
         0.00000E+00
         0.00000E+00
         0.00000E+00
         0.00000E+00
         0.00000E+00
         0.00000E+00
         0.00000E+00
         0.00000E+00
         0.00000E+00
         0.00000E+00
         0.00000E+00
         0.00000E+00
         0.00000E+00
         0.00000E+00
         0.00000E+00
         0.00000E+00
         0.00000E+00
         0.00000E+00
         0.00000E+00
         0.00000E+00
         0.00000E+00
         0.00000E+00
         0.00000E+00
         0.00000E+00
         0.00000E+00
         0.00000E+00
         0.00000E+00
         0.00000E+00
         0.00000E+00
         0.00000E+00
         0.00000E+00
         0.00000E+00
         0.00000E+00
         0.00000E+00
         0.00000E+00
         0.00000E+00
         0.00000E+00
         0.00000E+00
         0.00000E+00
         0.00000E+00
         0.00000E+00
         0.00000E+00
         0.00000E+00
         0.00000E+00
         0.00000E+00
         0.00000E+00
         0.00000E+00
         0.00000E+00
         0.00000E+00
         0.00000E+00
         0.00000E+00
         0.00000E+00
         0.00000E+00
         0.00000E+00
         0.00000E+00
         0.00000E+00
         0.00000E+00
         0.00000E+00
         0.00000E+00
         0.00000E+00
         0.00000E+00
         0.00000E+00
         0.00000E+00
         0.00000E+00
         0.00000E+00
         0.00000E+00
         0.00000E+00
         0.00000E+00
         0.00000E+00
         0.00000E+00
         0.00000E+00
         0.00000E+00
         0.00000E+00
         0.00000E+00
         0.00000E+00
         0.00000E+00
         0.00000E+00
         0.00000E+00
         0.00000E+00
         0.00000E+00
         0.00000E+00
         0.00000E+00
         0.00000E+00
         0.00000E+00
         0.00000E+00
         0.00000E+00
         0.00000E+00
         0.00000E+00
         0.00000E+00
         0.00000E+00
         0.00000E+00
         0.00000E+00
         0.00000E+00
         0.00000E+00
         0.00000E+00
         0.00000E+00
         0.00000E+00
         0.00000E+00
         0.00000E+00
         0.00000E+00
         0.00000E+00
         0.00000E+00
         0.00000E+00
         0.00000E+00
         0.00000E+00
         0.00000E+00
         0.00000E+00
         0.00000E+00
         0.00000E+00
         0.00000E+00
         0.00000E+00
         0.00000E+00
         0.00000E+00
         0.00000E+00
         0.00000E+00
         0.00000E+00
         0.00000E+00
         0.00000E+00
         0.00000E+00
         0.00000E+00
         0.00000E+00
         0.00000E+00
         0.00000E+00
         0.00000E+00
         0.00000E+00
         0.00000E+00
         0.00000E+00
         0.00000E+00
         0.00000E+00
         0.00000E+00
         0.00000E+00
         0.00000E+00
         0.00000E+00
         0.00000E+00
         0.00000E+00
         0.00000E+00
         0.00000E+00
         0.00000E+00
         0.00000E+00
         0.00000E+00
         0.00000E+00
         0.00000E+00
         0.00000E+00
         0.00000E+00
         0.00000E+00
         0.00000E+00
         0.00000E+00
         0.00000E+00
         0.00000E+00
         0.00000E+00
         0.00000E+00
         0.00000E+00
         0.00000E+00
         0.00000E+00
         0.00000E+00
         0.00000E+00
         0.00000E+00
         0.00000E+00
         0.00000E+00
         0.00000E+00
         0.00000E+00
         0.00000E+00
         0.00000E+00
         0.00000E+00
         0.00000E+00
         0.00000E+00
         0.00000E+00
         0.00000E+00
         0.00000E+00
         0.00000E+00
         0.00000E+00
         0.00000E+00
         0.00000E+00
         0.00000E+00
         0.00000E+00
         0.00000E+00
         0.00000E+00
         0.00000E+00
         0.00000E+00
         0.00000E+00
         0.00000E+00
         0.00000E+00
         0.00000E+00
         0.00000E+00
         0.00000E+00
         0.00000E+00
         0.00000E+00
         0.00000E+00
         0.00000E+00
         0.00000E+00
         0.00000E+00
         0.00000E+00
         0.00000E+00
         0.00000E+00
         0.00000E+00
         0.00000E+00
         0.00000E+00
         0.00000E+00
         0.00000E+00
         0.00000E+00
         0.00000E+00
         0.00000E+00
         0.00000E+00
         0.00000E+00
         0.00000E+00
         0.00000E+00
         0.00000E+00
         0.00000E+00
         0.00000E+00
         0.00000E+00
         0.00000E+00
         0.00000E+00
         0.00000E+00
         0.00000E+00
         0.00000E+00
         0.00000E+00
         0.00000E+00
         0.00000E+00
         0.00000E+00
         0.00000E+00
         0.00000E+00
         0.00000E+00
         0.00000E+00
         0.00000E+00
         0.00000E+00
         0.00000E+00
         0.00000E+00
         0.00000E+00
         0.00000E+00
         0.00000E+00
         0.00000E+00
         0.00000E+00
         0.00000E+00
         0.00000E+00
         0.00000E+00
         0.00000E+00
         0.00000E+00
         0.00000E+00
         0.00000E+00
         0.00000E+00
         0.00000E+00
         0.00000E+00
         0.00000E+00
         0.00000E+00
         0.00000E+00
         0.00000E+00
         0.00000E+00
         0.00000E+00
         0.00000E+00
         0.00000E+00
         0.00000E+00
         0.00000E+00
         0.00000E+00
         0.00000E+00
         0.00000E+00
         0.00000E+00
         0.00000E+00
         0.00000E+00
         0.00000E+00
         0.00000E+00
         0.00000E+00
         0.00000E+00
         0.00000E+00
         0.00000E+00
         0.00000E+00
         0.00000E+00
         0.00000E+00
         0.00000E+00
         0.00000E+00
         0.00000E+00
         0.00000E+00
         0.00000E+00
         0.00000E+00
         0.00000E+00
         0.00000E+00
         0.00000E+00
         0.00000E+00
         0.00000E+00
         0.00000E+00
         0.00000E+00
         0.00000E+00
         0.00000E+00
         0.00000E+00
         0.00000E+00
         0.00000E+00
         0.00000E+00
         0.00000E+00
         0.00000E+00
         0.00000E+00
         0.00000E+00
         0.00000E+00
         0.00000E+00
         0.00000E+00
         0.00000E+00
         0.00000E+00
         0.00000E+00
         0.00000E+00
         0.00000E+00
         0.00000E+00
         0.00000E+00
         0.00000E+00
         0.00000E+00
         0.00000E+00
         0.00000E+00
         0.00000E+00
         0.00000E+00
         0.00000E+00
         0.00000E+00
         0.00000E+00
         0.00000E+00
         0.00000E+00
         0.00000E+00
         0.00000E+00
         0.00000E+00
         0.00000E+00
         0.00000E+00
         0.00000E+00
         0.00000E+00
         0.00000E+00
         0.00000E+00
         0.00000E+00
         0.00000E+00
         0.00000E+00
         0.00000E+00
         0.00000E+00
         0.00000E+00
         0.00000E+00
         0.00000E+00
         0.00000E+00
         0.00000E+00
         0.00000E+00
         0.00000E+00
         0.00000E+00
         0.00000E+00
         0.00000E+00
         0.00000E+00
         0.00000E+00
         0.00000E+00
         0.00000E+00
         0.00000E+00
         0.00000E+00
         0.00000E+00
         0.00000E+00
         0.00000E+00
         0.00000E+00
         0.00000E+00
         0.00000E+00
         0.00000E+00
         0.00000E+00
         0.00000E+00
         0.00000E+00
         0.00000E+00
         0.00000E+00
         0.00000E+00
         0.00000E+00
         0.00000E+00
         0.00000E+00
         0.00000E+00
         0.00000E+00
         0.00000E+00
         0.00000E+00
         0.00000E+00
         0.00000E+00
         0.00000E+00
         0.00000E+00
         0.00000E+00
         0.00000E+00
         0.00000E+00
         0.00000E+00
         0.00000E+00
         0.00000E+00
         0.00000E+00
         0.00000E+00
         0.00000E+00
         0.00000E+00
         0.00000E+00
         0.00000E+00
         0.00000E+00
         0.00000E+00
         0.00000E+00
         0.00000E+00
         0.00000E+00
         0.00000E+00
         0.00000E+00
         0.00000E+00
         0.00000E+00
         0.00000E+00
         0.00000E+00
         0.00000E+00
         0.00000E+00
         0.00000E+00
         0.00000E+00
         0.00000E+00
         0.00000E+00
         0.00000E+00
         0.00000E+00
         0.00000E+00
         0.00000E+00
         0.00000E+00
         0.00000E+00
         0.00000E+00
         0.00000E+00
         0.00000E+00
         0.00000E+00
         0.00000E+00
         0.00000E+00
         0.00000E+00
         0.00000E+00
         0.00000E+00
         0.00000E+00
         0.00000E+00
         0.00000E+00
         0.00000E+00
         0.00000E+00
         0.00000E+00
         0.00000E+00
         0.00000E+00
         0.00000E+00
         0.00000E+00
         0.00000E+00
         0.00000E+00
         0.00000E+00
         0.00000E+00
         0.00000E+00
         0.00000E+00
         0.00000E+00
         0.00000E+00
         0.00000E+00
         0.00000E+00
         0.00000E+00
         0.00000E+00
         0.00000E+00
         0.00000E+00
         0.00000E+00
         0.00000E+00
         0.00000E+00
         0.00000E+00
         0.00000E+00
         0.00000E+00
         0.00000E+00
         0.00000E+00
         0.00000E+00
         0.00000E+00
         0.00000E+00
         0.00000E+00
         0.00000E+00
         0.00000E+00
         0.00000E+00
         0.00000E+00
         0.00000E+00
         0.00000E+00
         0.00000E+00
         0.00000E+00
         0.00000E+00
         0.00000E+00
         0.00000E+00
         0.00000E+00
         0.00000E+00
         0.00000E+00
         0.00000E+00
         0.00000E+00
         0.00000E+00
         0.00000E+00
         0.00000E+00
         0.00000E+00
         0.00000E+00
         0.00000E+00
         0.00000E+00
         0.00000E+00
         0.00000E+00
         0.00000E+00
         0.00000E+00
         0.00000E+00
         0.00000E+00
         0.00000E+00
         0.00000E+00
         0.00000E+00
         0.00000E+00
         0.00000E+00
         0.00000E+00
         0.00000E+00
         0.00000E+00
         0.00000E+00
         0.00000E+00
         0.00000E+00
         0.00000E+00
         0.00000E+00
         0.00000E+00
         0.00000E+00
         0.00000E+00
         0.00000E+00
         0.00000E+00
         0.00000E+00
         0.00000E+00
         0.00000E+00
         0.00000E+00
         0.00000E+00
         0.00000E+00
         0.00000E+00
         0.00000E+00
         0.00000E+00
         0.00000E+00
         0.00000E+00
         0.00000E+00
         0.00000E+00
         0.00000E+00
         0.00000E+00
         0.00000E+00
         0.00000E+00
         0.00000E+00
         0.00000E+00
         0.00000E+00
         0.00000E+00
         0.00000E+00
         0.00000E+00
         0.00000E+00
         0.00000E+00
         0.00000E+00
         0.00000E+00
         0.00000E+00
         0.00000E+00
         0.00000E+00
         0.00000E+00
         0.00000E+00
         0.00000E+00
         0.00000E+00
         0.00000E+00
         0.00000E+00
         0.00000E+00
         0.00000E+00
         0.00000E+00
         0.00000E+00
         0.00000E+00
         0.00000E+00
         0.00000E+00
         0.00000E+00
         0.00000E+00
         0.00000E+00
         0.00000E+00
         0.00000E+00
         0.00000E+00
         0.00000E+00
         0.00000E+00
         0.00000E+00
         0.00000E+00
         0.00000E+00
         0.00000E+00
         0.00000E+00
         0.00000E+00
         0.00000E+00
         0.00000E+00
         0.00000E+00
         0.00000E+00
         0.00000E+00
         0.00000E+00
         0.00000E+00
         0.00000E+00
         0.00000E+00
         0.00000E+00
         0.00000E+00
         0.00000E+00
         0.00000E+00
         0.00000E+00
         0.00000E+00
         0.00000E+00
         0.00000E+00
         0.00000E+00
         0.00000E+00
         0.00000E+00
         0.00000E+00
         0.00000E+00
         0.00000E+00
         0.00000E+00
         0.00000E+00
         0.00000E+00
         0.00000E+00
         0.00000E+00
         0.00000E+00
         0.00000E+00
         0.00000E+00
         0.00000E+00
         0.00000E+00
         0.00000E+00
         0.00000E+00
         0.00000E+00
         0.00000E+00
         0.00000E+00
         0.00000E+00
         0.00000E+00
         0.00000E+00
         0.00000E+00
         0.00000E+00
         0.00000E+00
         0.00000E+00
         0.00000E+00
         0.00000E+00
         0.00000E+00
         0.00000E+00
         0.00000E+00
         0.00000E+00
         0.00000E+00
         0.00000E+00
         0.00000E+00
         0.00000E+00
         0.00000E+00
         0.00000E+00
         0.00000E+00
         0.00000E+00
         0.00000E+00
         0.00000E+00
         0.00000E+00
         0.00000E+00
         0.00000E+00
         0.00000E+00
         0.00000E+00
         0.00000E+00
         0.00000E+00
         0.00000E+00
         0.00000E+00
         0.00000E+00
         0.00000E+00
         0.00000E+00
         0.00000E+00
         0.00000E+00
         0.00000E+00
         0.00000E+00
         0.00000E+00
         0.00000E+00
         0.00000E+00
         0.00000E+00
         0.00000E+00
         0.00000E+00
         0.00000E+00
         0.00000E+00
         0.00000E+00
         0.00000E+00
         0.00000E+00
         0.00000E+00
         0.00000E+00
         0.00000E+00
         0.00000E+00
         0.00000E+00
         0.00000E+00
         0.00000E+00
         0.00000E+00
         0.00000E+00
         0.00000E+00
         0.00000E+00
         0.00000E+00
         0.00000E+00
         0.00000E+00
         0.00000E+00
         0.00000E+00
         0.00000E+00
         0.00000E+00
         0.00000E+00
         0.00000E+00
         0.00000E+00
         0.00000E+00
         0.00000E+00
         0.00000E+00
         0.00000E+00
  
SCALARS                         fint_y  double 1
LOOKUP_TABLE default
         0.00000E+00
         0.00000E+00
         0.00000E+00
         0.00000E+00
         0.00000E+00
         0.00000E+00
         0.00000E+00
         0.00000E+00
         0.00000E+00
         0.00000E+00
         0.00000E+00
         0.00000E+00
         0.00000E+00
         0.00000E+00
         0.00000E+00
         0.00000E+00
         0.00000E+00
         0.00000E+00
         0.00000E+00
         0.00000E+00
         0.00000E+00
         0.00000E+00
         0.00000E+00
         0.00000E+00
         0.00000E+00
         0.00000E+00
         0.00000E+00
         0.00000E+00
         0.00000E+00
         0.00000E+00
         0.00000E+00
         0.00000E+00
         0.00000E+00
         0.00000E+00
         0.00000E+00
         0.00000E+00
         0.00000E+00
         0.00000E+00
         0.00000E+00
         0.00000E+00
         0.00000E+00
         0.00000E+00
         0.00000E+00
         0.00000E+00
         0.00000E+00
         0.00000E+00
         0.00000E+00
         0.00000E+00
         0.00000E+00
         0.00000E+00
         0.00000E+00
         0.00000E+00
         0.00000E+00
         0.00000E+00
         0.00000E+00
         0.00000E+00
         0.00000E+00
         0.00000E+00
         0.00000E+00
         0.00000E+00
         0.00000E+00
         0.00000E+00
         0.00000E+00
         0.00000E+00
         0.00000E+00
         0.00000E+00
         0.00000E+00
         0.00000E+00
         0.00000E+00
         0.00000E+00
         0.00000E+00
         0.00000E+00
         0.00000E+00
         0.00000E+00
         0.00000E+00
         0.00000E+00
         0.00000E+00
         0.00000E+00
         0.00000E+00
         0.00000E+00
         0.00000E+00
         0.00000E+00
         0.00000E+00
         0.00000E+00
         0.00000E+00
         0.00000E+00
         0.00000E+00
         0.00000E+00
         0.00000E+00
         0.00000E+00
         0.00000E+00
         0.00000E+00
         0.00000E+00
         0.00000E+00
         0.00000E+00
         0.00000E+00
         0.00000E+00
         0.00000E+00
         0.00000E+00
         0.00000E+00
         0.00000E+00
         0.00000E+00
         0.00000E+00
         0.00000E+00
         0.00000E+00
         0.00000E+00
         0.00000E+00
         0.00000E+00
         0.00000E+00
         0.00000E+00
         0.00000E+00
         0.00000E+00
         0.00000E+00
         0.00000E+00
         0.00000E+00
         0.00000E+00
         0.00000E+00
         0.00000E+00
         0.00000E+00
         0.00000E+00
         0.00000E+00
         0.00000E+00
         0.00000E+00
         0.00000E+00
         0.00000E+00
         0.00000E+00
         0.00000E+00
         0.00000E+00
         0.00000E+00
         0.00000E+00
         0.00000E+00
         0.00000E+00
         0.00000E+00
         0.00000E+00
         0.00000E+00
         0.00000E+00
         0.00000E+00
         0.00000E+00
         0.00000E+00
         0.00000E+00
         0.00000E+00
         0.00000E+00
         0.00000E+00
         0.00000E+00
         0.00000E+00
         0.00000E+00
         0.00000E+00
         0.00000E+00
         0.00000E+00
         0.00000E+00
         0.00000E+00
         0.00000E+00
         0.00000E+00
         0.00000E+00
         0.00000E+00
         0.00000E+00
         0.00000E+00
         0.00000E+00
         0.00000E+00
         0.00000E+00
         0.00000E+00
         0.00000E+00
         0.00000E+00
         0.00000E+00
         0.00000E+00
         0.00000E+00
         0.00000E+00
         0.00000E+00
         0.00000E+00
         0.00000E+00
         0.00000E+00
         0.00000E+00
         0.00000E+00
         0.00000E+00
         0.00000E+00
         0.00000E+00
         0.00000E+00
         0.00000E+00
         0.00000E+00
         0.00000E+00
         0.00000E+00
         0.00000E+00
         0.00000E+00
         0.00000E+00
         0.00000E+00
         0.00000E+00
         0.00000E+00
         0.00000E+00
         0.00000E+00
         0.00000E+00
         0.00000E+00
         0.00000E+00
         0.00000E+00
         0.00000E+00
         0.00000E+00
         0.00000E+00
         0.00000E+00
         0.00000E+00
         0.00000E+00
         0.00000E+00
         0.00000E+00
         0.00000E+00
         0.00000E+00
         0.00000E+00
         0.00000E+00
         0.00000E+00
         0.00000E+00
         0.00000E+00
         0.00000E+00
         0.00000E+00
         0.00000E+00
         0.00000E+00
         0.00000E+00
         0.00000E+00
         0.00000E+00
         0.00000E+00
         0.00000E+00
         0.00000E+00
         0.00000E+00
         0.00000E+00
         0.00000E+00
         0.00000E+00
         0.00000E+00
         0.00000E+00
         0.00000E+00
         0.00000E+00
         0.00000E+00
         0.00000E+00
         0.00000E+00
         0.00000E+00
         0.00000E+00
         0.00000E+00
         0.00000E+00
         0.00000E+00
         0.00000E+00
         0.00000E+00
         0.00000E+00
         0.00000E+00
         0.00000E+00
         0.00000E+00
         0.00000E+00
         0.00000E+00
         0.00000E+00
         0.00000E+00
         0.00000E+00
         0.00000E+00
         0.00000E+00
         0.00000E+00
         0.00000E+00
         0.00000E+00
         0.00000E+00
         0.00000E+00
         0.00000E+00
         0.00000E+00
         0.00000E+00
         0.00000E+00
         0.00000E+00
         0.00000E+00
         0.00000E+00
         0.00000E+00
         0.00000E+00
         0.00000E+00
         0.00000E+00
         0.00000E+00
         0.00000E+00
         0.00000E+00
         0.00000E+00
         0.00000E+00
         0.00000E+00
         0.00000E+00
         0.00000E+00
         0.00000E+00
         0.00000E+00
         0.00000E+00
         0.00000E+00
         0.00000E+00
         0.00000E+00
         0.00000E+00
         0.00000E+00
         0.00000E+00
         0.00000E+00
         0.00000E+00
         0.00000E+00
         0.00000E+00
         0.00000E+00
         0.00000E+00
         0.00000E+00
         0.00000E+00
         0.00000E+00
         0.00000E+00
         0.00000E+00
         0.00000E+00
         0.00000E+00
         0.00000E+00
         0.00000E+00
         0.00000E+00
         0.00000E+00
         0.00000E+00
         0.00000E+00
         0.00000E+00
         0.00000E+00
         0.00000E+00
         0.00000E+00
         0.00000E+00
         0.00000E+00
         0.00000E+00
         0.00000E+00
         0.00000E+00
         0.00000E+00
         0.00000E+00
         0.00000E+00
         0.00000E+00
         0.00000E+00
         0.00000E+00
         0.00000E+00
         0.00000E+00
         0.00000E+00
         0.00000E+00
         0.00000E+00
         0.00000E+00
         0.00000E+00
         0.00000E+00
         0.00000E+00
         0.00000E+00
         0.00000E+00
         0.00000E+00
         0.00000E+00
         0.00000E+00
         0.00000E+00
         0.00000E+00
         0.00000E+00
         0.00000E+00
         0.00000E+00
         0.00000E+00
         0.00000E+00
         0.00000E+00
         0.00000E+00
         0.00000E+00
         0.00000E+00
         0.00000E+00
         0.00000E+00
         0.00000E+00
         0.00000E+00
         0.00000E+00
         0.00000E+00
         0.00000E+00
         0.00000E+00
         0.00000E+00
         0.00000E+00
         0.00000E+00
         0.00000E+00
         0.00000E+00
         0.00000E+00
         0.00000E+00
         0.00000E+00
         0.00000E+00
         0.00000E+00
         0.00000E+00
         0.00000E+00
         0.00000E+00
         0.00000E+00
         0.00000E+00
         0.00000E+00
         0.00000E+00
         0.00000E+00
         0.00000E+00
         0.00000E+00
         0.00000E+00
         0.00000E+00
         0.00000E+00
         0.00000E+00
         0.00000E+00
         0.00000E+00
         0.00000E+00
         0.00000E+00
         0.00000E+00
         0.00000E+00
         0.00000E+00
         0.00000E+00
         0.00000E+00
         0.00000E+00
         0.00000E+00
         0.00000E+00
         0.00000E+00
         0.00000E+00
         0.00000E+00
         0.00000E+00
         0.00000E+00
         0.00000E+00
         0.00000E+00
         0.00000E+00
         0.00000E+00
         0.00000E+00
         0.00000E+00
         0.00000E+00
         0.00000E+00
         0.00000E+00
         0.00000E+00
         0.00000E+00
         0.00000E+00
         0.00000E+00
         0.00000E+00
         0.00000E+00
         0.00000E+00
         0.00000E+00
         0.00000E+00
         0.00000E+00
         0.00000E+00
         0.00000E+00
         0.00000E+00
         0.00000E+00
         0.00000E+00
         0.00000E+00
         0.00000E+00
         0.00000E+00
         0.00000E+00
         0.00000E+00
         0.00000E+00
         0.00000E+00
         0.00000E+00
         0.00000E+00
         0.00000E+00
         0.00000E+00
         0.00000E+00
         0.00000E+00
         0.00000E+00
         0.00000E+00
         0.00000E+00
         0.00000E+00
         0.00000E+00
         0.00000E+00
         0.00000E+00
         0.00000E+00
         0.00000E+00
         0.00000E+00
         0.00000E+00
         0.00000E+00
         0.00000E+00
         0.00000E+00
         0.00000E+00
         0.00000E+00
         0.00000E+00
         0.00000E+00
         0.00000E+00
         0.00000E+00
         0.00000E+00
         0.00000E+00
         0.00000E+00
         0.00000E+00
         0.00000E+00
         0.00000E+00
         0.00000E+00
         0.00000E+00
         0.00000E+00
         0.00000E+00
         0.00000E+00
         0.00000E+00
         0.00000E+00
         0.00000E+00
         0.00000E+00
         0.00000E+00
         0.00000E+00
         0.00000E+00
         0.00000E+00
         0.00000E+00
         0.00000E+00
         0.00000E+00
         0.00000E+00
         0.00000E+00
         0.00000E+00
         0.00000E+00
         0.00000E+00
         0.00000E+00
         0.00000E+00
         0.00000E+00
         0.00000E+00
         0.00000E+00
         0.00000E+00
         0.00000E+00
         0.00000E+00
         0.00000E+00
         0.00000E+00
         0.00000E+00
         0.00000E+00
         0.00000E+00
         0.00000E+00
         0.00000E+00
         0.00000E+00
         0.00000E+00
         0.00000E+00
         0.00000E+00
         0.00000E+00
         0.00000E+00
         0.00000E+00
         0.00000E+00
         0.00000E+00
         0.00000E+00
         0.00000E+00
         0.00000E+00
         0.00000E+00
         0.00000E+00
         0.00000E+00
         0.00000E+00
         0.00000E+00
         0.00000E+00
         0.00000E+00
         0.00000E+00
         0.00000E+00
         0.00000E+00
         0.00000E+00
         0.00000E+00
         0.00000E+00
         0.00000E+00
         0.00000E+00
         0.00000E+00
         0.00000E+00
         0.00000E+00
         0.00000E+00
         0.00000E+00
         0.00000E+00
         0.00000E+00
         0.00000E+00
         0.00000E+00
         0.00000E+00
         0.00000E+00
         0.00000E+00
         0.00000E+00
         0.00000E+00
         0.00000E+00
         0.00000E+00
         0.00000E+00
         0.00000E+00
         0.00000E+00
         0.00000E+00
         0.00000E+00
         0.00000E+00
         0.00000E+00
         0.00000E+00
         0.00000E+00
         0.00000E+00
         0.00000E+00
         0.00000E+00
         0.00000E+00
         0.00000E+00
         0.00000E+00
         0.00000E+00
         0.00000E+00
         0.00000E+00
         0.00000E+00
         0.00000E+00
         0.00000E+00
         0.00000E+00
         0.00000E+00
         0.00000E+00
         0.00000E+00
         0.00000E+00
         0.00000E+00
         0.00000E+00
         0.00000E+00
         0.00000E+00
         0.00000E+00
         0.00000E+00
         0.00000E+00
         0.00000E+00
         0.00000E+00
         0.00000E+00
         0.00000E+00
         0.00000E+00
         0.00000E+00
         0.00000E+00
         0.00000E+00
         0.00000E+00
         0.00000E+00
         0.00000E+00
         0.00000E+00
         0.00000E+00
         0.00000E+00
         0.00000E+00
         0.00000E+00
         0.00000E+00
         0.00000E+00
         0.00000E+00
         0.00000E+00
         0.00000E+00
         0.00000E+00
         0.00000E+00
         0.00000E+00
         0.00000E+00
         0.00000E+00
         0.00000E+00
         0.00000E+00
         0.00000E+00
         0.00000E+00
         0.00000E+00
         0.00000E+00
         0.00000E+00
         0.00000E+00
         0.00000E+00
         0.00000E+00
         0.00000E+00
         0.00000E+00
         0.00000E+00
         0.00000E+00
         0.00000E+00
         0.00000E+00
         0.00000E+00
         0.00000E+00
         0.00000E+00
         0.00000E+00
         0.00000E+00
         0.00000E+00
         0.00000E+00
         0.00000E+00
         0.00000E+00
         0.00000E+00
         0.00000E+00
         0.00000E+00
         0.00000E+00
         0.00000E+00
         0.00000E+00
         0.00000E+00
         0.00000E+00
         0.00000E+00
         0.00000E+00
         0.00000E+00
         0.00000E+00
         0.00000E+00
         0.00000E+00
         0.00000E+00
         0.00000E+00
         0.00000E+00
         0.00000E+00
         0.00000E+00
         0.00000E+00
         0.00000E+00
         0.00000E+00
         0.00000E+00
         0.00000E+00
         0.00000E+00
         0.00000E+00
         0.00000E+00
         0.00000E+00
         0.00000E+00
         0.00000E+00
         0.00000E+00
         0.00000E+00
         0.00000E+00
         0.00000E+00
         0.00000E+00
         0.00000E+00
         0.00000E+00
         0.00000E+00
         0.00000E+00
         0.00000E+00
         0.00000E+00
         0.00000E+00
         0.00000E+00
         0.00000E+00
         0.00000E+00
         0.00000E+00
         0.00000E+00
         0.00000E+00
         0.00000E+00
         0.00000E+00
         0.00000E+00
         0.00000E+00
         0.00000E+00
         0.00000E+00
         0.00000E+00
         0.00000E+00
         0.00000E+00
         0.00000E+00
         0.00000E+00
         0.00000E+00
         0.00000E+00
         0.00000E+00
         0.00000E+00
         0.00000E+00
         0.00000E+00
         0.00000E+00
         0.00000E+00
         0.00000E+00
         0.00000E+00
         0.00000E+00
         0.00000E+00
         0.00000E+00
         0.00000E+00
         0.00000E+00
         0.00000E+00
         0.00000E+00
         0.00000E+00
         0.00000E+00
         0.00000E+00
         0.00000E+00
         0.00000E+00
         0.00000E+00
         0.00000E+00
         0.00000E+00
         0.00000E+00
         0.00000E+00
         0.00000E+00
         0.00000E+00
         0.00000E+00
         0.00000E+00
         0.00000E+00
         0.00000E+00
         0.00000E+00
         0.00000E+00
         0.00000E+00
         0.00000E+00
         0.00000E+00
         0.00000E+00
         0.00000E+00
         0.00000E+00
         0.00000E+00
         0.00000E+00
         0.00000E+00
         0.00000E+00
         0.00000E+00
         0.00000E+00
         0.00000E+00
         0.00000E+00
         0.00000E+00
         0.00000E+00
         0.00000E+00
         0.00000E+00
         0.00000E+00
         0.00000E+00
         0.00000E+00
         0.00000E+00
         0.00000E+00
         0.00000E+00
         0.00000E+00
         0.00000E+00
         0.00000E+00
         0.00000E+00
         0.00000E+00
         0.00000E+00
         0.00000E+00
         0.00000E+00
         0.00000E+00
         0.00000E+00
         0.00000E+00
         0.00000E+00
         0.00000E+00
         0.00000E+00
         0.00000E+00
         0.00000E+00
         0.00000E+00
         0.00000E+00
         0.00000E+00
         0.00000E+00
         0.00000E+00
         0.00000E+00
         0.00000E+00
         0.00000E+00
         0.00000E+00
         0.00000E+00
         0.00000E+00
         0.00000E+00
         0.00000E+00
         0.00000E+00
         0.00000E+00
         0.00000E+00
         0.00000E+00
         0.00000E+00
         0.00000E+00
         0.00000E+00
         0.00000E+00
         0.00000E+00
         0.00000E+00
         0.00000E+00
         0.00000E+00
         0.00000E+00
         0.00000E+00
         0.00000E+00
         0.00000E+00
         0.00000E+00
         0.00000E+00
         0.00000E+00
         0.00000E+00
         0.00000E+00
         0.00000E+00
         0.00000E+00
         0.00000E+00
         0.00000E+00
         0.00000E+00
         0.00000E+00
         0.00000E+00
         0.00000E+00
         0.00000E+00
         0.00000E+00
         0.00000E+00
         0.00000E+00
         0.00000E+00
         0.00000E+00
         0.00000E+00
         0.00000E+00
         0.00000E+00
         0.00000E+00
         0.00000E+00
         0.00000E+00
         0.00000E+00
         0.00000E+00
         0.00000E+00
         0.00000E+00
         0.00000E+00
         0.00000E+00
         0.00000E+00
         0.00000E+00
         0.00000E+00
         0.00000E+00
         0.00000E+00
         0.00000E+00
         0.00000E+00
         0.00000E+00
         0.00000E+00
         0.00000E+00
         0.00000E+00
         0.00000E+00
         0.00000E+00
         0.00000E+00
         0.00000E+00
         0.00000E+00
         0.00000E+00
         0.00000E+00
         0.00000E+00
         0.00000E+00
         0.00000E+00
         0.00000E+00
         0.00000E+00
         0.00000E+00
         0.00000E+00
         0.00000E+00
         0.00000E+00
         0.00000E+00
         0.00000E+00
         0.00000E+00
         0.00000E+00
         0.00000E+00
         0.00000E+00
         0.00000E+00
         0.00000E+00
         0.00000E+00
         0.00000E+00
         0.00000E+00
         0.00000E+00
         0.00000E+00
         0.00000E+00
         0.00000E+00
         0.00000E+00
         0.00000E+00
         0.00000E+00
         0.00000E+00
         0.00000E+00
         0.00000E+00
         0.00000E+00
         0.00000E+00
         0.00000E+00
         0.00000E+00
         0.00000E+00
         0.00000E+00
         0.00000E+00
         0.00000E+00
         0.00000E+00
         0.00000E+00
         0.00000E+00
         0.00000E+00
         0.00000E+00
         0.00000E+00
         0.00000E+00
         0.00000E+00
         0.00000E+00
         0.00000E+00
         0.00000E+00
         0.00000E+00
         0.00000E+00
         0.00000E+00
         0.00000E+00
         0.00000E+00
         0.00000E+00
         0.00000E+00
         0.00000E+00
         0.00000E+00
         0.00000E+00
         0.00000E+00
         0.00000E+00
         0.00000E+00
         0.00000E+00
         0.00000E+00
         0.00000E+00
         0.00000E+00
         0.00000E+00
         0.00000E+00
         0.00000E+00
         0.00000E+00
         0.00000E+00
         0.00000E+00
         0.00000E+00
         0.00000E+00
         0.00000E+00
         0.00000E+00
         0.00000E+00
         0.00000E+00
         0.00000E+00
         0.00000E+00
         0.00000E+00
         0.00000E+00
         0.00000E+00
         0.00000E+00
         0.00000E+00
         0.00000E+00
         0.00000E+00
         0.00000E+00
         0.00000E+00
         0.00000E+00
         0.00000E+00
         0.00000E+00
         0.00000E+00
         0.00000E+00
         0.00000E+00
         0.00000E+00
         0.00000E+00
         0.00000E+00
         0.00000E+00
         0.00000E+00
         0.00000E+00
         0.00000E+00
         0.00000E+00
         0.00000E+00
         0.00000E+00
         0.00000E+00
         0.00000E+00
         0.00000E+00
         0.00000E+00
         0.00000E+00
         0.00000E+00
         0.00000E+00
         0.00000E+00
         0.00000E+00
         0.00000E+00
         0.00000E+00
         0.00000E+00
         0.00000E+00
         0.00000E+00
         0.00000E+00
         0.00000E+00
         0.00000E+00
         0.00000E+00
         0.00000E+00
         0.00000E+00
         0.00000E+00
         0.00000E+00
         0.00000E+00
         0.00000E+00
         0.00000E+00
         0.00000E+00
         0.00000E+00
         0.00000E+00
         0.00000E+00
         0.00000E+00
         0.00000E+00
         0.00000E+00
         0.00000E+00
         0.00000E+00
         0.00000E+00
         0.00000E+00
         0.00000E+00
         0.00000E+00
         0.00000E+00
         0.00000E+00
         0.00000E+00
         0.00000E+00
         0.00000E+00
         0.00000E+00
         0.00000E+00
         0.00000E+00
         0.00000E+00
         0.00000E+00
         0.00000E+00
         0.00000E+00
         0.00000E+00
         0.00000E+00
         0.00000E+00
         0.00000E+00
         0.00000E+00
         0.00000E+00
         0.00000E+00
         0.00000E+00
         0.00000E+00
         0.00000E+00
         0.00000E+00
         0.00000E+00
         0.00000E+00
         0.00000E+00
         0.00000E+00
         0.00000E+00
         0.00000E+00
         0.00000E+00
         0.00000E+00
         0.00000E+00
         0.00000E+00
         0.00000E+00
         0.00000E+00
         0.00000E+00
         0.00000E+00
         0.00000E+00
         0.00000E+00
         0.00000E+00
         0.00000E+00
         0.00000E+00
         0.00000E+00
         0.00000E+00
         0.00000E+00
         0.00000E+00
         0.00000E+00
         0.00000E+00
         0.00000E+00
         0.00000E+00
         0.00000E+00
         0.00000E+00
         0.00000E+00
         0.00000E+00
         0.00000E+00
         0.00000E+00
         0.00000E+00
         0.00000E+00
         0.00000E+00
         0.00000E+00
         0.00000E+00
         0.00000E+00
         0.00000E+00
         0.00000E+00
         0.00000E+00
         0.00000E+00
         0.00000E+00
         0.00000E+00
         0.00000E+00
         0.00000E+00
         0.00000E+00
         0.00000E+00
         0.00000E+00
         0.00000E+00
         0.00000E+00
         0.00000E+00
         0.00000E+00
         0.00000E+00
         0.00000E+00
         0.00000E+00
         0.00000E+00
         0.00000E+00
         0.00000E+00
         0.00000E+00
         0.00000E+00
         0.00000E+00
         0.00000E+00
         0.00000E+00
         0.00000E+00
         0.00000E+00
         0.00000E+00
         0.00000E+00
         0.00000E+00
         0.00000E+00
         0.00000E+00
         0.00000E+00
         0.00000E+00
         0.00000E+00
         0.00000E+00
         0.00000E+00
         0.00000E+00
         0.00000E+00
         0.00000E+00
         0.00000E+00
         0.00000E+00
         0.00000E+00
         0.00000E+00
         0.00000E+00
         0.00000E+00
         0.00000E+00
         0.00000E+00
         0.00000E+00
         0.00000E+00
         0.00000E+00
         0.00000E+00
         0.00000E+00
         0.00000E+00
         0.00000E+00
         0.00000E+00
         0.00000E+00
         0.00000E+00
         0.00000E+00
         0.00000E+00
         0.00000E+00
         0.00000E+00
         0.00000E+00
         0.00000E+00
         0.00000E+00
         0.00000E+00
         0.00000E+00
         0.00000E+00
         0.00000E+00
         0.00000E+00
         0.00000E+00
         0.00000E+00
         0.00000E+00
         0.00000E+00
         0.00000E+00
         0.00000E+00
         0.00000E+00
         0.00000E+00
         0.00000E+00
         0.00000E+00
         0.00000E+00
         0.00000E+00
         0.00000E+00
         0.00000E+00
         0.00000E+00
         0.00000E+00
         0.00000E+00
         0.00000E+00
         0.00000E+00
         0.00000E+00
         0.00000E+00
         0.00000E+00
         0.00000E+00
         0.00000E+00
         0.00000E+00
         0.00000E+00
         0.00000E+00
         0.00000E+00
         0.00000E+00
         0.00000E+00
         0.00000E+00
         0.00000E+00
         0.00000E+00
         0.00000E+00
         0.00000E+00
         0.00000E+00
         0.00000E+00
         0.00000E+00
         0.00000E+00
         0.00000E+00
         0.00000E+00
         0.00000E+00
         0.00000E+00
         0.00000E+00
         0.00000E+00
         0.00000E+00
         0.00000E+00
         0.00000E+00
         0.00000E+00
         0.00000E+00
         0.00000E+00
         0.00000E+00
         0.00000E+00
         0.00000E+00
         0.00000E+00
         0.00000E+00
         0.00000E+00
         0.00000E+00
         0.00000E+00
         0.00000E+00
         0.00000E+00
         0.00000E+00
         0.00000E+00
         0.00000E+00
         0.00000E+00
         0.00000E+00
         0.00000E+00
         0.00000E+00
         0.00000E+00
         0.00000E+00
         0.00000E+00
         0.00000E+00
         0.00000E+00
         0.00000E+00
         0.00000E+00
         0.00000E+00
         0.00000E+00
         0.00000E+00
         0.00000E+00
         0.00000E+00
         0.00000E+00
         0.00000E+00
         0.00000E+00
         0.00000E+00
         0.00000E+00
         0.00000E+00
         0.00000E+00
         0.00000E+00
         0.00000E+00
         0.00000E+00
         0.00000E+00
         0.00000E+00
         0.00000E+00
         0.00000E+00
         0.00000E+00
         0.00000E+00
         0.00000E+00
         0.00000E+00
         0.00000E+00
         0.00000E+00
         0.00000E+00
         0.00000E+00
         0.00000E+00
         0.00000E+00
         0.00000E+00
         0.00000E+00
         0.00000E+00
         0.00000E+00
         0.00000E+00
         0.00000E+00
         0.00000E+00
         0.00000E+00
         0.00000E+00
         0.00000E+00
         0.00000E+00
         0.00000E+00
         0.00000E+00
         0.00000E+00
         0.00000E+00
         0.00000E+00
         0.00000E+00
         0.00000E+00
         0.00000E+00
         0.00000E+00
         0.00000E+00
         0.00000E+00
         0.00000E+00
         0.00000E+00
         0.00000E+00
         0.00000E+00
         0.00000E+00
         0.00000E+00
         0.00000E+00
         0.00000E+00
         0.00000E+00
         0.00000E+00
         0.00000E+00
         0.00000E+00
         0.00000E+00
         0.00000E+00
         0.00000E+00
         0.00000E+00
         0.00000E+00
         0.00000E+00
         0.00000E+00
         0.00000E+00
         0.00000E+00
         0.00000E+00
         0.00000E+00
         0.00000E+00
         0.00000E+00
         0.00000E+00
         0.00000E+00
         0.00000E+00
         0.00000E+00
         0.00000E+00
         0.00000E+00
         0.00000E+00
         0.00000E+00
         0.00000E+00
         0.00000E+00
         0.00000E+00
         0.00000E+00
         0.00000E+00
         0.00000E+00
         0.00000E+00
         0.00000E+00
         0.00000E+00
         0.00000E+00
         0.00000E+00
         0.00000E+00
         0.00000E+00
         0.00000E+00
         0.00000E+00
         0.00000E+00
         0.00000E+00
         0.00000E+00
         0.00000E+00
         0.00000E+00
         0.00000E+00
         0.00000E+00
         0.00000E+00
         0.00000E+00
         0.00000E+00
         0.00000E+00
         0.00000E+00
         0.00000E+00
         0.00000E+00
         0.00000E+00
         0.00000E+00
         0.00000E+00
         0.00000E+00
         0.00000E+00
         0.00000E+00
         0.00000E+00
         0.00000E+00
         0.00000E+00
         0.00000E+00
         0.00000E+00
         0.00000E+00
         0.00000E+00
         0.00000E+00
         0.00000E+00
         0.00000E+00
         0.00000E+00
         0.00000E+00
         0.00000E+00
         0.00000E+00
         0.00000E+00
         0.00000E+00
         0.00000E+00
         0.00000E+00
         0.00000E+00
         0.00000E+00
         0.00000E+00
         0.00000E+00
         0.00000E+00
         0.00000E+00
         0.00000E+00
         0.00000E+00
         0.00000E+00
         0.00000E+00
         0.00000E+00
         0.00000E+00
         0.00000E+00
         0.00000E+00
         0.00000E+00
         0.00000E+00
         0.00000E+00
         0.00000E+00
         0.00000E+00
         0.00000E+00
         0.00000E+00
         0.00000E+00
         0.00000E+00
         0.00000E+00
         0.00000E+00
         0.00000E+00
         0.00000E+00
         0.00000E+00
         0.00000E+00
         0.00000E+00
         0.00000E+00
         0.00000E+00
         0.00000E+00
         0.00000E+00
         0.00000E+00
         0.00000E+00
         0.00000E+00
         0.00000E+00
         0.00000E+00
         0.00000E+00
         0.00000E+00
         0.00000E+00
         0.00000E+00
         0.00000E+00
         0.00000E+00
         0.00000E+00
         0.00000E+00
         0.00000E+00
         0.00000E+00
         0.00000E+00
         0.00000E+00
         0.00000E+00
         0.00000E+00
         0.00000E+00
         0.00000E+00
         0.00000E+00
         0.00000E+00
         0.00000E+00
         0.00000E+00
         0.00000E+00
         0.00000E+00
         0.00000E+00
         0.00000E+00
         0.00000E+00
         0.00000E+00
         0.00000E+00
         0.00000E+00
         0.00000E+00
         0.00000E+00
         0.00000E+00
         0.00000E+00
         0.00000E+00
         0.00000E+00
         0.00000E+00
         0.00000E+00
         0.00000E+00
         0.00000E+00
         0.00000E+00
         0.00000E+00
         0.00000E+00
         0.00000E+00
         0.00000E+00
         0.00000E+00
         0.00000E+00
         0.00000E+00
         0.00000E+00
         0.00000E+00
         0.00000E+00
         0.00000E+00
         0.00000E+00
         0.00000E+00
         0.00000E+00
         0.00000E+00
         0.00000E+00
         0.00000E+00
         0.00000E+00
         0.00000E+00
         0.00000E+00
         0.00000E+00
         0.00000E+00
         0.00000E+00
         0.00000E+00
         0.00000E+00
         0.00000E+00
         0.00000E+00
         0.00000E+00
         0.00000E+00
         0.00000E+00
         0.00000E+00
         0.00000E+00
         0.00000E+00
         0.00000E+00
         0.00000E+00
         0.00000E+00
         0.00000E+00
         0.00000E+00
         0.00000E+00
         0.00000E+00
         0.00000E+00
         0.00000E+00
         0.00000E+00
         0.00000E+00
         0.00000E+00
         0.00000E+00
         0.00000E+00
         0.00000E+00
         0.00000E+00
         0.00000E+00
         0.00000E+00
         0.00000E+00
         0.00000E+00
         0.00000E+00
         0.00000E+00
         0.00000E+00
         0.00000E+00
         0.00000E+00
         0.00000E+00
         0.00000E+00
         0.00000E+00
         0.00000E+00
         0.00000E+00
         0.00000E+00
         0.00000E+00
         0.00000E+00
         0.00000E+00
         0.00000E+00
         0.00000E+00
         0.00000E+00
         0.00000E+00
         0.00000E+00
         0.00000E+00
         0.00000E+00
         0.00000E+00
         0.00000E+00
         0.00000E+00
         0.00000E+00
         0.00000E+00
         0.00000E+00
         0.00000E+00
         0.00000E+00
         0.00000E+00
         0.00000E+00
         0.00000E+00
         0.00000E+00
         0.00000E+00
         0.00000E+00
         0.00000E+00
         0.00000E+00
         0.00000E+00
         0.00000E+00
         0.00000E+00
         0.00000E+00
         0.00000E+00
         0.00000E+00
         0.00000E+00
         0.00000E+00
         0.00000E+00
         0.00000E+00
         0.00000E+00
         0.00000E+00
         0.00000E+00
         0.00000E+00
         0.00000E+00
         0.00000E+00
         0.00000E+00
         0.00000E+00
         0.00000E+00
         0.00000E+00
         0.00000E+00
         0.00000E+00
         0.00000E+00
         0.00000E+00
         0.00000E+00
         0.00000E+00
         0.00000E+00
         0.00000E+00
         0.00000E+00
         0.00000E+00
         0.00000E+00
         0.00000E+00
         0.00000E+00
         0.00000E+00
         0.00000E+00
         0.00000E+00
         0.00000E+00
         0.00000E+00
         0.00000E+00
         0.00000E+00
         0.00000E+00
         0.00000E+00
         0.00000E+00
         0.00000E+00
         0.00000E+00
         0.00000E+00
         0.00000E+00
         0.00000E+00
         0.00000E+00
         0.00000E+00
         0.00000E+00
         0.00000E+00
         0.00000E+00
         0.00000E+00
         0.00000E+00
         0.00000E+00
         0.00000E+00
         0.00000E+00
         0.00000E+00
         0.00000E+00
         0.00000E+00
         0.00000E+00
         0.00000E+00
         0.00000E+00
         0.00000E+00
         0.00000E+00
         0.00000E+00
         0.00000E+00
         0.00000E+00
         0.00000E+00
         0.00000E+00
         0.00000E+00
         0.00000E+00
         0.00000E+00
         0.00000E+00
         0.00000E+00
         0.00000E+00
         0.00000E+00
         0.00000E+00
         0.00000E+00
         0.00000E+00
         0.00000E+00
         0.00000E+00
         0.00000E+00
         0.00000E+00
         0.00000E+00
         0.00000E+00
         0.00000E+00
         0.00000E+00
         0.00000E+00
         0.00000E+00
         0.00000E+00
         0.00000E+00
         0.00000E+00
         0.00000E+00
         0.00000E+00
         0.00000E+00
         0.00000E+00
         0.00000E+00
         0.00000E+00
         0.00000E+00
         0.00000E+00
         0.00000E+00
         0.00000E+00
         0.00000E+00
         0.00000E+00
         0.00000E+00
         0.00000E+00
         0.00000E+00
         0.00000E+00
         0.00000E+00
         0.00000E+00
         0.00000E+00
         0.00000E+00
         0.00000E+00
         0.00000E+00
         0.00000E+00
         0.00000E+00
         0.00000E+00
         0.00000E+00
         0.00000E+00
         0.00000E+00
         0.00000E+00
         0.00000E+00
         0.00000E+00
         0.00000E+00
         0.00000E+00
         0.00000E+00
         0.00000E+00
         0.00000E+00
         0.00000E+00
         0.00000E+00
         0.00000E+00
         0.00000E+00
         0.00000E+00
         0.00000E+00
         0.00000E+00
         0.00000E+00
         0.00000E+00
         0.00000E+00
         0.00000E+00
         0.00000E+00
         0.00000E+00
         0.00000E+00
         0.00000E+00
         0.00000E+00
         0.00000E+00
         0.00000E+00
         0.00000E+00
         0.00000E+00
         0.00000E+00
         0.00000E+00
         0.00000E+00
         0.00000E+00
         0.00000E+00
         0.00000E+00
         0.00000E+00
         0.00000E+00
         0.00000E+00
         0.00000E+00
         0.00000E+00
         0.00000E+00
         0.00000E+00
         0.00000E+00
         0.00000E+00
         0.00000E+00
         0.00000E+00
         0.00000E+00
         0.00000E+00
         0.00000E+00
         0.00000E+00
         0.00000E+00
         0.00000E+00
         0.00000E+00
         0.00000E+00
         0.00000E+00
         0.00000E+00
         0.00000E+00
         0.00000E+00
         0.00000E+00
         0.00000E+00
         0.00000E+00
         0.00000E+00
         0.00000E+00
         0.00000E+00
         0.00000E+00
         0.00000E+00
         0.00000E+00
         0.00000E+00
         0.00000E+00
         0.00000E+00
         0.00000E+00
         0.00000E+00
         0.00000E+00
         0.00000E+00
         0.00000E+00
         0.00000E+00
         0.00000E+00
         0.00000E+00
         0.00000E+00
         0.00000E+00
         0.00000E+00
         0.00000E+00
         0.00000E+00
         0.00000E+00
         0.00000E+00
         0.00000E+00
         0.00000E+00
         0.00000E+00
         0.00000E+00
         0.00000E+00
         0.00000E+00
         0.00000E+00
         0.00000E+00
         0.00000E+00
         0.00000E+00
         0.00000E+00
         0.00000E+00
         0.00000E+00
         0.00000E+00
         0.00000E+00
         0.00000E+00
         0.00000E+00
         0.00000E+00
         0.00000E+00
         0.00000E+00
         0.00000E+00
         0.00000E+00
         0.00000E+00
         0.00000E+00
         0.00000E+00
         0.00000E+00
         0.00000E+00
         0.00000E+00
         0.00000E+00
         0.00000E+00
         0.00000E+00
         0.00000E+00
         0.00000E+00
         0.00000E+00
         0.00000E+00
         0.00000E+00
         0.00000E+00
         0.00000E+00
         0.00000E+00
         0.00000E+00
         0.00000E+00
         0.00000E+00
         0.00000E+00
         0.00000E+00
         0.00000E+00
         0.00000E+00
         0.00000E+00
         0.00000E+00
         0.00000E+00
         0.00000E+00
         0.00000E+00
         0.00000E+00
         0.00000E+00
         0.00000E+00
         0.00000E+00
         0.00000E+00
         0.00000E+00
         0.00000E+00
         0.00000E+00
         0.00000E+00
         0.00000E+00
         0.00000E+00
         0.00000E+00
         0.00000E+00
         0.00000E+00
         0.00000E+00
         0.00000E+00
         0.00000E+00
         0.00000E+00
         0.00000E+00
         0.00000E+00
         0.00000E+00
         0.00000E+00
         0.00000E+00
         0.00000E+00
         0.00000E+00
         0.00000E+00
         0.00000E+00
         0.00000E+00
         0.00000E+00
         0.00000E+00
         0.00000E+00
         0.00000E+00
         0.00000E+00
         0.00000E+00
         0.00000E+00
         0.00000E+00
         0.00000E+00
         0.00000E+00
         0.00000E+00
         0.00000E+00
         0.00000E+00
         0.00000E+00
         0.00000E+00
         0.00000E+00
         0.00000E+00
         0.00000E+00
         0.00000E+00
         0.00000E+00
         0.00000E+00
         0.00000E+00
         0.00000E+00
         0.00000E+00
         0.00000E+00
         0.00000E+00
         0.00000E+00
         0.00000E+00
         0.00000E+00
         0.00000E+00
         0.00000E+00
         0.00000E+00
         0.00000E+00
         0.00000E+00
         0.00000E+00
         0.00000E+00
         0.00000E+00
         0.00000E+00
         0.00000E+00
         0.00000E+00
         0.00000E+00
         0.00000E+00
         0.00000E+00
         0.00000E+00
         0.00000E+00
         0.00000E+00
         0.00000E+00
         0.00000E+00
         0.00000E+00
         0.00000E+00
         0.00000E+00
         0.00000E+00
         0.00000E+00
         0.00000E+00
         0.00000E+00
         0.00000E+00
         0.00000E+00
         0.00000E+00
         0.00000E+00
         0.00000E+00
         0.00000E+00
         0.00000E+00
         0.00000E+00
         0.00000E+00
         0.00000E+00
         0.00000E+00
         0.00000E+00
         0.00000E+00
         0.00000E+00
         0.00000E+00
         0.00000E+00
         0.00000E+00
         0.00000E+00
         0.00000E+00
         0.00000E+00
         0.00000E+00
         0.00000E+00
         0.00000E+00
         0.00000E+00
         0.00000E+00
         0.00000E+00
         0.00000E+00
         0.00000E+00
         0.00000E+00
         0.00000E+00
         0.00000E+00
         0.00000E+00
         0.00000E+00
         0.00000E+00
         0.00000E+00
         0.00000E+00
         0.00000E+00
         0.00000E+00
         0.00000E+00
         0.00000E+00
         0.00000E+00
         0.00000E+00
         0.00000E+00
         0.00000E+00
         0.00000E+00
         0.00000E+00
         0.00000E+00
         0.00000E+00
         0.00000E+00
         0.00000E+00
         0.00000E+00
         0.00000E+00
         0.00000E+00
         0.00000E+00
         0.00000E+00
         0.00000E+00
         0.00000E+00
         0.00000E+00
         0.00000E+00
         0.00000E+00
         0.00000E+00
         0.00000E+00
         0.00000E+00
         0.00000E+00
         0.00000E+00
         0.00000E+00
         0.00000E+00
         0.00000E+00
         0.00000E+00
         0.00000E+00
         0.00000E+00
         0.00000E+00
         0.00000E+00
         0.00000E+00
         0.00000E+00
         0.00000E+00
         0.00000E+00
         0.00000E+00
         0.00000E+00
         0.00000E+00
         0.00000E+00
         0.00000E+00
         0.00000E+00
         0.00000E+00
         0.00000E+00
         0.00000E+00
         0.00000E+00
         0.00000E+00
         0.00000E+00
         0.00000E+00
         0.00000E+00
         0.00000E+00
         0.00000E+00
         0.00000E+00
         0.00000E+00
         0.00000E+00
         0.00000E+00
         0.00000E+00
         0.00000E+00
         0.00000E+00
         0.00000E+00
         0.00000E+00
         0.00000E+00
         0.00000E+00
         0.00000E+00
         0.00000E+00
         0.00000E+00
         0.00000E+00
         0.00000E+00
         0.00000E+00
         0.00000E+00
         0.00000E+00
         0.00000E+00
         0.00000E+00
         0.00000E+00
         0.00000E+00
         0.00000E+00
         0.00000E+00
         0.00000E+00
         0.00000E+00
         0.00000E+00
         0.00000E+00
         0.00000E+00
         0.00000E+00
         0.00000E+00
         0.00000E+00
         0.00000E+00
         0.00000E+00
  
SCALARS                         fint_z  double 1
LOOKUP_TABLE default
         0.00000E+00
         0.00000E+00
         0.00000E+00
         0.00000E+00
         0.00000E+00
         0.00000E+00
         0.00000E+00
         0.00000E+00
         0.00000E+00
         0.00000E+00
         0.00000E+00
         0.00000E+00
         0.00000E+00
         0.00000E+00
         0.00000E+00
         0.00000E+00
         0.00000E+00
         0.00000E+00
         0.00000E+00
         0.00000E+00
         0.00000E+00
         0.00000E+00
         0.00000E+00
         0.00000E+00
         0.00000E+00
         0.00000E+00
         0.00000E+00
         0.00000E+00
         0.00000E+00
         0.00000E+00
         0.00000E+00
         0.00000E+00
         0.00000E+00
         0.00000E+00
         0.00000E+00
         0.00000E+00
         0.00000E+00
         0.00000E+00
         0.00000E+00
         0.00000E+00
         0.00000E+00
         0.00000E+00
         0.00000E+00
         0.00000E+00
         0.00000E+00
         0.00000E+00
         0.00000E+00
         0.00000E+00
         0.00000E+00
         0.00000E+00
         0.00000E+00
         0.00000E+00
         0.00000E+00
         0.00000E+00
         0.00000E+00
         0.00000E+00
         0.00000E+00
         0.00000E+00
         0.00000E+00
         0.00000E+00
         0.00000E+00
         0.00000E+00
         0.00000E+00
         0.00000E+00
         0.00000E+00
         0.00000E+00
         0.00000E+00
         0.00000E+00
         0.00000E+00
         0.00000E+00
         0.00000E+00
         0.00000E+00
         0.00000E+00
         0.00000E+00
         0.00000E+00
         0.00000E+00
         0.00000E+00
         0.00000E+00
         0.00000E+00
         0.00000E+00
         0.00000E+00
         0.00000E+00
         0.00000E+00
         0.00000E+00
         0.00000E+00
         0.00000E+00
         0.00000E+00
         0.00000E+00
         0.00000E+00
         0.00000E+00
         0.00000E+00
         0.00000E+00
         0.00000E+00
         0.00000E+00
         0.00000E+00
         0.00000E+00
         0.00000E+00
         0.00000E+00
         0.00000E+00
         0.00000E+00
         0.00000E+00
         0.00000E+00
         0.00000E+00
         0.00000E+00
         0.00000E+00
         0.00000E+00
         0.00000E+00
         0.00000E+00
         0.00000E+00
         0.00000E+00
         0.00000E+00
         0.00000E+00
         0.00000E+00
         0.00000E+00
         0.00000E+00
         0.00000E+00
         0.00000E+00
         0.00000E+00
         0.00000E+00
         0.00000E+00
         0.00000E+00
         0.00000E+00
         0.00000E+00
         0.00000E+00
         0.00000E+00
         0.00000E+00
         0.00000E+00
         0.00000E+00
         0.00000E+00
         0.00000E+00
         0.00000E+00
         0.00000E+00
         0.00000E+00
         0.00000E+00
         0.00000E+00
         0.00000E+00
         0.00000E+00
         0.00000E+00
         0.00000E+00
         0.00000E+00
         0.00000E+00
         0.00000E+00
         0.00000E+00
         0.00000E+00
         0.00000E+00
         0.00000E+00
         0.00000E+00
         0.00000E+00
         0.00000E+00
         0.00000E+00
         0.00000E+00
         0.00000E+00
         0.00000E+00
         0.00000E+00
         0.00000E+00
         0.00000E+00
         0.00000E+00
         0.00000E+00
         0.00000E+00
         0.00000E+00
         0.00000E+00
         0.00000E+00
         0.00000E+00
         0.00000E+00
         0.00000E+00
         0.00000E+00
         0.00000E+00
         0.00000E+00
         0.00000E+00
         0.00000E+00
         0.00000E+00
         0.00000E+00
         0.00000E+00
         0.00000E+00
         0.00000E+00
         0.00000E+00
         0.00000E+00
         0.00000E+00
         0.00000E+00
         0.00000E+00
         0.00000E+00
         0.00000E+00
         0.00000E+00
         0.00000E+00
         0.00000E+00
         0.00000E+00
         0.00000E+00
         0.00000E+00
         0.00000E+00
         0.00000E+00
         0.00000E+00
         0.00000E+00
         0.00000E+00
         0.00000E+00
         0.00000E+00
         0.00000E+00
         0.00000E+00
         0.00000E+00
         0.00000E+00
         0.00000E+00
         0.00000E+00
         0.00000E+00
         0.00000E+00
         0.00000E+00
         0.00000E+00
         0.00000E+00
         0.00000E+00
         0.00000E+00
         0.00000E+00
         0.00000E+00
         0.00000E+00
         0.00000E+00
         0.00000E+00
         0.00000E+00
         0.00000E+00
         0.00000E+00
         0.00000E+00
         0.00000E+00
         0.00000E+00
         0.00000E+00
         0.00000E+00
         0.00000E+00
         0.00000E+00
         0.00000E+00
         0.00000E+00
         0.00000E+00
         0.00000E+00
         0.00000E+00
         0.00000E+00
         0.00000E+00
         0.00000E+00
         0.00000E+00
         0.00000E+00
         0.00000E+00
         0.00000E+00
         0.00000E+00
         0.00000E+00
         0.00000E+00
         0.00000E+00
         0.00000E+00
         0.00000E+00
         0.00000E+00
         0.00000E+00
         0.00000E+00
         0.00000E+00
         0.00000E+00
         0.00000E+00
         0.00000E+00
         0.00000E+00
         0.00000E+00
         0.00000E+00
         0.00000E+00
         0.00000E+00
         0.00000E+00
         0.00000E+00
         0.00000E+00
         0.00000E+00
         0.00000E+00
         0.00000E+00
         0.00000E+00
         0.00000E+00
         0.00000E+00
         0.00000E+00
         0.00000E+00
         0.00000E+00
         0.00000E+00
         0.00000E+00
         0.00000E+00
         0.00000E+00
         0.00000E+00
         0.00000E+00
         0.00000E+00
         0.00000E+00
         0.00000E+00
         0.00000E+00
         0.00000E+00
         0.00000E+00
         0.00000E+00
         0.00000E+00
         0.00000E+00
         0.00000E+00
         0.00000E+00
         0.00000E+00
         0.00000E+00
         0.00000E+00
         0.00000E+00
         0.00000E+00
         0.00000E+00
         0.00000E+00
         0.00000E+00
         0.00000E+00
         0.00000E+00
         0.00000E+00
         0.00000E+00
         0.00000E+00
         0.00000E+00
         0.00000E+00
         0.00000E+00
         0.00000E+00
         0.00000E+00
         0.00000E+00
         0.00000E+00
         0.00000E+00
         0.00000E+00
         0.00000E+00
         0.00000E+00
         0.00000E+00
         0.00000E+00
         0.00000E+00
         0.00000E+00
         0.00000E+00
         0.00000E+00
         0.00000E+00
         0.00000E+00
         0.00000E+00
         0.00000E+00
         0.00000E+00
         0.00000E+00
         0.00000E+00
         0.00000E+00
         0.00000E+00
         0.00000E+00
         0.00000E+00
         0.00000E+00
         0.00000E+00
         0.00000E+00
         0.00000E+00
         0.00000E+00
         0.00000E+00
         0.00000E+00
         0.00000E+00
         0.00000E+00
         0.00000E+00
         0.00000E+00
         0.00000E+00
         0.00000E+00
         0.00000E+00
         0.00000E+00
         0.00000E+00
         0.00000E+00
         0.00000E+00
         0.00000E+00
         0.00000E+00
         0.00000E+00
         0.00000E+00
         0.00000E+00
         0.00000E+00
         0.00000E+00
         0.00000E+00
         0.00000E+00
         0.00000E+00
         0.00000E+00
         0.00000E+00
         0.00000E+00
         0.00000E+00
         0.00000E+00
         0.00000E+00
         0.00000E+00
         0.00000E+00
         0.00000E+00
         0.00000E+00
         0.00000E+00
         0.00000E+00
         0.00000E+00
         0.00000E+00
         0.00000E+00
         0.00000E+00
         0.00000E+00
         0.00000E+00
         0.00000E+00
         0.00000E+00
         0.00000E+00
         0.00000E+00
         0.00000E+00
         0.00000E+00
         0.00000E+00
         0.00000E+00
         0.00000E+00
         0.00000E+00
         0.00000E+00
         0.00000E+00
         0.00000E+00
         0.00000E+00
         0.00000E+00
         0.00000E+00
         0.00000E+00
         0.00000E+00
         0.00000E+00
         0.00000E+00
         0.00000E+00
         0.00000E+00
         0.00000E+00
         0.00000E+00
         0.00000E+00
         0.00000E+00
         0.00000E+00
         0.00000E+00
         0.00000E+00
         0.00000E+00
         0.00000E+00
         0.00000E+00
         0.00000E+00
         0.00000E+00
         0.00000E+00
         0.00000E+00
         0.00000E+00
         0.00000E+00
         0.00000E+00
         0.00000E+00
         0.00000E+00
         0.00000E+00
         0.00000E+00
         0.00000E+00
         0.00000E+00
         0.00000E+00
         0.00000E+00
         0.00000E+00
         0.00000E+00
         0.00000E+00
         0.00000E+00
         0.00000E+00
         0.00000E+00
         0.00000E+00
         0.00000E+00
         0.00000E+00
         0.00000E+00
         0.00000E+00
         0.00000E+00
         0.00000E+00
         0.00000E+00
         0.00000E+00
         0.00000E+00
         0.00000E+00
         0.00000E+00
         0.00000E+00
         0.00000E+00
         0.00000E+00
         0.00000E+00
         0.00000E+00
         0.00000E+00
         0.00000E+00
         0.00000E+00
         0.00000E+00
         0.00000E+00
         0.00000E+00
         0.00000E+00
         0.00000E+00
         0.00000E+00
         0.00000E+00
         0.00000E+00
         0.00000E+00
         0.00000E+00
         0.00000E+00
         0.00000E+00
         0.00000E+00
         0.00000E+00
         0.00000E+00
         0.00000E+00
         0.00000E+00
         0.00000E+00
         0.00000E+00
         0.00000E+00
         0.00000E+00
         0.00000E+00
         0.00000E+00
         0.00000E+00
         0.00000E+00
         0.00000E+00
         0.00000E+00
         0.00000E+00
         0.00000E+00
         0.00000E+00
         0.00000E+00
         0.00000E+00
         0.00000E+00
         0.00000E+00
         0.00000E+00
         0.00000E+00
         0.00000E+00
         0.00000E+00
         0.00000E+00
         0.00000E+00
         0.00000E+00
         0.00000E+00
         0.00000E+00
         0.00000E+00
         0.00000E+00
         0.00000E+00
         0.00000E+00
         0.00000E+00
         0.00000E+00
         0.00000E+00
         0.00000E+00
         0.00000E+00
         0.00000E+00
         0.00000E+00
         0.00000E+00
         0.00000E+00
         0.00000E+00
         0.00000E+00
         0.00000E+00
         0.00000E+00
         0.00000E+00
         0.00000E+00
         0.00000E+00
         0.00000E+00
         0.00000E+00
         0.00000E+00
         0.00000E+00
         0.00000E+00
         0.00000E+00
         0.00000E+00
         0.00000E+00
         0.00000E+00
         0.00000E+00
         0.00000E+00
         0.00000E+00
         0.00000E+00
         0.00000E+00
         0.00000E+00
         0.00000E+00
         0.00000E+00
         0.00000E+00
         0.00000E+00
         0.00000E+00
         0.00000E+00
         0.00000E+00
         0.00000E+00
         0.00000E+00
         0.00000E+00
         0.00000E+00
         0.00000E+00
         0.00000E+00
         0.00000E+00
         0.00000E+00
         0.00000E+00
         0.00000E+00
         0.00000E+00
         0.00000E+00
         0.00000E+00
         0.00000E+00
         0.00000E+00
         0.00000E+00
         0.00000E+00
         0.00000E+00
         0.00000E+00
         0.00000E+00
         0.00000E+00
         0.00000E+00
         0.00000E+00
         0.00000E+00
         0.00000E+00
         0.00000E+00
         0.00000E+00
         0.00000E+00
         0.00000E+00
         0.00000E+00
         0.00000E+00
         0.00000E+00
         0.00000E+00
         0.00000E+00
         0.00000E+00
         0.00000E+00
         0.00000E+00
         0.00000E+00
         0.00000E+00
         0.00000E+00
         0.00000E+00
         0.00000E+00
         0.00000E+00
         0.00000E+00
         0.00000E+00
         0.00000E+00
         0.00000E+00
         0.00000E+00
         0.00000E+00
         0.00000E+00
         0.00000E+00
         0.00000E+00
         0.00000E+00
         0.00000E+00
         0.00000E+00
         0.00000E+00
         0.00000E+00
         0.00000E+00
         0.00000E+00
         0.00000E+00
         0.00000E+00
         0.00000E+00
         0.00000E+00
         0.00000E+00
         0.00000E+00
         0.00000E+00
         0.00000E+00
         0.00000E+00
         0.00000E+00
         0.00000E+00
         0.00000E+00
         0.00000E+00
         0.00000E+00
         0.00000E+00
         0.00000E+00
         0.00000E+00
         0.00000E+00
         0.00000E+00
         0.00000E+00
         0.00000E+00
         0.00000E+00
         0.00000E+00
         0.00000E+00
         0.00000E+00
         0.00000E+00
         0.00000E+00
         0.00000E+00
         0.00000E+00
         0.00000E+00
         0.00000E+00
         0.00000E+00
         0.00000E+00
         0.00000E+00
         0.00000E+00
         0.00000E+00
         0.00000E+00
         0.00000E+00
         0.00000E+00
         0.00000E+00
         0.00000E+00
         0.00000E+00
         0.00000E+00
         0.00000E+00
         0.00000E+00
         0.00000E+00
         0.00000E+00
         0.00000E+00
         0.00000E+00
         0.00000E+00
         0.00000E+00
         0.00000E+00
         0.00000E+00
         0.00000E+00
         0.00000E+00
         0.00000E+00
         0.00000E+00
         0.00000E+00
         0.00000E+00
         0.00000E+00
         0.00000E+00
         0.00000E+00
         0.00000E+00
         0.00000E+00
         0.00000E+00
         0.00000E+00
         0.00000E+00
         0.00000E+00
         0.00000E+00
         0.00000E+00
         0.00000E+00
         0.00000E+00
         0.00000E+00
         0.00000E+00
         0.00000E+00
         0.00000E+00
         0.00000E+00
         0.00000E+00
         0.00000E+00
         0.00000E+00
         0.00000E+00
         0.00000E+00
         0.00000E+00
         0.00000E+00
         0.00000E+00
         0.00000E+00
         0.00000E+00
         0.00000E+00
         0.00000E+00
         0.00000E+00
         0.00000E+00
         0.00000E+00
         0.00000E+00
         0.00000E+00
         0.00000E+00
         0.00000E+00
         0.00000E+00
         0.00000E+00
         0.00000E+00
         0.00000E+00
         0.00000E+00
         0.00000E+00
         0.00000E+00
         0.00000E+00
         0.00000E+00
         0.00000E+00
         0.00000E+00
         0.00000E+00
         0.00000E+00
         0.00000E+00
         0.00000E+00
         0.00000E+00
         0.00000E+00
         0.00000E+00
         0.00000E+00
         0.00000E+00
         0.00000E+00
         0.00000E+00
         0.00000E+00
         0.00000E+00
         0.00000E+00
         0.00000E+00
         0.00000E+00
         0.00000E+00
         0.00000E+00
         0.00000E+00
         0.00000E+00
         0.00000E+00
         0.00000E+00
         0.00000E+00
         0.00000E+00
         0.00000E+00
         0.00000E+00
         0.00000E+00
         0.00000E+00
         0.00000E+00
         0.00000E+00
         0.00000E+00
         0.00000E+00
         0.00000E+00
         0.00000E+00
         0.00000E+00
         0.00000E+00
         0.00000E+00
         0.00000E+00
         0.00000E+00
         0.00000E+00
         0.00000E+00
         0.00000E+00
         0.00000E+00
         0.00000E+00
         0.00000E+00
         0.00000E+00
         0.00000E+00
         0.00000E+00
         0.00000E+00
         0.00000E+00
         0.00000E+00
         0.00000E+00
         0.00000E+00
         0.00000E+00
         0.00000E+00
         0.00000E+00
         0.00000E+00
         0.00000E+00
         0.00000E+00
         0.00000E+00
         0.00000E+00
         0.00000E+00
         0.00000E+00
         0.00000E+00
         0.00000E+00
         0.00000E+00
         0.00000E+00
         0.00000E+00
         0.00000E+00
         0.00000E+00
         0.00000E+00
         0.00000E+00
         0.00000E+00
         0.00000E+00
         0.00000E+00
         0.00000E+00
         0.00000E+00
         0.00000E+00
         0.00000E+00
         0.00000E+00
         0.00000E+00
         0.00000E+00
         0.00000E+00
         0.00000E+00
         0.00000E+00
         0.00000E+00
         0.00000E+00
         0.00000E+00
         0.00000E+00
         0.00000E+00
         0.00000E+00
         0.00000E+00
         0.00000E+00
         0.00000E+00
         0.00000E+00
         0.00000E+00
         0.00000E+00
         0.00000E+00
         0.00000E+00
         0.00000E+00
         0.00000E+00
         0.00000E+00
         0.00000E+00
         0.00000E+00
         0.00000E+00
         0.00000E+00
         0.00000E+00
         0.00000E+00
         0.00000E+00
         0.00000E+00
         0.00000E+00
         0.00000E+00
         0.00000E+00
         0.00000E+00
         0.00000E+00
         0.00000E+00
         0.00000E+00
         0.00000E+00
         0.00000E+00
         0.00000E+00
         0.00000E+00
         0.00000E+00
         0.00000E+00
         0.00000E+00
         0.00000E+00
         0.00000E+00
         0.00000E+00
         0.00000E+00
         0.00000E+00
         0.00000E+00
         0.00000E+00
         0.00000E+00
         0.00000E+00
         0.00000E+00
         0.00000E+00
         0.00000E+00
         0.00000E+00
         0.00000E+00
         0.00000E+00
         0.00000E+00
         0.00000E+00
         0.00000E+00
         0.00000E+00
         0.00000E+00
         0.00000E+00
         0.00000E+00
         0.00000E+00
         0.00000E+00
         0.00000E+00
         0.00000E+00
         0.00000E+00
         0.00000E+00
         0.00000E+00
         0.00000E+00
         0.00000E+00
         0.00000E+00
         0.00000E+00
         0.00000E+00
         0.00000E+00
         0.00000E+00
         0.00000E+00
         0.00000E+00
         0.00000E+00
         0.00000E+00
         0.00000E+00
         0.00000E+00
         0.00000E+00
         0.00000E+00
         0.00000E+00
         0.00000E+00
         0.00000E+00
         0.00000E+00
         0.00000E+00
         0.00000E+00
         0.00000E+00
         0.00000E+00
         0.00000E+00
         0.00000E+00
         0.00000E+00
         0.00000E+00
         0.00000E+00
         0.00000E+00
         0.00000E+00
         0.00000E+00
         0.00000E+00
         0.00000E+00
         0.00000E+00
         0.00000E+00
         0.00000E+00
         0.00000E+00
         0.00000E+00
         0.00000E+00
         0.00000E+00
         0.00000E+00
         0.00000E+00
         0.00000E+00
         0.00000E+00
         0.00000E+00
         0.00000E+00
         0.00000E+00
         0.00000E+00
         0.00000E+00
         0.00000E+00
         0.00000E+00
         0.00000E+00
         0.00000E+00
         0.00000E+00
         0.00000E+00
         0.00000E+00
         0.00000E+00
         0.00000E+00
         0.00000E+00
         0.00000E+00
         0.00000E+00
         0.00000E+00
         0.00000E+00
         0.00000E+00
         0.00000E+00
         0.00000E+00
         0.00000E+00
         0.00000E+00
         0.00000E+00
         0.00000E+00
         0.00000E+00
         0.00000E+00
         0.00000E+00
         0.00000E+00
         0.00000E+00
         0.00000E+00
         0.00000E+00
         0.00000E+00
         0.00000E+00
         0.00000E+00
         0.00000E+00
         0.00000E+00
         0.00000E+00
         0.00000E+00
         0.00000E+00
         0.00000E+00
         0.00000E+00
         0.00000E+00
         0.00000E+00
         0.00000E+00
         0.00000E+00
         0.00000E+00
         0.00000E+00
         0.00000E+00
         0.00000E+00
         0.00000E+00
         0.00000E+00
         0.00000E+00
         0.00000E+00
         0.00000E+00
         0.00000E+00
         0.00000E+00
         0.00000E+00
         0.00000E+00
         0.00000E+00
         0.00000E+00
         0.00000E+00
         0.00000E+00
         0.00000E+00
         0.00000E+00
         0.00000E+00
         0.00000E+00
         0.00000E+00
         0.00000E+00
         0.00000E+00
         0.00000E+00
         0.00000E+00
         0.00000E+00
         0.00000E+00
         0.00000E+00
         0.00000E+00
         0.00000E+00
         0.00000E+00
         0.00000E+00
         0.00000E+00
         0.00000E+00
         0.00000E+00
         0.00000E+00
         0.00000E+00
         0.00000E+00
         0.00000E+00
         0.00000E+00
         0.00000E+00
         0.00000E+00
         0.00000E+00
         0.00000E+00
         0.00000E+00
         0.00000E+00
         0.00000E+00
         0.00000E+00
         0.00000E+00
         0.00000E+00
         0.00000E+00
         0.00000E+00
         0.00000E+00
         0.00000E+00
         0.00000E+00
         0.00000E+00
         0.00000E+00
         0.00000E+00
         0.00000E+00
         0.00000E+00
         0.00000E+00
         0.00000E+00
         0.00000E+00
         0.00000E+00
         0.00000E+00
         0.00000E+00
         0.00000E+00
         0.00000E+00
         0.00000E+00
         0.00000E+00
         0.00000E+00
         0.00000E+00
         0.00000E+00
         0.00000E+00
         0.00000E+00
         0.00000E+00
         0.00000E+00
         0.00000E+00
         0.00000E+00
         0.00000E+00
         0.00000E+00
         0.00000E+00
         0.00000E+00
         0.00000E+00
         0.00000E+00
         0.00000E+00
         0.00000E+00
         0.00000E+00
         0.00000E+00
         0.00000E+00
         0.00000E+00
         0.00000E+00
         0.00000E+00
         0.00000E+00
         0.00000E+00
         0.00000E+00
         0.00000E+00
         0.00000E+00
         0.00000E+00
         0.00000E+00
         0.00000E+00
         0.00000E+00
         0.00000E+00
         0.00000E+00
         0.00000E+00
         0.00000E+00
         0.00000E+00
         0.00000E+00
         0.00000E+00
         0.00000E+00
         0.00000E+00
         0.00000E+00
         0.00000E+00
         0.00000E+00
         0.00000E+00
         0.00000E+00
         0.00000E+00
         0.00000E+00
         0.00000E+00
         0.00000E+00
         0.00000E+00
         0.00000E+00
         0.00000E+00
         0.00000E+00
         0.00000E+00
         0.00000E+00
         0.00000E+00
         0.00000E+00
         0.00000E+00
         0.00000E+00
         0.00000E+00
         0.00000E+00
         0.00000E+00
         0.00000E+00
         0.00000E+00
         0.00000E+00
         0.00000E+00
         0.00000E+00
         0.00000E+00
         0.00000E+00
         0.00000E+00
         0.00000E+00
         0.00000E+00
         0.00000E+00
         0.00000E+00
         0.00000E+00
         0.00000E+00
         0.00000E+00
         0.00000E+00
         0.00000E+00
         0.00000E+00
         0.00000E+00
         0.00000E+00
         0.00000E+00
         0.00000E+00
         0.00000E+00
         0.00000E+00
         0.00000E+00
         0.00000E+00
         0.00000E+00
         0.00000E+00
         0.00000E+00
         0.00000E+00
         0.00000E+00
         0.00000E+00
         0.00000E+00
         0.00000E+00
         0.00000E+00
         0.00000E+00
         0.00000E+00
         0.00000E+00
         0.00000E+00
         0.00000E+00
         0.00000E+00
         0.00000E+00
         0.00000E+00
         0.00000E+00
         0.00000E+00
         0.00000E+00
         0.00000E+00
         0.00000E+00
         0.00000E+00
         0.00000E+00
         0.00000E+00
         0.00000E+00
         0.00000E+00
         0.00000E+00
         0.00000E+00
         0.00000E+00
         0.00000E+00
         0.00000E+00
         0.00000E+00
         0.00000E+00
         0.00000E+00
         0.00000E+00
         0.00000E+00
         0.00000E+00
         0.00000E+00
         0.00000E+00
         0.00000E+00
         0.00000E+00
         0.00000E+00
         0.00000E+00
         0.00000E+00
         0.00000E+00
         0.00000E+00
         0.00000E+00
         0.00000E+00
         0.00000E+00
         0.00000E+00
         0.00000E+00
         0.00000E+00
         0.00000E+00
         0.00000E+00
         0.00000E+00
         0.00000E+00
         0.00000E+00
         0.00000E+00
         0.00000E+00
         0.00000E+00
         0.00000E+00
         0.00000E+00
         0.00000E+00
         0.00000E+00
         0.00000E+00
         0.00000E+00
         0.00000E+00
         0.00000E+00
         0.00000E+00
         0.00000E+00
         0.00000E+00
         0.00000E+00
         0.00000E+00
         0.00000E+00
         0.00000E+00
         0.00000E+00
         0.00000E+00
         0.00000E+00
         0.00000E+00
         0.00000E+00
         0.00000E+00
         0.00000E+00
         0.00000E+00
         0.00000E+00
         0.00000E+00
         0.00000E+00
         0.00000E+00
         0.00000E+00
         0.00000E+00
         0.00000E+00
         0.00000E+00
         0.00000E+00
         0.00000E+00
         0.00000E+00
         0.00000E+00
         0.00000E+00
         0.00000E+00
         0.00000E+00
         0.00000E+00
         0.00000E+00
         0.00000E+00
         0.00000E+00
         0.00000E+00
         0.00000E+00
         0.00000E+00
         0.00000E+00
         0.00000E+00
         0.00000E+00
         0.00000E+00
         0.00000E+00
         0.00000E+00
         0.00000E+00
         0.00000E+00
         0.00000E+00
         0.00000E+00
         0.00000E+00
         0.00000E+00
         0.00000E+00
         0.00000E+00
         0.00000E+00
         0.00000E+00
         0.00000E+00
         0.00000E+00
         0.00000E+00
         0.00000E+00
         0.00000E+00
         0.00000E+00
         0.00000E+00
         0.00000E+00
         0.00000E+00
         0.00000E+00
         0.00000E+00
         0.00000E+00
         0.00000E+00
         0.00000E+00
         0.00000E+00
         0.00000E+00
         0.00000E+00
         0.00000E+00
         0.00000E+00
         0.00000E+00
         0.00000E+00
         0.00000E+00
         0.00000E+00
         0.00000E+00
         0.00000E+00
         0.00000E+00
         0.00000E+00
         0.00000E+00
         0.00000E+00
         0.00000E+00
         0.00000E+00
         0.00000E+00
         0.00000E+00
         0.00000E+00
         0.00000E+00
         0.00000E+00
         0.00000E+00
         0.00000E+00
         0.00000E+00
         0.00000E+00
         0.00000E+00
         0.00000E+00
         0.00000E+00
         0.00000E+00
         0.00000E+00
         0.00000E+00
         0.00000E+00
         0.00000E+00
         0.00000E+00
         0.00000E+00
         0.00000E+00
         0.00000E+00
         0.00000E+00
         0.00000E+00
         0.00000E+00
         0.00000E+00
         0.00000E+00
         0.00000E+00
         0.00000E+00
         0.00000E+00
         0.00000E+00
         0.00000E+00
         0.00000E+00
         0.00000E+00
         0.00000E+00
         0.00000E+00
         0.00000E+00
         0.00000E+00
         0.00000E+00
         0.00000E+00
         0.00000E+00
         0.00000E+00
         0.00000E+00
         0.00000E+00
         0.00000E+00
         0.00000E+00
         0.00000E+00
         0.00000E+00
         0.00000E+00
         0.00000E+00
         0.00000E+00
         0.00000E+00
         0.00000E+00
         0.00000E+00
         0.00000E+00
         0.00000E+00
         0.00000E+00
         0.00000E+00
         0.00000E+00
         0.00000E+00
         0.00000E+00
         0.00000E+00
         0.00000E+00
         0.00000E+00
         0.00000E+00
         0.00000E+00
         0.00000E+00
         0.00000E+00
         0.00000E+00
         0.00000E+00
         0.00000E+00
         0.00000E+00
         0.00000E+00
         0.00000E+00
         0.00000E+00
         0.00000E+00
         0.00000E+00
         0.00000E+00
         0.00000E+00
         0.00000E+00
         0.00000E+00
         0.00000E+00
         0.00000E+00
         0.00000E+00
         0.00000E+00
         0.00000E+00
         0.00000E+00
         0.00000E+00
         0.00000E+00
         0.00000E+00
         0.00000E+00
         0.00000E+00
         0.00000E+00
         0.00000E+00
         0.00000E+00
         0.00000E+00
         0.00000E+00
         0.00000E+00
         0.00000E+00
         0.00000E+00
         0.00000E+00
         0.00000E+00
         0.00000E+00
         0.00000E+00
         0.00000E+00
         0.00000E+00
         0.00000E+00
         0.00000E+00
         0.00000E+00
         0.00000E+00
         0.00000E+00
         0.00000E+00
         0.00000E+00
         0.00000E+00
         0.00000E+00
         0.00000E+00
         0.00000E+00
         0.00000E+00
         0.00000E+00
         0.00000E+00
         0.00000E+00
         0.00000E+00
         0.00000E+00
         0.00000E+00
         0.00000E+00
         0.00000E+00
         0.00000E+00
         0.00000E+00
         0.00000E+00
         0.00000E+00
         0.00000E+00
         0.00000E+00
         0.00000E+00
         0.00000E+00
         0.00000E+00
         0.00000E+00
         0.00000E+00
         0.00000E+00
         0.00000E+00
         0.00000E+00
         0.00000E+00
         0.00000E+00
         0.00000E+00
         0.00000E+00
         0.00000E+00
         0.00000E+00
         0.00000E+00
         0.00000E+00
         0.00000E+00
         0.00000E+00
         0.00000E+00
         0.00000E+00
         0.00000E+00
         0.00000E+00
         0.00000E+00
         0.00000E+00
         0.00000E+00
         0.00000E+00
         0.00000E+00
         0.00000E+00
         0.00000E+00
         0.00000E+00
         0.00000E+00
         0.00000E+00
         0.00000E+00
         0.00000E+00
         0.00000E+00
         0.00000E+00
         0.00000E+00
         0.00000E+00
         0.00000E+00
         0.00000E+00
         0.00000E+00
         0.00000E+00
         0.00000E+00
         0.00000E+00
         0.00000E+00
         0.00000E+00
         0.00000E+00
         0.00000E+00
         0.00000E+00
         0.00000E+00
         0.00000E+00
         0.00000E+00
         0.00000E+00
         0.00000E+00
         0.00000E+00
         0.00000E+00
         0.00000E+00
         0.00000E+00
         0.00000E+00
         0.00000E+00
         0.00000E+00
         0.00000E+00
         0.00000E+00
         0.00000E+00
         0.00000E+00
         0.00000E+00
         0.00000E+00
         0.00000E+00
         0.00000E+00
         0.00000E+00
         0.00000E+00
         0.00000E+00
         0.00000E+00
         0.00000E+00
         0.00000E+00
         0.00000E+00
         0.00000E+00
         0.00000E+00
         0.00000E+00
         0.00000E+00
         0.00000E+00
         0.00000E+00
         0.00000E+00
         0.00000E+00
         0.00000E+00
         0.00000E+00
         0.00000E+00
         0.00000E+00
         0.00000E+00
         0.00000E+00
         0.00000E+00
         0.00000E+00
         0.00000E+00
         0.00000E+00
         0.00000E+00
         0.00000E+00
         0.00000E+00
         0.00000E+00
         0.00000E+00
         0.00000E+00
         0.00000E+00
         0.00000E+00
         0.00000E+00
         0.00000E+00
         0.00000E+00
         0.00000E+00
         0.00000E+00
         0.00000E+00
         0.00000E+00
         0.00000E+00
         0.00000E+00
         0.00000E+00
         0.00000E+00
         0.00000E+00
         0.00000E+00
         0.00000E+00
         0.00000E+00
         0.00000E+00
         0.00000E+00
         0.00000E+00
         0.00000E+00
         0.00000E+00
         0.00000E+00
         0.00000E+00
         0.00000E+00
         0.00000E+00
         0.00000E+00
         0.00000E+00
         0.00000E+00
         0.00000E+00
         0.00000E+00
         0.00000E+00
         0.00000E+00
         0.00000E+00
         0.00000E+00
         0.00000E+00
         0.00000E+00
         0.00000E+00
         0.00000E+00
         0.00000E+00
         0.00000E+00
         0.00000E+00
         0.00000E+00
         0.00000E+00
         0.00000E+00
         0.00000E+00
         0.00000E+00
         0.00000E+00
         0.00000E+00
         0.00000E+00
         0.00000E+00
         0.00000E+00
         0.00000E+00
         0.00000E+00
         0.00000E+00
         0.00000E+00
         0.00000E+00
         0.00000E+00
         0.00000E+00
         0.00000E+00
         0.00000E+00
         0.00000E+00
         0.00000E+00
         0.00000E+00
         0.00000E+00
         0.00000E+00
         0.00000E+00
         0.00000E+00
         0.00000E+00
         0.00000E+00
         0.00000E+00
         0.00000E+00
         0.00000E+00
         0.00000E+00
         0.00000E+00
         0.00000E+00
         0.00000E+00
         0.00000E+00
         0.00000E+00
         0.00000E+00
         0.00000E+00
         0.00000E+00
         0.00000E+00
         0.00000E+00
         0.00000E+00
         0.00000E+00
         0.00000E+00
         0.00000E+00
         0.00000E+00
         0.00000E+00
         0.00000E+00
         0.00000E+00
         0.00000E+00
         0.00000E+00
         0.00000E+00
         0.00000E+00
         0.00000E+00
         0.00000E+00
         0.00000E+00
         0.00000E+00
         0.00000E+00
         0.00000E+00
         0.00000E+00
         0.00000E+00
         0.00000E+00
         0.00000E+00
         0.00000E+00
         0.00000E+00
         0.00000E+00
         0.00000E+00
         0.00000E+00
         0.00000E+00
         0.00000E+00
         0.00000E+00
         0.00000E+00
         0.00000E+00
         0.00000E+00
         0.00000E+00
         0.00000E+00
         0.00000E+00
         0.00000E+00
         0.00000E+00
         0.00000E+00
         0.00000E+00
         0.00000E+00
         0.00000E+00
         0.00000E+00
         0.00000E+00
         0.00000E+00
         0.00000E+00
         0.00000E+00
         0.00000E+00
         0.00000E+00
         0.00000E+00
         0.00000E+00
         0.00000E+00
         0.00000E+00
         0.00000E+00
         0.00000E+00
         0.00000E+00
         0.00000E+00
         0.00000E+00
         0.00000E+00
         0.00000E+00
         0.00000E+00
         0.00000E+00
         0.00000E+00
         0.00000E+00
         0.00000E+00
         0.00000E+00
         0.00000E+00
         0.00000E+00
         0.00000E+00
         0.00000E+00
         0.00000E+00
         0.00000E+00
         0.00000E+00
         0.00000E+00
         0.00000E+00
         0.00000E+00
         0.00000E+00
         0.00000E+00
         0.00000E+00
         0.00000E+00
         0.00000E+00
         0.00000E+00
         0.00000E+00
         0.00000E+00
         0.00000E+00
         0.00000E+00
         0.00000E+00
         0.00000E+00
         0.00000E+00
         0.00000E+00
         0.00000E+00
         0.00000E+00
         0.00000E+00
         0.00000E+00
         0.00000E+00
         0.00000E+00
         0.00000E+00
         0.00000E+00
         0.00000E+00
         0.00000E+00
         0.00000E+00
         0.00000E+00
         0.00000E+00
         0.00000E+00
         0.00000E+00
         0.00000E+00
         0.00000E+00
         0.00000E+00
         0.00000E+00
         0.00000E+00
         0.00000E+00
         0.00000E+00
         0.00000E+00
         0.00000E+00
         0.00000E+00
         0.00000E+00
         0.00000E+00
         0.00000E+00
         0.00000E+00
         0.00000E+00
         0.00000E+00
         0.00000E+00
         0.00000E+00
         0.00000E+00
         0.00000E+00
         0.00000E+00
         0.00000E+00
         0.00000E+00
         0.00000E+00
         0.00000E+00
         0.00000E+00
         0.00000E+00
         0.00000E+00
         0.00000E+00
         0.00000E+00
         0.00000E+00
         0.00000E+00
         0.00000E+00
         0.00000E+00
         0.00000E+00
         0.00000E+00
         0.00000E+00
         0.00000E+00
         0.00000E+00
         0.00000E+00
         0.00000E+00
         0.00000E+00
         0.00000E+00
         0.00000E+00
         0.00000E+00
         0.00000E+00
         0.00000E+00
         0.00000E+00
         0.00000E+00
         0.00000E+00
         0.00000E+00
         0.00000E+00
         0.00000E+00
         0.00000E+00
         0.00000E+00
         0.00000E+00
         0.00000E+00
         0.00000E+00
         0.00000E+00
         0.00000E+00
         0.00000E+00
         0.00000E+00
         0.00000E+00
         0.00000E+00
         0.00000E+00
         0.00000E+00
         0.00000E+00
         0.00000E+00
         0.00000E+00
         0.00000E+00
         0.00000E+00
         0.00000E+00
         0.00000E+00
         0.00000E+00
         0.00000E+00
         0.00000E+00
         0.00000E+00
         0.00000E+00
         0.00000E+00
         0.00000E+00
         0.00000E+00
         0.00000E+00
         0.00000E+00
         0.00000E+00
         0.00000E+00
         0.00000E+00
         0.00000E+00
         0.00000E+00
         0.00000E+00
         0.00000E+00
         0.00000E+00
         0.00000E+00
         0.00000E+00
         0.00000E+00
         0.00000E+00
         0.00000E+00
         0.00000E+00
         0.00000E+00
         0.00000E+00
         0.00000E+00
         0.00000E+00
         0.00000E+00
         0.00000E+00
         0.00000E+00
         0.00000E+00
         0.00000E+00
         0.00000E+00
         0.00000E+00
         0.00000E+00
         0.00000E+00
         0.00000E+00
         0.00000E+00
         0.00000E+00
         0.00000E+00
         0.00000E+00
         0.00000E+00
         0.00000E+00
         0.00000E+00
         0.00000E+00
         0.00000E+00
         0.00000E+00
         0.00000E+00
         0.00000E+00
         0.00000E+00
         0.00000E+00
         0.00000E+00
         0.00000E+00
         0.00000E+00
         0.00000E+00
         0.00000E+00
         0.00000E+00
         0.00000E+00
         0.00000E+00
         0.00000E+00
         0.00000E+00
         0.00000E+00
         0.00000E+00
         0.00000E+00
         0.00000E+00
         0.00000E+00
         0.00000E+00
         0.00000E+00
         0.00000E+00
         0.00000E+00
         0.00000E+00
         0.00000E+00
         0.00000E+00
         0.00000E+00
         0.00000E+00
         0.00000E+00
         0.00000E+00
         0.00000E+00
         0.00000E+00
         0.00000E+00
         0.00000E+00
         0.00000E+00
         0.00000E+00
         0.00000E+00
         0.00000E+00
         0.00000E+00
         0.00000E+00
         0.00000E+00
         0.00000E+00
         0.00000E+00
         0.00000E+00
         0.00000E+00
         0.00000E+00
         0.00000E+00
         0.00000E+00
         0.00000E+00
         0.00000E+00
         0.00000E+00
         0.00000E+00
         0.00000E+00
         0.00000E+00
         0.00000E+00
         0.00000E+00
         0.00000E+00
         0.00000E+00
         0.00000E+00
         0.00000E+00
         0.00000E+00
         0.00000E+00
         0.00000E+00
         0.00000E+00
         0.00000E+00
         0.00000E+00
         0.00000E+00
         0.00000E+00
         0.00000E+00
         0.00000E+00
         0.00000E+00
         0.00000E+00
         0.00000E+00
         0.00000E+00
         0.00000E+00
         0.00000E+00
         0.00000E+00
         0.00000E+00
         0.00000E+00
         0.00000E+00
         0.00000E+00
         0.00000E+00
         0.00000E+00
         0.00000E+00
         0.00000E+00
         0.00000E+00
         0.00000E+00
         0.00000E+00
         0.00000E+00
         0.00000E+00
         0.00000E+00
         0.00000E+00
         0.00000E+00
         0.00000E+00
         0.00000E+00
         0.00000E+00
         0.00000E+00
         0.00000E+00
         0.00000E+00
         0.00000E+00
         0.00000E+00
         0.00000E+00
         0.00000E+00
         0.00000E+00
         0.00000E+00
         0.00000E+00
         0.00000E+00
         0.00000E+00
         0.00000E+00
         0.00000E+00
         0.00000E+00
         0.00000E+00
         0.00000E+00
         0.00000E+00
         0.00000E+00
         0.00000E+00
         0.00000E+00
         0.00000E+00
         0.00000E+00
         0.00000E+00
         0.00000E+00
         0.00000E+00
         0.00000E+00
         0.00000E+00
         0.00000E+00
         0.00000E+00
         0.00000E+00
         0.00000E+00
         0.00000E+00
         0.00000E+00
         0.00000E+00
         0.00000E+00
         0.00000E+00
         0.00000E+00
         0.00000E+00
         0.00000E+00
         0.00000E+00
         0.00000E+00
         0.00000E+00
         0.00000E+00
         0.00000E+00
         0.00000E+00
         0.00000E+00
         0.00000E+00
         0.00000E+00
         0.00000E+00
         0.00000E+00
         0.00000E+00
         0.00000E+00
         0.00000E+00
         0.00000E+00
         0.00000E+00
         0.00000E+00
         0.00000E+00
         0.00000E+00
         0.00000E+00
         0.00000E+00
         0.00000E+00
         0.00000E+00
  
SCALARS        characteristic_distance  double 1
LOOKUP_TABLE default
         0.00000E+00
         0.00000E+00
         0.00000E+00
         0.00000E+00
         0.00000E+00
         0.00000E+00
         0.00000E+00
         0.00000E+00
         0.00000E+00
         0.00000E+00
         0.00000E+00
         0.00000E+00
         0.00000E+00
         0.00000E+00
         0.00000E+00
         0.00000E+00
         0.00000E+00
         0.00000E+00
         0.00000E+00
         0.00000E+00
         0.00000E+00
         0.00000E+00
         0.00000E+00
         0.00000E+00
         0.00000E+00
         0.00000E+00
         0.00000E+00
         0.00000E+00
         0.00000E+00
         0.00000E+00
         0.00000E+00
         0.00000E+00
         0.00000E+00
         0.00000E+00
         0.00000E+00
         0.00000E+00
         0.00000E+00
         0.00000E+00
         0.00000E+00
         0.00000E+00
         0.00000E+00
         0.00000E+00
         0.00000E+00
         0.00000E+00
         0.00000E+00
         0.00000E+00
         0.00000E+00
         0.00000E+00
         0.00000E+00
         0.00000E+00
         0.00000E+00
         0.00000E+00
         0.00000E+00
         0.00000E+00
         0.00000E+00
         0.00000E+00
         0.00000E+00
         0.00000E+00
         0.00000E+00
         0.00000E+00
         0.00000E+00
         0.00000E+00
         0.00000E+00
         0.00000E+00
         0.00000E+00
         0.00000E+00
         0.00000E+00
         0.00000E+00
         0.00000E+00
         0.00000E+00
         0.00000E+00
         0.00000E+00
         0.00000E+00
         0.00000E+00
         0.00000E+00
         0.00000E+00
         0.00000E+00
         0.00000E+00
         0.00000E+00
         0.00000E+00
         0.00000E+00
         0.00000E+00
         0.00000E+00
         0.00000E+00
         0.00000E+00
         0.00000E+00
         0.00000E+00
         0.00000E+00
         0.00000E+00
         0.00000E+00
         0.00000E+00
         0.00000E+00
         0.00000E+00
         0.00000E+00
         0.00000E+00
         0.00000E+00
         0.00000E+00
         0.00000E+00
         0.00000E+00
         0.00000E+00
         0.00000E+00
         0.00000E+00
         0.00000E+00
         0.00000E+00
         0.00000E+00
         0.00000E+00
         0.00000E+00
         0.00000E+00
         0.00000E+00
         0.00000E+00
         0.00000E+00
         0.00000E+00
         0.00000E+00
         0.00000E+00
         0.00000E+00
         0.00000E+00
         0.00000E+00
         0.00000E+00
         0.00000E+00
         0.00000E+00
         0.00000E+00
         0.00000E+00
         0.00000E+00
         0.00000E+00
         0.00000E+00
         0.00000E+00
         0.00000E+00
         0.00000E+00
         0.00000E+00
         0.00000E+00
         0.00000E+00
         0.00000E+00
         0.00000E+00
         0.00000E+00
         0.00000E+00
         0.00000E+00
         0.00000E+00
         0.00000E+00
         0.00000E+00
         0.00000E+00
         0.00000E+00
         0.00000E+00
         0.00000E+00
         0.00000E+00
         0.00000E+00
         0.00000E+00
         0.00000E+00
         0.00000E+00
         0.00000E+00
         0.00000E+00
         0.00000E+00
         0.00000E+00
         0.00000E+00
         0.00000E+00
         0.00000E+00
         0.00000E+00
         0.00000E+00
         0.00000E+00
         0.00000E+00
         0.00000E+00
         0.00000E+00
         0.00000E+00
         0.00000E+00
         0.00000E+00
         0.00000E+00
         0.00000E+00
         0.00000E+00
         0.00000E+00
         0.00000E+00
         0.00000E+00
         0.00000E+00
         0.00000E+00
         0.00000E+00
         0.00000E+00
         0.00000E+00
         0.00000E+00
         0.00000E+00
         0.00000E+00
         0.00000E+00
         0.00000E+00
         0.00000E+00
         0.00000E+00
         0.00000E+00
         0.00000E+00
         0.00000E+00
         0.00000E+00
         0.00000E+00
         0.00000E+00
         0.00000E+00
         0.00000E+00
         0.00000E+00
         0.00000E+00
         0.00000E+00
         0.00000E+00
         0.00000E+00
         0.00000E+00
         0.00000E+00
         0.00000E+00
         0.00000E+00
         0.00000E+00
         0.00000E+00
         0.00000E+00
         0.00000E+00
         0.00000E+00
         0.00000E+00
         0.00000E+00
         0.00000E+00
         0.00000E+00
         0.00000E+00
         0.00000E+00
         0.00000E+00
         0.00000E+00
         0.00000E+00
         0.00000E+00
         0.00000E+00
         0.00000E+00
         0.00000E+00
         0.00000E+00
         0.00000E+00
         0.00000E+00
         0.00000E+00
         0.00000E+00
         0.00000E+00
         0.00000E+00
         0.00000E+00
         0.00000E+00
         0.00000E+00
         0.00000E+00
         0.00000E+00
         0.00000E+00
         0.00000E+00
         0.00000E+00
         0.00000E+00
         0.00000E+00
         0.00000E+00
         0.00000E+00
         0.00000E+00
         0.00000E+00
         0.00000E+00
         0.00000E+00
         0.00000E+00
         0.00000E+00
         0.00000E+00
         0.00000E+00
         0.00000E+00
         0.00000E+00
         0.00000E+00
         0.00000E+00
         0.00000E+00
         0.00000E+00
         0.00000E+00
         0.00000E+00
         0.00000E+00
         0.00000E+00
         0.00000E+00
         0.00000E+00
         0.00000E+00
         0.00000E+00
         0.00000E+00
         0.00000E+00
         0.00000E+00
         0.00000E+00
         0.00000E+00
         0.00000E+00
         0.00000E+00
         0.00000E+00
         0.00000E+00
         0.00000E+00
         0.00000E+00
         0.00000E+00
         0.00000E+00
         0.00000E+00
         0.00000E+00
         0.00000E+00
         0.00000E+00
         0.00000E+00
         0.00000E+00
         0.00000E+00
         0.00000E+00
         0.00000E+00
         0.00000E+00
         0.00000E+00
         0.00000E+00
         0.00000E+00
         0.00000E+00
         0.00000E+00
         0.00000E+00
         0.00000E+00
         0.00000E+00
         0.00000E+00
         0.00000E+00
         0.00000E+00
         0.00000E+00
         0.00000E+00
         0.00000E+00
         0.00000E+00
         0.00000E+00
         0.00000E+00
         0.00000E+00
         0.00000E+00
         0.00000E+00
         0.00000E+00
         0.00000E+00
         0.00000E+00
         0.00000E+00
         0.00000E+00
         0.00000E+00
         0.00000E+00
         0.00000E+00
         0.00000E+00
         0.00000E+00
         0.00000E+00
         0.00000E+00
         0.00000E+00
         0.00000E+00
         0.00000E+00
         0.00000E+00
         0.00000E+00
         0.00000E+00
         0.00000E+00
         0.00000E+00
         0.00000E+00
         0.00000E+00
         0.00000E+00
         0.00000E+00
         0.00000E+00
         0.00000E+00
         0.00000E+00
         0.00000E+00
         0.00000E+00
         0.00000E+00
         0.00000E+00
         0.00000E+00
         0.00000E+00
         0.00000E+00
         0.00000E+00
         0.00000E+00
         0.00000E+00
         0.00000E+00
         0.00000E+00
         0.00000E+00
         0.00000E+00
         0.00000E+00
         0.00000E+00
         0.00000E+00
         0.00000E+00
         0.00000E+00
         0.00000E+00
         0.00000E+00
         0.00000E+00
         0.00000E+00
         0.00000E+00
         0.00000E+00
         0.00000E+00
         0.00000E+00
         0.00000E+00
         0.00000E+00
         0.00000E+00
         0.00000E+00
         0.00000E+00
         0.00000E+00
         0.00000E+00
         0.00000E+00
         0.00000E+00
         0.00000E+00
         0.00000E+00
         0.00000E+00
         0.00000E+00
         0.00000E+00
         0.00000E+00
         0.00000E+00
         0.00000E+00
         0.00000E+00
         0.00000E+00
         0.00000E+00
         0.00000E+00
         0.00000E+00
         0.00000E+00
         0.00000E+00
         0.00000E+00
         0.00000E+00
         0.00000E+00
         0.00000E+00
         0.00000E+00
         0.00000E+00
         0.00000E+00
         0.00000E+00
         0.00000E+00
         0.00000E+00
         0.00000E+00
         0.00000E+00
         0.00000E+00
         0.00000E+00
         0.00000E+00
         0.00000E+00
         0.00000E+00
         0.00000E+00
         0.00000E+00
         0.00000E+00
         0.00000E+00
         0.00000E+00
         0.00000E+00
         0.00000E+00
         0.00000E+00
         0.00000E+00
         0.00000E+00
         0.00000E+00
         0.00000E+00
         0.00000E+00
         0.00000E+00
         0.00000E+00
         0.00000E+00
         0.00000E+00
         0.00000E+00
         0.00000E+00
         0.00000E+00
         0.00000E+00
         0.00000E+00
         0.00000E+00
         0.00000E+00
         0.00000E+00
         0.00000E+00
         0.00000E+00
         0.00000E+00
         0.00000E+00
         0.00000E+00
         0.00000E+00
         0.00000E+00
         0.00000E+00
         0.00000E+00
         0.00000E+00
         0.00000E+00
         0.00000E+00
         0.00000E+00
         0.00000E+00
         0.00000E+00
         0.00000E+00
         0.00000E+00
         0.00000E+00
         0.00000E+00
         0.00000E+00
         0.00000E+00
         0.00000E+00
         0.00000E+00
         0.00000E+00
         0.00000E+00
         0.00000E+00
         0.00000E+00
         0.00000E+00
         0.00000E+00
         0.00000E+00
         0.00000E+00
         0.00000E+00
         0.00000E+00
         0.00000E+00
         0.00000E+00
         0.00000E+00
         0.00000E+00
         0.00000E+00
         0.00000E+00
         0.00000E+00
         0.00000E+00
         0.00000E+00
         0.00000E+00
         0.00000E+00
         0.00000E+00
         0.00000E+00
         0.00000E+00
         0.00000E+00
         0.00000E+00
         0.00000E+00
         0.00000E+00
         0.00000E+00
         0.00000E+00
         0.00000E+00
         0.00000E+00
         0.00000E+00
         0.00000E+00
         0.00000E+00
         0.00000E+00
         0.00000E+00
         0.00000E+00
         0.00000E+00
         0.00000E+00
         0.00000E+00
         0.00000E+00
         0.00000E+00
         0.00000E+00
         0.00000E+00
         0.00000E+00
         0.00000E+00
         0.00000E+00
         0.00000E+00
         0.00000E+00
         0.00000E+00
         0.00000E+00
         0.00000E+00
         0.00000E+00
         0.00000E+00
         0.00000E+00
         0.00000E+00
         0.00000E+00
         0.00000E+00
         0.00000E+00
         0.00000E+00
         0.00000E+00
         0.00000E+00
         0.00000E+00
         0.00000E+00
         0.00000E+00
         0.00000E+00
         0.00000E+00
         0.00000E+00
         0.00000E+00
         0.00000E+00
         0.00000E+00
         0.00000E+00
         0.00000E+00
         0.00000E+00
         0.00000E+00
         0.00000E+00
         0.00000E+00
         0.00000E+00
         0.00000E+00
         0.00000E+00
         0.00000E+00
         0.00000E+00
         0.00000E+00
         0.00000E+00
         0.00000E+00
         0.00000E+00
         0.00000E+00
         0.00000E+00
         0.00000E+00
         0.00000E+00
         0.00000E+00
         0.00000E+00
         0.00000E+00
         0.00000E+00
         0.00000E+00
         0.00000E+00
         0.00000E+00
         0.00000E+00
         0.00000E+00
         0.00000E+00
         0.00000E+00
         0.00000E+00
         0.00000E+00
         0.00000E+00
         0.00000E+00
         0.00000E+00
         0.00000E+00
         0.00000E+00
         0.00000E+00
         0.00000E+00
         0.00000E+00
         0.00000E+00
         0.00000E+00
         0.00000E+00
         0.00000E+00
         0.00000E+00
         0.00000E+00
         0.00000E+00
         0.00000E+00
         0.00000E+00
         0.00000E+00
         0.00000E+00
         0.00000E+00
         0.00000E+00
         0.00000E+00
         0.00000E+00
         0.00000E+00
         0.00000E+00
         0.00000E+00
         0.00000E+00
         0.00000E+00
         0.00000E+00
         0.00000E+00
         0.00000E+00
         0.00000E+00
         0.00000E+00
         0.00000E+00
         0.00000E+00
         0.00000E+00
         0.00000E+00
         0.00000E+00
         0.00000E+00
         0.00000E+00
         0.00000E+00
         0.00000E+00
         0.00000E+00
         0.00000E+00
         0.00000E+00
         0.00000E+00
         0.00000E+00
         0.00000E+00
         0.00000E+00
         0.00000E+00
         0.00000E+00
         0.00000E+00
         0.00000E+00
         0.00000E+00
         0.00000E+00
         0.00000E+00
         0.00000E+00
         0.00000E+00
         0.00000E+00
         0.00000E+00
         0.00000E+00
         0.00000E+00
         0.00000E+00
         0.00000E+00
         0.00000E+00
         0.00000E+00
         0.00000E+00
         0.00000E+00
         0.00000E+00
         0.00000E+00
         0.00000E+00
         0.00000E+00
         0.00000E+00
         0.00000E+00
         0.00000E+00
         0.00000E+00
         0.00000E+00
         0.00000E+00
         0.00000E+00
         0.00000E+00
         0.00000E+00
         0.00000E+00
         0.00000E+00
         0.00000E+00
         0.00000E+00
         0.00000E+00
         0.00000E+00
         0.00000E+00
         0.00000E+00
         0.00000E+00
         0.00000E+00
         0.00000E+00
         0.00000E+00
         0.00000E+00
         0.00000E+00
         0.00000E+00
         0.00000E+00
         0.00000E+00
         0.00000E+00
         0.00000E+00
         0.00000E+00
         0.00000E+00
         0.00000E+00
         0.00000E+00
         0.00000E+00
         0.00000E+00
         0.00000E+00
         0.00000E+00
         0.00000E+00
         0.00000E+00
         0.00000E+00
         0.00000E+00
         0.00000E+00
         0.00000E+00
         0.00000E+00
         0.00000E+00
         0.00000E+00
         0.00000E+00
         0.00000E+00
         0.00000E+00
         0.00000E+00
         0.00000E+00
         0.00000E+00
         0.00000E+00
         0.00000E+00
         0.00000E+00
         0.00000E+00
         0.00000E+00
         0.00000E+00
         0.00000E+00
         0.00000E+00
         0.00000E+00
         0.00000E+00
         0.00000E+00
         0.00000E+00
         0.00000E+00
         0.00000E+00
         0.00000E+00
         0.00000E+00
         0.00000E+00
         0.00000E+00
         0.00000E+00
         0.00000E+00
         0.00000E+00
         0.00000E+00
         0.00000E+00
         0.00000E+00
         0.00000E+00
         0.00000E+00
         0.00000E+00
         0.00000E+00
         0.00000E+00
         0.00000E+00
         0.00000E+00
         0.00000E+00
         0.00000E+00
         0.00000E+00
         0.00000E+00
         0.00000E+00
         0.00000E+00
         0.00000E+00
         0.00000E+00
         0.00000E+00
         0.00000E+00
         0.00000E+00
         0.00000E+00
         0.00000E+00
         0.00000E+00
         0.00000E+00
         0.00000E+00
         0.00000E+00
         0.00000E+00
         0.00000E+00
         0.00000E+00
         0.00000E+00
         0.00000E+00
         0.00000E+00
         0.00000E+00
         0.00000E+00
         0.00000E+00
         0.00000E+00
         0.00000E+00
         0.00000E+00
         0.00000E+00
         0.00000E+00
         0.00000E+00
         0.00000E+00
         0.00000E+00
         0.00000E+00
         0.00000E+00
         0.00000E+00
         0.00000E+00
         0.00000E+00
         0.00000E+00
         0.00000E+00
         0.00000E+00
         0.00000E+00
         0.00000E+00
         0.00000E+00
         0.00000E+00
         0.00000E+00
         0.00000E+00
         0.00000E+00
         0.00000E+00
         0.00000E+00
         0.00000E+00
         0.00000E+00
         0.00000E+00
         0.00000E+00
         0.00000E+00
         0.00000E+00
         0.00000E+00
         0.00000E+00
         0.00000E+00
         0.00000E+00
         0.00000E+00
         0.00000E+00
         0.00000E+00
         0.00000E+00
         0.00000E+00
         0.00000E+00
         0.00000E+00
         0.00000E+00
         0.00000E+00
         0.00000E+00
         0.00000E+00
         0.00000E+00
         0.00000E+00
         0.00000E+00
         0.00000E+00
         0.00000E+00
         0.00000E+00
         0.00000E+00
         0.00000E+00
         0.00000E+00
         0.00000E+00
         0.00000E+00
         0.00000E+00
         0.00000E+00
         0.00000E+00
         0.00000E+00
         0.00000E+00
         0.00000E+00
         0.00000E+00
         0.00000E+00
         0.00000E+00
         0.00000E+00
         0.00000E+00
         0.00000E+00
         0.00000E+00
         0.00000E+00
         0.00000E+00
         0.00000E+00
         0.00000E+00
         0.00000E+00
         0.00000E+00
         0.00000E+00
         0.00000E+00
         0.00000E+00
         0.00000E+00
         0.00000E+00
         0.00000E+00
         0.00000E+00
         0.00000E+00
         0.00000E+00
         0.00000E+00
         0.00000E+00
         0.00000E+00
         0.00000E+00
         0.00000E+00
         0.00000E+00
         0.00000E+00
         0.00000E+00
         0.00000E+00
         0.00000E+00
         0.00000E+00
         0.00000E+00
         0.00000E+00
         0.00000E+00
         0.00000E+00
         0.00000E+00
         0.00000E+00
         0.00000E+00
         0.00000E+00
         0.00000E+00
         0.00000E+00
         0.00000E+00
         0.00000E+00
         0.00000E+00
         0.00000E+00
         0.00000E+00
         0.00000E+00
         0.00000E+00
         0.00000E+00
         0.00000E+00
         0.00000E+00
         0.00000E+00
         0.00000E+00
         0.00000E+00
         0.00000E+00
         0.00000E+00
         0.00000E+00
         0.00000E+00
         0.00000E+00
         0.00000E+00
         0.00000E+00
         0.00000E+00
         0.00000E+00
         0.00000E+00
         0.00000E+00
         0.00000E+00
         0.00000E+00
         0.00000E+00
         0.00000E+00
         0.00000E+00
         0.00000E+00
         0.00000E+00
         0.00000E+00
         0.00000E+00
         0.00000E+00
         0.00000E+00
         0.00000E+00
         0.00000E+00
         0.00000E+00
         0.00000E+00
         0.00000E+00
         0.00000E+00
         0.00000E+00
         0.00000E+00
         0.00000E+00
         0.00000E+00
         0.00000E+00
         0.00000E+00
         0.00000E+00
         0.00000E+00
         0.00000E+00
         0.00000E+00
         0.00000E+00
         0.00000E+00
         0.00000E+00
         0.00000E+00
         0.00000E+00
         0.00000E+00
         0.00000E+00
         0.00000E+00
         0.00000E+00
         0.00000E+00
         0.00000E+00
         0.00000E+00
         0.00000E+00
         0.00000E+00
         0.00000E+00
         0.00000E+00
         0.00000E+00
         0.00000E+00
         0.00000E+00
         0.00000E+00
         0.00000E+00
         0.00000E+00
         0.00000E+00
         0.00000E+00
         0.00000E+00
         0.00000E+00
         0.00000E+00
         0.00000E+00
         0.00000E+00
         0.00000E+00
         0.00000E+00
         0.00000E+00
         0.00000E+00
         0.00000E+00
         0.00000E+00
         0.00000E+00
         0.00000E+00
         0.00000E+00
         0.00000E+00
         0.00000E+00
         0.00000E+00
         0.00000E+00
         0.00000E+00
         0.00000E+00
         0.00000E+00
         0.00000E+00
         0.00000E+00
         0.00000E+00
         0.00000E+00
         0.00000E+00
         0.00000E+00
         0.00000E+00
         0.00000E+00
         0.00000E+00
         0.00000E+00
         0.00000E+00
         0.00000E+00
         0.00000E+00
         0.00000E+00
         0.00000E+00
         0.00000E+00
         0.00000E+00
         0.00000E+00
         0.00000E+00
         0.00000E+00
         0.00000E+00
         0.00000E+00
         0.00000E+00
         0.00000E+00
         0.00000E+00
         0.00000E+00
         0.00000E+00
         0.00000E+00
         0.00000E+00
         0.00000E+00
         0.00000E+00
         0.00000E+00
         0.00000E+00
         0.00000E+00
         0.00000E+00
         0.00000E+00
         0.00000E+00
         0.00000E+00
         0.00000E+00
         0.00000E+00
         0.00000E+00
         0.00000E+00
         0.00000E+00
         0.00000E+00
         0.00000E+00
         0.00000E+00
         0.00000E+00
         0.00000E+00
         0.00000E+00
         0.00000E+00
         0.00000E+00
         0.00000E+00
         0.00000E+00
         0.00000E+00
         0.00000E+00
         0.00000E+00
         0.00000E+00
         0.00000E+00
         0.00000E+00
         0.00000E+00
         0.00000E+00
         0.00000E+00
         0.00000E+00
         0.00000E+00
         0.00000E+00
         0.00000E+00
         0.00000E+00
         0.00000E+00
         0.00000E+00
         0.00000E+00
         0.00000E+00
         0.00000E+00
         0.00000E+00
         0.00000E+00
         0.00000E+00
         0.00000E+00
         0.00000E+00
         0.00000E+00
         0.00000E+00
         0.00000E+00
         0.00000E+00
         0.00000E+00
         0.00000E+00
         0.00000E+00
         0.00000E+00
         0.00000E+00
         0.00000E+00
         0.00000E+00
         0.00000E+00
         0.00000E+00
         0.00000E+00
         0.00000E+00
         0.00000E+00
         0.00000E+00
         0.00000E+00
         0.00000E+00
         0.00000E+00
         0.00000E+00
         0.00000E+00
         0.00000E+00
         0.00000E+00
         0.00000E+00
         0.00000E+00
         0.00000E+00
         0.00000E+00
         0.00000E+00
         0.00000E+00
         0.00000E+00
         0.00000E+00
         0.00000E+00
         0.00000E+00
         0.00000E+00
         0.00000E+00
         0.00000E+00
         0.00000E+00
         0.00000E+00
         0.00000E+00
         0.00000E+00
         0.00000E+00
         0.00000E+00
         0.00000E+00
         0.00000E+00
         0.00000E+00
         0.00000E+00
         0.00000E+00
         0.00000E+00
         0.00000E+00
         0.00000E+00
         0.00000E+00
         0.00000E+00
         0.00000E+00
         0.00000E+00
         0.00000E+00
         0.00000E+00
         0.00000E+00
         0.00000E+00
         0.00000E+00
         0.00000E+00
         0.00000E+00
         0.00000E+00
         0.00000E+00
         0.00000E+00
         0.00000E+00
         0.00000E+00
         0.00000E+00
         0.00000E+00
         0.00000E+00
         0.00000E+00
         0.00000E+00
         0.00000E+00
         0.00000E+00
         0.00000E+00
         0.00000E+00
         0.00000E+00
         0.00000E+00
         0.00000E+00
         0.00000E+00
         0.00000E+00
         0.00000E+00
         0.00000E+00
         0.00000E+00
         0.00000E+00
         0.00000E+00
         0.00000E+00
         0.00000E+00
         0.00000E+00
         0.00000E+00
         0.00000E+00
         0.00000E+00
         0.00000E+00
         0.00000E+00
         0.00000E+00
         0.00000E+00
         0.00000E+00
         0.00000E+00
         0.00000E+00
         0.00000E+00
         0.00000E+00
         0.00000E+00
         0.00000E+00
         0.00000E+00
         0.00000E+00
         0.00000E+00
         0.00000E+00
         0.00000E+00
         0.00000E+00
         0.00000E+00
         0.00000E+00
         0.00000E+00
         0.00000E+00
         0.00000E+00
         0.00000E+00
         0.00000E+00
         0.00000E+00
         0.00000E+00
         0.00000E+00
         0.00000E+00
         0.00000E+00
         0.00000E+00
         0.00000E+00
         0.00000E+00
         0.00000E+00
         0.00000E+00
         0.00000E+00
         0.00000E+00
         0.00000E+00
         0.00000E+00
         0.00000E+00
         0.00000E+00
         0.00000E+00
         0.00000E+00
         0.00000E+00
         0.00000E+00
         0.00000E+00
         0.00000E+00
         0.00000E+00
         0.00000E+00
         0.00000E+00
         0.00000E+00
         0.00000E+00
         0.00000E+00
         0.00000E+00
         0.00000E+00
         0.00000E+00
         0.00000E+00
         0.00000E+00
         0.00000E+00
         0.00000E+00
         0.00000E+00
         0.00000E+00
         0.00000E+00
         0.00000E+00
         0.00000E+00
         0.00000E+00
         0.00000E+00
         0.00000E+00
         0.00000E+00
         0.00000E+00
         0.00000E+00
         0.00000E+00
         0.00000E+00
         0.00000E+00
         0.00000E+00
         0.00000E+00
         0.00000E+00
         0.00000E+00
         0.00000E+00
         0.00000E+00
         0.00000E+00
         0.00000E+00
         0.00000E+00
         0.00000E+00
         0.00000E+00
         0.00000E+00
         0.00000E+00
         0.00000E+00
         0.00000E+00
         0.00000E+00
         0.00000E+00
         0.00000E+00
         0.00000E+00
         0.00000E+00
         0.00000E+00
         0.00000E+00
         0.00000E+00
         0.00000E+00
         0.00000E+00
         0.00000E+00
         0.00000E+00
         0.00000E+00
         0.00000E+00
         0.00000E+00
         0.00000E+00
         0.00000E+00
         0.00000E+00
         0.00000E+00
         0.00000E+00
         0.00000E+00
         0.00000E+00
         0.00000E+00
         0.00000E+00
         0.00000E+00
         0.00000E+00
         0.00000E+00
         0.00000E+00
         0.00000E+00
         0.00000E+00
         0.00000E+00
         0.00000E+00
         0.00000E+00
         0.00000E+00
         0.00000E+00
         0.00000E+00
         0.00000E+00
         0.00000E+00
         0.00000E+00
         0.00000E+00
         0.00000E+00
         0.00000E+00
         0.00000E+00
         0.00000E+00
         0.00000E+00
         0.00000E+00
         0.00000E+00
         0.00000E+00
         0.00000E+00
         0.00000E+00
         0.00000E+00
         0.00000E+00
         0.00000E+00
         0.00000E+00
         0.00000E+00
         0.00000E+00
         0.00000E+00
         0.00000E+00
         0.00000E+00
         0.00000E+00
         0.00000E+00
         0.00000E+00
         0.00000E+00
         0.00000E+00
         0.00000E+00
         0.00000E+00
         0.00000E+00
         0.00000E+00
         0.00000E+00
         0.00000E+00
         0.00000E+00
         0.00000E+00
         0.00000E+00
         0.00000E+00
         0.00000E+00
         0.00000E+00
         0.00000E+00
         0.00000E+00
         0.00000E+00
         0.00000E+00
         0.00000E+00
         0.00000E+00
         0.00000E+00
         0.00000E+00
         0.00000E+00
         0.00000E+00
         0.00000E+00
         0.00000E+00
         0.00000E+00
         0.00000E+00
         0.00000E+00
         0.00000E+00
         0.00000E+00
         0.00000E+00
         0.00000E+00
         0.00000E+00
         0.00000E+00
         0.00000E+00
         0.00000E+00
         0.00000E+00
         0.00000E+00
         0.00000E+00
         0.00000E+00
         0.00000E+00
         0.00000E+00
         0.00000E+00
         0.00000E+00
         0.00000E+00
         0.00000E+00
         0.00000E+00
         0.00000E+00
         0.00000E+00
         0.00000E+00
         0.00000E+00
         0.00000E+00
         0.00000E+00
         0.00000E+00
         0.00000E+00
         0.00000E+00
         0.00000E+00
         0.00000E+00
         0.00000E+00
         0.00000E+00
         0.00000E+00
         0.00000E+00
         0.00000E+00
         0.00000E+00
         0.00000E+00
         0.00000E+00
         0.00000E+00
         0.00000E+00
         0.00000E+00
         0.00000E+00
         0.00000E+00
         0.00000E+00
         0.00000E+00
         0.00000E+00
         0.00000E+00
         0.00000E+00
         0.00000E+00
         0.00000E+00
         0.00000E+00
         0.00000E+00
         0.00000E+00
         0.00000E+00
         0.00000E+00
         0.00000E+00
         0.00000E+00
         0.00000E+00
         0.00000E+00
         0.00000E+00
         0.00000E+00
         0.00000E+00
         0.00000E+00
         0.00000E+00
         0.00000E+00
         0.00000E+00
         0.00000E+00
         0.00000E+00
         0.00000E+00
         0.00000E+00
         0.00000E+00
         0.00000E+00
         0.00000E+00
         0.00000E+00
         0.00000E+00
         0.00000E+00
         0.00000E+00
         0.00000E+00
         0.00000E+00
         0.00000E+00
         0.00000E+00
         0.00000E+00
         0.00000E+00
         0.00000E+00
         0.00000E+00
         0.00000E+00
         0.00000E+00
         0.00000E+00
         0.00000E+00
         0.00000E+00
         0.00000E+00
         0.00000E+00
         0.00000E+00
         0.00000E+00
         0.00000E+00
         0.00000E+00
         0.00000E+00
         0.00000E+00
         0.00000E+00
         0.00000E+00
         0.00000E+00
         0.00000E+00
         0.00000E+00
         0.00000E+00
         0.00000E+00
         0.00000E+00
         0.00000E+00
         0.00000E+00
         0.00000E+00
         0.00000E+00
         0.00000E+00
         0.00000E+00
         0.00000E+00
         0.00000E+00
         0.00000E+00
         0.00000E+00
         0.00000E+00
         0.00000E+00
         0.00000E+00
         0.00000E+00
         0.00000E+00
         0.00000E+00
         0.00000E+00
         0.00000E+00
         0.00000E+00
         0.00000E+00
         0.00000E+00
         0.00000E+00
         0.00000E+00
         0.00000E+00
         0.00000E+00
         0.00000E+00
         0.00000E+00
         0.00000E+00
         0.00000E+00
         0.00000E+00
         0.00000E+00
         0.00000E+00
         0.00000E+00
         0.00000E+00
         0.00000E+00
         0.00000E+00
         0.00000E+00
         0.00000E+00
         0.00000E+00
         0.00000E+00
         0.00000E+00
         0.00000E+00
         0.00000E+00
         0.00000E+00
         0.00000E+00
         0.00000E+00
         0.00000E+00
         0.00000E+00
         0.00000E+00
         0.00000E+00
         0.00000E+00
         0.00000E+00
         0.00000E+00
         0.00000E+00
         0.00000E+00
         0.00000E+00
         0.00000E+00
         0.00000E+00
         0.00000E+00
         0.00000E+00
         0.00000E+00
         0.00000E+00
         0.00000E+00
         0.00000E+00
         0.00000E+00
         0.00000E+00
         0.00000E+00
         0.00000E+00
         0.00000E+00
         0.00000E+00
         0.00000E+00
         0.00000E+00
         0.00000E+00
         0.00000E+00
         0.00000E+00
         0.00000E+00
         0.00000E+00
         0.00000E+00
         0.00000E+00
         0.00000E+00
         0.00000E+00
         0.00000E+00
         0.00000E+00
         0.00000E+00
         0.00000E+00
         0.00000E+00
         0.00000E+00
         0.00000E+00
         0.00000E+00
         0.00000E+00
         0.00000E+00
         0.00000E+00
         0.00000E+00
         0.00000E+00
         0.00000E+00
         0.00000E+00
         0.00000E+00
         0.00000E+00
         0.00000E+00
         0.00000E+00
         0.00000E+00
         0.00000E+00
         0.00000E+00
         0.00000E+00
         0.00000E+00
         0.00000E+00
         0.00000E+00
         0.00000E+00
         0.00000E+00
         0.00000E+00
         0.00000E+00
         0.00000E+00
         0.00000E+00
         0.00000E+00
         0.00000E+00
         0.00000E+00
         0.00000E+00
         0.00000E+00
         0.00000E+00
         0.00000E+00
         0.00000E+00
         0.00000E+00
         0.00000E+00
         0.00000E+00
         0.00000E+00
         0.00000E+00
         0.00000E+00
         0.00000E+00
         0.00000E+00
         0.00000E+00
         0.00000E+00
         0.00000E+00
         0.00000E+00
         0.00000E+00
         0.00000E+00
         0.00000E+00
         0.00000E+00
         0.00000E+00
         0.00000E+00
         0.00000E+00
         0.00000E+00
         0.00000E+00
         0.00000E+00
         0.00000E+00
         0.00000E+00
         0.00000E+00
         0.00000E+00
         0.00000E+00
         0.00000E+00
         0.00000E+00
         0.00000E+00
         0.00000E+00
         0.00000E+00
         0.00000E+00
         0.00000E+00
         0.00000E+00
         0.00000E+00
         0.00000E+00
         0.00000E+00
         0.00000E+00
         0.00000E+00
         0.00000E+00
         0.00000E+00
         0.00000E+00
         0.00000E+00
         0.00000E+00
         0.00000E+00
         0.00000E+00
         0.00000E+00
         0.00000E+00
         0.00000E+00
         0.00000E+00
         0.00000E+00
         0.00000E+00
         0.00000E+00
         0.00000E+00
         0.00000E+00
         0.00000E+00
         0.00000E+00
         0.00000E+00
         0.00000E+00
         0.00000E+00
         0.00000E+00
         0.00000E+00
         0.00000E+00
         0.00000E+00
         0.00000E+00
         0.00000E+00
         0.00000E+00
         0.00000E+00
         0.00000E+00
         0.00000E+00
         0.00000E+00
         0.00000E+00
         0.00000E+00
         0.00000E+00
         0.00000E+00
         0.00000E+00
         0.00000E+00
         0.00000E+00
         0.00000E+00
         0.00000E+00
         0.00000E+00
         0.00000E+00
         0.00000E+00
         0.00000E+00
         0.00000E+00
         0.00000E+00
         0.00000E+00
         0.00000E+00
         0.00000E+00
         0.00000E+00
         0.00000E+00
         0.00000E+00
         0.00000E+00
         0.00000E+00
         0.00000E+00
         0.00000E+00
         0.00000E+00
         0.00000E+00
         0.00000E+00
         0.00000E+00
         0.00000E+00
         0.00000E+00
         0.00000E+00
         0.00000E+00
         0.00000E+00
         0.00000E+00
         0.00000E+00
         0.00000E+00
         0.00000E+00
         0.00000E+00
         0.00000E+00
         0.00000E+00
         0.00000E+00
         0.00000E+00
         0.00000E+00
         0.00000E+00
         0.00000E+00
         0.00000E+00
         0.00000E+00
         0.00000E+00
         0.00000E+00
         0.00000E+00
         0.00000E+00
         0.00000E+00
         0.00000E+00
         0.00000E+00
         0.00000E+00
         0.00000E+00
         0.00000E+00
         0.00000E+00
         0.00000E+00
         0.00000E+00
         0.00000E+00
         0.00000E+00
         0.00000E+00
         0.00000E+00
         0.00000E+00
         0.00000E+00
         0.00000E+00
         0.00000E+00
         0.00000E+00
         0.00000E+00
         0.00000E+00
         0.00000E+00
         0.00000E+00
         0.00000E+00
         0.00000E+00
         0.00000E+00
         0.00000E+00
         0.00000E+00
         0.00000E+00
         0.00000E+00
         0.00000E+00
         0.00000E+00
         0.00000E+00
         0.00000E+00
         0.00000E+00
         0.00000E+00
         0.00000E+00
         0.00000E+00
         0.00000E+00
         0.00000E+00
         0.00000E+00
         0.00000E+00
         0.00000E+00
         0.00000E+00
         0.00000E+00
         0.00000E+00
         0.00000E+00
         0.00000E+00
         0.00000E+00
         0.00000E+00
         0.00000E+00
         0.00000E+00
         0.00000E+00
         0.00000E+00
         0.00000E+00
         0.00000E+00
         0.00000E+00
         0.00000E+00
         0.00000E+00
         0.00000E+00
         0.00000E+00
         0.00000E+00
         0.00000E+00
         0.00000E+00
         0.00000E+00
         0.00000E+00
         0.00000E+00
         0.00000E+00
         0.00000E+00
         0.00000E+00
         0.00000E+00
         0.00000E+00
         0.00000E+00
         0.00000E+00
         0.00000E+00
         0.00000E+00
         0.00000E+00
         0.00000E+00
         0.00000E+00
         0.00000E+00
         0.00000E+00
         0.00000E+00
         0.00000E+00
         0.00000E+00
         0.00000E+00
         0.00000E+00
         0.00000E+00
         0.00000E+00
         0.00000E+00
         0.00000E+00
         0.00000E+00
         0.00000E+00
         0.00000E+00
         0.00000E+00
         0.00000E+00
         0.00000E+00
         0.00000E+00
         0.00000E+00
         0.00000E+00
         0.00000E+00
         0.00000E+00
         0.00000E+00
         0.00000E+00
         0.00000E+00
         0.00000E+00
         0.00000E+00
         0.00000E+00
         0.00000E+00
         0.00000E+00
         0.00000E+00
         0.00000E+00
         0.00000E+00
         0.00000E+00
         0.00000E+00
         0.00000E+00
         0.00000E+00
         0.00000E+00
         0.00000E+00
         0.00000E+00
         0.00000E+00
         0.00000E+00
         0.00000E+00
         0.00000E+00
         0.00000E+00
         0.00000E+00
         0.00000E+00
         0.00000E+00
         0.00000E+00
         0.00000E+00
         0.00000E+00
         0.00000E+00
         0.00000E+00
         0.00000E+00
         0.00000E+00
         0.00000E+00
         0.00000E+00
         0.00000E+00
         0.00000E+00
         0.00000E+00
         0.00000E+00
         0.00000E+00
         0.00000E+00
         0.00000E+00
         0.00000E+00
         0.00000E+00
         0.00000E+00
         0.00000E+00
         0.00000E+00
         0.00000E+00
         0.00000E+00
         0.00000E+00
         0.00000E+00
         0.00000E+00
         0.00000E+00
         0.00000E+00
         0.00000E+00
         0.00000E+00
         0.00000E+00
         0.00000E+00
         0.00000E+00
         0.00000E+00
         0.00000E+00
         0.00000E+00
         0.00000E+00
         0.00000E+00
         0.00000E+00
         0.00000E+00
         0.00000E+00
         0.00000E+00
         0.00000E+00
         0.00000E+00
         0.00000E+00
         0.00000E+00
         0.00000E+00
         0.00000E+00
         0.00000E+00
         0.00000E+00
         0.00000E+00
         0.00000E+00
         0.00000E+00
         0.00000E+00
         0.00000E+00
         0.00000E+00
         0.00000E+00
         0.00000E+00
         0.00000E+00
         0.00000E+00
         0.00000E+00
         0.00000E+00
         0.00000E+00
         0.00000E+00
         0.00000E+00
         0.00000E+00
         0.00000E+00
         0.00000E+00
         0.00000E+00
         0.00000E+00
         0.00000E+00
         0.00000E+00
         0.00000E+00
         0.00000E+00
         0.00000E+00
         0.00000E+00
         0.00000E+00
         0.00000E+00
         0.00000E+00
         0.00000E+00
         0.00000E+00
         0.00000E+00
         0.00000E+00
         0.00000E+00
         0.00000E+00
         0.00000E+00
         0.00000E+00
         0.00000E+00
         0.00000E+00
         0.00000E+00
         0.00000E+00
         0.00000E+00
         0.00000E+00
         0.00000E+00
         0.00000E+00
         0.00000E+00
         0.00000E+00
         0.00000E+00
         0.00000E+00
         0.00000E+00
         0.00000E+00
         0.00000E+00
         0.00000E+00
         0.00000E+00
         0.00000E+00
         0.00000E+00
         0.00000E+00
         0.00000E+00
         0.00000E+00
         0.00000E+00
         0.00000E+00
         0.00000E+00
         0.00000E+00
         0.00000E+00
         0.00000E+00
         0.00000E+00
         0.00000E+00
         0.00000E+00
         0.00000E+00
         0.00000E+00
         0.00000E+00
         0.00000E+00
         0.00000E+00
         0.00000E+00
         0.00000E+00
         0.00000E+00
         0.00000E+00
         0.00000E+00
         0.00000E+00
         0.00000E+00
         0.00000E+00
         0.00000E+00
         0.00000E+00
         0.00000E+00
         0.00000E+00
         0.00000E+00
         0.00000E+00
         0.00000E+00
         0.00000E+00
         0.00000E+00
         0.00000E+00
         0.00000E+00
         0.00000E+00
         0.00000E+00
         0.00000E+00
         0.00000E+00
         0.00000E+00
         0.00000E+00
         0.00000E+00
         0.00000E+00
         0.00000E+00
         0.00000E+00
         0.00000E+00
         0.00000E+00
         0.00000E+00
         0.00000E+00
         0.00000E+00
         0.00000E+00
         0.00000E+00
         0.00000E+00
         0.00000E+00
         0.00000E+00
         0.00000E+00
         0.00000E+00
         0.00000E+00
         0.00000E+00
         0.00000E+00
         0.00000E+00
         0.00000E+00
         0.00000E+00
         0.00000E+00
         0.00000E+00
         0.00000E+00
         0.00000E+00
         0.00000E+00
         0.00000E+00
         0.00000E+00
         0.00000E+00
         0.00000E+00
         0.00000E+00
         0.00000E+00
         0.00000E+00
         0.00000E+00
         0.00000E+00
         0.00000E+00
         0.00000E+00
         0.00000E+00
         0.00000E+00
         0.00000E+00
         0.00000E+00
         0.00000E+00
         0.00000E+00
         0.00000E+00
         0.00000E+00
         0.00000E+00
  
SCALARS                   max_wave_vel  double 1
LOOKUP_TABLE default
         0.00000E+00
         0.00000E+00
         0.00000E+00
         0.00000E+00
         0.00000E+00
         0.00000E+00
         0.00000E+00
         0.00000E+00
         0.00000E+00
         0.00000E+00
         0.00000E+00
         0.00000E+00
         0.00000E+00
         0.00000E+00
         0.00000E+00
         0.00000E+00
         0.00000E+00
         0.00000E+00
         0.00000E+00
         0.00000E+00
         0.00000E+00
         0.00000E+00
         0.00000E+00
         0.00000E+00
         0.00000E+00
         0.00000E+00
         0.00000E+00
         0.00000E+00
         0.00000E+00
         0.00000E+00
         0.00000E+00
         0.00000E+00
         0.00000E+00
         0.00000E+00
         0.00000E+00
         0.00000E+00
         0.00000E+00
         0.00000E+00
         0.00000E+00
         0.00000E+00
         0.00000E+00
         0.00000E+00
         0.00000E+00
         0.00000E+00
         0.00000E+00
         0.00000E+00
         0.00000E+00
         0.00000E+00
         0.00000E+00
         0.00000E+00
         0.00000E+00
         0.00000E+00
         0.00000E+00
         0.00000E+00
         0.00000E+00
         0.00000E+00
         0.00000E+00
         0.00000E+00
         0.00000E+00
         0.00000E+00
         0.00000E+00
         0.00000E+00
         0.00000E+00
         0.00000E+00
         0.00000E+00
         0.00000E+00
         0.00000E+00
         0.00000E+00
         0.00000E+00
         0.00000E+00
         0.00000E+00
         0.00000E+00
         0.00000E+00
         0.00000E+00
         0.00000E+00
         0.00000E+00
         0.00000E+00
         0.00000E+00
         0.00000E+00
         0.00000E+00
         0.00000E+00
         0.00000E+00
         0.00000E+00
         0.00000E+00
         0.00000E+00
         0.00000E+00
         0.00000E+00
         0.00000E+00
         0.00000E+00
         0.00000E+00
         0.00000E+00
         0.00000E+00
         0.00000E+00
         0.00000E+00
         0.00000E+00
         0.00000E+00
         0.00000E+00
         0.00000E+00
         0.00000E+00
         0.00000E+00
         0.00000E+00
         0.00000E+00
         0.00000E+00
         0.00000E+00
         0.00000E+00
         0.00000E+00
         0.00000E+00
         0.00000E+00
         0.00000E+00
         0.00000E+00
         0.00000E+00
         0.00000E+00
         0.00000E+00
         0.00000E+00
         0.00000E+00
         0.00000E+00
         0.00000E+00
         0.00000E+00
         0.00000E+00
         0.00000E+00
         0.00000E+00
         0.00000E+00
         0.00000E+00
         0.00000E+00
         0.00000E+00
         0.00000E+00
         0.00000E+00
         0.00000E+00
         0.00000E+00
         0.00000E+00
         0.00000E+00
         0.00000E+00
         0.00000E+00
         0.00000E+00
         0.00000E+00
         0.00000E+00
         0.00000E+00
         0.00000E+00
         0.00000E+00
         0.00000E+00
         0.00000E+00
         0.00000E+00
         0.00000E+00
         0.00000E+00
         0.00000E+00
         0.00000E+00
         0.00000E+00
         0.00000E+00
         0.00000E+00
         0.00000E+00
         0.00000E+00
         0.00000E+00
         0.00000E+00
         0.00000E+00
         0.00000E+00
         0.00000E+00
         0.00000E+00
         0.00000E+00
         0.00000E+00
         0.00000E+00
         0.00000E+00
         0.00000E+00
         0.00000E+00
         0.00000E+00
         0.00000E+00
         0.00000E+00
         0.00000E+00
         0.00000E+00
         0.00000E+00
         0.00000E+00
         0.00000E+00
         0.00000E+00
         0.00000E+00
         0.00000E+00
         0.00000E+00
         0.00000E+00
         0.00000E+00
         0.00000E+00
         0.00000E+00
         0.00000E+00
         0.00000E+00
         0.00000E+00
         0.00000E+00
         0.00000E+00
         0.00000E+00
         0.00000E+00
         0.00000E+00
         0.00000E+00
         0.00000E+00
         0.00000E+00
         0.00000E+00
         0.00000E+00
         0.00000E+00
         0.00000E+00
         0.00000E+00
         0.00000E+00
         0.00000E+00
         0.00000E+00
         0.00000E+00
         0.00000E+00
         0.00000E+00
         0.00000E+00
         0.00000E+00
         0.00000E+00
         0.00000E+00
         0.00000E+00
         0.00000E+00
         0.00000E+00
         0.00000E+00
         0.00000E+00
         0.00000E+00
         0.00000E+00
         0.00000E+00
         0.00000E+00
         0.00000E+00
         0.00000E+00
         0.00000E+00
         0.00000E+00
         0.00000E+00
         0.00000E+00
         0.00000E+00
         0.00000E+00
         0.00000E+00
         0.00000E+00
         0.00000E+00
         0.00000E+00
         0.00000E+00
         0.00000E+00
         0.00000E+00
         0.00000E+00
         0.00000E+00
         0.00000E+00
         0.00000E+00
         0.00000E+00
         0.00000E+00
         0.00000E+00
         0.00000E+00
         0.00000E+00
         0.00000E+00
         0.00000E+00
         0.00000E+00
         0.00000E+00
         0.00000E+00
         0.00000E+00
         0.00000E+00
         0.00000E+00
         0.00000E+00
         0.00000E+00
         0.00000E+00
         0.00000E+00
         0.00000E+00
         0.00000E+00
         0.00000E+00
         0.00000E+00
         0.00000E+00
         0.00000E+00
         0.00000E+00
         0.00000E+00
         0.00000E+00
         0.00000E+00
         0.00000E+00
         0.00000E+00
         0.00000E+00
         0.00000E+00
         0.00000E+00
         0.00000E+00
         0.00000E+00
         0.00000E+00
         0.00000E+00
         0.00000E+00
         0.00000E+00
         0.00000E+00
         0.00000E+00
         0.00000E+00
         0.00000E+00
         0.00000E+00
         0.00000E+00
         0.00000E+00
         0.00000E+00
         0.00000E+00
         0.00000E+00
         0.00000E+00
         0.00000E+00
         0.00000E+00
         0.00000E+00
         0.00000E+00
         0.00000E+00
         0.00000E+00
         0.00000E+00
         0.00000E+00
         0.00000E+00
         0.00000E+00
         0.00000E+00
         0.00000E+00
         0.00000E+00
         0.00000E+00
         0.00000E+00
         0.00000E+00
         0.00000E+00
         0.00000E+00
         0.00000E+00
         0.00000E+00
         0.00000E+00
         0.00000E+00
         0.00000E+00
         0.00000E+00
         0.00000E+00
         0.00000E+00
         0.00000E+00
         0.00000E+00
         0.00000E+00
         0.00000E+00
         0.00000E+00
         0.00000E+00
         0.00000E+00
         0.00000E+00
         0.00000E+00
         0.00000E+00
         0.00000E+00
         0.00000E+00
         0.00000E+00
         0.00000E+00
         0.00000E+00
         0.00000E+00
         0.00000E+00
         0.00000E+00
         0.00000E+00
         0.00000E+00
         0.00000E+00
         0.00000E+00
         0.00000E+00
         0.00000E+00
         0.00000E+00
         0.00000E+00
         0.00000E+00
         0.00000E+00
         0.00000E+00
         0.00000E+00
         0.00000E+00
         0.00000E+00
         0.00000E+00
         0.00000E+00
         0.00000E+00
         0.00000E+00
         0.00000E+00
         0.00000E+00
         0.00000E+00
         0.00000E+00
         0.00000E+00
         0.00000E+00
         0.00000E+00
         0.00000E+00
         0.00000E+00
         0.00000E+00
         0.00000E+00
         0.00000E+00
         0.00000E+00
         0.00000E+00
         0.00000E+00
         0.00000E+00
         0.00000E+00
         0.00000E+00
         0.00000E+00
         0.00000E+00
         0.00000E+00
         0.00000E+00
         0.00000E+00
         0.00000E+00
         0.00000E+00
         0.00000E+00
         0.00000E+00
         0.00000E+00
         0.00000E+00
         0.00000E+00
         0.00000E+00
         0.00000E+00
         0.00000E+00
         0.00000E+00
         0.00000E+00
         0.00000E+00
         0.00000E+00
         0.00000E+00
         0.00000E+00
         0.00000E+00
         0.00000E+00
         0.00000E+00
         0.00000E+00
         0.00000E+00
         0.00000E+00
         0.00000E+00
         0.00000E+00
         0.00000E+00
         0.00000E+00
         0.00000E+00
         0.00000E+00
         0.00000E+00
         0.00000E+00
         0.00000E+00
         0.00000E+00
         0.00000E+00
         0.00000E+00
         0.00000E+00
         0.00000E+00
         0.00000E+00
         0.00000E+00
         0.00000E+00
         0.00000E+00
         0.00000E+00
         0.00000E+00
         0.00000E+00
         0.00000E+00
         0.00000E+00
         0.00000E+00
         0.00000E+00
         0.00000E+00
         0.00000E+00
         0.00000E+00
         0.00000E+00
         0.00000E+00
         0.00000E+00
         0.00000E+00
         0.00000E+00
         0.00000E+00
         0.00000E+00
         0.00000E+00
         0.00000E+00
         0.00000E+00
         0.00000E+00
         0.00000E+00
         0.00000E+00
         0.00000E+00
         0.00000E+00
         0.00000E+00
         0.00000E+00
         0.00000E+00
         0.00000E+00
         0.00000E+00
         0.00000E+00
         0.00000E+00
         0.00000E+00
         0.00000E+00
         0.00000E+00
         0.00000E+00
         0.00000E+00
         0.00000E+00
         0.00000E+00
         0.00000E+00
         0.00000E+00
         0.00000E+00
         0.00000E+00
         0.00000E+00
         0.00000E+00
         0.00000E+00
         0.00000E+00
         0.00000E+00
         0.00000E+00
         0.00000E+00
         0.00000E+00
         0.00000E+00
         0.00000E+00
         0.00000E+00
         0.00000E+00
         0.00000E+00
         0.00000E+00
         0.00000E+00
         0.00000E+00
         0.00000E+00
         0.00000E+00
         0.00000E+00
         0.00000E+00
         0.00000E+00
         0.00000E+00
         0.00000E+00
         0.00000E+00
         0.00000E+00
         0.00000E+00
         0.00000E+00
         0.00000E+00
         0.00000E+00
         0.00000E+00
         0.00000E+00
         0.00000E+00
         0.00000E+00
         0.00000E+00
         0.00000E+00
         0.00000E+00
         0.00000E+00
         0.00000E+00
         0.00000E+00
         0.00000E+00
         0.00000E+00
         0.00000E+00
         0.00000E+00
         0.00000E+00
         0.00000E+00
         0.00000E+00
         0.00000E+00
         0.00000E+00
         0.00000E+00
         0.00000E+00
         0.00000E+00
         0.00000E+00
         0.00000E+00
         0.00000E+00
         0.00000E+00
         0.00000E+00
         0.00000E+00
         0.00000E+00
         0.00000E+00
         0.00000E+00
         0.00000E+00
         0.00000E+00
         0.00000E+00
         0.00000E+00
         0.00000E+00
         0.00000E+00
         0.00000E+00
         0.00000E+00
         0.00000E+00
         0.00000E+00
         0.00000E+00
         0.00000E+00
         0.00000E+00
         0.00000E+00
         0.00000E+00
         0.00000E+00
         0.00000E+00
         0.00000E+00
         0.00000E+00
         0.00000E+00
         0.00000E+00
         0.00000E+00
         0.00000E+00
         0.00000E+00
         0.00000E+00
         0.00000E+00
         0.00000E+00
         0.00000E+00
         0.00000E+00
         0.00000E+00
         0.00000E+00
         0.00000E+00
         0.00000E+00
         0.00000E+00
         0.00000E+00
         0.00000E+00
         0.00000E+00
         0.00000E+00
         0.00000E+00
         0.00000E+00
         0.00000E+00
         0.00000E+00
         0.00000E+00
         0.00000E+00
         0.00000E+00
         0.00000E+00
         0.00000E+00
         0.00000E+00
         0.00000E+00
         0.00000E+00
         0.00000E+00
         0.00000E+00
         0.00000E+00
         0.00000E+00
         0.00000E+00
         0.00000E+00
         0.00000E+00
         0.00000E+00
         0.00000E+00
         0.00000E+00
         0.00000E+00
         0.00000E+00
         0.00000E+00
         0.00000E+00
         0.00000E+00
         0.00000E+00
         0.00000E+00
         0.00000E+00
         0.00000E+00
         0.00000E+00
         0.00000E+00
         0.00000E+00
         0.00000E+00
         0.00000E+00
         0.00000E+00
         0.00000E+00
         0.00000E+00
         0.00000E+00
         0.00000E+00
         0.00000E+00
         0.00000E+00
         0.00000E+00
         0.00000E+00
         0.00000E+00
         0.00000E+00
         0.00000E+00
         0.00000E+00
         0.00000E+00
         0.00000E+00
         0.00000E+00
         0.00000E+00
         0.00000E+00
         0.00000E+00
         0.00000E+00
         0.00000E+00
         0.00000E+00
         0.00000E+00
         0.00000E+00
         0.00000E+00
         0.00000E+00
         0.00000E+00
         0.00000E+00
         0.00000E+00
         0.00000E+00
         0.00000E+00
         0.00000E+00
         0.00000E+00
         0.00000E+00
         0.00000E+00
         0.00000E+00
         0.00000E+00
         0.00000E+00
         0.00000E+00
         0.00000E+00
         0.00000E+00
         0.00000E+00
         0.00000E+00
         0.00000E+00
         0.00000E+00
         0.00000E+00
         0.00000E+00
         0.00000E+00
         0.00000E+00
         0.00000E+00
         0.00000E+00
         0.00000E+00
         0.00000E+00
         0.00000E+00
         0.00000E+00
         0.00000E+00
         0.00000E+00
         0.00000E+00
         0.00000E+00
         0.00000E+00
         0.00000E+00
         0.00000E+00
         0.00000E+00
         0.00000E+00
         0.00000E+00
         0.00000E+00
         0.00000E+00
         0.00000E+00
         0.00000E+00
         0.00000E+00
         0.00000E+00
         0.00000E+00
         0.00000E+00
         0.00000E+00
         0.00000E+00
         0.00000E+00
         0.00000E+00
         0.00000E+00
         0.00000E+00
         0.00000E+00
         0.00000E+00
         0.00000E+00
         0.00000E+00
         0.00000E+00
         0.00000E+00
         0.00000E+00
         0.00000E+00
         0.00000E+00
         0.00000E+00
         0.00000E+00
         0.00000E+00
         0.00000E+00
         0.00000E+00
         0.00000E+00
         0.00000E+00
         0.00000E+00
         0.00000E+00
         0.00000E+00
         0.00000E+00
         0.00000E+00
         0.00000E+00
         0.00000E+00
         0.00000E+00
         0.00000E+00
         0.00000E+00
         0.00000E+00
         0.00000E+00
         0.00000E+00
         0.00000E+00
         0.00000E+00
         0.00000E+00
         0.00000E+00
         0.00000E+00
         0.00000E+00
         0.00000E+00
         0.00000E+00
         0.00000E+00
         0.00000E+00
         0.00000E+00
         0.00000E+00
         0.00000E+00
         0.00000E+00
         0.00000E+00
         0.00000E+00
         0.00000E+00
         0.00000E+00
         0.00000E+00
         0.00000E+00
         0.00000E+00
         0.00000E+00
         0.00000E+00
         0.00000E+00
         0.00000E+00
         0.00000E+00
         0.00000E+00
         0.00000E+00
         0.00000E+00
         0.00000E+00
         0.00000E+00
         0.00000E+00
         0.00000E+00
         0.00000E+00
         0.00000E+00
         0.00000E+00
         0.00000E+00
         0.00000E+00
         0.00000E+00
         0.00000E+00
         0.00000E+00
         0.00000E+00
         0.00000E+00
         0.00000E+00
         0.00000E+00
         0.00000E+00
         0.00000E+00
         0.00000E+00
         0.00000E+00
         0.00000E+00
         0.00000E+00
         0.00000E+00
         0.00000E+00
         0.00000E+00
         0.00000E+00
         0.00000E+00
         0.00000E+00
         0.00000E+00
         0.00000E+00
         0.00000E+00
         0.00000E+00
         0.00000E+00
         0.00000E+00
         0.00000E+00
         0.00000E+00
         0.00000E+00
         0.00000E+00
         0.00000E+00
         0.00000E+00
         0.00000E+00
         0.00000E+00
         0.00000E+00
         0.00000E+00
         0.00000E+00
         0.00000E+00
         0.00000E+00
         0.00000E+00
         0.00000E+00
         0.00000E+00
         0.00000E+00
         0.00000E+00
         0.00000E+00
         0.00000E+00
         0.00000E+00
         0.00000E+00
         0.00000E+00
         0.00000E+00
         0.00000E+00
         0.00000E+00
         0.00000E+00
         0.00000E+00
         0.00000E+00
         0.00000E+00
         0.00000E+00
         0.00000E+00
         0.00000E+00
         0.00000E+00
         0.00000E+00
         0.00000E+00
         0.00000E+00
         0.00000E+00
         0.00000E+00
         0.00000E+00
         0.00000E+00
         0.00000E+00
         0.00000E+00
         0.00000E+00
         0.00000E+00
         0.00000E+00
         0.00000E+00
         0.00000E+00
         0.00000E+00
         0.00000E+00
         0.00000E+00
         0.00000E+00
         0.00000E+00
         0.00000E+00
         0.00000E+00
         0.00000E+00
         0.00000E+00
         0.00000E+00
         0.00000E+00
         0.00000E+00
         0.00000E+00
         0.00000E+00
         0.00000E+00
         0.00000E+00
         0.00000E+00
         0.00000E+00
         0.00000E+00
         0.00000E+00
         0.00000E+00
         0.00000E+00
         0.00000E+00
         0.00000E+00
         0.00000E+00
         0.00000E+00
         0.00000E+00
         0.00000E+00
         0.00000E+00
         0.00000E+00
         0.00000E+00
         0.00000E+00
         0.00000E+00
         0.00000E+00
         0.00000E+00
         0.00000E+00
         0.00000E+00
         0.00000E+00
         0.00000E+00
         0.00000E+00
         0.00000E+00
         0.00000E+00
         0.00000E+00
         0.00000E+00
         0.00000E+00
         0.00000E+00
         0.00000E+00
         0.00000E+00
         0.00000E+00
         0.00000E+00
         0.00000E+00
         0.00000E+00
         0.00000E+00
         0.00000E+00
         0.00000E+00
         0.00000E+00
         0.00000E+00
         0.00000E+00
         0.00000E+00
         0.00000E+00
         0.00000E+00
         0.00000E+00
         0.00000E+00
         0.00000E+00
         0.00000E+00
         0.00000E+00
         0.00000E+00
         0.00000E+00
         0.00000E+00
         0.00000E+00
         0.00000E+00
         0.00000E+00
         0.00000E+00
         0.00000E+00
         0.00000E+00
         0.00000E+00
         0.00000E+00
         0.00000E+00
         0.00000E+00
         0.00000E+00
         0.00000E+00
         0.00000E+00
         0.00000E+00
         0.00000E+00
         0.00000E+00
         0.00000E+00
         0.00000E+00
         0.00000E+00
         0.00000E+00
         0.00000E+00
         0.00000E+00
         0.00000E+00
         0.00000E+00
         0.00000E+00
         0.00000E+00
         0.00000E+00
         0.00000E+00
         0.00000E+00
         0.00000E+00
         0.00000E+00
         0.00000E+00
         0.00000E+00
         0.00000E+00
         0.00000E+00
         0.00000E+00
         0.00000E+00
         0.00000E+00
         0.00000E+00
         0.00000E+00
         0.00000E+00
         0.00000E+00
         0.00000E+00
         0.00000E+00
         0.00000E+00
         0.00000E+00
         0.00000E+00
         0.00000E+00
         0.00000E+00
         0.00000E+00
         0.00000E+00
         0.00000E+00
         0.00000E+00
         0.00000E+00
         0.00000E+00
         0.00000E+00
         0.00000E+00
         0.00000E+00
         0.00000E+00
         0.00000E+00
         0.00000E+00
         0.00000E+00
         0.00000E+00
         0.00000E+00
         0.00000E+00
         0.00000E+00
         0.00000E+00
         0.00000E+00
         0.00000E+00
         0.00000E+00
         0.00000E+00
         0.00000E+00
         0.00000E+00
         0.00000E+00
         0.00000E+00
         0.00000E+00
         0.00000E+00
         0.00000E+00
         0.00000E+00
         0.00000E+00
         0.00000E+00
         0.00000E+00
         0.00000E+00
         0.00000E+00
         0.00000E+00
         0.00000E+00
         0.00000E+00
         0.00000E+00
         0.00000E+00
         0.00000E+00
         0.00000E+00
         0.00000E+00
         0.00000E+00
         0.00000E+00
         0.00000E+00
         0.00000E+00
         0.00000E+00
         0.00000E+00
         0.00000E+00
         0.00000E+00
         0.00000E+00
         0.00000E+00
         0.00000E+00
         0.00000E+00
         0.00000E+00
         0.00000E+00
         0.00000E+00
         0.00000E+00
         0.00000E+00
         0.00000E+00
         0.00000E+00
         0.00000E+00
         0.00000E+00
         0.00000E+00
         0.00000E+00
         0.00000E+00
         0.00000E+00
         0.00000E+00
         0.00000E+00
         0.00000E+00
         0.00000E+00
         0.00000E+00
         0.00000E+00
         0.00000E+00
         0.00000E+00
         0.00000E+00
         0.00000E+00
         0.00000E+00
         0.00000E+00
         0.00000E+00
         0.00000E+00
         0.00000E+00
         0.00000E+00
         0.00000E+00
         0.00000E+00
         0.00000E+00
         0.00000E+00
         0.00000E+00
         0.00000E+00
         0.00000E+00
         0.00000E+00
         0.00000E+00
         0.00000E+00
         0.00000E+00
         0.00000E+00
         0.00000E+00
         0.00000E+00
         0.00000E+00
         0.00000E+00
         0.00000E+00
         0.00000E+00
         0.00000E+00
         0.00000E+00
         0.00000E+00
         0.00000E+00
         0.00000E+00
         0.00000E+00
         0.00000E+00
         0.00000E+00
         0.00000E+00
         0.00000E+00
         0.00000E+00
         0.00000E+00
         0.00000E+00
         0.00000E+00
         0.00000E+00
         0.00000E+00
         0.00000E+00
         0.00000E+00
         0.00000E+00
         0.00000E+00
         0.00000E+00
         0.00000E+00
         0.00000E+00
         0.00000E+00
         0.00000E+00
         0.00000E+00
         0.00000E+00
         0.00000E+00
         0.00000E+00
         0.00000E+00
         0.00000E+00
         0.00000E+00
         0.00000E+00
         0.00000E+00
         0.00000E+00
         0.00000E+00
         0.00000E+00
         0.00000E+00
         0.00000E+00
         0.00000E+00
         0.00000E+00
         0.00000E+00
         0.00000E+00
         0.00000E+00
         0.00000E+00
         0.00000E+00
         0.00000E+00
         0.00000E+00
         0.00000E+00
         0.00000E+00
         0.00000E+00
         0.00000E+00
         0.00000E+00
         0.00000E+00
         0.00000E+00
         0.00000E+00
         0.00000E+00
         0.00000E+00
         0.00000E+00
         0.00000E+00
         0.00000E+00
         0.00000E+00
         0.00000E+00
         0.00000E+00
         0.00000E+00
         0.00000E+00
         0.00000E+00
         0.00000E+00
         0.00000E+00
         0.00000E+00
         0.00000E+00
         0.00000E+00
         0.00000E+00
         0.00000E+00
         0.00000E+00
         0.00000E+00
         0.00000E+00
         0.00000E+00
         0.00000E+00
         0.00000E+00
         0.00000E+00
         0.00000E+00
         0.00000E+00
         0.00000E+00
         0.00000E+00
         0.00000E+00
         0.00000E+00
         0.00000E+00
         0.00000E+00
         0.00000E+00
         0.00000E+00
         0.00000E+00
         0.00000E+00
         0.00000E+00
         0.00000E+00
         0.00000E+00
         0.00000E+00
         0.00000E+00
         0.00000E+00
         0.00000E+00
         0.00000E+00
         0.00000E+00
         0.00000E+00
         0.00000E+00
         0.00000E+00
         0.00000E+00
         0.00000E+00
         0.00000E+00
         0.00000E+00
         0.00000E+00
         0.00000E+00
         0.00000E+00
         0.00000E+00
         0.00000E+00
         0.00000E+00
         0.00000E+00
         0.00000E+00
         0.00000E+00
         0.00000E+00
         0.00000E+00
         0.00000E+00
         0.00000E+00
         0.00000E+00
         0.00000E+00
         0.00000E+00
         0.00000E+00
         0.00000E+00
         0.00000E+00
         0.00000E+00
         0.00000E+00
         0.00000E+00
         0.00000E+00
         0.00000E+00
         0.00000E+00
         0.00000E+00
         0.00000E+00
         0.00000E+00
         0.00000E+00
         0.00000E+00
         0.00000E+00
         0.00000E+00
         0.00000E+00
         0.00000E+00
         0.00000E+00
         0.00000E+00
         0.00000E+00
         0.00000E+00
         0.00000E+00
         0.00000E+00
         0.00000E+00
         0.00000E+00
         0.00000E+00
         0.00000E+00
         0.00000E+00
         0.00000E+00
         0.00000E+00
         0.00000E+00
         0.00000E+00
         0.00000E+00
         0.00000E+00
         0.00000E+00
         0.00000E+00
         0.00000E+00
         0.00000E+00
         0.00000E+00
         0.00000E+00
         0.00000E+00
         0.00000E+00
         0.00000E+00
         0.00000E+00
         0.00000E+00
         0.00000E+00
         0.00000E+00
         0.00000E+00
         0.00000E+00
         0.00000E+00
         0.00000E+00
         0.00000E+00
         0.00000E+00
         0.00000E+00
         0.00000E+00
         0.00000E+00
         0.00000E+00
         0.00000E+00
         0.00000E+00
         0.00000E+00
         0.00000E+00
         0.00000E+00
         0.00000E+00
         0.00000E+00
         0.00000E+00
         0.00000E+00
         0.00000E+00
         0.00000E+00
         0.00000E+00
         0.00000E+00
         0.00000E+00
         0.00000E+00
         0.00000E+00
         0.00000E+00
         0.00000E+00
         0.00000E+00
         0.00000E+00
         0.00000E+00
         0.00000E+00
         0.00000E+00
         0.00000E+00
         0.00000E+00
         0.00000E+00
         0.00000E+00
         0.00000E+00
         0.00000E+00
         0.00000E+00
         0.00000E+00
         0.00000E+00
         0.00000E+00
         0.00000E+00
         0.00000E+00
         0.00000E+00
         0.00000E+00
         0.00000E+00
         0.00000E+00
         0.00000E+00
         0.00000E+00
         0.00000E+00
         0.00000E+00
         0.00000E+00
         0.00000E+00
         0.00000E+00
         0.00000E+00
         0.00000E+00
         0.00000E+00
         0.00000E+00
         0.00000E+00
         0.00000E+00
         0.00000E+00
         0.00000E+00
         0.00000E+00
         0.00000E+00
         0.00000E+00
         0.00000E+00
         0.00000E+00
         0.00000E+00
         0.00000E+00
         0.00000E+00
         0.00000E+00
         0.00000E+00
         0.00000E+00
         0.00000E+00
         0.00000E+00
         0.00000E+00
         0.00000E+00
         0.00000E+00
         0.00000E+00
         0.00000E+00
         0.00000E+00
         0.00000E+00
         0.00000E+00
         0.00000E+00
         0.00000E+00
         0.00000E+00
         0.00000E+00
         0.00000E+00
         0.00000E+00
         0.00000E+00
         0.00000E+00
         0.00000E+00
         0.00000E+00
         0.00000E+00
         0.00000E+00
         0.00000E+00
         0.00000E+00
         0.00000E+00
         0.00000E+00
         0.00000E+00
         0.00000E+00
         0.00000E+00
         0.00000E+00
         0.00000E+00
         0.00000E+00
         0.00000E+00
         0.00000E+00
         0.00000E+00
         0.00000E+00
         0.00000E+00
         0.00000E+00
         0.00000E+00
         0.00000E+00
         0.00000E+00
         0.00000E+00
         0.00000E+00
         0.00000E+00
         0.00000E+00
         0.00000E+00
         0.00000E+00
         0.00000E+00
         0.00000E+00
         0.00000E+00
         0.00000E+00
         0.00000E+00
         0.00000E+00
         0.00000E+00
         0.00000E+00
         0.00000E+00
         0.00000E+00
         0.00000E+00
         0.00000E+00
         0.00000E+00
         0.00000E+00
         0.00000E+00
         0.00000E+00
         0.00000E+00
         0.00000E+00
         0.00000E+00
         0.00000E+00
         0.00000E+00
         0.00000E+00
         0.00000E+00
         0.00000E+00
         0.00000E+00
         0.00000E+00
         0.00000E+00
         0.00000E+00
         0.00000E+00
         0.00000E+00
         0.00000E+00
         0.00000E+00
         0.00000E+00
         0.00000E+00
         0.00000E+00
         0.00000E+00
         0.00000E+00
         0.00000E+00
         0.00000E+00
         0.00000E+00
         0.00000E+00
         0.00000E+00
         0.00000E+00
         0.00000E+00
         0.00000E+00
         0.00000E+00
         0.00000E+00
         0.00000E+00
         0.00000E+00
         0.00000E+00
         0.00000E+00
         0.00000E+00
         0.00000E+00
         0.00000E+00
         0.00000E+00
         0.00000E+00
         0.00000E+00
         0.00000E+00
         0.00000E+00
         0.00000E+00
         0.00000E+00
         0.00000E+00
         0.00000E+00
         0.00000E+00
         0.00000E+00
         0.00000E+00
         0.00000E+00
         0.00000E+00
         0.00000E+00
         0.00000E+00
         0.00000E+00
         0.00000E+00
         0.00000E+00
         0.00000E+00
         0.00000E+00
         0.00000E+00
         0.00000E+00
         0.00000E+00
         0.00000E+00
         0.00000E+00
         0.00000E+00
         0.00000E+00
         0.00000E+00
         0.00000E+00
         0.00000E+00
         0.00000E+00
         0.00000E+00
         0.00000E+00
         0.00000E+00
         0.00000E+00
         0.00000E+00
         0.00000E+00
         0.00000E+00
         0.00000E+00
         0.00000E+00
         0.00000E+00
         0.00000E+00
         0.00000E+00
         0.00000E+00
         0.00000E+00
         0.00000E+00
         0.00000E+00
         0.00000E+00
         0.00000E+00
         0.00000E+00
         0.00000E+00
         0.00000E+00
         0.00000E+00
         0.00000E+00
         0.00000E+00
         0.00000E+00
         0.00000E+00
         0.00000E+00
         0.00000E+00
         0.00000E+00
         0.00000E+00
         0.00000E+00
         0.00000E+00
         0.00000E+00
         0.00000E+00
         0.00000E+00
         0.00000E+00
         0.00000E+00
         0.00000E+00
         0.00000E+00
         0.00000E+00
         0.00000E+00
         0.00000E+00
         0.00000E+00
         0.00000E+00
         0.00000E+00
         0.00000E+00
         0.00000E+00
         0.00000E+00
         0.00000E+00
         0.00000E+00
         0.00000E+00
         0.00000E+00
         0.00000E+00
         0.00000E+00
         0.00000E+00
         0.00000E+00
         0.00000E+00
         0.00000E+00
         0.00000E+00
         0.00000E+00
         0.00000E+00
         0.00000E+00
         0.00000E+00
         0.00000E+00
         0.00000E+00
         0.00000E+00
         0.00000E+00
         0.00000E+00
         0.00000E+00
         0.00000E+00
         0.00000E+00
         0.00000E+00
         0.00000E+00
         0.00000E+00
         0.00000E+00
         0.00000E+00
         0.00000E+00
         0.00000E+00
         0.00000E+00
         0.00000E+00
         0.00000E+00
         0.00000E+00
         0.00000E+00
         0.00000E+00
         0.00000E+00
         0.00000E+00
         0.00000E+00
         0.00000E+00
         0.00000E+00
         0.00000E+00
         0.00000E+00
         0.00000E+00
         0.00000E+00
         0.00000E+00
         0.00000E+00
         0.00000E+00
         0.00000E+00
         0.00000E+00
         0.00000E+00
         0.00000E+00
         0.00000E+00
         0.00000E+00
         0.00000E+00
         0.00000E+00
         0.00000E+00
         0.00000E+00
         0.00000E+00
         0.00000E+00
         0.00000E+00
         0.00000E+00
         0.00000E+00
         0.00000E+00
         0.00000E+00
         0.00000E+00
         0.00000E+00
         0.00000E+00
         0.00000E+00
         0.00000E+00
         0.00000E+00
         0.00000E+00
         0.00000E+00
         0.00000E+00
         0.00000E+00
         0.00000E+00
         0.00000E+00
         0.00000E+00
         0.00000E+00
         0.00000E+00
         0.00000E+00
         0.00000E+00
         0.00000E+00
         0.00000E+00
         0.00000E+00
         0.00000E+00
         0.00000E+00
         0.00000E+00
         0.00000E+00
         0.00000E+00
         0.00000E+00
         0.00000E+00
         0.00000E+00
         0.00000E+00
         0.00000E+00
         0.00000E+00
         0.00000E+00
         0.00000E+00
         0.00000E+00
         0.00000E+00
         0.00000E+00
         0.00000E+00
         0.00000E+00
         0.00000E+00
         0.00000E+00
         0.00000E+00
         0.00000E+00
         0.00000E+00
         0.00000E+00
         0.00000E+00
         0.00000E+00
         0.00000E+00
         0.00000E+00
         0.00000E+00
         0.00000E+00
         0.00000E+00
         0.00000E+00
         0.00000E+00
         0.00000E+00
         0.00000E+00
         0.00000E+00
         0.00000E+00
         0.00000E+00
         0.00000E+00
         0.00000E+00
         0.00000E+00
         0.00000E+00
         0.00000E+00
         0.00000E+00
         0.00000E+00
         0.00000E+00
         0.00000E+00
         0.00000E+00
         0.00000E+00
         0.00000E+00
         0.00000E+00
         0.00000E+00
         0.00000E+00
         0.00000E+00
         0.00000E+00
         0.00000E+00
         0.00000E+00
         0.00000E+00
         0.00000E+00
         0.00000E+00
         0.00000E+00
         0.00000E+00
         0.00000E+00
         0.00000E+00
         0.00000E+00
         0.00000E+00
         0.00000E+00
         0.00000E+00
         0.00000E+00
         0.00000E+00
         0.00000E+00
         0.00000E+00
         0.00000E+00
         0.00000E+00
         0.00000E+00
         0.00000E+00
         0.00000E+00
         0.00000E+00
         0.00000E+00
         0.00000E+00
         0.00000E+00
         0.00000E+00
         0.00000E+00
         0.00000E+00
         0.00000E+00
         0.00000E+00
         0.00000E+00
         0.00000E+00
         0.00000E+00
         0.00000E+00
         0.00000E+00
         0.00000E+00
         0.00000E+00
         0.00000E+00
         0.00000E+00
         0.00000E+00
         0.00000E+00
         0.00000E+00
         0.00000E+00
         0.00000E+00
         0.00000E+00
         0.00000E+00
         0.00000E+00
         0.00000E+00
         0.00000E+00
         0.00000E+00
         0.00000E+00
         0.00000E+00
         0.00000E+00
         0.00000E+00
         0.00000E+00
         0.00000E+00
         0.00000E+00
         0.00000E+00
         0.00000E+00
         0.00000E+00
         0.00000E+00
         0.00000E+00
         0.00000E+00
         0.00000E+00
         0.00000E+00
         0.00000E+00
         0.00000E+00
         0.00000E+00
         0.00000E+00
         0.00000E+00
         0.00000E+00
         0.00000E+00
         0.00000E+00
         0.00000E+00
         0.00000E+00
         0.00000E+00
         0.00000E+00
         0.00000E+00
         0.00000E+00
         0.00000E+00
         0.00000E+00
         0.00000E+00
         0.00000E+00
         0.00000E+00
         0.00000E+00
         0.00000E+00
         0.00000E+00
         0.00000E+00
         0.00000E+00
         0.00000E+00
         0.00000E+00
         0.00000E+00
         0.00000E+00
         0.00000E+00
         0.00000E+00
         0.00000E+00
         0.00000E+00
         0.00000E+00
         0.00000E+00
         0.00000E+00
         0.00000E+00
         0.00000E+00
         0.00000E+00
         0.00000E+00
         0.00000E+00
         0.00000E+00
         0.00000E+00
         0.00000E+00
         0.00000E+00
         0.00000E+00
         0.00000E+00
         0.00000E+00
         0.00000E+00
         0.00000E+00
         0.00000E+00
         0.00000E+00
         0.00000E+00
         0.00000E+00
         0.00000E+00
         0.00000E+00
         0.00000E+00
         0.00000E+00
         0.00000E+00
         0.00000E+00
         0.00000E+00
         0.00000E+00
         0.00000E+00
         0.00000E+00
         0.00000E+00
         0.00000E+00
         0.00000E+00
         0.00000E+00
         0.00000E+00
         0.00000E+00
         0.00000E+00
         0.00000E+00
         0.00000E+00
         0.00000E+00
         0.00000E+00
         0.00000E+00
         0.00000E+00
         0.00000E+00
         0.00000E+00
         0.00000E+00
         0.00000E+00
         0.00000E+00
         0.00000E+00
         0.00000E+00
         0.00000E+00
         0.00000E+00
         0.00000E+00
         0.00000E+00
         0.00000E+00
         0.00000E+00
         0.00000E+00
         0.00000E+00
         0.00000E+00
         0.00000E+00
         0.00000E+00
         0.00000E+00
         0.00000E+00
         0.00000E+00
         0.00000E+00
         0.00000E+00
         0.00000E+00
         0.00000E+00
         0.00000E+00
         0.00000E+00
         0.00000E+00
         0.00000E+00
         0.00000E+00
         0.00000E+00
         0.00000E+00
         0.00000E+00
         0.00000E+00
         0.00000E+00
         0.00000E+00
         0.00000E+00
         0.00000E+00
         0.00000E+00
         0.00000E+00
         0.00000E+00
         0.00000E+00
         0.00000E+00
         0.00000E+00
         0.00000E+00
         0.00000E+00
         0.00000E+00
         0.00000E+00
         0.00000E+00
         0.00000E+00
         0.00000E+00
         0.00000E+00
         0.00000E+00
         0.00000E+00
         0.00000E+00
         0.00000E+00
         0.00000E+00
         0.00000E+00
         0.00000E+00
         0.00000E+00
         0.00000E+00
         0.00000E+00
         0.00000E+00
         0.00000E+00
         0.00000E+00
         0.00000E+00
         0.00000E+00
         0.00000E+00
         0.00000E+00
         0.00000E+00
         0.00000E+00
         0.00000E+00
         0.00000E+00
         0.00000E+00
         0.00000E+00
         0.00000E+00
         0.00000E+00
         0.00000E+00
         0.00000E+00
         0.00000E+00
         0.00000E+00
         0.00000E+00
         0.00000E+00
         0.00000E+00
         0.00000E+00
         0.00000E+00
         0.00000E+00
         0.00000E+00
         0.00000E+00
         0.00000E+00
         0.00000E+00
         0.00000E+00
         0.00000E+00
         0.00000E+00
         0.00000E+00
         0.00000E+00
         0.00000E+00
         0.00000E+00
         0.00000E+00
         0.00000E+00
         0.00000E+00
         0.00000E+00
         0.00000E+00
         0.00000E+00
         0.00000E+00
         0.00000E+00
         0.00000E+00
         0.00000E+00
         0.00000E+00
         0.00000E+00
         0.00000E+00
         0.00000E+00
         0.00000E+00
         0.00000E+00
         0.00000E+00
         0.00000E+00
         0.00000E+00
         0.00000E+00
         0.00000E+00
         0.00000E+00
         0.00000E+00
         0.00000E+00
         0.00000E+00
         0.00000E+00
         0.00000E+00
         0.00000E+00
         0.00000E+00
         0.00000E+00
         0.00000E+00
         0.00000E+00
         0.00000E+00
         0.00000E+00
         0.00000E+00
         0.00000E+00
         0.00000E+00
         0.00000E+00
         0.00000E+00
         0.00000E+00
         0.00000E+00
         0.00000E+00
         0.00000E+00
         0.00000E+00
         0.00000E+00
         0.00000E+00
         0.00000E+00
         0.00000E+00
         0.00000E+00
         0.00000E+00
         0.00000E+00
         0.00000E+00
         0.00000E+00
         0.00000E+00
         0.00000E+00
         0.00000E+00
         0.00000E+00
         0.00000E+00
         0.00000E+00
         0.00000E+00
         0.00000E+00
         0.00000E+00
         0.00000E+00
         0.00000E+00
         0.00000E+00
         0.00000E+00
         0.00000E+00
         0.00000E+00
         0.00000E+00
         0.00000E+00
         0.00000E+00
         0.00000E+00
         0.00000E+00
         0.00000E+00
         0.00000E+00
         0.00000E+00
         0.00000E+00
         0.00000E+00
         0.00000E+00
         0.00000E+00
         0.00000E+00
         0.00000E+00
         0.00000E+00
         0.00000E+00
         0.00000E+00
         0.00000E+00
         0.00000E+00
         0.00000E+00
         0.00000E+00
         0.00000E+00
         0.00000E+00
         0.00000E+00
         0.00000E+00
         0.00000E+00
         0.00000E+00
         0.00000E+00
         0.00000E+00
         0.00000E+00
         0.00000E+00
         0.00000E+00
         0.00000E+00
         0.00000E+00
         0.00000E+00
         0.00000E+00
         0.00000E+00
         0.00000E+00
         0.00000E+00
         0.00000E+00
         0.00000E+00
         0.00000E+00
         0.00000E+00
         0.00000E+00
         0.00000E+00
         0.00000E+00
         0.00000E+00
         0.00000E+00
         0.00000E+00
         0.00000E+00
  
SCALARS                      eps_shear  double 1
LOOKUP_TABLE default
         0.00000E+00
         0.00000E+00
         0.00000E+00
         0.00000E+00
         0.00000E+00
         0.00000E+00
         0.00000E+00
         0.00000E+00
         0.00000E+00
         0.00000E+00
         0.00000E+00
         0.00000E+00
         0.00000E+00
         0.00000E+00
         0.00000E+00
         0.00000E+00
         0.00000E+00
         0.00000E+00
         0.00000E+00
         0.00000E+00
         0.00000E+00
         0.00000E+00
         0.00000E+00
         0.00000E+00
         0.00000E+00
         0.00000E+00
         0.00000E+00
         0.00000E+00
         0.00000E+00
         0.00000E+00
         0.00000E+00
         0.00000E+00
         0.00000E+00
         0.00000E+00
         0.00000E+00
         0.00000E+00
         0.00000E+00
         0.00000E+00
         0.00000E+00
         0.00000E+00
         0.00000E+00
         0.00000E+00
         0.00000E+00
         0.00000E+00
         0.00000E+00
         0.00000E+00
         0.00000E+00
         0.00000E+00
         0.00000E+00
         0.00000E+00
         0.00000E+00
         0.00000E+00
         0.00000E+00
         0.00000E+00
         0.00000E+00
         0.00000E+00
         0.00000E+00
         0.00000E+00
         0.00000E+00
         0.00000E+00
         0.00000E+00
         0.00000E+00
         0.00000E+00
         0.00000E+00
         0.00000E+00
         0.00000E+00
         0.00000E+00
         0.00000E+00
         0.00000E+00
         0.00000E+00
         0.00000E+00
         0.00000E+00
         0.00000E+00
         0.00000E+00
         0.00000E+00
         0.00000E+00
         0.00000E+00
         0.00000E+00
         0.00000E+00
         0.00000E+00
         0.00000E+00
         0.00000E+00
         0.00000E+00
         0.00000E+00
         0.00000E+00
         0.00000E+00
         0.00000E+00
         0.00000E+00
         0.00000E+00
         0.00000E+00
         0.00000E+00
         0.00000E+00
         0.00000E+00
         0.00000E+00
         0.00000E+00
         0.00000E+00
         0.00000E+00
         0.00000E+00
         0.00000E+00
         0.00000E+00
         0.00000E+00
         0.00000E+00
         0.00000E+00
         0.00000E+00
         0.00000E+00
         0.00000E+00
         0.00000E+00
         0.00000E+00
         0.00000E+00
         0.00000E+00
         0.00000E+00
         0.00000E+00
         0.00000E+00
         0.00000E+00
         0.00000E+00
         0.00000E+00
         0.00000E+00
         0.00000E+00
         0.00000E+00
         0.00000E+00
         0.00000E+00
         0.00000E+00
         0.00000E+00
         0.00000E+00
         0.00000E+00
         0.00000E+00
         0.00000E+00
         0.00000E+00
         0.00000E+00
         0.00000E+00
         0.00000E+00
         0.00000E+00
         0.00000E+00
         0.00000E+00
         0.00000E+00
         0.00000E+00
         0.00000E+00
         0.00000E+00
         0.00000E+00
         0.00000E+00
         0.00000E+00
         0.00000E+00
         0.00000E+00
         0.00000E+00
         0.00000E+00
         0.00000E+00
         0.00000E+00
         0.00000E+00
         0.00000E+00
         0.00000E+00
         0.00000E+00
         0.00000E+00
         0.00000E+00
         0.00000E+00
         0.00000E+00
         0.00000E+00
         0.00000E+00
         0.00000E+00
         0.00000E+00
         0.00000E+00
         0.00000E+00
         0.00000E+00
         0.00000E+00
         0.00000E+00
         0.00000E+00
         0.00000E+00
         0.00000E+00
         0.00000E+00
         0.00000E+00
         0.00000E+00
         0.00000E+00
         0.00000E+00
         0.00000E+00
         0.00000E+00
         0.00000E+00
         0.00000E+00
         0.00000E+00
         0.00000E+00
         0.00000E+00
         0.00000E+00
         0.00000E+00
         0.00000E+00
         0.00000E+00
         0.00000E+00
         0.00000E+00
         0.00000E+00
         0.00000E+00
         0.00000E+00
         0.00000E+00
         0.00000E+00
         0.00000E+00
         0.00000E+00
         0.00000E+00
         0.00000E+00
         0.00000E+00
         0.00000E+00
         0.00000E+00
         0.00000E+00
         0.00000E+00
         0.00000E+00
         0.00000E+00
         0.00000E+00
         0.00000E+00
         0.00000E+00
         0.00000E+00
         0.00000E+00
         0.00000E+00
         0.00000E+00
         0.00000E+00
         0.00000E+00
         0.00000E+00
         0.00000E+00
         0.00000E+00
         0.00000E+00
         0.00000E+00
         0.00000E+00
         0.00000E+00
         0.00000E+00
         0.00000E+00
         0.00000E+00
         0.00000E+00
         0.00000E+00
         0.00000E+00
         0.00000E+00
         0.00000E+00
         0.00000E+00
         0.00000E+00
         0.00000E+00
         0.00000E+00
         0.00000E+00
         0.00000E+00
         0.00000E+00
         0.00000E+00
         0.00000E+00
         0.00000E+00
         0.00000E+00
         0.00000E+00
         0.00000E+00
         0.00000E+00
         0.00000E+00
         0.00000E+00
         0.00000E+00
         0.00000E+00
         0.00000E+00
         0.00000E+00
         0.00000E+00
         0.00000E+00
         0.00000E+00
         0.00000E+00
         0.00000E+00
         0.00000E+00
         0.00000E+00
         0.00000E+00
         0.00000E+00
         0.00000E+00
         0.00000E+00
         0.00000E+00
         0.00000E+00
         0.00000E+00
         0.00000E+00
         0.00000E+00
         0.00000E+00
         0.00000E+00
         0.00000E+00
         0.00000E+00
         0.00000E+00
         0.00000E+00
         0.00000E+00
         0.00000E+00
         0.00000E+00
         0.00000E+00
         0.00000E+00
         0.00000E+00
         0.00000E+00
         0.00000E+00
         0.00000E+00
         0.00000E+00
         0.00000E+00
         0.00000E+00
         0.00000E+00
         0.00000E+00
         0.00000E+00
         0.00000E+00
         0.00000E+00
         0.00000E+00
         0.00000E+00
         0.00000E+00
         0.00000E+00
         0.00000E+00
         0.00000E+00
         0.00000E+00
         0.00000E+00
         0.00000E+00
         0.00000E+00
         0.00000E+00
         0.00000E+00
         0.00000E+00
         0.00000E+00
         0.00000E+00
         0.00000E+00
         0.00000E+00
         0.00000E+00
         0.00000E+00
         0.00000E+00
         0.00000E+00
         0.00000E+00
         0.00000E+00
         0.00000E+00
         0.00000E+00
         0.00000E+00
         0.00000E+00
         0.00000E+00
         0.00000E+00
         0.00000E+00
         0.00000E+00
         0.00000E+00
         0.00000E+00
         0.00000E+00
         0.00000E+00
         0.00000E+00
         0.00000E+00
         0.00000E+00
         0.00000E+00
         0.00000E+00
         0.00000E+00
         0.00000E+00
         0.00000E+00
         0.00000E+00
         0.00000E+00
         0.00000E+00
         0.00000E+00
         0.00000E+00
         0.00000E+00
         0.00000E+00
         0.00000E+00
         0.00000E+00
         0.00000E+00
         0.00000E+00
         0.00000E+00
         0.00000E+00
         0.00000E+00
         0.00000E+00
         0.00000E+00
         0.00000E+00
         0.00000E+00
         0.00000E+00
         0.00000E+00
         0.00000E+00
         0.00000E+00
         0.00000E+00
         0.00000E+00
         0.00000E+00
         0.00000E+00
         0.00000E+00
         0.00000E+00
         0.00000E+00
         0.00000E+00
         0.00000E+00
         0.00000E+00
         0.00000E+00
         0.00000E+00
         0.00000E+00
         0.00000E+00
         0.00000E+00
         0.00000E+00
         0.00000E+00
         0.00000E+00
         0.00000E+00
         0.00000E+00
         0.00000E+00
         0.00000E+00
         0.00000E+00
         0.00000E+00
         0.00000E+00
         0.00000E+00
         0.00000E+00
         0.00000E+00
         0.00000E+00
         0.00000E+00
         0.00000E+00
         0.00000E+00
         0.00000E+00
         0.00000E+00
         0.00000E+00
         0.00000E+00
         0.00000E+00
         0.00000E+00
         0.00000E+00
         0.00000E+00
         0.00000E+00
         0.00000E+00
         0.00000E+00
         0.00000E+00
         0.00000E+00
         0.00000E+00
         0.00000E+00
         0.00000E+00
         0.00000E+00
         0.00000E+00
         0.00000E+00
         0.00000E+00
         0.00000E+00
         0.00000E+00
         0.00000E+00
         0.00000E+00
         0.00000E+00
         0.00000E+00
         0.00000E+00
         0.00000E+00
         0.00000E+00
         0.00000E+00
         0.00000E+00
         0.00000E+00
         0.00000E+00
         0.00000E+00
         0.00000E+00
         0.00000E+00
         0.00000E+00
         0.00000E+00
         0.00000E+00
         0.00000E+00
         0.00000E+00
         0.00000E+00
         0.00000E+00
         0.00000E+00
         0.00000E+00
         0.00000E+00
         0.00000E+00
         0.00000E+00
         0.00000E+00
         0.00000E+00
         0.00000E+00
         0.00000E+00
         0.00000E+00
         0.00000E+00
         0.00000E+00
         0.00000E+00
         0.00000E+00
         0.00000E+00
         0.00000E+00
         0.00000E+00
         0.00000E+00
         0.00000E+00
         0.00000E+00
         0.00000E+00
         0.00000E+00
         0.00000E+00
         0.00000E+00
         0.00000E+00
         0.00000E+00
         0.00000E+00
         0.00000E+00
         0.00000E+00
         0.00000E+00
         0.00000E+00
         0.00000E+00
         0.00000E+00
         0.00000E+00
         0.00000E+00
         0.00000E+00
         0.00000E+00
         0.00000E+00
         0.00000E+00
         0.00000E+00
         0.00000E+00
         0.00000E+00
         0.00000E+00
         0.00000E+00
         0.00000E+00
         0.00000E+00
         0.00000E+00
         0.00000E+00
         0.00000E+00
         0.00000E+00
         0.00000E+00
         0.00000E+00
         0.00000E+00
         0.00000E+00
         0.00000E+00
         0.00000E+00
         0.00000E+00
         0.00000E+00
         0.00000E+00
         0.00000E+00
         0.00000E+00
         0.00000E+00
         0.00000E+00
         0.00000E+00
         0.00000E+00
         0.00000E+00
         0.00000E+00
         0.00000E+00
         0.00000E+00
         0.00000E+00
         0.00000E+00
         0.00000E+00
         0.00000E+00
         0.00000E+00
         0.00000E+00
         0.00000E+00
         0.00000E+00
         0.00000E+00
         0.00000E+00
         0.00000E+00
         0.00000E+00
         0.00000E+00
         0.00000E+00
         0.00000E+00
         0.00000E+00
         0.00000E+00
         0.00000E+00
         0.00000E+00
         0.00000E+00
         0.00000E+00
         0.00000E+00
         0.00000E+00
         0.00000E+00
         0.00000E+00
         0.00000E+00
         0.00000E+00
         0.00000E+00
         0.00000E+00
         0.00000E+00
         0.00000E+00
         0.00000E+00
         0.00000E+00
         0.00000E+00
         0.00000E+00
         0.00000E+00
         0.00000E+00
         0.00000E+00
         0.00000E+00
         0.00000E+00
         0.00000E+00
         0.00000E+00
         0.00000E+00
         0.00000E+00
         0.00000E+00
         0.00000E+00
         0.00000E+00
         0.00000E+00
         0.00000E+00
         0.00000E+00
         0.00000E+00
         0.00000E+00
         0.00000E+00
         0.00000E+00
         0.00000E+00
         0.00000E+00
         0.00000E+00
         0.00000E+00
         0.00000E+00
         0.00000E+00
         0.00000E+00
         0.00000E+00
         0.00000E+00
         0.00000E+00
         0.00000E+00
         0.00000E+00
         0.00000E+00
         0.00000E+00
         0.00000E+00
         0.00000E+00
         0.00000E+00
         0.00000E+00
         0.00000E+00
         0.00000E+00
         0.00000E+00
         0.00000E+00
         0.00000E+00
         0.00000E+00
         0.00000E+00
         0.00000E+00
         0.00000E+00
         0.00000E+00
         0.00000E+00
         0.00000E+00
         0.00000E+00
         0.00000E+00
         0.00000E+00
         0.00000E+00
         0.00000E+00
         0.00000E+00
         0.00000E+00
         0.00000E+00
         0.00000E+00
         0.00000E+00
         0.00000E+00
         0.00000E+00
         0.00000E+00
         0.00000E+00
         0.00000E+00
         0.00000E+00
         0.00000E+00
         0.00000E+00
         0.00000E+00
         0.00000E+00
         0.00000E+00
         0.00000E+00
         0.00000E+00
         0.00000E+00
         0.00000E+00
         0.00000E+00
         0.00000E+00
         0.00000E+00
         0.00000E+00
         0.00000E+00
         0.00000E+00
         0.00000E+00
         0.00000E+00
         0.00000E+00
         0.00000E+00
         0.00000E+00
         0.00000E+00
         0.00000E+00
         0.00000E+00
         0.00000E+00
         0.00000E+00
         0.00000E+00
         0.00000E+00
         0.00000E+00
         0.00000E+00
         0.00000E+00
         0.00000E+00
         0.00000E+00
         0.00000E+00
         0.00000E+00
         0.00000E+00
         0.00000E+00
         0.00000E+00
         0.00000E+00
         0.00000E+00
         0.00000E+00
         0.00000E+00
         0.00000E+00
         0.00000E+00
         0.00000E+00
         0.00000E+00
         0.00000E+00
         0.00000E+00
         0.00000E+00
         0.00000E+00
         0.00000E+00
         0.00000E+00
         0.00000E+00
         0.00000E+00
         0.00000E+00
         0.00000E+00
         0.00000E+00
         0.00000E+00
         0.00000E+00
         0.00000E+00
         0.00000E+00
         0.00000E+00
         0.00000E+00
         0.00000E+00
         0.00000E+00
         0.00000E+00
         0.00000E+00
         0.00000E+00
         0.00000E+00
         0.00000E+00
         0.00000E+00
         0.00000E+00
         0.00000E+00
         0.00000E+00
         0.00000E+00
         0.00000E+00
         0.00000E+00
         0.00000E+00
         0.00000E+00
         0.00000E+00
         0.00000E+00
         0.00000E+00
         0.00000E+00
         0.00000E+00
         0.00000E+00
         0.00000E+00
         0.00000E+00
         0.00000E+00
         0.00000E+00
         0.00000E+00
         0.00000E+00
         0.00000E+00
         0.00000E+00
         0.00000E+00
         0.00000E+00
         0.00000E+00
         0.00000E+00
         0.00000E+00
         0.00000E+00
         0.00000E+00
         0.00000E+00
         0.00000E+00
         0.00000E+00
         0.00000E+00
         0.00000E+00
         0.00000E+00
         0.00000E+00
         0.00000E+00
         0.00000E+00
         0.00000E+00
         0.00000E+00
         0.00000E+00
         0.00000E+00
         0.00000E+00
         0.00000E+00
         0.00000E+00
         0.00000E+00
         0.00000E+00
         0.00000E+00
         0.00000E+00
         0.00000E+00
         0.00000E+00
         0.00000E+00
         0.00000E+00
         0.00000E+00
         0.00000E+00
         0.00000E+00
         0.00000E+00
         0.00000E+00
         0.00000E+00
         0.00000E+00
         0.00000E+00
         0.00000E+00
         0.00000E+00
         0.00000E+00
         0.00000E+00
         0.00000E+00
         0.00000E+00
         0.00000E+00
         0.00000E+00
         0.00000E+00
         0.00000E+00
         0.00000E+00
         0.00000E+00
         0.00000E+00
         0.00000E+00
         0.00000E+00
         0.00000E+00
         0.00000E+00
         0.00000E+00
         0.00000E+00
         0.00000E+00
         0.00000E+00
         0.00000E+00
         0.00000E+00
         0.00000E+00
         0.00000E+00
         0.00000E+00
         0.00000E+00
         0.00000E+00
         0.00000E+00
         0.00000E+00
         0.00000E+00
         0.00000E+00
         0.00000E+00
         0.00000E+00
         0.00000E+00
         0.00000E+00
         0.00000E+00
         0.00000E+00
         0.00000E+00
         0.00000E+00
         0.00000E+00
         0.00000E+00
         0.00000E+00
         0.00000E+00
         0.00000E+00
         0.00000E+00
         0.00000E+00
         0.00000E+00
         0.00000E+00
         0.00000E+00
         0.00000E+00
         0.00000E+00
         0.00000E+00
         0.00000E+00
         0.00000E+00
         0.00000E+00
         0.00000E+00
         0.00000E+00
         0.00000E+00
         0.00000E+00
         0.00000E+00
         0.00000E+00
         0.00000E+00
         0.00000E+00
         0.00000E+00
         0.00000E+00
         0.00000E+00
         0.00000E+00
         0.00000E+00
         0.00000E+00
         0.00000E+00
         0.00000E+00
         0.00000E+00
         0.00000E+00
         0.00000E+00
         0.00000E+00
         0.00000E+00
         0.00000E+00
         0.00000E+00
         0.00000E+00
         0.00000E+00
         0.00000E+00
         0.00000E+00
         0.00000E+00
         0.00000E+00
         0.00000E+00
         0.00000E+00
         0.00000E+00
         0.00000E+00
         0.00000E+00
         0.00000E+00
         0.00000E+00
         0.00000E+00
         0.00000E+00
         0.00000E+00
         0.00000E+00
         0.00000E+00
         0.00000E+00
         0.00000E+00
         0.00000E+00
         0.00000E+00
         0.00000E+00
         0.00000E+00
         0.00000E+00
         0.00000E+00
         0.00000E+00
         0.00000E+00
         0.00000E+00
         0.00000E+00
         0.00000E+00
         0.00000E+00
         0.00000E+00
         0.00000E+00
         0.00000E+00
         0.00000E+00
         0.00000E+00
         0.00000E+00
         0.00000E+00
         0.00000E+00
         0.00000E+00
         0.00000E+00
         0.00000E+00
         0.00000E+00
         0.00000E+00
         0.00000E+00
         0.00000E+00
         0.00000E+00
         0.00000E+00
         0.00000E+00
         0.00000E+00
         0.00000E+00
         0.00000E+00
         0.00000E+00
         0.00000E+00
         0.00000E+00
         0.00000E+00
         0.00000E+00
         0.00000E+00
         0.00000E+00
         0.00000E+00
         0.00000E+00
         0.00000E+00
         0.00000E+00
         0.00000E+00
         0.00000E+00
         0.00000E+00
         0.00000E+00
         0.00000E+00
         0.00000E+00
         0.00000E+00
         0.00000E+00
         0.00000E+00
         0.00000E+00
         0.00000E+00
         0.00000E+00
         0.00000E+00
         0.00000E+00
         0.00000E+00
         0.00000E+00
         0.00000E+00
         0.00000E+00
         0.00000E+00
         0.00000E+00
         0.00000E+00
         0.00000E+00
         0.00000E+00
         0.00000E+00
         0.00000E+00
         0.00000E+00
         0.00000E+00
         0.00000E+00
         0.00000E+00
         0.00000E+00
         0.00000E+00
         0.00000E+00
         0.00000E+00
         0.00000E+00
         0.00000E+00
         0.00000E+00
         0.00000E+00
         0.00000E+00
         0.00000E+00
         0.00000E+00
         0.00000E+00
         0.00000E+00
         0.00000E+00
         0.00000E+00
         0.00000E+00
         0.00000E+00
         0.00000E+00
         0.00000E+00
         0.00000E+00
         0.00000E+00
         0.00000E+00
         0.00000E+00
         0.00000E+00
         0.00000E+00
         0.00000E+00
         0.00000E+00
         0.00000E+00
         0.00000E+00
         0.00000E+00
         0.00000E+00
         0.00000E+00
         0.00000E+00
         0.00000E+00
         0.00000E+00
         0.00000E+00
         0.00000E+00
         0.00000E+00
         0.00000E+00
         0.00000E+00
         0.00000E+00
         0.00000E+00
         0.00000E+00
         0.00000E+00
         0.00000E+00
         0.00000E+00
         0.00000E+00
         0.00000E+00
         0.00000E+00
         0.00000E+00
         0.00000E+00
         0.00000E+00
         0.00000E+00
         0.00000E+00
         0.00000E+00
         0.00000E+00
         0.00000E+00
         0.00000E+00
         0.00000E+00
         0.00000E+00
         0.00000E+00
         0.00000E+00
         0.00000E+00
         0.00000E+00
         0.00000E+00
         0.00000E+00
         0.00000E+00
         0.00000E+00
         0.00000E+00
         0.00000E+00
         0.00000E+00
         0.00000E+00
         0.00000E+00
         0.00000E+00
         0.00000E+00
         0.00000E+00
         0.00000E+00
         0.00000E+00
         0.00000E+00
         0.00000E+00
         0.00000E+00
         0.00000E+00
         0.00000E+00
         0.00000E+00
         0.00000E+00
         0.00000E+00
         0.00000E+00
         0.00000E+00
         0.00000E+00
         0.00000E+00
         0.00000E+00
         0.00000E+00
         0.00000E+00
         0.00000E+00
         0.00000E+00
         0.00000E+00
         0.00000E+00
         0.00000E+00
         0.00000E+00
         0.00000E+00
         0.00000E+00
         0.00000E+00
         0.00000E+00
         0.00000E+00
         0.00000E+00
         0.00000E+00
         0.00000E+00
         0.00000E+00
         0.00000E+00
         0.00000E+00
         0.00000E+00
         0.00000E+00
         0.00000E+00
         0.00000E+00
         0.00000E+00
         0.00000E+00
         0.00000E+00
         0.00000E+00
         0.00000E+00
         0.00000E+00
         0.00000E+00
         0.00000E+00
         0.00000E+00
         0.00000E+00
         0.00000E+00
         0.00000E+00
         0.00000E+00
         0.00000E+00
         0.00000E+00
         0.00000E+00
         0.00000E+00
         0.00000E+00
         0.00000E+00
         0.00000E+00
         0.00000E+00
         0.00000E+00
         0.00000E+00
         0.00000E+00
         0.00000E+00
         0.00000E+00
         0.00000E+00
         0.00000E+00
         0.00000E+00
         0.00000E+00
         0.00000E+00
         0.00000E+00
         0.00000E+00
         0.00000E+00
         0.00000E+00
         0.00000E+00
         0.00000E+00
         0.00000E+00
         0.00000E+00
         0.00000E+00
         0.00000E+00
         0.00000E+00
         0.00000E+00
         0.00000E+00
         0.00000E+00
         0.00000E+00
         0.00000E+00
         0.00000E+00
         0.00000E+00
         0.00000E+00
         0.00000E+00
         0.00000E+00
         0.00000E+00
         0.00000E+00
         0.00000E+00
         0.00000E+00
         0.00000E+00
         0.00000E+00
         0.00000E+00
         0.00000E+00
         0.00000E+00
         0.00000E+00
         0.00000E+00
         0.00000E+00
         0.00000E+00
         0.00000E+00
         0.00000E+00
         0.00000E+00
         0.00000E+00
         0.00000E+00
         0.00000E+00
         0.00000E+00
         0.00000E+00
         0.00000E+00
         0.00000E+00
         0.00000E+00
         0.00000E+00
         0.00000E+00
         0.00000E+00
         0.00000E+00
         0.00000E+00
         0.00000E+00
         0.00000E+00
         0.00000E+00
         0.00000E+00
         0.00000E+00
         0.00000E+00
         0.00000E+00
         0.00000E+00
         0.00000E+00
         0.00000E+00
         0.00000E+00
         0.00000E+00
         0.00000E+00
         0.00000E+00
         0.00000E+00
         0.00000E+00
         0.00000E+00
         0.00000E+00
         0.00000E+00
         0.00000E+00
         0.00000E+00
         0.00000E+00
         0.00000E+00
         0.00000E+00
         0.00000E+00
         0.00000E+00
         0.00000E+00
         0.00000E+00
         0.00000E+00
         0.00000E+00
         0.00000E+00
         0.00000E+00
         0.00000E+00
         0.00000E+00
         0.00000E+00
         0.00000E+00
         0.00000E+00
         0.00000E+00
         0.00000E+00
         0.00000E+00
         0.00000E+00
         0.00000E+00
         0.00000E+00
         0.00000E+00
         0.00000E+00
         0.00000E+00
         0.00000E+00
         0.00000E+00
         0.00000E+00
         0.00000E+00
         0.00000E+00
         0.00000E+00
         0.00000E+00
         0.00000E+00
         0.00000E+00
         0.00000E+00
         0.00000E+00
         0.00000E+00
         0.00000E+00
         0.00000E+00
         0.00000E+00
         0.00000E+00
         0.00000E+00
         0.00000E+00
         0.00000E+00
         0.00000E+00
         0.00000E+00
         0.00000E+00
         0.00000E+00
         0.00000E+00
         0.00000E+00
         0.00000E+00
         0.00000E+00
         0.00000E+00
         0.00000E+00
         0.00000E+00
         0.00000E+00
         0.00000E+00
         0.00000E+00
         0.00000E+00
         0.00000E+00
         0.00000E+00
         0.00000E+00
         0.00000E+00
         0.00000E+00
         0.00000E+00
         0.00000E+00
         0.00000E+00
         0.00000E+00
         0.00000E+00
         0.00000E+00
         0.00000E+00
         0.00000E+00
         0.00000E+00
         0.00000E+00
         0.00000E+00
         0.00000E+00
         0.00000E+00
         0.00000E+00
         0.00000E+00
         0.00000E+00
         0.00000E+00
         0.00000E+00
         0.00000E+00
         0.00000E+00
         0.00000E+00
         0.00000E+00
         0.00000E+00
         0.00000E+00
         0.00000E+00
         0.00000E+00
         0.00000E+00
         0.00000E+00
         0.00000E+00
         0.00000E+00
         0.00000E+00
         0.00000E+00
         0.00000E+00
         0.00000E+00
         0.00000E+00
         0.00000E+00
         0.00000E+00
         0.00000E+00
         0.00000E+00
         0.00000E+00
         0.00000E+00
         0.00000E+00
         0.00000E+00
         0.00000E+00
         0.00000E+00
         0.00000E+00
         0.00000E+00
         0.00000E+00
         0.00000E+00
         0.00000E+00
         0.00000E+00
         0.00000E+00
         0.00000E+00
         0.00000E+00
         0.00000E+00
         0.00000E+00
         0.00000E+00
         0.00000E+00
         0.00000E+00
         0.00000E+00
         0.00000E+00
         0.00000E+00
         0.00000E+00
         0.00000E+00
         0.00000E+00
         0.00000E+00
         0.00000E+00
         0.00000E+00
         0.00000E+00
         0.00000E+00
         0.00000E+00
         0.00000E+00
         0.00000E+00
         0.00000E+00
         0.00000E+00
         0.00000E+00
         0.00000E+00
         0.00000E+00
         0.00000E+00
         0.00000E+00
         0.00000E+00
         0.00000E+00
         0.00000E+00
         0.00000E+00
         0.00000E+00
         0.00000E+00
         0.00000E+00
         0.00000E+00
         0.00000E+00
         0.00000E+00
         0.00000E+00
         0.00000E+00
         0.00000E+00
         0.00000E+00
         0.00000E+00
         0.00000E+00
         0.00000E+00
         0.00000E+00
         0.00000E+00
         0.00000E+00
         0.00000E+00
         0.00000E+00
         0.00000E+00
         0.00000E+00
         0.00000E+00
         0.00000E+00
         0.00000E+00
         0.00000E+00
         0.00000E+00
         0.00000E+00
         0.00000E+00
         0.00000E+00
         0.00000E+00
         0.00000E+00
         0.00000E+00
         0.00000E+00
         0.00000E+00
         0.00000E+00
         0.00000E+00
         0.00000E+00
         0.00000E+00
         0.00000E+00
         0.00000E+00
         0.00000E+00
         0.00000E+00
         0.00000E+00
         0.00000E+00
         0.00000E+00
         0.00000E+00
         0.00000E+00
         0.00000E+00
         0.00000E+00
         0.00000E+00
         0.00000E+00
         0.00000E+00
         0.00000E+00
         0.00000E+00
         0.00000E+00
         0.00000E+00
         0.00000E+00
         0.00000E+00
         0.00000E+00
         0.00000E+00
         0.00000E+00
         0.00000E+00
         0.00000E+00
         0.00000E+00
         0.00000E+00
         0.00000E+00
         0.00000E+00
         0.00000E+00
         0.00000E+00
         0.00000E+00
         0.00000E+00
         0.00000E+00
         0.00000E+00
         0.00000E+00
         0.00000E+00
         0.00000E+00
         0.00000E+00
         0.00000E+00
         0.00000E+00
         0.00000E+00
         0.00000E+00
         0.00000E+00
         0.00000E+00
         0.00000E+00
         0.00000E+00
         0.00000E+00
         0.00000E+00
         0.00000E+00
         0.00000E+00
         0.00000E+00
         0.00000E+00
         0.00000E+00
         0.00000E+00
         0.00000E+00
         0.00000E+00
         0.00000E+00
         0.00000E+00
         0.00000E+00
         0.00000E+00
         0.00000E+00
         0.00000E+00
         0.00000E+00
         0.00000E+00
         0.00000E+00
         0.00000E+00
         0.00000E+00
         0.00000E+00
         0.00000E+00
         0.00000E+00
         0.00000E+00
         0.00000E+00
         0.00000E+00
         0.00000E+00
         0.00000E+00
         0.00000E+00
         0.00000E+00
         0.00000E+00
         0.00000E+00
         0.00000E+00
         0.00000E+00
         0.00000E+00
         0.00000E+00
         0.00000E+00
         0.00000E+00
         0.00000E+00
         0.00000E+00
         0.00000E+00
         0.00000E+00
         0.00000E+00
         0.00000E+00
         0.00000E+00
         0.00000E+00
         0.00000E+00
         0.00000E+00
         0.00000E+00
         0.00000E+00
         0.00000E+00
         0.00000E+00
         0.00000E+00
         0.00000E+00
         0.00000E+00
         0.00000E+00
         0.00000E+00
         0.00000E+00
         0.00000E+00
         0.00000E+00
         0.00000E+00
         0.00000E+00
         0.00000E+00
         0.00000E+00
         0.00000E+00
         0.00000E+00
         0.00000E+00
         0.00000E+00
         0.00000E+00
         0.00000E+00
         0.00000E+00
         0.00000E+00
         0.00000E+00
         0.00000E+00
         0.00000E+00
         0.00000E+00
         0.00000E+00
         0.00000E+00
         0.00000E+00
         0.00000E+00
         0.00000E+00
         0.00000E+00
         0.00000E+00
         0.00000E+00
         0.00000E+00
         0.00000E+00
         0.00000E+00
         0.00000E+00
         0.00000E+00
         0.00000E+00
         0.00000E+00
         0.00000E+00
         0.00000E+00
         0.00000E+00
         0.00000E+00
         0.00000E+00
         0.00000E+00
         0.00000E+00
         0.00000E+00
         0.00000E+00
         0.00000E+00
         0.00000E+00
         0.00000E+00
         0.00000E+00
         0.00000E+00
         0.00000E+00
         0.00000E+00
         0.00000E+00
         0.00000E+00
         0.00000E+00
         0.00000E+00
         0.00000E+00
         0.00000E+00
         0.00000E+00
         0.00000E+00
         0.00000E+00
         0.00000E+00
         0.00000E+00
         0.00000E+00
         0.00000E+00
         0.00000E+00
         0.00000E+00
         0.00000E+00
         0.00000E+00
         0.00000E+00
         0.00000E+00
         0.00000E+00
         0.00000E+00
         0.00000E+00
         0.00000E+00
         0.00000E+00
         0.00000E+00
         0.00000E+00
         0.00000E+00
         0.00000E+00
         0.00000E+00
         0.00000E+00
         0.00000E+00
         0.00000E+00
         0.00000E+00
         0.00000E+00
         0.00000E+00
         0.00000E+00
         0.00000E+00
         0.00000E+00
         0.00000E+00
         0.00000E+00
         0.00000E+00
         0.00000E+00
         0.00000E+00
         0.00000E+00
         0.00000E+00
         0.00000E+00
         0.00000E+00
         0.00000E+00
         0.00000E+00
         0.00000E+00
         0.00000E+00
         0.00000E+00
         0.00000E+00
         0.00000E+00
         0.00000E+00
         0.00000E+00
         0.00000E+00
         0.00000E+00
         0.00000E+00
         0.00000E+00
         0.00000E+00
         0.00000E+00
         0.00000E+00
         0.00000E+00
         0.00000E+00
         0.00000E+00
         0.00000E+00
         0.00000E+00
         0.00000E+00
         0.00000E+00
         0.00000E+00
         0.00000E+00
         0.00000E+00
         0.00000E+00
         0.00000E+00
         0.00000E+00
         0.00000E+00
         0.00000E+00
         0.00000E+00
         0.00000E+00
         0.00000E+00
         0.00000E+00
         0.00000E+00
         0.00000E+00
         0.00000E+00
         0.00000E+00
         0.00000E+00
         0.00000E+00
         0.00000E+00
         0.00000E+00
         0.00000E+00
         0.00000E+00
         0.00000E+00
         0.00000E+00
         0.00000E+00
         0.00000E+00
         0.00000E+00
         0.00000E+00
         0.00000E+00
         0.00000E+00
         0.00000E+00
         0.00000E+00
         0.00000E+00
         0.00000E+00
         0.00000E+00
         0.00000E+00
         0.00000E+00
         0.00000E+00
         0.00000E+00
         0.00000E+00
         0.00000E+00
         0.00000E+00
         0.00000E+00
         0.00000E+00
         0.00000E+00
         0.00000E+00
         0.00000E+00
         0.00000E+00
         0.00000E+00
         0.00000E+00
         0.00000E+00
         0.00000E+00
         0.00000E+00
         0.00000E+00
         0.00000E+00
         0.00000E+00
         0.00000E+00
         0.00000E+00
         0.00000E+00
         0.00000E+00
         0.00000E+00
         0.00000E+00
         0.00000E+00
         0.00000E+00
         0.00000E+00
         0.00000E+00
         0.00000E+00
         0.00000E+00
         0.00000E+00
         0.00000E+00
         0.00000E+00
         0.00000E+00
         0.00000E+00
         0.00000E+00
         0.00000E+00
         0.00000E+00
         0.00000E+00
         0.00000E+00
         0.00000E+00
         0.00000E+00
         0.00000E+00
         0.00000E+00
         0.00000E+00
         0.00000E+00
         0.00000E+00
         0.00000E+00
         0.00000E+00
         0.00000E+00
         0.00000E+00
         0.00000E+00
         0.00000E+00
         0.00000E+00
         0.00000E+00
         0.00000E+00
         0.00000E+00
         0.00000E+00
         0.00000E+00
         0.00000E+00
         0.00000E+00
         0.00000E+00
         0.00000E+00
         0.00000E+00
         0.00000E+00
         0.00000E+00
         0.00000E+00
         0.00000E+00
         0.00000E+00
         0.00000E+00
         0.00000E+00
         0.00000E+00
         0.00000E+00
         0.00000E+00
         0.00000E+00
         0.00000E+00
         0.00000E+00
         0.00000E+00
         0.00000E+00
         0.00000E+00
         0.00000E+00
         0.00000E+00
         0.00000E+00
         0.00000E+00
         0.00000E+00
         0.00000E+00
         0.00000E+00
         0.00000E+00
         0.00000E+00
         0.00000E+00
         0.00000E+00
         0.00000E+00
         0.00000E+00
         0.00000E+00
         0.00000E+00
         0.00000E+00
         0.00000E+00
         0.00000E+00
         0.00000E+00
         0.00000E+00
         0.00000E+00
         0.00000E+00
         0.00000E+00
         0.00000E+00
         0.00000E+00
         0.00000E+00
         0.00000E+00
         0.00000E+00
         0.00000E+00
         0.00000E+00
         0.00000E+00
         0.00000E+00
         0.00000E+00
         0.00000E+00
         0.00000E+00
         0.00000E+00
         0.00000E+00
         0.00000E+00
         0.00000E+00
         0.00000E+00
         0.00000E+00
         0.00000E+00
         0.00000E+00
         0.00000E+00
         0.00000E+00
         0.00000E+00
         0.00000E+00
         0.00000E+00
         0.00000E+00
         0.00000E+00
         0.00000E+00
         0.00000E+00
         0.00000E+00
         0.00000E+00
         0.00000E+00
         0.00000E+00
         0.00000E+00
         0.00000E+00
         0.00000E+00
         0.00000E+00
         0.00000E+00
         0.00000E+00
         0.00000E+00
         0.00000E+00
         0.00000E+00
         0.00000E+00
         0.00000E+00
         0.00000E+00
         0.00000E+00
         0.00000E+00
         0.00000E+00
         0.00000E+00
         0.00000E+00
         0.00000E+00
         0.00000E+00
         0.00000E+00
         0.00000E+00
         0.00000E+00
         0.00000E+00
         0.00000E+00
         0.00000E+00
         0.00000E+00
         0.00000E+00
         0.00000E+00
         0.00000E+00
         0.00000E+00
         0.00000E+00
         0.00000E+00
         0.00000E+00
         0.00000E+00
         0.00000E+00
         0.00000E+00
         0.00000E+00
         0.00000E+00
         0.00000E+00
         0.00000E+00
         0.00000E+00
         0.00000E+00
         0.00000E+00
         0.00000E+00
         0.00000E+00
         0.00000E+00
         0.00000E+00
         0.00000E+00
         0.00000E+00
         0.00000E+00
         0.00000E+00
         0.00000E+00
         0.00000E+00
         0.00000E+00
         0.00000E+00
         0.00000E+00
         0.00000E+00
         0.00000E+00
         0.00000E+00
         0.00000E+00
         0.00000E+00
         0.00000E+00
         0.00000E+00
         0.00000E+00
         0.00000E+00
         0.00000E+00
         0.00000E+00
         0.00000E+00
         0.00000E+00
         0.00000E+00
         0.00000E+00
         0.00000E+00
         0.00000E+00
         0.00000E+00
         0.00000E+00
         0.00000E+00
         0.00000E+00
         0.00000E+00
         0.00000E+00
         0.00000E+00
         0.00000E+00
         0.00000E+00
         0.00000E+00
         0.00000E+00
         0.00000E+00
         0.00000E+00
         0.00000E+00
         0.00000E+00
         0.00000E+00
         0.00000E+00
         0.00000E+00
         0.00000E+00
         0.00000E+00
         0.00000E+00
         0.00000E+00
         0.00000E+00
         0.00000E+00
         0.00000E+00
         0.00000E+00
         0.00000E+00
         0.00000E+00
         0.00000E+00
         0.00000E+00
         0.00000E+00
         0.00000E+00
         0.00000E+00
         0.00000E+00
         0.00000E+00
         0.00000E+00
         0.00000E+00
         0.00000E+00
         0.00000E+00
         0.00000E+00
         0.00000E+00
         0.00000E+00
         0.00000E+00
         0.00000E+00
         0.00000E+00
         0.00000E+00
         0.00000E+00
         0.00000E+00
         0.00000E+00
         0.00000E+00
         0.00000E+00
         0.00000E+00
         0.00000E+00
         0.00000E+00
         0.00000E+00
         0.00000E+00
         0.00000E+00
         0.00000E+00
         0.00000E+00
         0.00000E+00
         0.00000E+00
         0.00000E+00
         0.00000E+00
         0.00000E+00
         0.00000E+00
         0.00000E+00
         0.00000E+00
         0.00000E+00
         0.00000E+00
         0.00000E+00
         0.00000E+00
         0.00000E+00
         0.00000E+00
         0.00000E+00
         0.00000E+00
         0.00000E+00
         0.00000E+00
         0.00000E+00
         0.00000E+00
         0.00000E+00
         0.00000E+00
         0.00000E+00
         0.00000E+00
         0.00000E+00
         0.00000E+00
         0.00000E+00
         0.00000E+00
         0.00000E+00
         0.00000E+00
         0.00000E+00
         0.00000E+00
         0.00000E+00
         0.00000E+00
         0.00000E+00
         0.00000E+00
         0.00000E+00
         0.00000E+00
         0.00000E+00
         0.00000E+00
         0.00000E+00
         0.00000E+00
         0.00000E+00
         0.00000E+00
         0.00000E+00
         0.00000E+00
         0.00000E+00
         0.00000E+00
         0.00000E+00
         0.00000E+00
         0.00000E+00
         0.00000E+00
         0.00000E+00
         0.00000E+00
         0.00000E+00
         0.00000E+00
         0.00000E+00
         0.00000E+00
         0.00000E+00
         0.00000E+00
         0.00000E+00
         0.00000E+00
         0.00000E+00
         0.00000E+00
         0.00000E+00
         0.00000E+00
         0.00000E+00
         0.00000E+00
         0.00000E+00
         0.00000E+00
         0.00000E+00
         0.00000E+00
         0.00000E+00
         0.00000E+00
         0.00000E+00
         0.00000E+00
         0.00000E+00
         0.00000E+00
         0.00000E+00
         0.00000E+00
         0.00000E+00
         0.00000E+00
         0.00000E+00
         0.00000E+00
         0.00000E+00
         0.00000E+00
         0.00000E+00
         0.00000E+00
         0.00000E+00
         0.00000E+00
         0.00000E+00
         0.00000E+00
         0.00000E+00
         0.00000E+00
         0.00000E+00
         0.00000E+00
         0.00000E+00
         0.00000E+00
         0.00000E+00
         0.00000E+00
         0.00000E+00
         0.00000E+00
         0.00000E+00
         0.00000E+00
         0.00000E+00
         0.00000E+00
         0.00000E+00
         0.00000E+00
         0.00000E+00
         0.00000E+00
         0.00000E+00
         0.00000E+00
         0.00000E+00
         0.00000E+00
         0.00000E+00
         0.00000E+00
         0.00000E+00
         0.00000E+00
         0.00000E+00
         0.00000E+00
         0.00000E+00
         0.00000E+00
  
SCALARS                        eps_vol  double 1
LOOKUP_TABLE default
         0.00000E+00
         0.00000E+00
         0.00000E+00
         0.00000E+00
         0.00000E+00
         0.00000E+00
         0.00000E+00
         0.00000E+00
         0.00000E+00
         0.00000E+00
         0.00000E+00
         0.00000E+00
         0.00000E+00
         0.00000E+00
         0.00000E+00
         0.00000E+00
         0.00000E+00
         0.00000E+00
         0.00000E+00
         0.00000E+00
         0.00000E+00
         0.00000E+00
         0.00000E+00
         0.00000E+00
         0.00000E+00
         0.00000E+00
         0.00000E+00
         0.00000E+00
         0.00000E+00
         0.00000E+00
         0.00000E+00
         0.00000E+00
         0.00000E+00
         0.00000E+00
         0.00000E+00
         0.00000E+00
         0.00000E+00
         0.00000E+00
         0.00000E+00
         0.00000E+00
         0.00000E+00
         0.00000E+00
         0.00000E+00
         0.00000E+00
         0.00000E+00
         0.00000E+00
         0.00000E+00
         0.00000E+00
         0.00000E+00
         0.00000E+00
         0.00000E+00
         0.00000E+00
         0.00000E+00
         0.00000E+00
         0.00000E+00
         0.00000E+00
         0.00000E+00
         0.00000E+00
         0.00000E+00
         0.00000E+00
         0.00000E+00
         0.00000E+00
         0.00000E+00
         0.00000E+00
         0.00000E+00
         0.00000E+00
         0.00000E+00
         0.00000E+00
         0.00000E+00
         0.00000E+00
         0.00000E+00
         0.00000E+00
         0.00000E+00
         0.00000E+00
         0.00000E+00
         0.00000E+00
         0.00000E+00
         0.00000E+00
         0.00000E+00
         0.00000E+00
         0.00000E+00
         0.00000E+00
         0.00000E+00
         0.00000E+00
         0.00000E+00
         0.00000E+00
         0.00000E+00
         0.00000E+00
         0.00000E+00
         0.00000E+00
         0.00000E+00
         0.00000E+00
         0.00000E+00
         0.00000E+00
         0.00000E+00
         0.00000E+00
         0.00000E+00
         0.00000E+00
         0.00000E+00
         0.00000E+00
         0.00000E+00
         0.00000E+00
         0.00000E+00
         0.00000E+00
         0.00000E+00
         0.00000E+00
         0.00000E+00
         0.00000E+00
         0.00000E+00
         0.00000E+00
         0.00000E+00
         0.00000E+00
         0.00000E+00
         0.00000E+00
         0.00000E+00
         0.00000E+00
         0.00000E+00
         0.00000E+00
         0.00000E+00
         0.00000E+00
         0.00000E+00
         0.00000E+00
         0.00000E+00
         0.00000E+00
         0.00000E+00
         0.00000E+00
         0.00000E+00
         0.00000E+00
         0.00000E+00
         0.00000E+00
         0.00000E+00
         0.00000E+00
         0.00000E+00
         0.00000E+00
         0.00000E+00
         0.00000E+00
         0.00000E+00
         0.00000E+00
         0.00000E+00
         0.00000E+00
         0.00000E+00
         0.00000E+00
         0.00000E+00
         0.00000E+00
         0.00000E+00
         0.00000E+00
         0.00000E+00
         0.00000E+00
         0.00000E+00
         0.00000E+00
         0.00000E+00
         0.00000E+00
         0.00000E+00
         0.00000E+00
         0.00000E+00
         0.00000E+00
         0.00000E+00
         0.00000E+00
         0.00000E+00
         0.00000E+00
         0.00000E+00
         0.00000E+00
         0.00000E+00
         0.00000E+00
         0.00000E+00
         0.00000E+00
         0.00000E+00
         0.00000E+00
         0.00000E+00
         0.00000E+00
         0.00000E+00
         0.00000E+00
         0.00000E+00
         0.00000E+00
         0.00000E+00
         0.00000E+00
         0.00000E+00
         0.00000E+00
         0.00000E+00
         0.00000E+00
         0.00000E+00
         0.00000E+00
         0.00000E+00
         0.00000E+00
         0.00000E+00
         0.00000E+00
         0.00000E+00
         0.00000E+00
         0.00000E+00
         0.00000E+00
         0.00000E+00
         0.00000E+00
         0.00000E+00
         0.00000E+00
         0.00000E+00
         0.00000E+00
         0.00000E+00
         0.00000E+00
         0.00000E+00
         0.00000E+00
         0.00000E+00
         0.00000E+00
         0.00000E+00
         0.00000E+00
         0.00000E+00
         0.00000E+00
         0.00000E+00
         0.00000E+00
         0.00000E+00
         0.00000E+00
         0.00000E+00
         0.00000E+00
         0.00000E+00
         0.00000E+00
         0.00000E+00
         0.00000E+00
         0.00000E+00
         0.00000E+00
         0.00000E+00
         0.00000E+00
         0.00000E+00
         0.00000E+00
         0.00000E+00
         0.00000E+00
         0.00000E+00
         0.00000E+00
         0.00000E+00
         0.00000E+00
         0.00000E+00
         0.00000E+00
         0.00000E+00
         0.00000E+00
         0.00000E+00
         0.00000E+00
         0.00000E+00
         0.00000E+00
         0.00000E+00
         0.00000E+00
         0.00000E+00
         0.00000E+00
         0.00000E+00
         0.00000E+00
         0.00000E+00
         0.00000E+00
         0.00000E+00
         0.00000E+00
         0.00000E+00
         0.00000E+00
         0.00000E+00
         0.00000E+00
         0.00000E+00
         0.00000E+00
         0.00000E+00
         0.00000E+00
         0.00000E+00
         0.00000E+00
         0.00000E+00
         0.00000E+00
         0.00000E+00
         0.00000E+00
         0.00000E+00
         0.00000E+00
         0.00000E+00
         0.00000E+00
         0.00000E+00
         0.00000E+00
         0.00000E+00
         0.00000E+00
         0.00000E+00
         0.00000E+00
         0.00000E+00
         0.00000E+00
         0.00000E+00
         0.00000E+00
         0.00000E+00
         0.00000E+00
         0.00000E+00
         0.00000E+00
         0.00000E+00
         0.00000E+00
         0.00000E+00
         0.00000E+00
         0.00000E+00
         0.00000E+00
         0.00000E+00
         0.00000E+00
         0.00000E+00
         0.00000E+00
         0.00000E+00
         0.00000E+00
         0.00000E+00
         0.00000E+00
         0.00000E+00
         0.00000E+00
         0.00000E+00
         0.00000E+00
         0.00000E+00
         0.00000E+00
         0.00000E+00
         0.00000E+00
         0.00000E+00
         0.00000E+00
         0.00000E+00
         0.00000E+00
         0.00000E+00
         0.00000E+00
         0.00000E+00
         0.00000E+00
         0.00000E+00
         0.00000E+00
         0.00000E+00
         0.00000E+00
         0.00000E+00
         0.00000E+00
         0.00000E+00
         0.00000E+00
         0.00000E+00
         0.00000E+00
         0.00000E+00
         0.00000E+00
         0.00000E+00
         0.00000E+00
         0.00000E+00
         0.00000E+00
         0.00000E+00
         0.00000E+00
         0.00000E+00
         0.00000E+00
         0.00000E+00
         0.00000E+00
         0.00000E+00
         0.00000E+00
         0.00000E+00
         0.00000E+00
         0.00000E+00
         0.00000E+00
         0.00000E+00
         0.00000E+00
         0.00000E+00
         0.00000E+00
         0.00000E+00
         0.00000E+00
         0.00000E+00
         0.00000E+00
         0.00000E+00
         0.00000E+00
         0.00000E+00
         0.00000E+00
         0.00000E+00
         0.00000E+00
         0.00000E+00
         0.00000E+00
         0.00000E+00
         0.00000E+00
         0.00000E+00
         0.00000E+00
         0.00000E+00
         0.00000E+00
         0.00000E+00
         0.00000E+00
         0.00000E+00
         0.00000E+00
         0.00000E+00
         0.00000E+00
         0.00000E+00
         0.00000E+00
         0.00000E+00
         0.00000E+00
         0.00000E+00
         0.00000E+00
         0.00000E+00
         0.00000E+00
         0.00000E+00
         0.00000E+00
         0.00000E+00
         0.00000E+00
         0.00000E+00
         0.00000E+00
         0.00000E+00
         0.00000E+00
         0.00000E+00
         0.00000E+00
         0.00000E+00
         0.00000E+00
         0.00000E+00
         0.00000E+00
         0.00000E+00
         0.00000E+00
         0.00000E+00
         0.00000E+00
         0.00000E+00
         0.00000E+00
         0.00000E+00
         0.00000E+00
         0.00000E+00
         0.00000E+00
         0.00000E+00
         0.00000E+00
         0.00000E+00
         0.00000E+00
         0.00000E+00
         0.00000E+00
         0.00000E+00
         0.00000E+00
         0.00000E+00
         0.00000E+00
         0.00000E+00
         0.00000E+00
         0.00000E+00
         0.00000E+00
         0.00000E+00
         0.00000E+00
         0.00000E+00
         0.00000E+00
         0.00000E+00
         0.00000E+00
         0.00000E+00
         0.00000E+00
         0.00000E+00
         0.00000E+00
         0.00000E+00
         0.00000E+00
         0.00000E+00
         0.00000E+00
         0.00000E+00
         0.00000E+00
         0.00000E+00
         0.00000E+00
         0.00000E+00
         0.00000E+00
         0.00000E+00
         0.00000E+00
         0.00000E+00
         0.00000E+00
         0.00000E+00
         0.00000E+00
         0.00000E+00
         0.00000E+00
         0.00000E+00
         0.00000E+00
         0.00000E+00
         0.00000E+00
         0.00000E+00
         0.00000E+00
         0.00000E+00
         0.00000E+00
         0.00000E+00
         0.00000E+00
         0.00000E+00
         0.00000E+00
         0.00000E+00
         0.00000E+00
         0.00000E+00
         0.00000E+00
         0.00000E+00
         0.00000E+00
         0.00000E+00
         0.00000E+00
         0.00000E+00
         0.00000E+00
         0.00000E+00
         0.00000E+00
         0.00000E+00
         0.00000E+00
         0.00000E+00
         0.00000E+00
         0.00000E+00
         0.00000E+00
         0.00000E+00
         0.00000E+00
         0.00000E+00
         0.00000E+00
         0.00000E+00
         0.00000E+00
         0.00000E+00
         0.00000E+00
         0.00000E+00
         0.00000E+00
         0.00000E+00
         0.00000E+00
         0.00000E+00
         0.00000E+00
         0.00000E+00
         0.00000E+00
         0.00000E+00
         0.00000E+00
         0.00000E+00
         0.00000E+00
         0.00000E+00
         0.00000E+00
         0.00000E+00
         0.00000E+00
         0.00000E+00
         0.00000E+00
         0.00000E+00
         0.00000E+00
         0.00000E+00
         0.00000E+00
         0.00000E+00
         0.00000E+00
         0.00000E+00
         0.00000E+00
         0.00000E+00
         0.00000E+00
         0.00000E+00
         0.00000E+00
         0.00000E+00
         0.00000E+00
         0.00000E+00
         0.00000E+00
         0.00000E+00
         0.00000E+00
         0.00000E+00
         0.00000E+00
         0.00000E+00
         0.00000E+00
         0.00000E+00
         0.00000E+00
         0.00000E+00
         0.00000E+00
         0.00000E+00
         0.00000E+00
         0.00000E+00
         0.00000E+00
         0.00000E+00
         0.00000E+00
         0.00000E+00
         0.00000E+00
         0.00000E+00
         0.00000E+00
         0.00000E+00
         0.00000E+00
         0.00000E+00
         0.00000E+00
         0.00000E+00
         0.00000E+00
         0.00000E+00
         0.00000E+00
         0.00000E+00
         0.00000E+00
         0.00000E+00
         0.00000E+00
         0.00000E+00
         0.00000E+00
         0.00000E+00
         0.00000E+00
         0.00000E+00
         0.00000E+00
         0.00000E+00
         0.00000E+00
         0.00000E+00
         0.00000E+00
         0.00000E+00
         0.00000E+00
         0.00000E+00
         0.00000E+00
         0.00000E+00
         0.00000E+00
         0.00000E+00
         0.00000E+00
         0.00000E+00
         0.00000E+00
         0.00000E+00
         0.00000E+00
         0.00000E+00
         0.00000E+00
         0.00000E+00
         0.00000E+00
         0.00000E+00
         0.00000E+00
         0.00000E+00
         0.00000E+00
         0.00000E+00
         0.00000E+00
         0.00000E+00
         0.00000E+00
         0.00000E+00
         0.00000E+00
         0.00000E+00
         0.00000E+00
         0.00000E+00
         0.00000E+00
         0.00000E+00
         0.00000E+00
         0.00000E+00
         0.00000E+00
         0.00000E+00
         0.00000E+00
         0.00000E+00
         0.00000E+00
         0.00000E+00
         0.00000E+00
         0.00000E+00
         0.00000E+00
         0.00000E+00
         0.00000E+00
         0.00000E+00
         0.00000E+00
         0.00000E+00
         0.00000E+00
         0.00000E+00
         0.00000E+00
         0.00000E+00
         0.00000E+00
         0.00000E+00
         0.00000E+00
         0.00000E+00
         0.00000E+00
         0.00000E+00
         0.00000E+00
         0.00000E+00
         0.00000E+00
         0.00000E+00
         0.00000E+00
         0.00000E+00
         0.00000E+00
         0.00000E+00
         0.00000E+00
         0.00000E+00
         0.00000E+00
         0.00000E+00
         0.00000E+00
         0.00000E+00
         0.00000E+00
         0.00000E+00
         0.00000E+00
         0.00000E+00
         0.00000E+00
         0.00000E+00
         0.00000E+00
         0.00000E+00
         0.00000E+00
         0.00000E+00
         0.00000E+00
         0.00000E+00
         0.00000E+00
         0.00000E+00
         0.00000E+00
         0.00000E+00
         0.00000E+00
         0.00000E+00
         0.00000E+00
         0.00000E+00
         0.00000E+00
         0.00000E+00
         0.00000E+00
         0.00000E+00
         0.00000E+00
         0.00000E+00
         0.00000E+00
         0.00000E+00
         0.00000E+00
         0.00000E+00
         0.00000E+00
         0.00000E+00
         0.00000E+00
         0.00000E+00
         0.00000E+00
         0.00000E+00
         0.00000E+00
         0.00000E+00
         0.00000E+00
         0.00000E+00
         0.00000E+00
         0.00000E+00
         0.00000E+00
         0.00000E+00
         0.00000E+00
         0.00000E+00
         0.00000E+00
         0.00000E+00
         0.00000E+00
         0.00000E+00
         0.00000E+00
         0.00000E+00
         0.00000E+00
         0.00000E+00
         0.00000E+00
         0.00000E+00
         0.00000E+00
         0.00000E+00
         0.00000E+00
         0.00000E+00
         0.00000E+00
         0.00000E+00
         0.00000E+00
         0.00000E+00
         0.00000E+00
         0.00000E+00
         0.00000E+00
         0.00000E+00
         0.00000E+00
         0.00000E+00
         0.00000E+00
         0.00000E+00
         0.00000E+00
         0.00000E+00
         0.00000E+00
         0.00000E+00
         0.00000E+00
         0.00000E+00
         0.00000E+00
         0.00000E+00
         0.00000E+00
         0.00000E+00
         0.00000E+00
         0.00000E+00
         0.00000E+00
         0.00000E+00
         0.00000E+00
         0.00000E+00
         0.00000E+00
         0.00000E+00
         0.00000E+00
         0.00000E+00
         0.00000E+00
         0.00000E+00
         0.00000E+00
         0.00000E+00
         0.00000E+00
         0.00000E+00
         0.00000E+00
         0.00000E+00
         0.00000E+00
         0.00000E+00
         0.00000E+00
         0.00000E+00
         0.00000E+00
         0.00000E+00
         0.00000E+00
         0.00000E+00
         0.00000E+00
         0.00000E+00
         0.00000E+00
         0.00000E+00
         0.00000E+00
         0.00000E+00
         0.00000E+00
         0.00000E+00
         0.00000E+00
         0.00000E+00
         0.00000E+00
         0.00000E+00
         0.00000E+00
         0.00000E+00
         0.00000E+00
         0.00000E+00
         0.00000E+00
         0.00000E+00
         0.00000E+00
         0.00000E+00
         0.00000E+00
         0.00000E+00
         0.00000E+00
         0.00000E+00
         0.00000E+00
         0.00000E+00
         0.00000E+00
         0.00000E+00
         0.00000E+00
         0.00000E+00
         0.00000E+00
         0.00000E+00
         0.00000E+00
         0.00000E+00
         0.00000E+00
         0.00000E+00
         0.00000E+00
         0.00000E+00
         0.00000E+00
         0.00000E+00
         0.00000E+00
         0.00000E+00
         0.00000E+00
         0.00000E+00
         0.00000E+00
         0.00000E+00
         0.00000E+00
         0.00000E+00
         0.00000E+00
         0.00000E+00
         0.00000E+00
         0.00000E+00
         0.00000E+00
         0.00000E+00
         0.00000E+00
         0.00000E+00
         0.00000E+00
         0.00000E+00
         0.00000E+00
         0.00000E+00
         0.00000E+00
         0.00000E+00
         0.00000E+00
         0.00000E+00
         0.00000E+00
         0.00000E+00
         0.00000E+00
         0.00000E+00
         0.00000E+00
         0.00000E+00
         0.00000E+00
         0.00000E+00
         0.00000E+00
         0.00000E+00
         0.00000E+00
         0.00000E+00
         0.00000E+00
         0.00000E+00
         0.00000E+00
         0.00000E+00
         0.00000E+00
         0.00000E+00
         0.00000E+00
         0.00000E+00
         0.00000E+00
         0.00000E+00
         0.00000E+00
         0.00000E+00
         0.00000E+00
         0.00000E+00
         0.00000E+00
         0.00000E+00
         0.00000E+00
         0.00000E+00
         0.00000E+00
         0.00000E+00
         0.00000E+00
         0.00000E+00
         0.00000E+00
         0.00000E+00
         0.00000E+00
         0.00000E+00
         0.00000E+00
         0.00000E+00
         0.00000E+00
         0.00000E+00
         0.00000E+00
         0.00000E+00
         0.00000E+00
         0.00000E+00
         0.00000E+00
         0.00000E+00
         0.00000E+00
         0.00000E+00
         0.00000E+00
         0.00000E+00
         0.00000E+00
         0.00000E+00
         0.00000E+00
         0.00000E+00
         0.00000E+00
         0.00000E+00
         0.00000E+00
         0.00000E+00
         0.00000E+00
         0.00000E+00
         0.00000E+00
         0.00000E+00
         0.00000E+00
         0.00000E+00
         0.00000E+00
         0.00000E+00
         0.00000E+00
         0.00000E+00
         0.00000E+00
         0.00000E+00
         0.00000E+00
         0.00000E+00
         0.00000E+00
         0.00000E+00
         0.00000E+00
         0.00000E+00
         0.00000E+00
         0.00000E+00
         0.00000E+00
         0.00000E+00
         0.00000E+00
         0.00000E+00
         0.00000E+00
         0.00000E+00
         0.00000E+00
         0.00000E+00
         0.00000E+00
         0.00000E+00
         0.00000E+00
         0.00000E+00
         0.00000E+00
         0.00000E+00
         0.00000E+00
         0.00000E+00
         0.00000E+00
         0.00000E+00
         0.00000E+00
         0.00000E+00
         0.00000E+00
         0.00000E+00
         0.00000E+00
         0.00000E+00
         0.00000E+00
         0.00000E+00
         0.00000E+00
         0.00000E+00
         0.00000E+00
         0.00000E+00
         0.00000E+00
         0.00000E+00
         0.00000E+00
         0.00000E+00
         0.00000E+00
         0.00000E+00
         0.00000E+00
         0.00000E+00
         0.00000E+00
         0.00000E+00
         0.00000E+00
         0.00000E+00
         0.00000E+00
         0.00000E+00
         0.00000E+00
         0.00000E+00
         0.00000E+00
         0.00000E+00
         0.00000E+00
         0.00000E+00
         0.00000E+00
         0.00000E+00
         0.00000E+00
         0.00000E+00
         0.00000E+00
         0.00000E+00
         0.00000E+00
         0.00000E+00
         0.00000E+00
         0.00000E+00
         0.00000E+00
         0.00000E+00
         0.00000E+00
         0.00000E+00
         0.00000E+00
         0.00000E+00
         0.00000E+00
         0.00000E+00
         0.00000E+00
         0.00000E+00
         0.00000E+00
         0.00000E+00
         0.00000E+00
         0.00000E+00
         0.00000E+00
         0.00000E+00
         0.00000E+00
         0.00000E+00
         0.00000E+00
         0.00000E+00
         0.00000E+00
         0.00000E+00
         0.00000E+00
         0.00000E+00
         0.00000E+00
         0.00000E+00
         0.00000E+00
         0.00000E+00
         0.00000E+00
         0.00000E+00
         0.00000E+00
         0.00000E+00
         0.00000E+00
         0.00000E+00
         0.00000E+00
         0.00000E+00
         0.00000E+00
         0.00000E+00
         0.00000E+00
         0.00000E+00
         0.00000E+00
         0.00000E+00
         0.00000E+00
         0.00000E+00
         0.00000E+00
         0.00000E+00
         0.00000E+00
         0.00000E+00
         0.00000E+00
         0.00000E+00
         0.00000E+00
         0.00000E+00
         0.00000E+00
         0.00000E+00
         0.00000E+00
         0.00000E+00
         0.00000E+00
         0.00000E+00
         0.00000E+00
         0.00000E+00
         0.00000E+00
         0.00000E+00
         0.00000E+00
         0.00000E+00
         0.00000E+00
         0.00000E+00
         0.00000E+00
         0.00000E+00
         0.00000E+00
         0.00000E+00
         0.00000E+00
         0.00000E+00
         0.00000E+00
         0.00000E+00
         0.00000E+00
         0.00000E+00
         0.00000E+00
         0.00000E+00
         0.00000E+00
         0.00000E+00
         0.00000E+00
         0.00000E+00
         0.00000E+00
         0.00000E+00
         0.00000E+00
         0.00000E+00
         0.00000E+00
         0.00000E+00
         0.00000E+00
         0.00000E+00
         0.00000E+00
         0.00000E+00
         0.00000E+00
         0.00000E+00
         0.00000E+00
         0.00000E+00
         0.00000E+00
         0.00000E+00
         0.00000E+00
         0.00000E+00
         0.00000E+00
         0.00000E+00
         0.00000E+00
         0.00000E+00
         0.00000E+00
         0.00000E+00
         0.00000E+00
         0.00000E+00
         0.00000E+00
         0.00000E+00
         0.00000E+00
         0.00000E+00
         0.00000E+00
         0.00000E+00
         0.00000E+00
         0.00000E+00
         0.00000E+00
         0.00000E+00
         0.00000E+00
         0.00000E+00
         0.00000E+00
         0.00000E+00
         0.00000E+00
         0.00000E+00
         0.00000E+00
         0.00000E+00
         0.00000E+00
         0.00000E+00
         0.00000E+00
         0.00000E+00
         0.00000E+00
         0.00000E+00
         0.00000E+00
         0.00000E+00
         0.00000E+00
         0.00000E+00
         0.00000E+00
         0.00000E+00
         0.00000E+00
         0.00000E+00
         0.00000E+00
         0.00000E+00
         0.00000E+00
         0.00000E+00
         0.00000E+00
         0.00000E+00
         0.00000E+00
         0.00000E+00
         0.00000E+00
         0.00000E+00
         0.00000E+00
         0.00000E+00
         0.00000E+00
         0.00000E+00
         0.00000E+00
         0.00000E+00
         0.00000E+00
         0.00000E+00
         0.00000E+00
         0.00000E+00
         0.00000E+00
         0.00000E+00
         0.00000E+00
         0.00000E+00
         0.00000E+00
         0.00000E+00
         0.00000E+00
         0.00000E+00
         0.00000E+00
         0.00000E+00
         0.00000E+00
         0.00000E+00
         0.00000E+00
         0.00000E+00
         0.00000E+00
         0.00000E+00
         0.00000E+00
         0.00000E+00
         0.00000E+00
         0.00000E+00
         0.00000E+00
         0.00000E+00
         0.00000E+00
         0.00000E+00
         0.00000E+00
         0.00000E+00
         0.00000E+00
         0.00000E+00
         0.00000E+00
         0.00000E+00
         0.00000E+00
         0.00000E+00
         0.00000E+00
         0.00000E+00
         0.00000E+00
         0.00000E+00
         0.00000E+00
         0.00000E+00
         0.00000E+00
         0.00000E+00
         0.00000E+00
         0.00000E+00
         0.00000E+00
         0.00000E+00
         0.00000E+00
         0.00000E+00
         0.00000E+00
         0.00000E+00
         0.00000E+00
         0.00000E+00
         0.00000E+00
         0.00000E+00
         0.00000E+00
         0.00000E+00
         0.00000E+00
         0.00000E+00
         0.00000E+00
         0.00000E+00
         0.00000E+00
         0.00000E+00
         0.00000E+00
         0.00000E+00
         0.00000E+00
         0.00000E+00
         0.00000E+00
         0.00000E+00
         0.00000E+00
         0.00000E+00
         0.00000E+00
         0.00000E+00
         0.00000E+00
         0.00000E+00
         0.00000E+00
         0.00000E+00
         0.00000E+00
         0.00000E+00
         0.00000E+00
         0.00000E+00
         0.00000E+00
         0.00000E+00
         0.00000E+00
         0.00000E+00
         0.00000E+00
         0.00000E+00
         0.00000E+00
         0.00000E+00
         0.00000E+00
         0.00000E+00
         0.00000E+00
         0.00000E+00
         0.00000E+00
         0.00000E+00
         0.00000E+00
         0.00000E+00
         0.00000E+00
         0.00000E+00
         0.00000E+00
         0.00000E+00
         0.00000E+00
         0.00000E+00
         0.00000E+00
         0.00000E+00
         0.00000E+00
         0.00000E+00
         0.00000E+00
         0.00000E+00
         0.00000E+00
         0.00000E+00
         0.00000E+00
         0.00000E+00
         0.00000E+00
         0.00000E+00
         0.00000E+00
         0.00000E+00
         0.00000E+00
         0.00000E+00
         0.00000E+00
         0.00000E+00
         0.00000E+00
         0.00000E+00
         0.00000E+00
         0.00000E+00
         0.00000E+00
         0.00000E+00
         0.00000E+00
         0.00000E+00
         0.00000E+00
         0.00000E+00
         0.00000E+00
         0.00000E+00
         0.00000E+00
         0.00000E+00
         0.00000E+00
         0.00000E+00
         0.00000E+00
         0.00000E+00
         0.00000E+00
         0.00000E+00
         0.00000E+00
         0.00000E+00
         0.00000E+00
         0.00000E+00
         0.00000E+00
         0.00000E+00
         0.00000E+00
         0.00000E+00
         0.00000E+00
         0.00000E+00
         0.00000E+00
         0.00000E+00
         0.00000E+00
         0.00000E+00
         0.00000E+00
         0.00000E+00
         0.00000E+00
         0.00000E+00
         0.00000E+00
         0.00000E+00
         0.00000E+00
         0.00000E+00
         0.00000E+00
         0.00000E+00
         0.00000E+00
         0.00000E+00
         0.00000E+00
         0.00000E+00
         0.00000E+00
         0.00000E+00
         0.00000E+00
         0.00000E+00
         0.00000E+00
         0.00000E+00
         0.00000E+00
         0.00000E+00
         0.00000E+00
         0.00000E+00
         0.00000E+00
         0.00000E+00
         0.00000E+00
         0.00000E+00
         0.00000E+00
         0.00000E+00
         0.00000E+00
         0.00000E+00
         0.00000E+00
         0.00000E+00
         0.00000E+00
         0.00000E+00
         0.00000E+00
         0.00000E+00
         0.00000E+00
         0.00000E+00
         0.00000E+00
         0.00000E+00
         0.00000E+00
         0.00000E+00
         0.00000E+00
         0.00000E+00
         0.00000E+00
         0.00000E+00
         0.00000E+00
         0.00000E+00
         0.00000E+00
         0.00000E+00
         0.00000E+00
         0.00000E+00
         0.00000E+00
         0.00000E+00
         0.00000E+00
         0.00000E+00
         0.00000E+00
         0.00000E+00
         0.00000E+00
         0.00000E+00
         0.00000E+00
         0.00000E+00
         0.00000E+00
         0.00000E+00
         0.00000E+00
         0.00000E+00
         0.00000E+00
         0.00000E+00
         0.00000E+00
         0.00000E+00
         0.00000E+00
         0.00000E+00
         0.00000E+00
         0.00000E+00
         0.00000E+00
         0.00000E+00
         0.00000E+00
         0.00000E+00
         0.00000E+00
         0.00000E+00
         0.00000E+00
         0.00000E+00
         0.00000E+00
         0.00000E+00
         0.00000E+00
         0.00000E+00
         0.00000E+00
         0.00000E+00
         0.00000E+00
         0.00000E+00
         0.00000E+00
         0.00000E+00
         0.00000E+00
         0.00000E+00
         0.00000E+00
         0.00000E+00
         0.00000E+00
         0.00000E+00
         0.00000E+00
         0.00000E+00
         0.00000E+00
         0.00000E+00
         0.00000E+00
         0.00000E+00
         0.00000E+00
         0.00000E+00
         0.00000E+00
         0.00000E+00
         0.00000E+00
         0.00000E+00
         0.00000E+00
         0.00000E+00
         0.00000E+00
         0.00000E+00
         0.00000E+00
         0.00000E+00
         0.00000E+00
         0.00000E+00
         0.00000E+00
         0.00000E+00
         0.00000E+00
         0.00000E+00
         0.00000E+00
         0.00000E+00
         0.00000E+00
         0.00000E+00
         0.00000E+00
         0.00000E+00
         0.00000E+00
         0.00000E+00
         0.00000E+00
         0.00000E+00
         0.00000E+00
         0.00000E+00
         0.00000E+00
         0.00000E+00
         0.00000E+00
         0.00000E+00
         0.00000E+00
         0.00000E+00
         0.00000E+00
         0.00000E+00
         0.00000E+00
         0.00000E+00
         0.00000E+00
         0.00000E+00
         0.00000E+00
         0.00000E+00
         0.00000E+00
         0.00000E+00
         0.00000E+00
         0.00000E+00
         0.00000E+00
         0.00000E+00
         0.00000E+00
         0.00000E+00
         0.00000E+00
         0.00000E+00
         0.00000E+00
         0.00000E+00
         0.00000E+00
         0.00000E+00
         0.00000E+00
         0.00000E+00
         0.00000E+00
         0.00000E+00
         0.00000E+00
         0.00000E+00
         0.00000E+00
         0.00000E+00
         0.00000E+00
         0.00000E+00
         0.00000E+00
         0.00000E+00
         0.00000E+00
         0.00000E+00
         0.00000E+00
         0.00000E+00
         0.00000E+00
         0.00000E+00
         0.00000E+00
         0.00000E+00
         0.00000E+00
         0.00000E+00
         0.00000E+00
         0.00000E+00
         0.00000E+00
         0.00000E+00
         0.00000E+00
         0.00000E+00
         0.00000E+00
         0.00000E+00
         0.00000E+00
         0.00000E+00
         0.00000E+00
         0.00000E+00
         0.00000E+00
         0.00000E+00
         0.00000E+00
         0.00000E+00
         0.00000E+00
         0.00000E+00
         0.00000E+00
         0.00000E+00
         0.00000E+00
         0.00000E+00
         0.00000E+00
         0.00000E+00
         0.00000E+00
         0.00000E+00
         0.00000E+00
         0.00000E+00
         0.00000E+00
         0.00000E+00
         0.00000E+00
         0.00000E+00
         0.00000E+00
         0.00000E+00
         0.00000E+00
         0.00000E+00
         0.00000E+00
         0.00000E+00
         0.00000E+00
         0.00000E+00
         0.00000E+00
         0.00000E+00
         0.00000E+00
         0.00000E+00
         0.00000E+00
         0.00000E+00
         0.00000E+00
         0.00000E+00
         0.00000E+00
         0.00000E+00
         0.00000E+00
         0.00000E+00
         0.00000E+00
         0.00000E+00
         0.00000E+00
         0.00000E+00
         0.00000E+00
         0.00000E+00
         0.00000E+00
         0.00000E+00
         0.00000E+00
         0.00000E+00
         0.00000E+00
         0.00000E+00
         0.00000E+00
         0.00000E+00
         0.00000E+00
         0.00000E+00
         0.00000E+00
         0.00000E+00
         0.00000E+00
         0.00000E+00
         0.00000E+00
         0.00000E+00
         0.00000E+00
         0.00000E+00
         0.00000E+00
         0.00000E+00
         0.00000E+00
         0.00000E+00
         0.00000E+00
         0.00000E+00
         0.00000E+00
         0.00000E+00
         0.00000E+00
         0.00000E+00
         0.00000E+00
         0.00000E+00
         0.00000E+00
         0.00000E+00
         0.00000E+00
         0.00000E+00
         0.00000E+00
         0.00000E+00
         0.00000E+00
         0.00000E+00
         0.00000E+00
         0.00000E+00
         0.00000E+00
         0.00000E+00
         0.00000E+00
         0.00000E+00
         0.00000E+00
         0.00000E+00
         0.00000E+00
         0.00000E+00
         0.00000E+00
         0.00000E+00
         0.00000E+00
         0.00000E+00
         0.00000E+00
         0.00000E+00
         0.00000E+00
         0.00000E+00
         0.00000E+00
         0.00000E+00
         0.00000E+00
         0.00000E+00
         0.00000E+00
         0.00000E+00
         0.00000E+00
         0.00000E+00
         0.00000E+00
         0.00000E+00
         0.00000E+00
         0.00000E+00
         0.00000E+00
         0.00000E+00
         0.00000E+00
         0.00000E+00
         0.00000E+00
         0.00000E+00
         0.00000E+00
         0.00000E+00
         0.00000E+00
         0.00000E+00
         0.00000E+00
         0.00000E+00
         0.00000E+00
         0.00000E+00
         0.00000E+00
         0.00000E+00
         0.00000E+00
         0.00000E+00
         0.00000E+00
         0.00000E+00
         0.00000E+00
         0.00000E+00
         0.00000E+00
         0.00000E+00
         0.00000E+00
         0.00000E+00
         0.00000E+00
         0.00000E+00
         0.00000E+00
         0.00000E+00
         0.00000E+00
         0.00000E+00
         0.00000E+00
         0.00000E+00
         0.00000E+00
         0.00000E+00
         0.00000E+00
         0.00000E+00
         0.00000E+00
         0.00000E+00
         0.00000E+00
         0.00000E+00
         0.00000E+00
         0.00000E+00
         0.00000E+00
         0.00000E+00
         0.00000E+00
         0.00000E+00
         0.00000E+00
         0.00000E+00
         0.00000E+00
         0.00000E+00
         0.00000E+00
         0.00000E+00
         0.00000E+00
         0.00000E+00
         0.00000E+00
         0.00000E+00
         0.00000E+00
         0.00000E+00
         0.00000E+00
         0.00000E+00
         0.00000E+00
         0.00000E+00
         0.00000E+00
         0.00000E+00
         0.00000E+00
         0.00000E+00
         0.00000E+00
         0.00000E+00
         0.00000E+00
         0.00000E+00
         0.00000E+00
         0.00000E+00
         0.00000E+00
         0.00000E+00
         0.00000E+00
         0.00000E+00
         0.00000E+00
         0.00000E+00
         0.00000E+00
         0.00000E+00
         0.00000E+00
         0.00000E+00
         0.00000E+00
         0.00000E+00
         0.00000E+00
         0.00000E+00
         0.00000E+00
         0.00000E+00
         0.00000E+00
         0.00000E+00
         0.00000E+00
         0.00000E+00
         0.00000E+00
         0.00000E+00
         0.00000E+00
         0.00000E+00
         0.00000E+00
         0.00000E+00
         0.00000E+00
         0.00000E+00
         0.00000E+00
         0.00000E+00
         0.00000E+00
         0.00000E+00
         0.00000E+00
         0.00000E+00
         0.00000E+00
         0.00000E+00
         0.00000E+00
         0.00000E+00
         0.00000E+00
         0.00000E+00
         0.00000E+00
         0.00000E+00
         0.00000E+00
         0.00000E+00
         0.00000E+00
         0.00000E+00
         0.00000E+00
         0.00000E+00
         0.00000E+00
         0.00000E+00
         0.00000E+00
         0.00000E+00
         0.00000E+00
         0.00000E+00
         0.00000E+00
         0.00000E+00
         0.00000E+00
         0.00000E+00
         0.00000E+00
         0.00000E+00
         0.00000E+00
         0.00000E+00
         0.00000E+00
         0.00000E+00
         0.00000E+00
         0.00000E+00
         0.00000E+00
         0.00000E+00
         0.00000E+00
         0.00000E+00
         0.00000E+00
         0.00000E+00
         0.00000E+00
         0.00000E+00
         0.00000E+00
         0.00000E+00
         0.00000E+00
         0.00000E+00
         0.00000E+00
         0.00000E+00
         0.00000E+00
         0.00000E+00
         0.00000E+00
         0.00000E+00
         0.00000E+00
         0.00000E+00
         0.00000E+00
         0.00000E+00
         0.00000E+00
         0.00000E+00
         0.00000E+00
         0.00000E+00
         0.00000E+00
         0.00000E+00
         0.00000E+00
         0.00000E+00
         0.00000E+00
         0.00000E+00
         0.00000E+00
         0.00000E+00
         0.00000E+00
         0.00000E+00
         0.00000E+00
         0.00000E+00
         0.00000E+00
         0.00000E+00
         0.00000E+00
         0.00000E+00
         0.00000E+00
         0.00000E+00
         0.00000E+00
         0.00000E+00
         0.00000E+00
         0.00000E+00
         0.00000E+00
         0.00000E+00
         0.00000E+00
         0.00000E+00
         0.00000E+00
         0.00000E+00
         0.00000E+00
         0.00000E+00
         0.00000E+00
         0.00000E+00
         0.00000E+00
         0.00000E+00
         0.00000E+00
         0.00000E+00
         0.00000E+00
         0.00000E+00
         0.00000E+00
         0.00000E+00
         0.00000E+00
         0.00000E+00
         0.00000E+00
         0.00000E+00
         0.00000E+00
         0.00000E+00
         0.00000E+00
         0.00000E+00
         0.00000E+00
         0.00000E+00
         0.00000E+00
         0.00000E+00
         0.00000E+00
         0.00000E+00
         0.00000E+00
         0.00000E+00
         0.00000E+00
         0.00000E+00
         0.00000E+00
         0.00000E+00
         0.00000E+00
         0.00000E+00
         0.00000E+00
         0.00000E+00
         0.00000E+00
         0.00000E+00
         0.00000E+00
         0.00000E+00
         0.00000E+00
         0.00000E+00
         0.00000E+00
         0.00000E+00
         0.00000E+00
         0.00000E+00
         0.00000E+00
         0.00000E+00
         0.00000E+00
         0.00000E+00
         0.00000E+00
         0.00000E+00
         0.00000E+00
         0.00000E+00
         0.00000E+00
         0.00000E+00
         0.00000E+00
         0.00000E+00
         0.00000E+00
         0.00000E+00
         0.00000E+00
         0.00000E+00
         0.00000E+00
         0.00000E+00
         0.00000E+00
         0.00000E+00
         0.00000E+00
         0.00000E+00
         0.00000E+00
         0.00000E+00
         0.00000E+00
         0.00000E+00
         0.00000E+00
         0.00000E+00
         0.00000E+00
         0.00000E+00
         0.00000E+00
         0.00000E+00
         0.00000E+00
         0.00000E+00
         0.00000E+00
         0.00000E+00
         0.00000E+00
         0.00000E+00
         0.00000E+00
         0.00000E+00
         0.00000E+00
         0.00000E+00
         0.00000E+00
         0.00000E+00
         0.00000E+00
         0.00000E+00
         0.00000E+00
         0.00000E+00
         0.00000E+00
         0.00000E+00
         0.00000E+00
         0.00000E+00
         0.00000E+00
         0.00000E+00
         0.00000E+00
         0.00000E+00
         0.00000E+00
         0.00000E+00
         0.00000E+00
         0.00000E+00
         0.00000E+00
         0.00000E+00
         0.00000E+00
         0.00000E+00
         0.00000E+00
         0.00000E+00
         0.00000E+00
         0.00000E+00
         0.00000E+00
         0.00000E+00
         0.00000E+00
         0.00000E+00
         0.00000E+00
         0.00000E+00
         0.00000E+00
         0.00000E+00
         0.00000E+00
         0.00000E+00
         0.00000E+00
         0.00000E+00
         0.00000E+00
         0.00000E+00
         0.00000E+00
         0.00000E+00
         0.00000E+00
         0.00000E+00
         0.00000E+00
         0.00000E+00
         0.00000E+00
         0.00000E+00
         0.00000E+00
         0.00000E+00
         0.00000E+00
         0.00000E+00
         0.00000E+00
         0.00000E+00
         0.00000E+00
         0.00000E+00
         0.00000E+00
         0.00000E+00
         0.00000E+00
         0.00000E+00
         0.00000E+00
         0.00000E+00
         0.00000E+00
         0.00000E+00
         0.00000E+00
         0.00000E+00
         0.00000E+00
         0.00000E+00
         0.00000E+00
         0.00000E+00
         0.00000E+00
         0.00000E+00
         0.00000E+00
         0.00000E+00
         0.00000E+00
         0.00000E+00
         0.00000E+00
         0.00000E+00
         0.00000E+00
         0.00000E+00
         0.00000E+00
         0.00000E+00
         0.00000E+00
         0.00000E+00
         0.00000E+00
         0.00000E+00
         0.00000E+00
         0.00000E+00
         0.00000E+00
         0.00000E+00
         0.00000E+00
         0.00000E+00
         0.00000E+00
         0.00000E+00
         0.00000E+00
         0.00000E+00
         0.00000E+00
         0.00000E+00
         0.00000E+00
         0.00000E+00
         0.00000E+00
         0.00000E+00
         0.00000E+00
         0.00000E+00
         0.00000E+00
         0.00000E+00
         0.00000E+00
         0.00000E+00
         0.00000E+00
  
SCALARS                            eps  double 1
LOOKUP_TABLE default
         0.11857E+01
         0.11709E+01
         0.11803E+01
         0.11972E+01
         0.00000E+00
         0.00000E+00
         0.00000E+00
         0.00000E+00
         0.11705E+01
         0.11755E+01
         0.00000E+00
         0.00000E+00
         0.11495E+01
         0.11487E+01
         0.00000E+00
         0.00000E+00
         0.11947E+01
         0.11499E+01
         0.00000E+00
         0.00000E+00
         0.11335E+01
         0.11208E+01
         0.11410E+01
         0.00000E+00
         0.00000E+00
         0.00000E+00
         0.11213E+01
         0.11027E+01
         0.00000E+00
         0.00000E+00
         0.11939E+01
         0.11744E+01
         0.12128E+01
         0.00000E+00
         0.00000E+00
         0.00000E+00
         0.11826E+01
         0.11578E+01
         0.00000E+00
         0.00000E+00
         0.11728E+01
         0.11537E+01
         0.00000E+00
         0.00000E+00
         0.11890E+01
         0.11962E+01
         0.00000E+00
         0.00000E+00
         0.11383E+01
         0.00000E+00
         0.11948E+01
         0.00000E+00
         0.11159E+01
         0.00000E+00
         0.11100E+01
         0.00000E+00
         0.11102E+01
         0.11309E+01
         0.00000E+00
         0.00000E+00
         0.11935E+01
         0.11860E+01
         0.00000E+00
         0.00000E+00
         0.11982E+01
         0.00000E+00
         0.11893E+01
         0.00000E+00
         0.11660E+01
         0.11636E+01
         0.00000E+00
         0.00000E+00
         0.11582E+01
         0.00000E+00
         0.10961E+01
         0.00000E+00
         0.10929E+01
         0.00000E+00
         0.10946E+01
         0.00000E+00
         0.11036E+01
         0.11129E+01
         0.00000E+00
         0.00000E+00
         0.11316E+01
         0.00000E+00
         0.11886E+01
         0.00000E+00
         0.11798E+01
         0.00000E+00
         0.11726E+01
         0.11685E+01
         0.00000E+00
         0.00000E+00
         0.11733E+01
         0.00000E+00
         0.11769E+01
         0.00000E+00
         0.11737E+01
         0.00000E+00
         0.11727E+01
         0.11758E+01
         0.00000E+00
         0.00000E+00
         0.11555E+01
         0.11640E+01
         0.00000E+00
         0.00000E+00
         0.11540E+01
         0.00000E+00
         0.11639E+01
         0.00000E+00
         0.11542E+01
         0.00000E+00
         0.11330E+01
         0.00000E+00
         0.11126E+01
         0.00000E+00
         0.11003E+01
         0.00000E+00
         0.10991E+01
         0.00000E+00
         0.10994E+01
         0.00000E+00
         0.11127E+01
         0.00000E+00
         0.11378E+01
         0.00000E+00
         0.11653E+01
         0.00000E+00
         0.11813E+01
         0.00000E+00
         0.11972E+01
         0.00000E+00
         0.12077E+01
         0.00000E+00
         0.12074E+01
         0.00000E+00
         0.11816E+01
         0.00000E+00
         0.11637E+01
         0.00000E+00
         0.11578E+01
         0.00000E+00
         0.11674E+01
         0.00000E+00
         0.11723E+01
         0.00000E+00
         0.11638E+01
         0.00000E+00
         0.11638E+01
         0.00000E+00
         0.11702E+01
         0.00000E+00
         0.11786E+01
         0.00000E+00
         0.24173E+00
         0.24494E+00
         0.24451E+00
         0.24030E+00
         0.24801E+00
         0.24417E+00
         0.24887E+00
         0.24644E+00
         0.24098E+00
         0.24442E+00
         0.25142E+00
         0.25227E+00
         0.25019E+00
         0.24999E+00
         0.25141E+00
         0.24051E+00
         0.24130E+00
         0.23906E+00
         0.24529E+00
         0.24418E+00
         0.24581E+00
         0.24478E+00
         0.24669E+00
         0.24614E+00
         0.24428E+00
         0.24440E+00
         0.24758E+00
         0.24729E+00
         0.24960E+00
         0.24610E+00
         0.24090E+00
         0.24499E+00
         0.24093E+00
         0.24362E+00
         0.25279E+00
         0.24992E+00
         0.24855E+00
         0.25020E+00
         0.25039E+00
         0.25297E+00
         0.25486E+00
         0.25029E+00
         0.24576E+00
         0.24637E+00
         0.24869E+00
         0.25270E+00
         0.24927E+00
         0.24552E+00
         0.24578E+00
         0.24869E+00
         0.25162E+00
         0.24767E+00
         0.25980E+00
         0.25666E+00
         0.25727E+00
         0.25656E+00
         0.25686E+00
         0.25875E+00
         0.26047E+00
         0.26086E+00
         0.26057E+00
         0.26081E+00
         0.26149E+00
         0.25694E+00
         0.25496E+00
         0.25420E+00
         0.25309E+00
         0.25225E+00
         0.25235E+00
         0.25396E+00
         0.25882E+00
         0.25775E+00
         0.25598E+00
         0.25592E+00
         0.25623E+00
         0.25780E+00
         0.25546E+00
         0.25459E+00
         0.11355E-02
         0.00000E+00
         0.00000E+00
         0.00000E+00
         0.12988E-02
         0.00000E+00
         0.00000E+00
         0.10656E-02
         0.00000E+00
         0.82503E-03
         0.00000E+00
         0.51742E-02
         0.31713E-02
         0.32878E-04
         0.55692E-02
         0.00000E+00
         0.00000E+00
         0.00000E+00
         0.00000E+00
         0.00000E+00
         0.33959E-02
         0.29921E-02
         0.28320E-02
         0.00000E+00
         0.00000E+00
         0.00000E+00
         0.00000E+00
         0.00000E+00
         0.00000E+00
         0.00000E+00
         0.00000E+00
         0.00000E+00
         0.00000E+00
         0.00000E+00
         0.25911E-02
         0.30263E-03
         0.13046E-02
         0.39592E-02
         0.23222E-02
         0.19453E-02
         0.40789E-02
         0.34037E-02
         0.34473E-02
         0.19623E-02
         0.14193E-02
         0.30899E-02
         0.95217E-03
         0.34583E-03
         0.00000E+00
         0.25566E-03
         0.23906E-02
         0.66652E-03
         0.21327E-01
         0.21918E-01
         0.23064E-01
         0.22872E-01
         0.24605E-01
         0.26670E-01
         0.25454E-01
         0.22257E-01
         0.21604E-01
         0.23358E-01
         0.22825E-01
         0.22468E-01
         0.17992E-01
         0.16940E-01
         0.18938E-01
         0.20523E-01
         0.21425E-01
         0.23708E-01
         0.22676E-01
         0.23381E-01
         0.20717E-01
         0.19502E-01
         0.21021E-01
         0.20474E-01
         0.21166E-01
         0.20960E-01
         0.11387E-02
         0.00000E+00
         0.00000E+00
         0.00000E+00
         0.12968E-02
         0.00000E+00
         0.00000E+00
         0.10696E-02
         0.00000E+00
         0.83659E-03
         0.00000E+00
         0.51740E-02
         0.31738E-02
         0.25562E-04
         0.55782E-02
         0.00000E+00
         0.00000E+00
         0.00000E+00
         0.00000E+00
         0.00000E+00
         0.33965E-02
         0.29917E-02
         0.28316E-02
         0.00000E+00
         0.00000E+00
         0.00000E+00
         0.00000E+00
         0.00000E+00
         0.00000E+00
         0.00000E+00
         0.00000E+00
         0.00000E+00
         0.00000E+00
         0.00000E+00
         0.25937E-02
         0.30166E-03
         0.13036E-02
         0.39703E-02
         0.23344E-02
         0.19523E-02
         0.40837E-02
         0.34071E-02
         0.34481E-02
         0.19622E-02
         0.14184E-02
         0.30896E-02
         0.95223E-03
         0.34562E-03
         0.00000E+00
         0.25108E-03
         0.23875E-02
         0.66071E-03
         0.21318E-01
         0.21912E-01
         0.23064E-01
         0.22872E-01
         0.24601E-01
         0.26659E-01
         0.25442E-01
         0.22251E-01
         0.21598E-01
         0.23350E-01
         0.22821E-01
         0.22469E-01
         0.17990E-01
         0.16939E-01
         0.18940E-01
         0.20529E-01
         0.21431E-01
         0.23714E-01
         0.22674E-01
         0.23380E-01
         0.20715E-01
         0.19500E-01
         0.21012E-01
         0.20458E-01
         0.21152E-01
         0.20947E-01
         0.11419E-02
         0.00000E+00
         0.00000E+00
         0.00000E+00
         0.12948E-02
         0.00000E+00
         0.00000E+00
         0.10737E-02
         0.00000E+00
         0.84806E-03
         0.00000E+00
         0.51737E-02
         0.31763E-02
         0.18243E-04
         0.55872E-02
         0.00000E+00
         0.00000E+00
         0.00000E+00
         0.00000E+00
         0.00000E+00
         0.33971E-02
         0.29913E-02
         0.28313E-02
         0.00000E+00
         0.00000E+00
         0.00000E+00
         0.00000E+00
         0.00000E+00
         0.00000E+00
         0.00000E+00
         0.00000E+00
         0.00000E+00
         0.00000E+00
         0.00000E+00
         0.25962E-02
         0.30078E-03
         0.13025E-02
         0.39813E-02
         0.23467E-02
         0.19594E-02
         0.40886E-02
         0.34106E-02
         0.34490E-02
         0.19623E-02
         0.14176E-02
         0.30894E-02
         0.95227E-03
         0.34537E-03
         0.00000E+00
         0.24646E-03
         0.23845E-02
         0.65495E-03
         0.21309E-01
         0.21906E-01
         0.23064E-01
         0.22872E-01
         0.24596E-01
         0.26649E-01
         0.25430E-01
         0.22244E-01
         0.21591E-01
         0.23342E-01
         0.22816E-01
         0.22470E-01
         0.17989E-01
         0.16938E-01
         0.18943E-01
         0.20535E-01
         0.21437E-01
         0.23720E-01
         0.22673E-01
         0.23378E-01
         0.20712E-01
         0.19499E-01
         0.21004E-01
         0.20443E-01
         0.21139E-01
         0.20934E-01
         0.11452E-02
         0.00000E+00
         0.00000E+00
         0.00000E+00
         0.12928E-02
         0.00000E+00
         0.00000E+00
         0.10776E-02
         0.00000E+00
         0.85930E-03
         0.00000E+00
         0.51735E-02
         0.31789E-02
         0.10947E-04
         0.55963E-02
         0.00000E+00
         0.00000E+00
         0.00000E+00
         0.00000E+00
         0.00000E+00
         0.33979E-02
         0.29911E-02
         0.28314E-02
         0.00000E+00
         0.00000E+00
         0.00000E+00
         0.00000E+00
         0.00000E+00
         0.00000E+00
         0.00000E+00
         0.00000E+00
         0.00000E+00
         0.00000E+00
         0.00000E+00
         0.25987E-02
         0.29984E-03
         0.13015E-02
         0.39924E-02
         0.23592E-02
         0.19669E-02
         0.40938E-02
         0.34142E-02
         0.34502E-02
         0.19629E-02
         0.14171E-02
         0.30893E-02
         0.95259E-03
         0.34517E-03
         0.00000E+00
         0.24185E-03
         0.23813E-02
         0.64914E-03
         0.21300E-01
         0.21900E-01
         0.23064E-01
         0.22872E-01
         0.24591E-01
         0.26639E-01
         0.25418E-01
         0.22237E-01
         0.21585E-01
         0.23334E-01
         0.22812E-01
         0.22472E-01
         0.17987E-01
         0.16938E-01
         0.18946E-01
         0.20541E-01
         0.21445E-01
         0.23726E-01
         0.22671E-01
         0.23377E-01
         0.20710E-01
         0.19497E-01
         0.20995E-01
         0.20427E-01
         0.21125E-01
         0.20921E-01
         0.11483E-02
         0.00000E+00
         0.00000E+00
         0.00000E+00
         0.12908E-02
         0.00000E+00
         0.00000E+00
         0.10816E-02
         0.00000E+00
         0.87028E-03
         0.00000E+00
         0.51732E-02
         0.31814E-02
         0.36466E-05
         0.56054E-02
         0.00000E+00
         0.00000E+00
         0.00000E+00
         0.00000E+00
         0.00000E+00
         0.33990E-02
         0.29909E-02
         0.28318E-02
         0.00000E+00
         0.00000E+00
         0.00000E+00
         0.00000E+00
         0.00000E+00
         0.00000E+00
         0.00000E+00
         0.00000E+00
         0.00000E+00
         0.00000E+00
         0.00000E+00
         0.26013E-02
         0.29889E-03
         0.13005E-02
         0.40036E-02
         0.23719E-02
         0.19746E-02
         0.40994E-02
         0.34180E-02
         0.34517E-02
         0.19639E-02
         0.14169E-02
         0.30896E-02
         0.95308E-03
         0.34513E-03
         0.00000E+00
         0.23719E-03
         0.23784E-02
         0.64334E-03
         0.21291E-01
         0.21894E-01
         0.23063E-01
         0.22873E-01
         0.24587E-01
         0.26629E-01
         0.25406E-01
         0.22230E-01
         0.21579E-01
         0.23326E-01
         0.22808E-01
         0.22473E-01
         0.17986E-01
         0.16937E-01
         0.18949E-01
         0.20549E-01
         0.21453E-01
         0.23732E-01
         0.22670E-01
         0.23375E-01
         0.20707E-01
         0.19496E-01
         0.20987E-01
         0.20412E-01
         0.21111E-01
         0.20908E-01
         0.11514E-02
         0.00000E+00
         0.00000E+00
         0.00000E+00
         0.12888E-02
         0.00000E+00
         0.00000E+00
         0.10853E-02
         0.00000E+00
         0.88095E-03
         0.00000E+00
         0.51730E-02
         0.31839E-02
         0.00000E+00
         0.56144E-02
         0.00000E+00
         0.00000E+00
         0.00000E+00
         0.00000E+00
         0.00000E+00
         0.34001E-02
         0.29909E-02
         0.28324E-02
         0.00000E+00
         0.00000E+00
         0.00000E+00
         0.00000E+00
         0.00000E+00
         0.00000E+00
         0.00000E+00
         0.00000E+00
         0.00000E+00
         0.00000E+00
         0.00000E+00
         0.26039E-02
         0.29812E-03
         0.12996E-02
         0.40148E-02
         0.23847E-02
         0.19827E-02
         0.41050E-02
         0.34219E-02
         0.34533E-02
         0.19652E-02
         0.14171E-02
         0.30902E-02
         0.95365E-03
         0.34520E-03
         0.00000E+00
         0.23268E-03
         0.23754E-02
         0.63769E-03
         0.21283E-01
         0.21888E-01
         0.23063E-01
         0.22873E-01
         0.24582E-01
         0.26619E-01
         0.25393E-01
         0.22223E-01
         0.21572E-01
         0.23318E-01
         0.22803E-01
         0.22475E-01
         0.17985E-01
         0.16937E-01
         0.18953E-01
         0.20557E-01
         0.21462E-01
         0.23739E-01
         0.22669E-01
         0.23373E-01
         0.20705E-01
         0.19494E-01
         0.20979E-01
         0.20396E-01
         0.21097E-01
         0.20895E-01
         0.11541E-02
         0.00000E+00
         0.00000E+00
         0.00000E+00
         0.12869E-02
         0.00000E+00
         0.00000E+00
         0.10884E-02
         0.00000E+00
         0.89118E-03
         0.00000E+00
         0.51731E-02
         0.31868E-02
         0.00000E+00
         0.56235E-02
         0.00000E+00
         0.00000E+00
         0.00000E+00
         0.00000E+00
         0.00000E+00
         0.34012E-02
         0.29909E-02
         0.28330E-02
         0.00000E+00
         0.00000E+00
         0.00000E+00
         0.00000E+00
         0.00000E+00
         0.00000E+00
         0.00000E+00
         0.00000E+00
         0.00000E+00
         0.00000E+00
         0.00000E+00
         0.26066E-02
         0.29747E-03
         0.12989E-02
         0.40261E-02
         0.23977E-02
         0.19907E-02
         0.41108E-02
         0.34258E-02
         0.34550E-02
         0.19665E-02
         0.14174E-02
         0.30910E-02
         0.95453E-03
         0.34563E-03
         0.00000E+00
         0.22837E-03
         0.23727E-02
         0.63203E-03
         0.21274E-01
         0.21882E-01
         0.23063E-01
         0.22873E-01
         0.24577E-01
         0.26609E-01
         0.25381E-01
         0.22216E-01
         0.21566E-01
         0.23310E-01
         0.22799E-01
         0.22477E-01
         0.17985E-01
         0.16936E-01
         0.18956E-01
         0.20565E-01
         0.21470E-01
         0.23745E-01
         0.22667E-01
         0.23372E-01
         0.20702E-01
         0.19493E-01
         0.20970E-01
         0.20381E-01
         0.21084E-01
         0.20882E-01
         0.11568E-02
         0.00000E+00
         0.00000E+00
         0.00000E+00
         0.12851E-02
         0.00000E+00
         0.00000E+00
         0.10913E-02
         0.00000E+00
         0.90119E-03
         0.00000E+00
         0.51731E-02
         0.31896E-02
         0.00000E+00
         0.56327E-02
         0.00000E+00
         0.00000E+00
         0.00000E+00
         0.00000E+00
         0.00000E+00
         0.34023E-02
         0.29909E-02
         0.28337E-02
         0.00000E+00
         0.00000E+00
         0.00000E+00
         0.00000E+00
         0.00000E+00
         0.00000E+00
         0.00000E+00
         0.00000E+00
         0.00000E+00
         0.00000E+00
         0.00000E+00
         0.26094E-02
         0.29698E-03
         0.12983E-02
         0.40375E-02
         0.24107E-02
         0.19988E-02
         0.41166E-02
         0.34299E-02
         0.34567E-02
         0.19679E-02
         0.14178E-02
         0.30920E-02
         0.95554E-03
         0.34614E-03
         0.00000E+00
         0.22416E-03
         0.23701E-02
         0.62651E-03
         0.21265E-01
         0.21876E-01
         0.23063E-01
         0.22873E-01
         0.24573E-01
         0.26598E-01
         0.25369E-01
         0.22210E-01
         0.21560E-01
         0.23302E-01
         0.22795E-01
         0.22478E-01
         0.17984E-01
         0.16936E-01
         0.18959E-01
         0.20573E-01
         0.21479E-01
         0.23752E-01
         0.22665E-01
         0.23370E-01
         0.20700E-01
         0.19492E-01
         0.20962E-01
         0.20365E-01
         0.21070E-01
         0.20869E-01
         0.11595E-02
         0.00000E+00
         0.00000E+00
         0.00000E+00
         0.12832E-02
         0.00000E+00
         0.00000E+00
         0.10941E-02
         0.00000E+00
         0.91119E-03
         0.00000E+00
         0.51731E-02
         0.31924E-02
         0.00000E+00
         0.56419E-02
         0.13973E-05
         0.00000E+00
         0.00000E+00
         0.00000E+00
         0.00000E+00
         0.34034E-02
         0.29909E-02
         0.28343E-02
         0.00000E+00
         0.00000E+00
         0.00000E+00
         0.00000E+00
         0.00000E+00
         0.00000E+00
         0.00000E+00
         0.00000E+00
         0.00000E+00
         0.00000E+00
         0.00000E+00
         0.26122E-02
         0.29636E-03
         0.12977E-02
         0.40490E-02
         0.24237E-02
         0.20068E-02
         0.41223E-02
         0.34338E-02
         0.34585E-02
         0.19694E-02
         0.14183E-02
         0.30930E-02
         0.95647E-03
         0.34667E-03
         0.00000E+00
         0.21999E-03
         0.23675E-02
         0.62090E-03
         0.21256E-01
         0.21870E-01
         0.23062E-01
         0.22873E-01
         0.24568E-01
         0.26588E-01
         0.25357E-01
         0.22203E-01
         0.21554E-01
         0.23293E-01
         0.22791E-01
         0.22480E-01
         0.17983E-01
         0.16936E-01
         0.18963E-01
         0.20581E-01
         0.21487E-01
         0.23758E-01
         0.22663E-01
         0.23369E-01
         0.20698E-01
         0.19491E-01
         0.20954E-01
         0.20350E-01
         0.21056E-01
         0.20856E-01
         0.11621E-02
         0.00000E+00
         0.00000E+00
         0.00000E+00
         0.12813E-02
         0.00000E+00
         0.00000E+00
         0.10970E-02
         0.00000E+00
         0.92118E-03
         0.00000E+00
         0.51732E-02
         0.31954E-02
         0.00000E+00
         0.56511E-02
         0.44481E-05
         0.00000E+00
         0.00000E+00
         0.00000E+00
         0.00000E+00
         0.34046E-02
         0.29909E-02
         0.28349E-02
         0.00000E+00
         0.00000E+00
         0.00000E+00
         0.00000E+00
         0.00000E+00
         0.00000E+00
         0.00000E+00
         0.00000E+00
         0.00000E+00
         0.00000E+00
         0.00000E+00
         0.26150E-02
         0.29589E-03
         0.12971E-02
         0.40604E-02
         0.24368E-02
         0.20149E-02
         0.41281E-02
         0.34378E-02
         0.34601E-02
         0.19708E-02
         0.14187E-02
         0.30940E-02
         0.95748E-03
         0.34727E-03
         0.00000E+00
         0.21574E-03
         0.23648E-02
         0.61531E-03
         0.21247E-01
         0.21864E-01
         0.23062E-01
         0.22873E-01
         0.24564E-01
         0.26578E-01
         0.25345E-01
         0.22196E-01
         0.21547E-01
         0.23285E-01
         0.22786E-01
         0.22482E-01
         0.17982E-01
         0.16935E-01
         0.18966E-01
         0.20589E-01
         0.21496E-01
         0.23764E-01
         0.22662E-01
         0.23367E-01
         0.20696E-01
         0.19490E-01
         0.20945E-01
         0.20334E-01
         0.21043E-01
         0.20843E-01
         0.11647E-02
         0.00000E+00
         0.00000E+00
         0.00000E+00
         0.12795E-02
         0.00000E+00
         0.00000E+00
         0.10998E-02
         0.00000E+00
         0.93117E-03
         0.00000E+00
         0.51732E-02
         0.31982E-02
         0.00000E+00
         0.56603E-02
         0.75041E-05
         0.00000E+00
         0.00000E+00
         0.00000E+00
         0.00000E+00
         0.34057E-02
         0.29909E-02
         0.28356E-02
         0.00000E+00
         0.00000E+00
         0.00000E+00
         0.00000E+00
         0.00000E+00
         0.00000E+00
         0.00000E+00
         0.00000E+00
         0.00000E+00
         0.00000E+00
         0.00000E+00
         0.26178E-02
         0.29533E-03
         0.12965E-02
         0.40719E-02
         0.24499E-02
         0.20228E-02
         0.41339E-02
         0.34418E-02
         0.34619E-02
         0.19722E-02
         0.14192E-02
         0.30950E-02
         0.95849E-03
         0.34780E-03
         0.00000E+00
         0.21155E-03
         0.23623E-02
         0.60978E-03
         0.21238E-01
         0.21858E-01
         0.23062E-01
         0.22873E-01
         0.24559E-01
         0.26568E-01
         0.25332E-01
         0.22189E-01
         0.21541E-01
         0.23277E-01
         0.22782E-01
         0.22483E-01
         0.17981E-01
         0.16935E-01
         0.18970E-01
         0.20597E-01
         0.21504E-01
         0.23771E-01
         0.22660E-01
         0.23365E-01
         0.20694E-01
         0.19489E-01
         0.20937E-01
         0.20319E-01
         0.21029E-01
         0.20831E-01
         0.11673E-02
         0.00000E+00
         0.00000E+00
         0.00000E+00
         0.12776E-02
         0.00000E+00
         0.00000E+00
         0.11027E-02
         0.00000E+00
         0.94114E-03
         0.00000E+00
         0.51733E-02
         0.32010E-02
         0.00000E+00
         0.56695E-02
         0.10563E-04
         0.00000E+00
         0.00000E+00
         0.00000E+00
         0.00000E+00
         0.34068E-02
         0.29909E-02
         0.28362E-02
         0.00000E+00
         0.00000E+00
         0.00000E+00
         0.00000E+00
         0.00000E+00
         0.00000E+00
         0.00000E+00
         0.00000E+00
         0.00000E+00
         0.00000E+00
         0.00000E+00
         0.26207E-02
         0.29479E-03
         0.12959E-02
         0.40833E-02
         0.24629E-02
         0.20309E-02
         0.41396E-02
         0.34458E-02
         0.34636E-02
         0.19736E-02
         0.14196E-02
         0.30961E-02
         0.95944E-03
         0.34842E-03
         0.00000E+00
         0.20738E-03
         0.23597E-02
         0.60419E-03
         0.21229E-01
         0.21852E-01
         0.23061E-01
         0.22873E-01
         0.24554E-01
         0.26557E-01
         0.25320E-01
         0.22182E-01
         0.21535E-01
         0.23269E-01
         0.22778E-01
         0.22485E-01
         0.17981E-01
         0.16934E-01
         0.18973E-01
         0.20605E-01
         0.21513E-01
         0.23777E-01
         0.22658E-01
         0.23364E-01
         0.20691E-01
         0.19488E-01
         0.20928E-01
         0.20303E-01
         0.21016E-01
         0.20818E-01
         0.11699E-02
         0.00000E+00
         0.00000E+00
         0.00000E+00
         0.12758E-02
         0.00000E+00
         0.00000E+00
         0.11056E-02
         0.00000E+00
         0.95107E-03
         0.00000E+00
         0.51733E-02
         0.32040E-02
         0.00000E+00
         0.56788E-02
         0.13606E-04
         0.00000E+00
         0.00000E+00
         0.00000E+00
         0.00000E+00
         0.34079E-02
         0.29909E-02
         0.28368E-02
         0.00000E+00
         0.00000E+00
         0.00000E+00
         0.00000E+00
         0.00000E+00
         0.00000E+00
         0.00000E+00
         0.00000E+00
         0.00000E+00
         0.00000E+00
         0.00000E+00
         0.26234E-02
         0.29434E-03
         0.12953E-02
         0.40947E-02
         0.24761E-02
         0.20389E-02
         0.41455E-02
         0.34497E-02
         0.34653E-02
         0.19751E-02
         0.14202E-02
         0.30969E-02
         0.96048E-03
         0.34897E-03
         0.00000E+00
         0.20319E-03
         0.23570E-02
         0.59860E-03
         0.21220E-01
         0.21846E-01
         0.23061E-01
         0.22874E-01
         0.24550E-01
         0.26547E-01
         0.25308E-01
         0.22175E-01
         0.21529E-01
         0.23260E-01
         0.22773E-01
         0.22487E-01
         0.17980E-01
         0.16934E-01
         0.18976E-01
         0.20613E-01
         0.21522E-01
         0.23783E-01
         0.22657E-01
         0.23362E-01
         0.20689E-01
         0.19487E-01
         0.20920E-01
         0.20288E-01
         0.21002E-01
         0.20805E-01
         0.11726E-02
         0.00000E+00
         0.00000E+00
         0.00000E+00
         0.12740E-02
         0.00000E+00
         0.00000E+00
         0.11084E-02
         0.00000E+00
         0.96103E-03
         0.00000E+00
         0.51734E-02
         0.32068E-02
         0.00000E+00
         0.56879E-02
         0.16644E-04
         0.00000E+00
         0.00000E+00
         0.00000E+00
         0.00000E+00
         0.34090E-02
         0.29909E-02
         0.28375E-02
         0.00000E+00
         0.00000E+00
         0.00000E+00
         0.00000E+00
         0.00000E+00
         0.00000E+00
         0.00000E+00
         0.00000E+00
         0.00000E+00
         0.00000E+00
         0.00000E+00
         0.26263E-02
         0.29380E-03
         0.12947E-02
         0.41062E-02
         0.24892E-02
         0.20469E-02
         0.41512E-02
         0.34537E-02
         0.34670E-02
         0.19765E-02
         0.14206E-02
         0.30979E-02
         0.96151E-03
         0.34951E-03
         0.00000E+00
         0.19900E-03
         0.23545E-02
         0.59308E-03
         0.21211E-01
         0.21840E-01
         0.23060E-01
         0.22874E-01
         0.24545E-01
         0.26537E-01
         0.25295E-01
         0.22168E-01
         0.21522E-01
         0.23252E-01
         0.22769E-01
         0.22488E-01
         0.17979E-01
         0.16934E-01
         0.18980E-01
         0.20621E-01
         0.21530E-01
         0.23790E-01
         0.22655E-01
         0.23360E-01
         0.20687E-01
         0.19486E-01
         0.20911E-01
         0.20272E-01
         0.20988E-01
         0.20792E-01
         0.11752E-02
         0.00000E+00
         0.00000E+00
         0.00000E+00
         0.12721E-02
         0.00000E+00
         0.00000E+00
         0.11113E-02
         0.00000E+00
         0.97097E-03
         0.00000E+00
         0.51734E-02
         0.32097E-02
         0.00000E+00
         0.56972E-02
         0.19689E-04
         0.00000E+00
         0.00000E+00
         0.00000E+00
         0.00000E+00
         0.34102E-02
         0.29909E-02
         0.28381E-02
         0.00000E+00
         0.00000E+00
         0.00000E+00
         0.00000E+00
         0.00000E+00
         0.00000E+00
         0.00000E+00
         0.00000E+00
         0.00000E+00
         0.00000E+00
         0.00000E+00
         0.26291E-02
         0.29335E-03
         0.12941E-02
         0.41177E-02
         0.25023E-02
         0.20549E-02
         0.41570E-02
         0.34576E-02
         0.34687E-02
         0.19779E-02
         0.14211E-02
         0.30990E-02
         0.96244E-03
         0.35012E-03
         0.00000E+00
         0.19476E-03
         0.23519E-02
         0.58748E-03
         0.21202E-01
         0.21834E-01
         0.23060E-01
         0.22874E-01
         0.24541E-01
         0.26527E-01
         0.25283E-01
         0.22161E-01
         0.21516E-01
         0.23243E-01
         0.22765E-01
         0.22490E-01
         0.17978E-01
         0.16933E-01
         0.18983E-01
         0.20629E-01
         0.21539E-01
         0.23796E-01
         0.22653E-01
         0.23359E-01
         0.20685E-01
         0.19485E-01
         0.20903E-01
         0.20257E-01
         0.20975E-01
         0.20779E-01
         0.11777E-02
         0.00000E+00
         0.00000E+00
         0.00000E+00
         0.12703E-02
         0.00000E+00
         0.00000E+00
         0.11141E-02
         0.00000E+00
         0.98091E-03
         0.00000E+00
         0.51735E-02
         0.32126E-02
         0.00000E+00
         0.57063E-02
         0.22744E-04
         0.00000E+00
         0.00000E+00
         0.00000E+00
         0.00000E+00
         0.34113E-02
         0.29909E-02
         0.28388E-02
         0.00000E+00
         0.00000E+00
         0.00000E+00
         0.00000E+00
         0.00000E+00
         0.00000E+00
         0.00000E+00
         0.00000E+00
         0.00000E+00
         0.00000E+00
         0.00000E+00
         0.26320E-02
         0.29281E-03
         0.12935E-02
         0.41292E-02
         0.25154E-02
         0.20628E-02
         0.41627E-02
         0.34616E-02
         0.34704E-02
         0.19793E-02
         0.14216E-02
         0.31000E-02
         0.96346E-03
         0.35066E-03
         0.00000E+00
         0.19058E-03
         0.23493E-02
         0.58190E-03
         0.21193E-01
         0.21828E-01
         0.23060E-01
         0.22874E-01
         0.24536E-01
         0.26516E-01
         0.25270E-01
         0.22154E-01
         0.21510E-01
         0.23235E-01
         0.22761E-01
         0.22492E-01
         0.17977E-01
         0.16933E-01
         0.18987E-01
         0.20637E-01
         0.21547E-01
         0.23802E-01
         0.22651E-01
         0.23357E-01
         0.20683E-01
         0.19484E-01
         0.20894E-01
         0.20241E-01
         0.20961E-01
         0.20766E-01
         0.11803E-02
         0.00000E+00
         0.00000E+00
         0.00000E+00
         0.12685E-02
         0.00000E+00
         0.00000E+00
         0.11170E-02
         0.00000E+00
         0.99081E-03
         0.00000E+00
         0.51736E-02
         0.32155E-02
         0.00000E+00
         0.57156E-02
         0.25806E-04
         0.00000E+00
         0.00000E+00
         0.00000E+00
         0.00000E+00
         0.34124E-02
         0.29908E-02
         0.28394E-02
         0.00000E+00
         0.00000E+00
         0.00000E+00
         0.00000E+00
         0.00000E+00
         0.00000E+00
         0.00000E+00
         0.00000E+00
         0.00000E+00
         0.00000E+00
         0.00000E+00
         0.26349E-02
         0.29228E-03
         0.12929E-02
         0.41407E-02
         0.25286E-02
         0.20707E-02
         0.41683E-02
         0.34655E-02
         0.34720E-02
         0.19808E-02
         0.14221E-02
         0.31010E-02
         0.96450E-03
         0.35128E-03
         0.00000E+00
         0.18638E-03
         0.23466E-02
         0.57641E-03
         0.21184E-01
         0.21822E-01
         0.23059E-01
         0.22874E-01
         0.24531E-01
         0.26506E-01
         0.25258E-01
         0.22147E-01
         0.21504E-01
         0.23226E-01
         0.22757E-01
         0.22494E-01
         0.17977E-01
         0.16932E-01
         0.18990E-01
         0.20644E-01
         0.21556E-01
         0.23808E-01
         0.22650E-01
         0.23355E-01
         0.20681E-01
         0.19483E-01
         0.20886E-01
         0.20226E-01
         0.20948E-01
         0.20753E-01
         0.11829E-02
         0.00000E+00
         0.00000E+00
         0.00000E+00
         0.12666E-02
         0.00000E+00
         0.00000E+00
         0.11197E-02
         0.00000E+00
         0.10006E-02
         0.00000E+00
         0.51736E-02
         0.32183E-02
         0.00000E+00
         0.57247E-02
         0.28849E-04
         0.00000E+00
         0.00000E+00
         0.00000E+00
         0.00000E+00
         0.34135E-02
         0.29907E-02
         0.28401E-02
         0.00000E+00
         0.00000E+00
         0.00000E+00
         0.00000E+00
         0.00000E+00
         0.00000E+00
         0.00000E+00
         0.00000E+00
         0.00000E+00
         0.00000E+00
         0.00000E+00
         0.26377E-02
         0.29186E-03
         0.12923E-02
         0.41523E-02
         0.25417E-02
         0.20782E-02
         0.41737E-02
         0.34690E-02
         0.34735E-02
         0.19822E-02
         0.14226E-02
         0.31020E-02
         0.96546E-03
         0.35186E-03
         0.00000E+00
         0.18218E-03
         0.23441E-02
         0.57082E-03
         0.21175E-01
         0.21817E-01
         0.23059E-01
         0.22874E-01
         0.24527E-01
         0.26496E-01
         0.25245E-01
         0.22140E-01
         0.21498E-01
         0.23217E-01
         0.22752E-01
         0.22497E-01
         0.17976E-01
         0.16932E-01
         0.18993E-01
         0.20652E-01
         0.21564E-01
         0.23815E-01
         0.22648E-01
         0.23354E-01
         0.20679E-01
         0.19482E-01
         0.20877E-01
         0.20210E-01
         0.20934E-01
         0.20741E-01
         0.11855E-02
         0.00000E+00
         0.00000E+00
         0.00000E+00
         0.12648E-02
         0.00000E+00
         0.00000E+00
         0.11225E-02
         0.00000E+00
         0.10104E-02
         0.00000E+00
         0.51737E-02
         0.32212E-02
         0.00000E+00
         0.57339E-02
         0.31875E-04
         0.00000E+00
         0.00000E+00
         0.00000E+00
         0.00000E+00
         0.34147E-02
         0.29906E-02
         0.28408E-02
         0.00000E+00
         0.00000E+00
         0.00000E+00
         0.00000E+00
         0.00000E+00
         0.00000E+00
         0.00000E+00
         0.00000E+00
         0.00000E+00
         0.00000E+00
         0.00000E+00
         0.26406E-02
         0.29134E-03
         0.12918E-02
         0.41639E-02
         0.25547E-02
         0.20857E-02
         0.41787E-02
         0.34722E-02
         0.34749E-02
         0.19836E-02
         0.14231E-02
         0.31031E-02
         0.96649E-03
         0.35243E-03
         0.00000E+00
         0.17794E-03
         0.23414E-02
         0.56520E-03
         0.21166E-01
         0.21811E-01
         0.23058E-01
         0.22874E-01
         0.24522E-01
         0.26485E-01
         0.25233E-01
         0.22133E-01
         0.21491E-01
         0.23208E-01
         0.22748E-01
         0.22500E-01
         0.17976E-01
         0.16932E-01
         0.18997E-01
         0.20660E-01
         0.21573E-01
         0.23821E-01
         0.22646E-01
         0.23352E-01
         0.20677E-01
         0.19481E-01
         0.20869E-01
         0.20195E-01
         0.20921E-01
         0.20728E-01
         0.11881E-02
         0.00000E+00
         0.00000E+00
         0.00000E+00
         0.12630E-02
         0.00000E+00
         0.00000E+00
         0.11253E-02
         0.00000E+00
         0.10201E-02
         0.00000E+00
         0.51738E-02
         0.32240E-02
         0.00000E+00
         0.57431E-02
         0.34922E-04
         0.00000E+00
         0.00000E+00
         0.00000E+00
         0.00000E+00
         0.34158E-02
         0.29905E-02
         0.28413E-02
         0.00000E+00
         0.00000E+00
         0.00000E+00
         0.00000E+00
         0.00000E+00
         0.00000E+00
         0.00000E+00
         0.00000E+00
         0.00000E+00
         0.00000E+00
         0.00000E+00
         0.26435E-02
         0.29089E-03
         0.12911E-02
         0.41755E-02
         0.25677E-02
         0.20928E-02
         0.41836E-02
         0.34752E-02
         0.34762E-02
         0.19851E-02
         0.14236E-02
         0.31041E-02
         0.96752E-03
         0.35306E-03
         0.00000E+00
         0.17376E-03
         0.23390E-02
         0.55974E-03
         0.21157E-01
         0.21805E-01
         0.23058E-01
         0.22874E-01
         0.24518E-01
         0.26475E-01
         0.25220E-01
         0.22126E-01
         0.21485E-01
         0.23198E-01
         0.22744E-01
         0.22503E-01
         0.17977E-01
         0.16932E-01
         0.19000E-01
         0.20668E-01
         0.21582E-01
         0.23827E-01
         0.22645E-01
         0.23350E-01
         0.20674E-01
         0.19479E-01
         0.20860E-01
         0.20179E-01
         0.20907E-01
         0.20715E-01
         0.13821E-02
         0.00000E+00
         0.00000E+00
         0.00000E+00
         0.15218E-02
         0.22107E-03
         0.00000E+00
         0.13714E-02
         0.00000E+00
         0.12781E-02
         0.00000E+00
         0.53980E-02
         0.34521E-02
         0.29463E-03
         0.59769E-02
         0.26523E-03
         0.00000E+00
         0.00000E+00
         0.00000E+00
         0.00000E+00
         0.36062E-02
         0.31933E-02
         0.30294E-02
         0.00000E+00
         0.00000E+00
         0.00000E+00
         0.26836E-03
         0.00000E+00
         0.00000E+00
         0.88418E-04
         0.00000E+00
         0.00000E+00
         0.00000E+00
         0.00000E+00
         0.28981E-02
         0.60717E-03
         0.15474E-02
         0.44215E-02
         0.28457E-02
         0.23774E-02
         0.44147E-02
         0.36989E-02
         0.36783E-02
         0.21863E-02
         0.16614E-02
         0.33432E-02
         0.12482E-02
         0.63535E-03
         0.27539E-05
         0.47423E-03
         0.25791E-02
         0.83727E-03
         0.21411E-01
         0.22051E-01
         0.23313E-01
         0.23119E-01
         0.24766E-01
         0.26732E-01
         0.25481E-01
         0.22397E-01
         0.21762E-01
         0.23477E-01
         0.23017E-01
         0.22760E-01
         0.18204E-01
         0.17144E-01
         0.19211E-01
         0.20884E-01
         0.21800E-01
         0.24065E-01
         0.22904E-01
         0.23609E-01
         0.20910E-01
         0.19707E-01
         0.21089E-01
         0.20401E-01
         0.21126E-01
         0.20934E-01
         0.11724E-01
         0.11391E-01
         0.11149E-01
         0.97667E-02
         0.13560E-01
         0.12060E-01
         0.12133E-01
         0.13354E-01
         0.10584E-01
         0.13286E-01
         0.13658E-01
         0.18772E-01
         0.15988E-01
         0.14439E-01
         0.19787E-01
         0.10554E-01
         0.10869E-01
         0.90372E-02
         0.11420E-01
         0.11885E-01
         0.14927E-01
         0.14957E-01
         0.13999E-01
         0.10751E-01
         0.12799E-01
         0.10151E-01
         0.14384E-01
         0.13555E-01
         0.13711E-01
         0.13342E-01
         0.10461E-01
         0.10659E-01
         0.98475E-02
         0.10362E-01
         0.15610E-01
         0.13160E-01
         0.13707E-01
         0.18233E-01
         0.16795E-01
         0.16321E-01
         0.17938E-01
         0.16682E-01
         0.15888E-01
         0.13135E-01
         0.13301E-01
         0.15867E-01
         0.13573E-01
         0.12442E-01
         0.11882E-01
         0.12577E-01
         0.14838E-01
         0.12787E-01
         0.37231E-01
         0.37385E-01
         0.38958E-01
         0.38350E-01
         0.40422E-01
         0.43258E-01
         0.42578E-01
         0.39697E-01
         0.39158E-01
         0.41078E-01
         0.40144E-01
         0.38823E-01
         0.32899E-01
         0.31108E-01
         0.32925E-01
         0.34510E-01
         0.35487E-01
         0.38737E-01
         0.38615E-01
         0.39399E-01
         0.35808E-01
         0.34263E-01
         0.36018E-01
         0.35314E-01
         0.35787E-01
         0.35469E-01
  
SCALARS                            dam  double 1
LOOKUP_TABLE default
         0.00000E+00
         0.00000E+00
         0.00000E+00
         0.00000E+00
         0.00000E+00
         0.00000E+00
         0.00000E+00
         0.00000E+00
         0.00000E+00
         0.00000E+00
         0.00000E+00
         0.00000E+00
         0.00000E+00
         0.00000E+00
         0.00000E+00
         0.00000E+00
         0.00000E+00
         0.00000E+00
         0.00000E+00
         0.00000E+00
         0.00000E+00
         0.00000E+00
         0.00000E+00
         0.00000E+00
         0.00000E+00
         0.00000E+00
         0.00000E+00
         0.00000E+00
         0.00000E+00
         0.00000E+00
         0.00000E+00
         0.00000E+00
         0.00000E+00
         0.00000E+00
         0.00000E+00
         0.00000E+00
         0.00000E+00
         0.00000E+00
         0.00000E+00
         0.00000E+00
         0.00000E+00
         0.00000E+00
         0.00000E+00
         0.00000E+00
         0.00000E+00
         0.00000E+00
         0.00000E+00
         0.00000E+00
         0.00000E+00
         0.00000E+00
         0.00000E+00
         0.00000E+00
         0.00000E+00
         0.00000E+00
         0.00000E+00
         0.00000E+00
         0.00000E+00
         0.00000E+00
         0.00000E+00
         0.00000E+00
         0.00000E+00
         0.00000E+00
         0.00000E+00
         0.00000E+00
         0.00000E+00
         0.00000E+00
         0.00000E+00
         0.00000E+00
         0.00000E+00
         0.00000E+00
         0.00000E+00
         0.00000E+00
         0.00000E+00
         0.00000E+00
         0.00000E+00
         0.00000E+00
         0.00000E+00
         0.00000E+00
         0.00000E+00
         0.00000E+00
         0.00000E+00
         0.00000E+00
         0.00000E+00
         0.00000E+00
         0.00000E+00
         0.00000E+00
         0.00000E+00
         0.00000E+00
         0.00000E+00
         0.00000E+00
         0.00000E+00
         0.00000E+00
         0.00000E+00
         0.00000E+00
         0.00000E+00
         0.00000E+00
         0.00000E+00
         0.00000E+00
         0.00000E+00
         0.00000E+00
         0.00000E+00
         0.00000E+00
         0.00000E+00
         0.00000E+00
         0.00000E+00
         0.00000E+00
         0.00000E+00
         0.00000E+00
         0.00000E+00
         0.00000E+00
         0.00000E+00
         0.00000E+00
         0.00000E+00
         0.00000E+00
         0.00000E+00
         0.00000E+00
         0.00000E+00
         0.00000E+00
         0.00000E+00
         0.00000E+00
         0.00000E+00
         0.00000E+00
         0.00000E+00
         0.00000E+00
         0.00000E+00
         0.00000E+00
         0.00000E+00
         0.00000E+00
         0.00000E+00
         0.00000E+00
         0.00000E+00
         0.00000E+00
         0.00000E+00
         0.00000E+00
         0.00000E+00
         0.00000E+00
         0.00000E+00
         0.00000E+00
         0.00000E+00
         0.00000E+00
         0.00000E+00
         0.00000E+00
         0.00000E+00
         0.00000E+00
         0.00000E+00
         0.00000E+00
         0.00000E+00
         0.00000E+00
         0.00000E+00
         0.00000E+00
         0.00000E+00
         0.00000E+00
         0.00000E+00
         0.00000E+00
         0.00000E+00
         0.00000E+00
         0.00000E+00
         0.00000E+00
         0.00000E+00
         0.00000E+00
         0.00000E+00
         0.00000E+00
         0.00000E+00
         0.00000E+00
         0.00000E+00
         0.00000E+00
         0.00000E+00
         0.00000E+00
         0.00000E+00
         0.00000E+00
         0.00000E+00
         0.00000E+00
         0.00000E+00
         0.00000E+00
         0.00000E+00
         0.00000E+00
         0.00000E+00
         0.00000E+00
         0.00000E+00
         0.00000E+00
         0.00000E+00
         0.00000E+00
         0.00000E+00
         0.00000E+00
         0.00000E+00
         0.00000E+00
         0.00000E+00
         0.00000E+00
         0.00000E+00
         0.00000E+00
         0.00000E+00
         0.00000E+00
         0.00000E+00
         0.00000E+00
         0.00000E+00
         0.00000E+00
         0.00000E+00
         0.00000E+00
         0.00000E+00
         0.00000E+00
         0.00000E+00
         0.00000E+00
         0.00000E+00
         0.00000E+00
         0.00000E+00
         0.00000E+00
         0.00000E+00
         0.00000E+00
         0.00000E+00
         0.00000E+00
         0.00000E+00
         0.00000E+00
         0.00000E+00
         0.00000E+00
         0.00000E+00
         0.00000E+00
         0.00000E+00
         0.00000E+00
         0.00000E+00
         0.00000E+00
         0.00000E+00
         0.00000E+00
         0.00000E+00
         0.00000E+00
         0.00000E+00
         0.00000E+00
         0.00000E+00
         0.00000E+00
         0.00000E+00
         0.00000E+00
         0.00000E+00
         0.00000E+00
         0.00000E+00
         0.00000E+00
         0.00000E+00
         0.00000E+00
         0.00000E+00
         0.00000E+00
         0.00000E+00
         0.00000E+00
         0.00000E+00
         0.00000E+00
         0.00000E+00
         0.00000E+00
         0.00000E+00
         0.00000E+00
         0.00000E+00
         0.00000E+00
         0.00000E+00
         0.00000E+00
         0.00000E+00
         0.00000E+00
         0.00000E+00
         0.00000E+00
         0.00000E+00
         0.00000E+00
         0.00000E+00
         0.00000E+00
         0.00000E+00
         0.00000E+00
         0.00000E+00
         0.00000E+00
         0.00000E+00
         0.00000E+00
         0.00000E+00
         0.00000E+00
         0.00000E+00
         0.00000E+00
         0.00000E+00
         0.00000E+00
         0.00000E+00
         0.00000E+00
         0.00000E+00
         0.00000E+00
         0.00000E+00
         0.00000E+00
         0.00000E+00
         0.00000E+00
         0.00000E+00
         0.00000E+00
         0.00000E+00
         0.00000E+00
         0.00000E+00
         0.00000E+00
         0.00000E+00
         0.00000E+00
         0.00000E+00
         0.00000E+00
         0.00000E+00
         0.00000E+00
         0.00000E+00
         0.00000E+00
         0.00000E+00
         0.00000E+00
         0.00000E+00
         0.00000E+00
         0.00000E+00
         0.00000E+00
         0.00000E+00
         0.00000E+00
         0.00000E+00
         0.00000E+00
         0.00000E+00
         0.00000E+00
         0.00000E+00
         0.00000E+00
         0.00000E+00
         0.00000E+00
         0.00000E+00
         0.00000E+00
         0.00000E+00
         0.00000E+00
         0.00000E+00
         0.00000E+00
         0.00000E+00
         0.00000E+00
         0.00000E+00
         0.00000E+00
         0.00000E+00
         0.00000E+00
         0.00000E+00
         0.00000E+00
         0.00000E+00
         0.00000E+00
         0.00000E+00
         0.00000E+00
         0.00000E+00
         0.00000E+00
         0.00000E+00
         0.00000E+00
         0.00000E+00
         0.00000E+00
         0.00000E+00
         0.00000E+00
         0.00000E+00
         0.00000E+00
         0.00000E+00
         0.00000E+00
         0.00000E+00
         0.00000E+00
         0.00000E+00
         0.00000E+00
         0.00000E+00
         0.00000E+00
         0.00000E+00
         0.00000E+00
         0.00000E+00
         0.00000E+00
         0.00000E+00
         0.00000E+00
         0.00000E+00
         0.00000E+00
         0.00000E+00
         0.00000E+00
         0.00000E+00
         0.00000E+00
         0.00000E+00
         0.00000E+00
         0.00000E+00
         0.00000E+00
         0.00000E+00
         0.00000E+00
         0.00000E+00
         0.00000E+00
         0.00000E+00
         0.00000E+00
         0.00000E+00
         0.00000E+00
         0.00000E+00
         0.00000E+00
         0.00000E+00
         0.00000E+00
         0.00000E+00
         0.00000E+00
         0.00000E+00
         0.00000E+00
         0.00000E+00
         0.00000E+00
         0.00000E+00
         0.00000E+00
         0.00000E+00
         0.00000E+00
         0.00000E+00
         0.00000E+00
         0.00000E+00
         0.00000E+00
         0.00000E+00
         0.00000E+00
         0.00000E+00
         0.00000E+00
         0.00000E+00
         0.00000E+00
         0.00000E+00
         0.00000E+00
         0.00000E+00
         0.00000E+00
         0.00000E+00
         0.00000E+00
         0.00000E+00
         0.00000E+00
         0.00000E+00
         0.00000E+00
         0.00000E+00
         0.00000E+00
         0.00000E+00
         0.00000E+00
         0.00000E+00
         0.00000E+00
         0.00000E+00
         0.00000E+00
         0.00000E+00
         0.00000E+00
         0.00000E+00
         0.00000E+00
         0.00000E+00
         0.00000E+00
         0.00000E+00
         0.00000E+00
         0.00000E+00
         0.00000E+00
         0.00000E+00
         0.00000E+00
         0.00000E+00
         0.00000E+00
         0.00000E+00
         0.00000E+00
         0.00000E+00
         0.00000E+00
         0.00000E+00
         0.00000E+00
         0.00000E+00
         0.00000E+00
         0.00000E+00
         0.00000E+00
         0.00000E+00
         0.00000E+00
         0.00000E+00
         0.00000E+00
         0.00000E+00
         0.00000E+00
         0.00000E+00
         0.00000E+00
         0.00000E+00
         0.00000E+00
         0.00000E+00
         0.00000E+00
         0.00000E+00
         0.00000E+00
         0.00000E+00
         0.00000E+00
         0.00000E+00
         0.00000E+00
         0.00000E+00
         0.00000E+00
         0.00000E+00
         0.00000E+00
         0.00000E+00
         0.00000E+00
         0.00000E+00
         0.00000E+00
         0.00000E+00
         0.00000E+00
         0.00000E+00
         0.00000E+00
         0.00000E+00
         0.00000E+00
         0.00000E+00
         0.00000E+00
         0.00000E+00
         0.00000E+00
         0.00000E+00
         0.00000E+00
         0.00000E+00
         0.00000E+00
         0.00000E+00
         0.00000E+00
         0.00000E+00
         0.00000E+00
         0.00000E+00
         0.00000E+00
         0.00000E+00
         0.00000E+00
         0.00000E+00
         0.00000E+00
         0.00000E+00
         0.00000E+00
         0.00000E+00
         0.00000E+00
         0.00000E+00
         0.00000E+00
         0.00000E+00
         0.00000E+00
         0.00000E+00
         0.00000E+00
         0.00000E+00
         0.00000E+00
         0.00000E+00
         0.00000E+00
         0.00000E+00
         0.00000E+00
         0.00000E+00
         0.00000E+00
         0.00000E+00
         0.00000E+00
         0.00000E+00
         0.00000E+00
         0.00000E+00
         0.00000E+00
         0.00000E+00
         0.00000E+00
         0.00000E+00
         0.00000E+00
         0.00000E+00
         0.00000E+00
         0.00000E+00
         0.00000E+00
         0.00000E+00
         0.00000E+00
         0.00000E+00
         0.00000E+00
         0.00000E+00
         0.00000E+00
         0.00000E+00
         0.00000E+00
         0.00000E+00
         0.00000E+00
         0.00000E+00
         0.00000E+00
         0.00000E+00
         0.00000E+00
         0.00000E+00
         0.00000E+00
         0.00000E+00
         0.00000E+00
         0.00000E+00
         0.00000E+00
         0.00000E+00
         0.00000E+00
         0.00000E+00
         0.00000E+00
         0.00000E+00
         0.00000E+00
         0.00000E+00
         0.00000E+00
         0.00000E+00
         0.00000E+00
         0.00000E+00
         0.00000E+00
         0.00000E+00
         0.00000E+00
         0.00000E+00
         0.00000E+00
         0.00000E+00
         0.00000E+00
         0.00000E+00
         0.00000E+00
         0.00000E+00
         0.00000E+00
         0.00000E+00
         0.00000E+00
         0.00000E+00
         0.00000E+00
         0.00000E+00
         0.00000E+00
         0.00000E+00
         0.00000E+00
         0.00000E+00
         0.00000E+00
         0.00000E+00
         0.00000E+00
         0.00000E+00
         0.00000E+00
         0.00000E+00
         0.00000E+00
         0.00000E+00
         0.00000E+00
         0.00000E+00
         0.00000E+00
         0.00000E+00
         0.00000E+00
         0.00000E+00
         0.00000E+00
         0.00000E+00
         0.00000E+00
         0.00000E+00
         0.00000E+00
         0.00000E+00
         0.00000E+00
         0.00000E+00
         0.00000E+00
         0.00000E+00
         0.00000E+00
         0.00000E+00
         0.00000E+00
         0.00000E+00
         0.00000E+00
         0.00000E+00
         0.00000E+00
         0.00000E+00
         0.00000E+00
         0.00000E+00
         0.00000E+00
         0.00000E+00
         0.00000E+00
         0.00000E+00
         0.00000E+00
         0.00000E+00
         0.00000E+00
         0.00000E+00
         0.00000E+00
         0.00000E+00
         0.00000E+00
         0.00000E+00
         0.00000E+00
         0.00000E+00
         0.00000E+00
         0.00000E+00
         0.00000E+00
         0.00000E+00
         0.00000E+00
         0.00000E+00
         0.00000E+00
         0.00000E+00
         0.00000E+00
         0.00000E+00
         0.00000E+00
         0.00000E+00
         0.00000E+00
         0.00000E+00
         0.00000E+00
         0.00000E+00
         0.00000E+00
         0.00000E+00
         0.00000E+00
         0.00000E+00
         0.00000E+00
         0.00000E+00
         0.00000E+00
         0.00000E+00
         0.00000E+00
         0.00000E+00
         0.00000E+00
         0.00000E+00
         0.00000E+00
         0.00000E+00
         0.00000E+00
         0.00000E+00
         0.00000E+00
         0.00000E+00
         0.00000E+00
         0.00000E+00
         0.00000E+00
         0.00000E+00
         0.00000E+00
         0.00000E+00
         0.00000E+00
         0.00000E+00
         0.00000E+00
         0.00000E+00
         0.00000E+00
         0.00000E+00
         0.00000E+00
         0.00000E+00
         0.00000E+00
         0.00000E+00
         0.00000E+00
         0.00000E+00
         0.00000E+00
         0.00000E+00
         0.00000E+00
         0.00000E+00
         0.00000E+00
         0.00000E+00
         0.00000E+00
         0.00000E+00
         0.00000E+00
         0.00000E+00
         0.00000E+00
         0.00000E+00
         0.00000E+00
         0.00000E+00
         0.00000E+00
         0.00000E+00
         0.00000E+00
         0.00000E+00
         0.00000E+00
         0.00000E+00
         0.00000E+00
         0.00000E+00
         0.00000E+00
         0.00000E+00
         0.00000E+00
         0.00000E+00
         0.00000E+00
         0.00000E+00
         0.00000E+00
         0.00000E+00
         0.00000E+00
         0.00000E+00
         0.00000E+00
         0.00000E+00
         0.00000E+00
         0.00000E+00
         0.00000E+00
         0.00000E+00
         0.00000E+00
         0.00000E+00
         0.00000E+00
         0.00000E+00
         0.00000E+00
         0.00000E+00
         0.00000E+00
         0.00000E+00
         0.00000E+00
         0.00000E+00
         0.00000E+00
         0.00000E+00
         0.00000E+00
         0.00000E+00
         0.00000E+00
         0.00000E+00
         0.00000E+00
         0.00000E+00
         0.00000E+00
         0.00000E+00
         0.00000E+00
         0.00000E+00
         0.00000E+00
         0.00000E+00
         0.00000E+00
         0.00000E+00
         0.00000E+00
         0.00000E+00
         0.00000E+00
         0.00000E+00
         0.00000E+00
         0.00000E+00
         0.00000E+00
         0.00000E+00
         0.00000E+00
         0.00000E+00
         0.00000E+00
         0.00000E+00
         0.00000E+00
         0.00000E+00
         0.00000E+00
         0.00000E+00
         0.00000E+00
         0.00000E+00
         0.00000E+00
         0.00000E+00
         0.00000E+00
         0.00000E+00
         0.00000E+00
         0.00000E+00
         0.00000E+00
         0.00000E+00
         0.00000E+00
         0.00000E+00
         0.00000E+00
         0.00000E+00
         0.00000E+00
         0.00000E+00
         0.00000E+00
         0.00000E+00
         0.00000E+00
         0.00000E+00
         0.00000E+00
         0.00000E+00
         0.00000E+00
         0.00000E+00
         0.00000E+00
         0.00000E+00
         0.00000E+00
         0.00000E+00
         0.00000E+00
         0.00000E+00
         0.00000E+00
         0.00000E+00
         0.00000E+00
         0.00000E+00
         0.00000E+00
         0.00000E+00
         0.00000E+00
         0.00000E+00
         0.00000E+00
         0.00000E+00
         0.00000E+00
         0.00000E+00
         0.00000E+00
         0.00000E+00
         0.00000E+00
         0.00000E+00
         0.00000E+00
         0.00000E+00
         0.00000E+00
         0.00000E+00
         0.00000E+00
         0.00000E+00
         0.00000E+00
         0.00000E+00
         0.00000E+00
         0.00000E+00
         0.00000E+00
         0.00000E+00
         0.00000E+00
         0.00000E+00
         0.00000E+00
         0.00000E+00
         0.00000E+00
         0.00000E+00
         0.00000E+00
         0.00000E+00
         0.00000E+00
         0.00000E+00
         0.00000E+00
         0.00000E+00
         0.00000E+00
         0.00000E+00
         0.00000E+00
         0.00000E+00
         0.00000E+00
         0.00000E+00
         0.00000E+00
         0.00000E+00
         0.00000E+00
         0.00000E+00
         0.00000E+00
         0.00000E+00
         0.00000E+00
         0.00000E+00
         0.00000E+00
         0.00000E+00
         0.00000E+00
         0.00000E+00
         0.00000E+00
         0.00000E+00
         0.00000E+00
         0.00000E+00
         0.00000E+00
         0.00000E+00
         0.00000E+00
         0.00000E+00
         0.00000E+00
         0.00000E+00
         0.00000E+00
         0.00000E+00
         0.00000E+00
         0.00000E+00
         0.00000E+00
         0.00000E+00
         0.00000E+00
         0.00000E+00
         0.00000E+00
         0.00000E+00
         0.00000E+00
         0.00000E+00
         0.00000E+00
         0.00000E+00
         0.00000E+00
         0.00000E+00
         0.00000E+00
         0.00000E+00
         0.00000E+00
         0.00000E+00
         0.00000E+00
         0.00000E+00
         0.00000E+00
         0.00000E+00
         0.00000E+00
         0.00000E+00
         0.00000E+00
         0.00000E+00
         0.00000E+00
         0.00000E+00
         0.00000E+00
         0.00000E+00
         0.00000E+00
         0.00000E+00
         0.00000E+00
         0.00000E+00
         0.00000E+00
         0.00000E+00
         0.00000E+00
         0.00000E+00
         0.00000E+00
         0.00000E+00
         0.00000E+00
         0.00000E+00
         0.00000E+00
         0.00000E+00
         0.00000E+00
         0.00000E+00
         0.00000E+00
         0.00000E+00
         0.00000E+00
         0.00000E+00
         0.00000E+00
         0.00000E+00
         0.00000E+00
         0.00000E+00
         0.00000E+00
         0.00000E+00
         0.00000E+00
         0.00000E+00
         0.00000E+00
         0.00000E+00
         0.00000E+00
         0.00000E+00
         0.00000E+00
         0.00000E+00
         0.00000E+00
         0.00000E+00
         0.00000E+00
         0.00000E+00
         0.00000E+00
         0.00000E+00
         0.00000E+00
         0.00000E+00
         0.00000E+00
         0.00000E+00
         0.00000E+00
         0.00000E+00
         0.00000E+00
         0.00000E+00
         0.00000E+00
         0.00000E+00
         0.00000E+00
         0.00000E+00
         0.00000E+00
         0.00000E+00
         0.00000E+00
         0.00000E+00
         0.00000E+00
         0.00000E+00
         0.00000E+00
         0.00000E+00
         0.00000E+00
         0.00000E+00
         0.00000E+00
         0.00000E+00
         0.00000E+00
         0.00000E+00
         0.00000E+00
         0.00000E+00
         0.00000E+00
         0.00000E+00
         0.00000E+00
         0.00000E+00
         0.00000E+00
         0.00000E+00
         0.00000E+00
         0.00000E+00
         0.00000E+00
         0.00000E+00
         0.00000E+00
         0.00000E+00
         0.00000E+00
         0.00000E+00
         0.00000E+00
         0.00000E+00
         0.00000E+00
         0.00000E+00
         0.00000E+00
         0.00000E+00
         0.00000E+00
         0.00000E+00
         0.00000E+00
         0.00000E+00
         0.00000E+00
         0.00000E+00
         0.00000E+00
         0.00000E+00
         0.00000E+00
         0.00000E+00
         0.00000E+00
         0.00000E+00
         0.00000E+00
         0.00000E+00
         0.00000E+00
         0.00000E+00
         0.00000E+00
         0.00000E+00
         0.00000E+00
         0.00000E+00
         0.00000E+00
         0.00000E+00
         0.00000E+00
         0.00000E+00
         0.00000E+00
         0.00000E+00
         0.00000E+00
         0.00000E+00
         0.00000E+00
         0.00000E+00
         0.00000E+00
         0.00000E+00
         0.00000E+00
         0.00000E+00
         0.00000E+00
         0.00000E+00
         0.00000E+00
         0.00000E+00
         0.00000E+00
         0.00000E+00
         0.00000E+00
         0.00000E+00
         0.00000E+00
         0.00000E+00
         0.00000E+00
         0.00000E+00
         0.00000E+00
         0.00000E+00
         0.00000E+00
         0.00000E+00
         0.00000E+00
         0.00000E+00
         0.00000E+00
         0.00000E+00
         0.00000E+00
         0.00000E+00
         0.00000E+00
         0.00000E+00
         0.00000E+00
         0.00000E+00
         0.00000E+00
         0.00000E+00
         0.00000E+00
         0.00000E+00
         0.00000E+00
         0.00000E+00
         0.00000E+00
         0.00000E+00
         0.00000E+00
         0.00000E+00
         0.00000E+00
         0.00000E+00
         0.00000E+00
         0.00000E+00
         0.00000E+00
         0.00000E+00
         0.00000E+00
         0.00000E+00
         0.00000E+00
         0.00000E+00
         0.00000E+00
         0.00000E+00
         0.00000E+00
         0.00000E+00
         0.00000E+00
         0.00000E+00
         0.00000E+00
         0.00000E+00
         0.00000E+00
         0.00000E+00
         0.00000E+00
         0.00000E+00
         0.00000E+00
         0.00000E+00
         0.00000E+00
         0.00000E+00
         0.00000E+00
         0.00000E+00
         0.00000E+00
         0.00000E+00
         0.00000E+00
         0.00000E+00
         0.00000E+00
         0.00000E+00
         0.00000E+00
         0.00000E+00
         0.00000E+00
         0.00000E+00
         0.00000E+00
         0.00000E+00
         0.00000E+00
         0.00000E+00
         0.00000E+00
         0.00000E+00
         0.00000E+00
         0.00000E+00
         0.00000E+00
         0.00000E+00
         0.00000E+00
         0.00000E+00
         0.00000E+00
         0.00000E+00
         0.00000E+00
         0.00000E+00
         0.00000E+00
         0.00000E+00
         0.00000E+00
         0.00000E+00
         0.00000E+00
         0.00000E+00
         0.00000E+00
         0.00000E+00
         0.00000E+00
         0.00000E+00
         0.00000E+00
         0.00000E+00
         0.00000E+00
         0.00000E+00
         0.00000E+00
         0.00000E+00
         0.00000E+00
         0.00000E+00
         0.00000E+00
         0.00000E+00
         0.00000E+00
         0.00000E+00
         0.00000E+00
         0.00000E+00
         0.00000E+00
         0.00000E+00
         0.00000E+00
         0.00000E+00
         0.00000E+00
         0.00000E+00
         0.00000E+00
         0.00000E+00
         0.00000E+00
         0.00000E+00
         0.00000E+00
         0.00000E+00
         0.00000E+00
         0.00000E+00
         0.00000E+00
         0.00000E+00
         0.00000E+00
         0.00000E+00
         0.00000E+00
         0.00000E+00
         0.00000E+00
         0.00000E+00
         0.00000E+00
         0.00000E+00
         0.00000E+00
         0.00000E+00
         0.00000E+00
         0.00000E+00
         0.00000E+00
         0.00000E+00
         0.00000E+00
         0.00000E+00
         0.00000E+00
         0.00000E+00
         0.00000E+00
         0.00000E+00
         0.00000E+00
         0.00000E+00
         0.00000E+00
         0.00000E+00
         0.00000E+00
         0.00000E+00
         0.00000E+00
         0.00000E+00
         0.00000E+00
         0.00000E+00
         0.00000E+00
         0.00000E+00
         0.00000E+00
         0.00000E+00
         0.00000E+00
         0.00000E+00
         0.00000E+00
         0.00000E+00
         0.00000E+00
         0.00000E+00
         0.00000E+00
         0.00000E+00
         0.00000E+00
         0.00000E+00
         0.00000E+00
         0.00000E+00
         0.00000E+00
         0.00000E+00
         0.00000E+00
         0.00000E+00
         0.00000E+00
         0.00000E+00
         0.00000E+00
         0.00000E+00
         0.00000E+00
         0.00000E+00
         0.00000E+00
         0.00000E+00
         0.00000E+00
         0.00000E+00
         0.00000E+00
         0.00000E+00
         0.00000E+00
         0.00000E+00
         0.00000E+00
         0.00000E+00
         0.00000E+00
         0.00000E+00
         0.00000E+00
         0.00000E+00
         0.00000E+00
         0.00000E+00
         0.00000E+00
         0.00000E+00
         0.00000E+00
         0.00000E+00
         0.00000E+00
         0.00000E+00
         0.00000E+00
         0.00000E+00
         0.00000E+00
         0.00000E+00
         0.00000E+00
         0.00000E+00
         0.00000E+00
         0.00000E+00
         0.00000E+00
         0.00000E+00
         0.00000E+00
         0.00000E+00
         0.00000E+00
         0.00000E+00
         0.00000E+00
         0.00000E+00
         0.00000E+00
         0.00000E+00
         0.00000E+00
         0.00000E+00
         0.00000E+00
         0.00000E+00
         0.00000E+00
         0.00000E+00
         0.00000E+00
         0.00000E+00
         0.00000E+00
         0.00000E+00
         0.00000E+00
         0.00000E+00
         0.00000E+00
         0.00000E+00
         0.00000E+00
         0.00000E+00
         0.00000E+00
         0.00000E+00
         0.00000E+00
         0.00000E+00
         0.00000E+00
         0.00000E+00
         0.00000E+00
         0.00000E+00
         0.00000E+00
         0.00000E+00
         0.00000E+00
         0.00000E+00
         0.00000E+00
         0.00000E+00
         0.00000E+00
         0.00000E+00
         0.00000E+00
         0.00000E+00
         0.00000E+00
         0.00000E+00
         0.00000E+00
         0.00000E+00
         0.00000E+00
         0.00000E+00
         0.00000E+00
         0.00000E+00
         0.00000E+00
         0.00000E+00
         0.00000E+00
         0.00000E+00
         0.00000E+00
         0.00000E+00
         0.00000E+00
         0.00000E+00
         0.00000E+00
         0.00000E+00
         0.00000E+00
         0.00000E+00
         0.00000E+00
         0.00000E+00
         0.00000E+00
         0.00000E+00
         0.00000E+00
         0.00000E+00
         0.00000E+00
         0.00000E+00
         0.00000E+00
         0.00000E+00
         0.00000E+00
         0.00000E+00
         0.00000E+00
         0.00000E+00
         0.00000E+00
         0.00000E+00
         0.00000E+00
         0.00000E+00
         0.00000E+00
         0.00000E+00
         0.00000E+00
         0.00000E+00
         0.00000E+00
         0.00000E+00
         0.00000E+00
         0.00000E+00
         0.00000E+00
         0.00000E+00
         0.00000E+00
         0.00000E+00
         0.00000E+00
         0.00000E+00
         0.00000E+00
         0.00000E+00
         0.00000E+00
         0.00000E+00
         0.00000E+00
         0.00000E+00
         0.00000E+00
         0.00000E+00
         0.00000E+00
         0.00000E+00
         0.00000E+00
         0.00000E+00
         0.00000E+00
         0.00000E+00
         0.00000E+00
         0.00000E+00
         0.00000E+00
         0.00000E+00
         0.00000E+00
         0.00000E+00
         0.00000E+00
         0.00000E+00
         0.00000E+00
         0.00000E+00
         0.00000E+00
         0.00000E+00
         0.00000E+00
         0.00000E+00
         0.00000E+00
         0.00000E+00
         0.00000E+00
         0.00000E+00
         0.00000E+00
         0.00000E+00
         0.00000E+00
         0.00000E+00
         0.00000E+00
         0.00000E+00
         0.00000E+00
         0.00000E+00
         0.00000E+00
         0.00000E+00
         0.00000E+00
         0.00000E+00
         0.00000E+00
         0.00000E+00
         0.00000E+00
         0.00000E+00
         0.00000E+00
         0.00000E+00
         0.00000E+00
         0.00000E+00
         0.00000E+00
         0.00000E+00
         0.00000E+00
         0.00000E+00
         0.00000E+00
         0.00000E+00
         0.00000E+00
         0.00000E+00
         0.00000E+00
         0.00000E+00
         0.00000E+00
         0.00000E+00
         0.00000E+00
         0.00000E+00
         0.00000E+00
         0.00000E+00
         0.00000E+00
         0.00000E+00
         0.00000E+00
         0.00000E+00
         0.00000E+00
         0.00000E+00
         0.00000E+00
         0.00000E+00
         0.00000E+00
         0.00000E+00
         0.00000E+00
         0.00000E+00
         0.00000E+00
         0.00000E+00
         0.00000E+00
         0.00000E+00
         0.00000E+00
         0.00000E+00
         0.00000E+00
         0.00000E+00
         0.00000E+00
         0.00000E+00
         0.00000E+00
         0.00000E+00
         0.00000E+00
         0.00000E+00
         0.00000E+00
         0.00000E+00
         0.00000E+00
         0.00000E+00
         0.00000E+00
         0.00000E+00
         0.00000E+00
         0.00000E+00
         0.00000E+00
         0.00000E+00
         0.00000E+00
         0.00000E+00
         0.00000E+00
         0.00000E+00
         0.00000E+00
         0.00000E+00
         0.00000E+00
         0.00000E+00
         0.00000E+00
         0.00000E+00
         0.00000E+00
         0.00000E+00
         0.00000E+00
         0.00000E+00
         0.00000E+00
         0.00000E+00
         0.00000E+00
         0.00000E+00
         0.00000E+00
         0.00000E+00
         0.00000E+00
         0.00000E+00
         0.00000E+00
         0.00000E+00
         0.00000E+00
         0.00000E+00
         0.00000E+00
         0.00000E+00
         0.00000E+00
         0.00000E+00
         0.00000E+00
         0.00000E+00
         0.00000E+00
         0.00000E+00
         0.00000E+00
         0.00000E+00
         0.00000E+00
         0.00000E+00
         0.00000E+00
         0.00000E+00
         0.00000E+00
         0.00000E+00
         0.00000E+00
         0.00000E+00
         0.00000E+00
         0.00000E+00
         0.00000E+00
         0.00000E+00
         0.00000E+00
         0.00000E+00
         0.00000E+00
         0.00000E+00
         0.00000E+00
         0.00000E+00
         0.00000E+00
         0.00000E+00
         0.00000E+00
         0.00000E+00
         0.00000E+00
         0.00000E+00
         0.00000E+00
         0.00000E+00
         0.00000E+00
         0.00000E+00
         0.00000E+00
         0.00000E+00
         0.00000E+00
         0.00000E+00
         0.00000E+00
         0.00000E+00
         0.00000E+00
         0.00000E+00
         0.00000E+00
         0.00000E+00
         0.00000E+00
         0.00000E+00
         0.00000E+00
         0.00000E+00
         0.00000E+00
         0.00000E+00
         0.00000E+00
         0.00000E+00
         0.00000E+00
         0.00000E+00
         0.00000E+00
         0.00000E+00
         0.00000E+00
         0.00000E+00
         0.00000E+00
         0.00000E+00
         0.00000E+00
         0.00000E+00
         0.00000E+00
         0.00000E+00
         0.00000E+00
         0.00000E+00
         0.00000E+00
         0.00000E+00
         0.00000E+00
         0.00000E+00
         0.00000E+00
         0.00000E+00
         0.00000E+00
         0.00000E+00
         0.00000E+00
         0.00000E+00
         0.00000E+00
         0.00000E+00
         0.00000E+00
         0.00000E+00
         0.00000E+00
         0.00000E+00
         0.00000E+00
         0.00000E+00
         0.00000E+00
         0.00000E+00
         0.00000E+00
         0.00000E+00
         0.00000E+00
         0.00000E+00
         0.00000E+00
         0.00000E+00
         0.00000E+00
         0.00000E+00
         0.00000E+00
         0.00000E+00
         0.00000E+00
         0.00000E+00
         0.00000E+00
         0.00000E+00
         0.00000E+00
         0.00000E+00
         0.00000E+00
         0.00000E+00
         0.00000E+00
         0.00000E+00
         0.00000E+00
         0.00000E+00
         0.00000E+00
         0.00000E+00
         0.00000E+00
         0.00000E+00
         0.00000E+00
         0.00000E+00
         0.00000E+00
         0.00000E+00
         0.00000E+00
         0.00000E+00
         0.00000E+00
         0.00000E+00
         0.00000E+00
         0.00000E+00
         0.00000E+00
         0.00000E+00
         0.00000E+00
         0.00000E+00
         0.00000E+00
         0.00000E+00
         0.00000E+00
         0.00000E+00
         0.00000E+00
         0.00000E+00
         0.00000E+00
         0.00000E+00
         0.00000E+00
         0.00000E+00
         0.00000E+00
         0.00000E+00
         0.00000E+00
         0.00000E+00
         0.00000E+00
         0.00000E+00
         0.00000E+00
         0.00000E+00
         0.00000E+00
         0.00000E+00
         0.00000E+00
         0.00000E+00
         0.00000E+00
         0.00000E+00
         0.00000E+00
         0.00000E+00
         0.00000E+00
         0.00000E+00
         0.00000E+00
         0.00000E+00
         0.00000E+00
         0.00000E+00
         0.00000E+00
         0.00000E+00
         0.00000E+00
         0.00000E+00
         0.00000E+00
         0.00000E+00
         0.00000E+00
         0.00000E+00
         0.00000E+00
         0.00000E+00
         0.00000E+00
         0.00000E+00
         0.00000E+00
         0.00000E+00
         0.00000E+00
         0.00000E+00
         0.00000E+00
         0.00000E+00
         0.00000E+00
         0.00000E+00
         0.00000E+00
         0.00000E+00
         0.00000E+00
         0.00000E+00
         0.00000E+00
         0.00000E+00
         0.00000E+00
         0.00000E+00
         0.00000E+00
         0.00000E+00
         0.00000E+00
         0.00000E+00
         0.00000E+00
         0.00000E+00
         0.00000E+00
         0.00000E+00
         0.00000E+00
         0.00000E+00
         0.00000E+00
         0.00000E+00
         0.00000E+00
         0.00000E+00
         0.00000E+00
         0.00000E+00
         0.00000E+00
         0.00000E+00
         0.00000E+00
         0.00000E+00
         0.00000E+00
         0.00000E+00
         0.00000E+00
         0.00000E+00
         0.00000E+00
         0.00000E+00
         0.00000E+00
         0.00000E+00
         0.00000E+00
         0.00000E+00
         0.00000E+00
         0.00000E+00
         0.00000E+00
         0.00000E+00
         0.00000E+00
         0.00000E+00
         0.00000E+00
         0.00000E+00
         0.00000E+00
         0.00000E+00
         0.00000E+00
         0.00000E+00
         0.00000E+00
         0.00000E+00
         0.00000E+00
         0.00000E+00
         0.00000E+00
         0.00000E+00
         0.00000E+00
         0.00000E+00
         0.00000E+00
         0.00000E+00
         0.00000E+00
         0.00000E+00
         0.00000E+00
         0.00000E+00
         0.00000E+00
         0.00000E+00
         0.00000E+00
         0.00000E+00
         0.00000E+00
         0.00000E+00
         0.00000E+00
         0.00000E+00
         0.00000E+00
         0.00000E+00
         0.00000E+00
         0.00000E+00
         0.00000E+00
         0.00000E+00
         0.00000E+00
         0.00000E+00
         0.00000E+00
         0.00000E+00
         0.00000E+00
         0.00000E+00
         0.00000E+00
         0.00000E+00
         0.00000E+00
         0.00000E+00
         0.00000E+00
         0.00000E+00
         0.00000E+00
         0.00000E+00
         0.00000E+00
         0.00000E+00
         0.00000E+00
         0.00000E+00
         0.00000E+00
         0.00000E+00
         0.00000E+00
         0.00000E+00
         0.00000E+00
         0.00000E+00
         0.00000E+00
         0.00000E+00
         0.00000E+00
         0.00000E+00
         0.00000E+00
         0.00000E+00
         0.00000E+00
         0.00000E+00
         0.00000E+00
         0.00000E+00
         0.00000E+00
         0.00000E+00
         0.00000E+00
         0.00000E+00
         0.00000E+00
         0.00000E+00
         0.00000E+00
         0.00000E+00
         0.00000E+00
         0.00000E+00
         0.00000E+00
         0.00000E+00
         0.00000E+00
         0.00000E+00
         0.00000E+00
         0.00000E+00
         0.00000E+00
         0.00000E+00
         0.00000E+00
         0.00000E+00
         0.00000E+00
         0.00000E+00
         0.00000E+00
         0.00000E+00
         0.00000E+00
         0.00000E+00
         0.00000E+00
         0.00000E+00
         0.00000E+00
         0.00000E+00
         0.00000E+00
         0.00000E+00
         0.00000E+00
         0.00000E+00
         0.00000E+00
         0.00000E+00
         0.00000E+00
         0.00000E+00
         0.00000E+00
         0.00000E+00
         0.00000E+00
         0.00000E+00
         0.00000E+00
         0.00000E+00
         0.00000E+00
         0.00000E+00
         0.00000E+00
         0.00000E+00
         0.00000E+00
         0.00000E+00
         0.00000E+00
         0.00000E+00
         0.00000E+00
         0.00000E+00
         0.00000E+00
         0.00000E+00
         0.00000E+00
         0.00000E+00
         0.00000E+00
         0.00000E+00
         0.00000E+00
         0.00000E+00
         0.00000E+00
         0.00000E+00
         0.00000E+00
         0.00000E+00
         0.00000E+00
         0.00000E+00
         0.00000E+00
         0.00000E+00
         0.00000E+00
         0.00000E+00
         0.00000E+00
         0.00000E+00
         0.00000E+00
         0.00000E+00
         0.00000E+00
         0.00000E+00
         0.00000E+00
         0.00000E+00
         0.00000E+00
         0.00000E+00
         0.00000E+00
         0.00000E+00
         0.00000E+00
         0.00000E+00
         0.00000E+00
         0.00000E+00
         0.00000E+00
         0.00000E+00
         0.00000E+00
         0.00000E+00
         0.00000E+00
         0.00000E+00
         0.00000E+00
         0.00000E+00
         0.00000E+00
         0.00000E+00
         0.00000E+00
         0.00000E+00
         0.00000E+00
         0.00000E+00
         0.00000E+00
         0.00000E+00
         0.00000E+00
         0.00000E+00
         0.00000E+00
         0.00000E+00
         0.00000E+00
         0.00000E+00
         0.00000E+00
         0.00000E+00
         0.00000E+00
         0.00000E+00
         0.00000E+00
         0.00000E+00
         0.00000E+00
         0.00000E+00
         0.00000E+00
         0.00000E+00
         0.00000E+00
         0.00000E+00
         0.00000E+00
         0.00000E+00
         0.00000E+00
         0.00000E+00
         0.00000E+00
         0.00000E+00
         0.00000E+00
         0.00000E+00
         0.00000E+00
         0.00000E+00
         0.00000E+00
         0.00000E+00
         0.00000E+00
         0.00000E+00
         0.00000E+00
         0.00000E+00
         0.00000E+00
         0.00000E+00
         0.00000E+00
         0.00000E+00
         0.00000E+00
         0.00000E+00
         0.00000E+00
         0.00000E+00
         0.00000E+00
         0.00000E+00
         0.00000E+00
         0.00000E+00
         0.00000E+00
         0.00000E+00
         0.00000E+00
         0.00000E+00
         0.00000E+00
         0.00000E+00
         0.00000E+00
         0.00000E+00
         0.00000E+00
         0.00000E+00
         0.00000E+00
         0.00000E+00
         0.00000E+00
         0.00000E+00
         0.00000E+00
         0.00000E+00
         0.00000E+00
         0.00000E+00
         0.00000E+00
         0.00000E+00
         0.00000E+00
         0.00000E+00
         0.00000E+00
         0.00000E+00
         0.00000E+00
         0.00000E+00
         0.00000E+00
         0.00000E+00
         0.00000E+00
         0.00000E+00
         0.00000E+00
         0.00000E+00
         0.00000E+00
         0.00000E+00
         0.00000E+00
         0.00000E+00
         0.00000E+00
         0.00000E+00
         0.00000E+00
         0.00000E+00
         0.00000E+00
         0.00000E+00
         0.00000E+00
         0.00000E+00
         0.00000E+00
         0.00000E+00
         0.00000E+00
         0.00000E+00
         0.00000E+00
         0.00000E+00
         0.00000E+00
         0.00000E+00
         0.00000E+00
         0.00000E+00
         0.00000E+00
         0.00000E+00
         0.00000E+00
         0.00000E+00
         0.00000E+00
         0.00000E+00
         0.00000E+00
         0.00000E+00
         0.00000E+00
         0.00000E+00
         0.00000E+00
  
SCALARS           initial_coordinate_x  double 1
LOOKUP_TABLE default
         0.10378E-02
         0.17452E-02
         0.23177E-02
         0.16698E-02
         0.10379E-02
         0.17453E-02
         0.23178E-02
         0.16700E-02
         0.30377E-02
         0.27791E-02
         0.30377E-02
         0.27788E-02
         0.12850E-02
         0.65139E-03
         0.12851E-02
         0.65164E-03
         0.12757E-03
        -0.12822E-03
         0.12783E-03
        -0.12804E-03
         0.94500E-03
         0.11327E-02
         0.17490E-02
         0.94533E-03
         0.11330E-02
         0.17494E-02
         0.40588E-03
         0.39779E-03
         0.40594E-03
         0.39781E-03
        -0.76303E-03
        -0.86604E-03
         0.46119E-03
        -0.76268E-03
        -0.86593E-03
         0.46164E-03
        -0.18300E-02
        -0.18440E-02
        -0.18297E-02
        -0.18441E-02
        -0.27238E-02
        -0.28028E-02
        -0.27238E-02
        -0.28031E-02
        -0.25365E-02
        -0.19287E-02
        -0.25363E-02
        -0.19283E-02
        -0.99363E-03
        -0.99377E-03
        -0.14380E-02
        -0.14377E-02
        -0.31574E-03
        -0.31594E-03
        -0.11068E-02
        -0.11071E-02
        -0.18845E-02
        -0.18713E-02
        -0.18846E-02
        -0.18714E-02
        -0.15871E-03
        -0.94089E-03
        -0.15844E-03
        -0.94029E-03
         0.78856E-03
         0.78922E-03
         0.17211E-02
         0.17211E-02
         0.32050E-02
         0.28046E-02
         0.32047E-02
         0.28047E-02
         0.23059E-02
         0.23060E-02
        -0.40614E-03
        -0.40627E-03
        -0.12092E-02
        -0.12092E-02
        -0.19448E-02
        -0.19448E-02
        -0.25029E-02
        -0.26371E-02
        -0.25029E-02
        -0.26372E-02
        -0.27671E-02
        -0.27674E-02
        -0.21123E-02
        -0.21122E-02
        -0.16087E-02
        -0.16087E-02
        -0.11939E-02
        -0.58641E-03
        -0.11937E-02
        -0.58606E-03
         0.20912E-03
         0.20952E-03
         0.10586E-02
         0.10589E-02
         0.18413E-02
         0.18413E-02
         0.24544E-02
         0.26022E-02
         0.24543E-02
         0.26021E-02
         0.37964E-02
         0.39100E-02
         0.37964E-02
         0.39100E-02
         0.34621E-02
         0.34621E-02
         0.29267E-02
         0.29267E-02
         0.22211E-02
         0.22211E-02
         0.13865E-02
         0.13865E-02
         0.47130E-03
         0.47130E-03
        -0.47130E-03
        -0.47130E-03
        -0.13865E-02
        -0.13865E-02
        -0.22211E-02
        -0.22211E-02
        -0.29267E-02
        -0.29267E-02
        -0.34621E-02
        -0.34621E-02
        -0.37964E-02
        -0.37964E-02
        -0.39100E-02
        -0.39100E-02
        -0.37964E-02
        -0.37964E-02
        -0.34621E-02
        -0.34621E-02
        -0.29267E-02
        -0.29267E-02
        -0.22211E-02
        -0.22211E-02
        -0.13865E-02
        -0.13865E-02
        -0.47130E-03
        -0.47130E-03
         0.47130E-03
         0.47130E-03
         0.13865E-02
         0.13865E-02
         0.22211E-02
         0.22211E-02
         0.29267E-02
         0.29267E-02
         0.34621E-02
         0.34621E-02
         0.37964E-02
         0.37964E-02
         0.10376E-02
         0.17450E-02
         0.23175E-02
         0.16696E-02
         0.30377E-02
         0.27795E-02
         0.12849E-02
         0.65115E-03
         0.12731E-03
        -0.12841E-03
         0.94467E-03
         0.11323E-02
         0.17487E-02
         0.40583E-03
         0.39777E-03
        -0.76338E-03
        -0.86615E-03
         0.46074E-03
        -0.18303E-02
        -0.18439E-02
        -0.27238E-02
        -0.28025E-02
        -0.25366E-02
        -0.19292E-02
        -0.99349E-03
        -0.14384E-02
        -0.31554E-03
        -0.11064E-02
        -0.18845E-02
        -0.18712E-02
        -0.15899E-03
        -0.94149E-03
         0.78790E-03
         0.17210E-02
         0.32053E-02
         0.28046E-02
         0.23058E-02
        -0.40600E-03
        -0.12092E-02
        -0.19447E-02
        -0.25028E-02
        -0.26370E-02
        -0.27668E-02
        -0.21125E-02
        -0.16088E-02
        -0.11940E-02
        -0.58676E-03
         0.20871E-03
         0.10583E-02
         0.18413E-02
         0.24545E-02
         0.26022E-02
         0.37964E-02
         0.39100E-02
         0.34621E-02
         0.29267E-02
         0.22211E-02
         0.13865E-02
         0.47130E-03
        -0.47130E-03
        -0.13865E-02
        -0.22211E-02
        -0.29267E-02
        -0.34621E-02
        -0.37964E-02
        -0.39100E-02
        -0.37964E-02
        -0.34621E-02
        -0.29267E-02
        -0.22211E-02
        -0.13865E-02
        -0.47130E-03
         0.47130E-03
         0.13865E-02
         0.22211E-02
         0.29267E-02
         0.34621E-02
         0.37964E-02
         0.10375E-02
         0.17448E-02
         0.23174E-02
         0.16694E-02
         0.30377E-02
         0.27798E-02
         0.12848E-02
         0.65090E-03
         0.12705E-03
        -0.12859E-03
         0.94434E-03
         0.11320E-02
         0.17483E-02
         0.40577E-03
         0.39776E-03
        -0.76374E-03
        -0.86626E-03
         0.46029E-03
        -0.18306E-02
        -0.18438E-02
        -0.27238E-02
        -0.28022E-02
        -0.25368E-02
        -0.19296E-02
        -0.99334E-03
        -0.14387E-02
        -0.31534E-03
        -0.11061E-02
        -0.18844E-02
        -0.18710E-02
        -0.15926E-03
        -0.94209E-03
         0.78724E-03
         0.17210E-02
         0.32056E-02
         0.28046E-02
         0.23057E-02
        -0.40586E-03
        -0.12092E-02
        -0.19447E-02
        -0.25028E-02
        -0.26369E-02
        -0.27665E-02
        -0.21126E-02
        -0.16088E-02
        -0.11941E-02
        -0.58711E-03
         0.20830E-03
         0.10580E-02
         0.18414E-02
         0.24546E-02
         0.26023E-02
         0.37964E-02
         0.39100E-02
         0.34621E-02
         0.29267E-02
         0.22211E-02
         0.13865E-02
         0.47130E-03
        -0.47130E-03
        -0.13865E-02
        -0.22211E-02
        -0.29267E-02
        -0.34621E-02
        -0.37964E-02
        -0.39100E-02
        -0.37964E-02
        -0.34621E-02
        -0.29267E-02
        -0.22211E-02
        -0.13865E-02
        -0.47130E-03
         0.47130E-03
         0.13865E-02
         0.22211E-02
         0.29267E-02
         0.34621E-02
         0.37964E-02
         0.10374E-02
         0.17446E-02
         0.23173E-02
         0.16692E-02
         0.30376E-02
         0.27801E-02
         0.12847E-02
         0.65065E-03
         0.12678E-03
        -0.12878E-03
         0.94401E-03
         0.11316E-02
         0.17479E-02
         0.40572E-03
         0.39774E-03
        -0.76409E-03
        -0.86637E-03
         0.45985E-03
        -0.18309E-02
        -0.18437E-02
        -0.27237E-02
        -0.28020E-02
        -0.25369E-02
        -0.19300E-02
        -0.99320E-03
        -0.14391E-02
        -0.31514E-03
        -0.11057E-02
        -0.18844E-02
        -0.18709E-02
        -0.15954E-03
        -0.94269E-03
         0.78658E-03
         0.17209E-02
         0.32060E-02
         0.28046E-02
         0.23056E-02
        -0.40572E-03
        -0.12092E-02
        -0.19446E-02
        -0.25028E-02
        -0.26368E-02
        -0.27662E-02
        -0.21128E-02
        -0.16088E-02
        -0.11942E-02
        -0.58746E-03
         0.20790E-03
         0.10577E-02
         0.18414E-02
         0.24548E-02
         0.26024E-02
         0.37964E-02
         0.39100E-02
         0.34621E-02
         0.29267E-02
         0.22211E-02
         0.13865E-02
         0.47130E-03
        -0.47130E-03
        -0.13865E-02
        -0.22211E-02
        -0.29267E-02
        -0.34621E-02
        -0.37964E-02
        -0.39100E-02
        -0.37964E-02
        -0.34621E-02
        -0.29267E-02
        -0.22211E-02
        -0.13865E-02
        -0.47130E-03
         0.47130E-03
         0.13865E-02
         0.22211E-02
         0.29267E-02
         0.34621E-02
         0.37964E-02
         0.10373E-02
         0.17445E-02
         0.23172E-02
         0.16689E-02
         0.30376E-02
         0.27805E-02
         0.12846E-02
         0.65041E-03
         0.12652E-03
        -0.12896E-03
         0.94367E-03
         0.11313E-02
         0.17475E-02
         0.40566E-03
         0.39772E-03
        -0.76444E-03
        -0.86648E-03
         0.45940E-03
        -0.18312E-02
        -0.18436E-02
        -0.27237E-02
        -0.28017E-02
        -0.25371E-02
        -0.19305E-02
        -0.99305E-03
        -0.14394E-02
        -0.31494E-03
        -0.11054E-02
        -0.18843E-02
        -0.18708E-02
        -0.15981E-03
        -0.94328E-03
         0.78592E-03
         0.17209E-02
         0.32063E-02
         0.28045E-02
         0.23055E-02
        -0.40558E-03
        -0.12092E-02
        -0.19446E-02
        -0.25027E-02
        -0.26367E-02
        -0.27658E-02
        -0.21129E-02
        -0.16089E-02
        -0.11943E-02
        -0.58781E-03
         0.20749E-03
         0.10574E-02
         0.18415E-02
         0.24549E-02
         0.26025E-02
         0.37964E-02
         0.39100E-02
         0.34621E-02
         0.29267E-02
         0.22211E-02
         0.13865E-02
         0.47130E-03
        -0.47130E-03
        -0.13865E-02
        -0.22211E-02
        -0.29267E-02
        -0.34621E-02
        -0.37964E-02
        -0.39100E-02
        -0.37964E-02
        -0.34621E-02
        -0.29267E-02
        -0.22211E-02
        -0.13865E-02
        -0.47130E-03
         0.47130E-03
         0.13865E-02
         0.22211E-02
         0.29267E-02
         0.34621E-02
         0.37964E-02
         0.10372E-02
         0.17443E-02
         0.23171E-02
         0.16687E-02
         0.30376E-02
         0.27808E-02
         0.12845E-02
         0.65016E-03
         0.12626E-03
        -0.12915E-03
         0.94334E-03
         0.11310E-02
         0.17471E-02
         0.40561E-03
         0.39770E-03
        -0.76480E-03
        -0.86659E-03
         0.45895E-03
        -0.18315E-02
        -0.18435E-02
        -0.27237E-02
        -0.28014E-02
        -0.25372E-02
        -0.19309E-02
        -0.99291E-03
        -0.14398E-02
        -0.31474E-03
        -0.11051E-02
        -0.18843E-02
        -0.18706E-02
        -0.16009E-03
        -0.94388E-03
         0.78526E-03
         0.17208E-02
         0.32066E-02
         0.28045E-02
         0.23053E-02
        -0.40545E-03
        -0.12092E-02
        -0.19446E-02
        -0.25027E-02
        -0.26366E-02
        -0.27655E-02
        -0.21130E-02
        -0.16089E-02
        -0.11944E-02
        -0.58816E-03
         0.20709E-03
         0.10571E-02
         0.18415E-02
         0.24550E-02
         0.26025E-02
         0.37964E-02
         0.39100E-02
         0.34621E-02
         0.29267E-02
         0.22211E-02
         0.13865E-02
         0.47130E-03
        -0.47130E-03
        -0.13865E-02
        -0.22211E-02
        -0.29267E-02
        -0.34621E-02
        -0.37964E-02
        -0.39100E-02
        -0.37964E-02
        -0.34621E-02
        -0.29267E-02
        -0.22211E-02
        -0.13865E-02
        -0.47130E-03
         0.47130E-03
         0.13865E-02
         0.22211E-02
         0.29267E-02
         0.34621E-02
         0.37964E-02
         0.10371E-02
         0.17441E-02
         0.23169E-02
         0.16685E-02
         0.30376E-02
         0.27812E-02
         0.12844E-02
         0.64992E-03
         0.12600E-03
        -0.12933E-03
         0.94301E-03
         0.11306E-02
         0.17467E-02
         0.40556E-03
         0.39769E-03
        -0.76515E-03
        -0.86670E-03
         0.45850E-03
        -0.18318E-02
        -0.18434E-02
        -0.27236E-02
        -0.28011E-02
        -0.25374E-02
        -0.19313E-02
        -0.99277E-03
        -0.14401E-02
        -0.31454E-03
        -0.11047E-02
        -0.18842E-02
        -0.18705E-02
        -0.16036E-03
        -0.94448E-03
         0.78460E-03
         0.17208E-02
         0.32070E-02
         0.28045E-02
         0.23052E-02
        -0.40531E-03
        -0.12092E-02
        -0.19445E-02
        -0.25027E-02
        -0.26366E-02
        -0.27652E-02
        -0.21132E-02
        -0.16090E-02
        -0.11946E-02
        -0.58851E-03
         0.20668E-03
         0.10567E-02
         0.18416E-02
         0.24551E-02
         0.26026E-02
         0.37964E-02
         0.39100E-02
         0.34621E-02
         0.29267E-02
         0.22211E-02
         0.13865E-02
         0.47130E-03
        -0.47130E-03
        -0.13865E-02
        -0.22211E-02
        -0.29267E-02
        -0.34621E-02
        -0.37964E-02
        -0.39100E-02
        -0.37964E-02
        -0.34621E-02
        -0.29267E-02
        -0.22211E-02
        -0.13865E-02
        -0.47130E-03
         0.47130E-03
         0.13865E-02
         0.22211E-02
         0.29267E-02
         0.34621E-02
         0.37964E-02
         0.10370E-02
         0.17439E-02
         0.23168E-02
         0.16683E-02
         0.30375E-02
         0.27815E-02
         0.12843E-02
         0.64967E-03
         0.12573E-03
        -0.12952E-03
         0.94268E-03
         0.11303E-02
         0.17463E-02
         0.40550E-03
         0.39767E-03
        -0.76551E-03
        -0.86680E-03
         0.45806E-03
        -0.18321E-02
        -0.18433E-02
        -0.27236E-02
        -0.28009E-02
        -0.25375E-02
        -0.19317E-02
        -0.99262E-03
        -0.14405E-02
        -0.31434E-03
        -0.11044E-02
        -0.18842E-02
        -0.18704E-02
        -0.16064E-03
        -0.94508E-03
         0.78394E-03
         0.17208E-02
         0.32073E-02
         0.28045E-02
         0.23051E-02
        -0.40517E-03
        -0.12092E-02
        -0.19445E-02
        -0.25026E-02
        -0.26365E-02
        -0.27649E-02
        -0.21133E-02
        -0.16090E-02
        -0.11947E-02
        -0.58886E-03
         0.20627E-03
         0.10564E-02
         0.18416E-02
         0.24553E-02
         0.26027E-02
         0.37964E-02
         0.39100E-02
         0.34621E-02
         0.29267E-02
         0.22211E-02
         0.13865E-02
         0.47130E-03
        -0.47130E-03
        -0.13865E-02
        -0.22211E-02
        -0.29267E-02
        -0.34621E-02
        -0.37964E-02
        -0.39100E-02
        -0.37964E-02
        -0.34621E-02
        -0.29267E-02
        -0.22211E-02
        -0.13865E-02
        -0.47130E-03
         0.47130E-03
         0.13865E-02
         0.22211E-02
         0.29267E-02
         0.34621E-02
         0.37964E-02
         0.10368E-02
         0.17438E-02
         0.23167E-02
         0.16681E-02
         0.30375E-02
         0.27819E-02
         0.12842E-02
         0.64943E-03
         0.12547E-03
        -0.12970E-03
         0.94235E-03
         0.11300E-02
         0.17459E-02
         0.40545E-03
         0.39766E-03
        -0.76586E-03
        -0.86691E-03
         0.45761E-03
        -0.18324E-02
        -0.18432E-02
        -0.27236E-02
        -0.28006E-02
        -0.25377E-02
        -0.19322E-02
        -0.99248E-03
        -0.14408E-02
        -0.31414E-03
        -0.11040E-02
        -0.18841E-02
        -0.18703E-02
        -0.16091E-03
        -0.94568E-03
         0.78328E-03
         0.17207E-02
         0.32076E-02
         0.28044E-02
         0.23050E-02
        -0.40503E-03
        -0.12092E-02
        -0.19445E-02
        -0.25026E-02
        -0.26364E-02
        -0.27646E-02
        -0.21134E-02
        -0.16091E-02
        -0.11948E-02
        -0.58921E-03
         0.20587E-03
         0.10561E-02
         0.18416E-02
         0.24554E-02
         0.26027E-02
         0.37964E-02
         0.39100E-02
         0.34621E-02
         0.29267E-02
         0.22211E-02
         0.13865E-02
         0.47130E-03
        -0.47130E-03
        -0.13865E-02
        -0.22211E-02
        -0.29267E-02
        -0.34621E-02
        -0.37964E-02
        -0.39100E-02
        -0.37964E-02
        -0.34621E-02
        -0.29267E-02
        -0.22211E-02
        -0.13865E-02
        -0.47130E-03
         0.47130E-03
         0.13865E-02
         0.22211E-02
         0.29267E-02
         0.34621E-02
         0.37964E-02
         0.10367E-02
         0.17436E-02
         0.23166E-02
         0.16679E-02
         0.30375E-02
         0.27822E-02
         0.12841E-02
         0.64918E-03
         0.12521E-03
        -0.12989E-03
         0.94202E-03
         0.11296E-02
         0.17455E-02
         0.40539E-03
         0.39764E-03
        -0.76621E-03
        -0.86702E-03
         0.45716E-03
        -0.18326E-02
        -0.18431E-02
        -0.27235E-02
        -0.28003E-02
        -0.25379E-02
        -0.19326E-02
        -0.99233E-03
        -0.14412E-02
        -0.31394E-03
        -0.11037E-02
        -0.18841E-02
        -0.18701E-02
        -0.16119E-03
        -0.94628E-03
         0.78262E-03
         0.17207E-02
         0.32079E-02
         0.28044E-02
         0.23049E-02
        -0.40490E-03
        -0.12093E-02
        -0.19444E-02
        -0.25026E-02
        -0.26363E-02
        -0.27643E-02
        -0.21136E-02
        -0.16091E-02
        -0.11949E-02
        -0.58956E-03
         0.20546E-03
         0.10558E-02
         0.18417E-02
         0.24555E-02
         0.26028E-02
         0.37964E-02
         0.39100E-02
         0.34621E-02
         0.29267E-02
         0.22211E-02
         0.13865E-02
         0.47130E-03
        -0.47130E-03
        -0.13865E-02
        -0.22211E-02
        -0.29267E-02
        -0.34621E-02
        -0.37964E-02
        -0.39100E-02
        -0.37964E-02
        -0.34621E-02
        -0.29267E-02
        -0.22211E-02
        -0.13865E-02
        -0.47130E-03
         0.47130E-03
         0.13865E-02
         0.22211E-02
         0.29267E-02
         0.34621E-02
         0.37964E-02
         0.10366E-02
         0.17434E-02
         0.23164E-02
         0.16677E-02
         0.30375E-02
         0.27825E-02
         0.12840E-02
         0.64894E-03
         0.12495E-03
        -0.13007E-03
         0.94169E-03
         0.11293E-02
         0.17451E-02
         0.40534E-03
         0.39762E-03
        -0.76657E-03
        -0.86713E-03
         0.45671E-03
        -0.18329E-02
        -0.18430E-02
        -0.27235E-02
        -0.28001E-02
        -0.25380E-02
        -0.19330E-02
        -0.99219E-03
        -0.14415E-02
        -0.31374E-03
        -0.11033E-02
        -0.18840E-02
        -0.18700E-02
        -0.16146E-03
        -0.94687E-03
         0.78195E-03
         0.17207E-02
         0.32083E-02
         0.28044E-02
         0.23048E-02
        -0.40476E-03
        -0.12093E-02
        -0.19444E-02
        -0.25026E-02
        -0.26362E-02
        -0.27640E-02
        -0.21137E-02
        -0.16091E-02
        -0.11950E-02
        -0.58991E-03
         0.20505E-03
         0.10555E-02
         0.18417E-02
         0.24556E-02
         0.26029E-02
         0.37964E-02
         0.39100E-02
         0.34621E-02
         0.29267E-02
         0.22211E-02
         0.13865E-02
         0.47130E-03
        -0.47130E-03
        -0.13865E-02
        -0.22211E-02
        -0.29267E-02
        -0.34621E-02
        -0.37964E-02
        -0.39100E-02
        -0.37964E-02
        -0.34621E-02
        -0.29267E-02
        -0.22211E-02
        -0.13865E-02
        -0.47130E-03
         0.47130E-03
         0.13865E-02
         0.22211E-02
         0.29267E-02
         0.34621E-02
         0.37964E-02
         0.10365E-02
         0.17432E-02
         0.23163E-02
         0.16675E-02
         0.30374E-02
         0.27829E-02
         0.12839E-02
         0.64869E-03
         0.12468E-03
        -0.13026E-03
         0.94135E-03
         0.11289E-02
         0.17447E-02
         0.40528E-03
         0.39760E-03
        -0.76692E-03
        -0.86724E-03
         0.45626E-03
        -0.18332E-02
        -0.18430E-02
        -0.27235E-02
        -0.27998E-02
        -0.25382E-02
        -0.19334E-02
        -0.99205E-03
        -0.14419E-02
        -0.31354E-03
        -0.11030E-02
        -0.18840E-02
        -0.18699E-02
        -0.16174E-03
        -0.94747E-03
         0.78129E-03
         0.17206E-02
         0.32086E-02
         0.28044E-02
         0.23047E-02
        -0.40462E-03
        -0.12093E-02
        -0.19444E-02
        -0.25025E-02
        -0.26361E-02
        -0.27637E-02
        -0.21139E-02
        -0.16092E-02
        -0.11951E-02
        -0.59025E-03
         0.20465E-03
         0.10552E-02
         0.18418E-02
         0.24558E-02
         0.26030E-02
         0.37964E-02
         0.39100E-02
         0.34621E-02
         0.29267E-02
         0.22211E-02
         0.13865E-02
         0.47130E-03
        -0.47130E-03
        -0.13865E-02
        -0.22211E-02
        -0.29267E-02
        -0.34621E-02
        -0.37964E-02
        -0.39100E-02
        -0.37964E-02
        -0.34621E-02
        -0.29267E-02
        -0.22211E-02
        -0.13865E-02
        -0.47130E-03
         0.47130E-03
         0.13865E-02
         0.22211E-02
         0.29267E-02
         0.34621E-02
         0.37964E-02
         0.10364E-02
         0.17430E-02
         0.23162E-02
         0.16672E-02
         0.30374E-02
         0.27832E-02
         0.12838E-02
         0.64845E-03
         0.12442E-03
        -0.13044E-03
         0.94102E-03
         0.11286E-02
         0.17443E-02
         0.40523E-03
         0.39759E-03
        -0.76727E-03
        -0.86735E-03
         0.45582E-03
        -0.18335E-02
        -0.18429E-02
        -0.27235E-02
        -0.27995E-02
        -0.25383E-02
        -0.19339E-02
        -0.99190E-03
        -0.14422E-02
        -0.31334E-03
        -0.11026E-02
        -0.18839E-02
        -0.18697E-02
        -0.16201E-03
        -0.94807E-03
         0.78063E-03
         0.17206E-02
         0.32089E-02
         0.28043E-02
         0.23046E-02
        -0.40448E-03
        -0.12093E-02
        -0.19443E-02
        -0.25025E-02
        -0.26360E-02
        -0.27633E-02
        -0.21140E-02
        -0.16092E-02
        -0.11953E-02
        -0.59060E-03
         0.20424E-03
         0.10549E-02
         0.18418E-02
         0.24559E-02
         0.26030E-02
         0.37964E-02
         0.39100E-02
         0.34621E-02
         0.29267E-02
         0.22211E-02
         0.13865E-02
         0.47130E-03
        -0.47130E-03
        -0.13865E-02
        -0.22211E-02
        -0.29267E-02
        -0.34621E-02
        -0.37964E-02
        -0.39100E-02
        -0.37964E-02
        -0.34621E-02
        -0.29267E-02
        -0.22211E-02
        -0.13865E-02
        -0.47130E-03
         0.47130E-03
         0.13865E-02
         0.22211E-02
         0.29267E-02
         0.34621E-02
         0.37964E-02
         0.10363E-02
         0.17429E-02
         0.23161E-02
         0.16670E-02
         0.30374E-02
         0.27836E-02
         0.12837E-02
         0.64820E-03
         0.12416E-03
        -0.13063E-03
         0.94069E-03
         0.11282E-02
         0.17439E-02
         0.40518E-03
         0.39757E-03
        -0.76763E-03
        -0.86746E-03
         0.45537E-03
        -0.18338E-02
        -0.18428E-02
        -0.27234E-02
        -0.27992E-02
        -0.25385E-02
        -0.19343E-02
        -0.99176E-03
        -0.14425E-02
        -0.31314E-03
        -0.11023E-02
        -0.18839E-02
        -0.18696E-02
        -0.16229E-03
        -0.94867E-03
         0.77997E-03
         0.17205E-02
         0.32092E-02
         0.28043E-02
         0.23044E-02
        -0.40434E-03
        -0.12093E-02
        -0.19443E-02
        -0.25025E-02
        -0.26359E-02
        -0.27630E-02
        -0.21141E-02
        -0.16093E-02
        -0.11954E-02
        -0.59095E-03
         0.20384E-03
         0.10546E-02
         0.18419E-02
         0.24560E-02
         0.26031E-02
         0.37964E-02
         0.39100E-02
         0.34621E-02
         0.29267E-02
         0.22211E-02
         0.13865E-02
         0.47130E-03
        -0.47130E-03
        -0.13865E-02
        -0.22211E-02
        -0.29267E-02
        -0.34621E-02
        -0.37964E-02
        -0.39100E-02
        -0.37964E-02
        -0.34621E-02
        -0.29267E-02
        -0.22211E-02
        -0.13865E-02
        -0.47130E-03
         0.47130E-03
         0.13865E-02
         0.22211E-02
         0.29267E-02
         0.34621E-02
         0.37964E-02
         0.10362E-02
         0.17427E-02
         0.23160E-02
         0.16668E-02
         0.30373E-02
         0.27839E-02
         0.12836E-02
         0.64796E-03
         0.12390E-03
        -0.13082E-03
         0.94036E-03
         0.11279E-02
         0.17435E-02
         0.40512E-03
         0.39755E-03
        -0.76798E-03
        -0.86756E-03
         0.45492E-03
        -0.18341E-02
        -0.18427E-02
        -0.27234E-02
        -0.27990E-02
        -0.25386E-02
        -0.19347E-02
        -0.99161E-03
        -0.14429E-02
        -0.31294E-03
        -0.11019E-02
        -0.18838E-02
        -0.18695E-02
        -0.16256E-03
        -0.94927E-03
         0.77931E-03
         0.17205E-02
         0.32096E-02
         0.28043E-02
         0.23043E-02
        -0.40420E-03
        -0.12093E-02
        -0.19443E-02
        -0.25024E-02
        -0.26358E-02
        -0.27627E-02
        -0.21143E-02
        -0.16093E-02
        -0.11955E-02
        -0.59130E-03
         0.20343E-03
         0.10543E-02
         0.18419E-02
         0.24561E-02
         0.26032E-02
         0.37964E-02
         0.39100E-02
         0.34621E-02
         0.29267E-02
         0.22211E-02
         0.13865E-02
         0.47130E-03
        -0.47130E-03
        -0.13865E-02
        -0.22211E-02
        -0.29267E-02
        -0.34621E-02
        -0.37964E-02
        -0.39100E-02
        -0.37964E-02
        -0.34621E-02
        -0.29267E-02
        -0.22211E-02
        -0.13865E-02
        -0.47130E-03
         0.47130E-03
         0.13865E-02
         0.22211E-02
         0.29267E-02
         0.34621E-02
         0.37964E-02
         0.10360E-02
         0.17425E-02
         0.23158E-02
         0.16666E-02
         0.30373E-02
         0.27842E-02
         0.12835E-02
         0.64771E-03
         0.12363E-03
        -0.13100E-03
         0.94003E-03
         0.11276E-02
         0.17432E-02
         0.40507E-03
         0.39754E-03
        -0.76834E-03
        -0.86767E-03
         0.45447E-03
        -0.18344E-02
        -0.18426E-02
        -0.27234E-02
        -0.27987E-02
        -0.25388E-02
        -0.19352E-02
        -0.99147E-03
        -0.14433E-02
        -0.31274E-03
        -0.11016E-02
        -0.18838E-02
        -0.18694E-02
        -0.16284E-03
        -0.94986E-03
         0.77865E-03
         0.17205E-02
         0.32099E-02
         0.28042E-02
         0.23042E-02
        -0.40407E-03
        -0.12093E-02
        -0.19442E-02
        -0.25024E-02
        -0.26358E-02
        -0.27624E-02
        -0.21144E-02
        -0.16094E-02
        -0.11956E-02
        -0.59165E-03
         0.20302E-03
         0.10540E-02
         0.18419E-02
         0.24563E-02
         0.26033E-02
         0.37964E-02
         0.39100E-02
         0.34621E-02
         0.29267E-02
         0.22211E-02
         0.13865E-02
         0.47130E-03
        -0.47130E-03
        -0.13865E-02
        -0.22211E-02
        -0.29267E-02
        -0.34621E-02
        -0.37964E-02
        -0.39100E-02
        -0.37964E-02
        -0.34621E-02
        -0.29267E-02
        -0.22211E-02
        -0.13865E-02
        -0.47130E-03
         0.47130E-03
         0.13865E-02
         0.22211E-02
         0.29267E-02
         0.34621E-02
         0.37964E-02
         0.10359E-02
         0.17423E-02
         0.23157E-02
         0.16664E-02
         0.30373E-02
         0.27846E-02
         0.12834E-02
         0.64747E-03
         0.12337E-03
        -0.13118E-03
         0.93970E-03
         0.11272E-02
         0.17428E-02
         0.40501E-03
         0.39752E-03
        -0.76869E-03
        -0.86778E-03
         0.45402E-03
        -0.18347E-02
        -0.18425E-02
        -0.27234E-02
        -0.27984E-02
        -0.25389E-02
        -0.19356E-02
        -0.99133E-03
        -0.14436E-02
        -0.31254E-03
        -0.11013E-02
        -0.18837E-02
        -0.18692E-02
        -0.16311E-03
        -0.95046E-03
         0.77799E-03
         0.17204E-02
         0.32102E-02
         0.28042E-02
         0.23041E-02
        -0.40393E-03
        -0.12093E-02
        -0.19442E-02
        -0.25024E-02
        -0.26357E-02
        -0.27621E-02
        -0.21146E-02
        -0.16094E-02
        -0.11957E-02
        -0.59200E-03
         0.20262E-03
         0.10536E-02
         0.18420E-02
         0.24564E-02
         0.26033E-02
         0.37964E-02
         0.39100E-02
         0.34621E-02
         0.29267E-02
         0.22211E-02
         0.13865E-02
         0.47130E-03
        -0.47130E-03
        -0.13865E-02
        -0.22211E-02
        -0.29267E-02
        -0.34621E-02
        -0.37964E-02
        -0.39100E-02
        -0.37964E-02
        -0.34621E-02
        -0.29267E-02
        -0.22211E-02
        -0.13865E-02
        -0.47130E-03
         0.47130E-03
         0.13865E-02
         0.22211E-02
         0.29267E-02
         0.34621E-02
         0.37964E-02
         0.10358E-02
         0.17422E-02
         0.23156E-02
         0.16662E-02
         0.30373E-02
         0.27849E-02
         0.12833E-02
         0.64722E-03
         0.12311E-03
        -0.13137E-03
         0.93937E-03
         0.11269E-02
         0.17424E-02
         0.40496E-03
         0.39750E-03
        -0.76904E-03
        -0.86789E-03
         0.45358E-03
        -0.18350E-02
        -0.18424E-02
        -0.27233E-02
        -0.27981E-02
        -0.25391E-02
        -0.19360E-02
        -0.99118E-03
        -0.14440E-02
        -0.31234E-03
        -0.11009E-02
        -0.18836E-02
        -0.18691E-02
        -0.16339E-03
        -0.95106E-03
         0.77733E-03
         0.17204E-02
         0.32105E-02
         0.28042E-02
         0.23040E-02
        -0.40379E-03
        -0.12093E-02
        -0.19441E-02
        -0.25023E-02
        -0.26356E-02
        -0.27618E-02
        -0.21147E-02
        -0.16094E-02
        -0.11958E-02
        -0.59235E-03
         0.20221E-03
         0.10533E-02
         0.18420E-02
         0.24565E-02
         0.26034E-02
         0.37964E-02
         0.39100E-02
         0.34621E-02
         0.29267E-02
         0.22211E-02
         0.13865E-02
         0.47130E-03
        -0.47130E-03
        -0.13865E-02
        -0.22211E-02
        -0.29267E-02
        -0.34621E-02
        -0.37964E-02
        -0.39100E-02
        -0.37964E-02
        -0.34621E-02
        -0.29267E-02
        -0.22211E-02
        -0.13865E-02
        -0.47130E-03
         0.47130E-03
         0.13865E-02
         0.22211E-02
         0.29267E-02
         0.34621E-02
         0.37964E-02
         0.10357E-02
         0.17420E-02
         0.23155E-02
         0.16660E-02
         0.30372E-02
         0.27853E-02
         0.12832E-02
         0.64698E-03
         0.12285E-03
        -0.13155E-03
         0.93903E-03
         0.11266E-02
         0.17420E-02
         0.40490E-03
         0.39749E-03
        -0.76940E-03
        -0.86800E-03
         0.45313E-03
        -0.18353E-02
        -0.18423E-02
        -0.27233E-02
        -0.27979E-02
        -0.25393E-02
        -0.19365E-02
        -0.99104E-03
        -0.14443E-02
        -0.31214E-03
        -0.11006E-02
        -0.18836E-02
        -0.18690E-02
        -0.16366E-03
        -0.95166E-03
         0.77667E-03
         0.17203E-02
         0.32109E-02
         0.28042E-02
         0.23039E-02
        -0.40365E-03
        -0.12093E-02
        -0.19441E-02
        -0.25023E-02
        -0.26355E-02
        -0.27615E-02
        -0.21148E-02
        -0.16095E-02
        -0.11960E-02
        -0.59270E-03
         0.20180E-03
         0.10530E-02
         0.18421E-02
         0.24566E-02
         0.26035E-02
         0.37964E-02
         0.39100E-02
         0.34621E-02
         0.29267E-02
         0.22211E-02
         0.13865E-02
         0.47130E-03
        -0.47130E-03
        -0.13865E-02
        -0.22211E-02
        -0.29267E-02
        -0.34621E-02
        -0.37964E-02
        -0.39100E-02
        -0.37964E-02
        -0.34621E-02
        -0.29267E-02
        -0.22211E-02
        -0.13865E-02
        -0.47130E-03
         0.47130E-03
         0.13865E-02
         0.22211E-02
         0.29267E-02
         0.34621E-02
         0.37964E-02
         0.10356E-02
         0.17418E-02
         0.23153E-02
         0.16657E-02
         0.30372E-02
         0.27856E-02
         0.12830E-02
         0.64673E-03
         0.12259E-03
        -0.13174E-03
         0.93870E-03
         0.11262E-02
         0.17416E-02
         0.40485E-03
         0.39747E-03
        -0.76975E-03
        -0.86811E-03
         0.45268E-03
        -0.18356E-02
        -0.18422E-02
        -0.27233E-02
        -0.27976E-02
        -0.25394E-02
        -0.19369E-02
        -0.99090E-03
        -0.14446E-02
        -0.31194E-03
        -0.11002E-02
        -0.18835E-02
        -0.18689E-02
        -0.16394E-03
        -0.95226E-03
         0.77601E-03
         0.17203E-02
         0.32112E-02
         0.28042E-02
         0.23038E-02
        -0.40352E-03
        -0.12093E-02
        -0.19441E-02
        -0.25023E-02
        -0.26354E-02
        -0.27612E-02
        -0.21150E-02
        -0.16095E-02
        -0.11961E-02
        -0.59305E-03
         0.20140E-03
         0.10527E-02
         0.18421E-02
         0.24568E-02
         0.26036E-02
         0.37964E-02
         0.39100E-02
         0.34621E-02
         0.29267E-02
         0.22211E-02
         0.13865E-02
         0.47130E-03
        -0.47130E-03
        -0.13865E-02
        -0.22211E-02
        -0.29267E-02
        -0.34621E-02
        -0.37964E-02
        -0.39100E-02
        -0.37964E-02
        -0.34621E-02
        -0.29267E-02
        -0.22211E-02
        -0.13865E-02
        -0.47130E-03
         0.47130E-03
         0.13865E-02
         0.22211E-02
         0.29267E-02
         0.34621E-02
         0.37964E-02
         0.10355E-02
         0.17416E-02
         0.23152E-02
         0.16655E-02
         0.30372E-02
         0.27860E-02
         0.12829E-02
         0.64649E-03
         0.12232E-03
        -0.13193E-03
         0.93837E-03
         0.11259E-02
         0.17412E-02
         0.40480E-03
         0.39745E-03
        -0.77011E-03
        -0.86822E-03
         0.45223E-03
        -0.18359E-02
        -0.18421E-02
        -0.27232E-02
        -0.27973E-02
        -0.25396E-02
        -0.19373E-02
        -0.99075E-03
        -0.14450E-02
        -0.31173E-03
        -0.10999E-02
        -0.18835E-02
        -0.18687E-02
        -0.16421E-03
        -0.95285E-03
         0.77535E-03
         0.17202E-02
         0.32115E-02
         0.28041E-02
         0.23037E-02
        -0.40338E-03
        -0.12093E-02
        -0.19440E-02
        -0.25023E-02
        -0.26353E-02
        -0.27609E-02
        -0.21151E-02
        -0.16096E-02
        -0.11962E-02
        -0.59340E-03
         0.20099E-03
         0.10524E-02
         0.18422E-02
         0.24569E-02
         0.26036E-02
         0.37964E-02
         0.39100E-02
         0.34621E-02
         0.29267E-02
         0.22211E-02
         0.13865E-02
         0.47130E-03
        -0.47130E-03
        -0.13865E-02
        -0.22211E-02
        -0.29267E-02
        -0.34621E-02
        -0.37964E-02
        -0.39100E-02
        -0.37964E-02
        -0.34621E-02
        -0.29267E-02
        -0.22211E-02
        -0.13865E-02
        -0.47130E-03
         0.47130E-03
         0.13865E-02
         0.22211E-02
         0.29267E-02
         0.34621E-02
         0.37964E-02
         0.10354E-02
         0.17414E-02
         0.23151E-02
         0.16653E-02
         0.30372E-02
         0.27863E-02
         0.12829E-02
         0.64624E-03
         0.12206E-03
        -0.13211E-03
         0.93804E-03
         0.11255E-02
         0.17408E-02
         0.40474E-03
         0.39744E-03
        -0.77046E-03
        -0.86832E-03
         0.45179E-03
        -0.18362E-02
        -0.18420E-02
        -0.27232E-02
        -0.27970E-02
        -0.25397E-02
        -0.19377E-02
        -0.99061E-03
        -0.14453E-02
        -0.31153E-03
        -0.10995E-02
        -0.18834E-02
        -0.18686E-02
        -0.16449E-03
        -0.95345E-03
         0.77469E-03
         0.17202E-02
         0.32119E-02
         0.28041E-02
         0.23036E-02
        -0.40324E-03
        -0.12093E-02
        -0.19440E-02
        -0.25022E-02
        -0.26352E-02
        -0.27606E-02
        -0.21152E-02
        -0.16096E-02
        -0.11963E-02
        -0.59375E-03
         0.20059E-03
         0.10521E-02
         0.18422E-02
         0.24570E-02
         0.26037E-02
         0.37964E-02
         0.39100E-02
         0.34621E-02
         0.29267E-02
         0.22211E-02
         0.13865E-02
         0.47130E-03
        -0.47130E-03
        -0.13865E-02
        -0.22211E-02
        -0.29267E-02
        -0.34621E-02
        -0.37964E-02
        -0.39100E-02
        -0.37964E-02
        -0.34621E-02
        -0.29267E-02
        -0.22211E-02
        -0.13865E-02
        -0.47130E-03
         0.47130E-03
         0.13865E-02
         0.22211E-02
         0.29267E-02
         0.34621E-02
         0.37964E-02
         0.10352E-02
         0.17413E-02
         0.23150E-02
         0.16651E-02
         0.30371E-02
         0.27866E-02
         0.12827E-02
         0.64600E-03
         0.12180E-03
        -0.13230E-03
         0.93771E-03
         0.11252E-02
         0.17404E-02
         0.40469E-03
         0.39742E-03
        -0.77081E-03
        -0.86843E-03
         0.45134E-03
        -0.18365E-02
        -0.18419E-02
        -0.27232E-02
        -0.27968E-02
        -0.25399E-02
        -0.19382E-02
        -0.99046E-03
        -0.14457E-02
        -0.31133E-03
        -0.10992E-02
        -0.18834E-02
        -0.18685E-02
        -0.16476E-03
        -0.95405E-03
         0.77402E-03
         0.17202E-02
         0.32122E-02
         0.28041E-02
         0.23034E-02
        -0.40310E-03
        -0.12093E-02
        -0.19440E-02
        -0.25022E-02
        -0.26351E-02
        -0.27602E-02
        -0.21154E-02
        -0.16097E-02
        -0.11964E-02
        -0.59409E-03
         0.20018E-03
         0.10518E-02
         0.18422E-02
         0.24571E-02
         0.26038E-02
         0.37964E-02
         0.39100E-02
         0.34621E-02
         0.29267E-02
         0.22211E-02
         0.13865E-02
         0.47130E-03
        -0.47130E-03
        -0.13865E-02
        -0.22211E-02
        -0.29267E-02
        -0.34621E-02
        -0.37964E-02
        -0.39100E-02
        -0.37964E-02
        -0.34621E-02
        -0.29267E-02
        -0.22211E-02
        -0.13865E-02
        -0.47130E-03
         0.47130E-03
         0.13865E-02
         0.22211E-02
         0.29267E-02
         0.34621E-02
         0.37964E-02
         0.10351E-02
         0.17411E-02
         0.23149E-02
         0.16649E-02
         0.30371E-02
         0.27870E-02
         0.12826E-02
         0.64575E-03
         0.12154E-03
        -0.13248E-03
         0.93738E-03
         0.11249E-02
         0.17400E-02
         0.40463E-03
         0.39740E-03
        -0.77117E-03
        -0.86854E-03
         0.45089E-03
        -0.18368E-02
        -0.18418E-02
        -0.27232E-02
        -0.27965E-02
        -0.25400E-02
        -0.19386E-02
        -0.99032E-03
        -0.14460E-02
        -0.31113E-03
        -0.10988E-02
        -0.18833E-02
        -0.18683E-02
        -0.16504E-03
        -0.95465E-03
         0.77336E-03
         0.17201E-02
         0.32125E-02
         0.28041E-02
         0.23033E-02
        -0.40296E-03
        -0.12093E-02
        -0.19439E-02
        -0.25022E-02
        -0.26350E-02
        -0.27599E-02
        -0.21155E-02
        -0.16097E-02
        -0.11965E-02
        -0.59444E-03
         0.19977E-03
         0.10515E-02
         0.18423E-02
         0.24573E-02
         0.26039E-02
         0.37964E-02
         0.39100E-02
         0.34621E-02
         0.29267E-02
         0.22211E-02
         0.13865E-02
         0.47130E-03
        -0.47130E-03
        -0.13865E-02
        -0.22211E-02
        -0.29267E-02
        -0.34621E-02
        -0.37964E-02
        -0.39100E-02
        -0.37964E-02
        -0.34621E-02
        -0.29267E-02
        -0.22211E-02
        -0.13865E-02
        -0.47130E-03
         0.47130E-03
         0.13865E-02
         0.22211E-02
         0.29267E-02
         0.34621E-02
         0.37964E-02
  
SCALARS           initial_coordinate_y  double 1
LOOKUP_TABLE default
         0.67292E-03
         0.12308E-02
         0.59151E-03
        -0.33775E-03
         0.67237E-03
         0.12301E-02
         0.59098E-03
        -0.33851E-03
         0.14882E-03
        -0.67643E-03
         0.14846E-03
        -0.67692E-03
         0.18412E-02
         0.14576E-02
         0.18410E-02
         0.14566E-02
         0.29933E-03
         0.11672E-02
         0.29819E-03
         0.11655E-02
         0.22748E-02
         0.28286E-02
         0.24238E-02
         0.22746E-02
         0.28291E-02
         0.24236E-02
         0.21685E-02
         0.29366E-02
         0.21684E-02
         0.29369E-02
        -0.10033E-02
         0.78969E-04
        -0.70318E-03
        -0.10032E-02
         0.78160E-04
        -0.70391E-03
        -0.71196E-03
         0.82749E-04
        -0.71210E-03
         0.82626E-04
        -0.77865E-03
         0.40713E-04
        -0.77882E-03
         0.40439E-04
        -0.15195E-02
        -0.13230E-02
        -0.15195E-02
        -0.13231E-02
         0.98847E-03
         0.98712E-03
        -0.17325E-02
        -0.17325E-02
         0.20220E-02
         0.20217E-02
         0.18615E-02
         0.18616E-02
         0.17175E-02
         0.90940E-03
         0.17175E-02
         0.90916E-03
        -0.19800E-02
        -0.23489E-02
        -0.19800E-02
        -0.23489E-02
        -0.17074E-02
        -0.17074E-02
        -0.14894E-02
        -0.14892E-02
         0.76036E-03
         0.12477E-02
         0.75936E-03
         0.12473E-02
         0.18665E-02
         0.18664E-02
         0.29038E-02
         0.29049E-02
         0.27207E-02
         0.27212E-02
         0.24642E-02
         0.24645E-02
         0.22359E-02
         0.16503E-02
         0.22359E-02
         0.16503E-02
         0.87493E-03
         0.87466E-03
        -0.21373E-02
        -0.21373E-02
        -0.26931E-02
        -0.26931E-02
        -0.31291E-02
        -0.30382E-02
        -0.31291E-02
        -0.30382E-02
        -0.28748E-02
        -0.28748E-02
        -0.26423E-02
        -0.26420E-02
        -0.23707E-02
        -0.23705E-02
        -0.21445E-02
        -0.15105E-02
        -0.21439E-02
        -0.15106E-02
         0.93572E-03
         0.00000E+00
         0.93572E-03
         0.00000E+00
         0.18171E-02
         0.18171E-02
         0.25928E-02
         0.25928E-02
         0.32179E-02
         0.32179E-02
         0.36559E-02
         0.36559E-02
         0.38815E-02
         0.38815E-02
         0.38815E-02
         0.38815E-02
         0.36559E-02
         0.36559E-02
         0.32179E-02
         0.32179E-02
         0.25928E-02
         0.25928E-02
         0.18171E-02
         0.18171E-02
         0.93572E-03
         0.93572E-03
         0.22152E-17
        -0.47884E-18
        -0.93572E-03
        -0.93572E-03
        -0.18171E-02
        -0.18171E-02
        -0.25928E-02
        -0.25928E-02
        -0.32179E-02
        -0.32179E-02
        -0.36559E-02
        -0.36559E-02
        -0.38815E-02
        -0.38815E-02
        -0.38815E-02
        -0.38815E-02
        -0.36559E-02
        -0.36559E-02
        -0.32179E-02
        -0.32179E-02
        -0.25928E-02
        -0.25928E-02
        -0.18171E-02
        -0.18171E-02
        -0.93572E-03
        -0.93572E-03
         0.67348E-03
         0.12314E-02
         0.59203E-03
        -0.33700E-03
         0.14918E-03
        -0.67594E-03
         0.18414E-02
         0.14586E-02
         0.30048E-03
         0.11690E-02
         0.22749E-02
         0.28282E-02
         0.24239E-02
         0.21685E-02
         0.29364E-02
        -0.10035E-02
         0.79778E-04
        -0.70245E-03
        -0.71182E-03
         0.82873E-04
        -0.77848E-03
         0.40986E-04
        -0.15194E-02
        -0.13228E-02
         0.98983E-03
        -0.17324E-02
         0.20223E-02
         0.18614E-02
         0.17175E-02
         0.90964E-03
        -0.19800E-02
        -0.23489E-02
        -0.17074E-02
        -0.14896E-02
         0.76137E-03
         0.12481E-02
         0.18665E-02
         0.29027E-02
         0.27202E-02
         0.24640E-02
         0.22359E-02
         0.16503E-02
         0.87519E-03
        -0.21373E-02
        -0.26932E-02
        -0.31291E-02
        -0.30382E-02
        -0.28748E-02
        -0.26426E-02
        -0.23709E-02
        -0.21450E-02
        -0.15104E-02
         0.93572E-03
         0.00000E+00
         0.18171E-02
         0.25928E-02
         0.32179E-02
         0.36559E-02
         0.38815E-02
         0.38815E-02
         0.36559E-02
         0.32179E-02
         0.25928E-02
         0.18171E-02
         0.93572E-03
        -0.47884E-18
        -0.93572E-03
        -0.18171E-02
        -0.25928E-02
        -0.32179E-02
        -0.36559E-02
        -0.38815E-02
        -0.38815E-02
        -0.36559E-02
        -0.32179E-02
        -0.25928E-02
        -0.18171E-02
        -0.93572E-03
         0.67403E-03
         0.12321E-02
         0.59255E-03
        -0.33624E-03
         0.14955E-03
        -0.67544E-03
         0.18415E-02
         0.14596E-02
         0.30163E-03
         0.11707E-02
         0.22750E-02
         0.28277E-02
         0.24241E-02
         0.21685E-02
         0.29361E-02
        -0.10036E-02
         0.80588E-04
        -0.70173E-03
        -0.71168E-03
         0.82996E-04
        -0.77831E-03
         0.41259E-04
        -0.15194E-02
        -0.13227E-02
         0.99119E-03
        -0.17324E-02
         0.20226E-02
         0.18613E-02
         0.17175E-02
         0.90988E-03
        -0.19801E-02
        -0.23490E-02
        -0.17074E-02
        -0.14899E-02
         0.76237E-03
         0.12485E-02
         0.18666E-02
         0.29017E-02
         0.27198E-02
         0.24638E-02
         0.22359E-02
         0.16503E-02
         0.87545E-03
        -0.21374E-02
        -0.26932E-02
        -0.31291E-02
        -0.30382E-02
        -0.28748E-02
        -0.26428E-02
        -0.23711E-02
        -0.21456E-02
        -0.15103E-02
         0.93572E-03
         0.00000E+00
         0.18171E-02
         0.25928E-02
         0.32179E-02
         0.36559E-02
         0.38815E-02
         0.38815E-02
         0.36559E-02
         0.32179E-02
         0.25928E-02
         0.18171E-02
         0.93572E-03
         0.39516E-17
        -0.93572E-03
        -0.18171E-02
        -0.25928E-02
        -0.32179E-02
        -0.36559E-02
        -0.38815E-02
        -0.38815E-02
        -0.36559E-02
        -0.32179E-02
        -0.25928E-02
        -0.18171E-02
        -0.93572E-03
         0.67459E-03
         0.12328E-02
         0.59308E-03
        -0.33549E-03
         0.14991E-03
        -0.67495E-03
         0.18417E-02
         0.14606E-02
         0.30278E-03
         0.11725E-02
         0.22752E-02
         0.28273E-02
         0.24242E-02
         0.21686E-02
         0.29359E-02
        -0.10038E-02
         0.81397E-04
        -0.70100E-03
        -0.71154E-03
         0.83120E-04
        -0.77814E-03
         0.41533E-04
        -0.15193E-02
        -0.13227E-02
         0.99254E-03
        -0.17324E-02
         0.20228E-02
         0.18611E-02
         0.17175E-02
         0.91012E-03
        -0.19801E-02
        -0.23490E-02
        -0.17074E-02
        -0.14901E-02
         0.76338E-03
         0.12490E-02
         0.18666E-02
         0.29006E-02
         0.27193E-02
         0.24636E-02
         0.22359E-02
         0.16503E-02
         0.87571E-03
        -0.21374E-02
        -0.26932E-02
        -0.31291E-02
        -0.30382E-02
        -0.28748E-02
        -0.26431E-02
        -0.23713E-02
        -0.21461E-02
        -0.15102E-02
         0.93572E-03
         0.00000E+00
         0.18171E-02
         0.25928E-02
         0.32179E-02
         0.36559E-02
         0.38815E-02
         0.38815E-02
         0.36559E-02
         0.32179E-02
         0.25928E-02
         0.18171E-02
         0.93572E-03
        -0.47884E-18
        -0.93572E-03
        -0.18171E-02
        -0.25928E-02
        -0.32179E-02
        -0.36559E-02
        -0.38815E-02
        -0.38815E-02
        -0.36559E-02
        -0.32179E-02
        -0.25928E-02
        -0.18171E-02
        -0.93572E-03
         0.67514E-03
         0.12334E-02
         0.59360E-03
        -0.33474E-03
         0.15027E-03
        -0.67446E-03
         0.18419E-02
         0.14616E-02
         0.30393E-03
         0.11742E-02
         0.22753E-02
         0.28269E-02
         0.24244E-02
         0.21686E-02
         0.29356E-02
        -0.10039E-02
         0.82206E-04
        -0.70028E-03
        -0.71140E-03
         0.83243E-04
        -0.77797E-03
         0.41806E-04
        -0.15193E-02
        -0.13226E-02
         0.99390E-03
        -0.17323E-02
         0.20231E-02
         0.18610E-02
         0.17175E-02
         0.91036E-03
        -0.19801E-02
        -0.23490E-02
        -0.17074E-02
        -0.14904E-02
         0.76439E-03
         0.12494E-02
         0.18666E-02
         0.28995E-02
         0.27188E-02
         0.24633E-02
         0.22359E-02
         0.16503E-02
         0.87597E-03
        -0.21374E-02
        -0.26932E-02
        -0.31291E-02
        -0.30382E-02
        -0.28748E-02
        -0.26434E-02
        -0.23715E-02
        -0.21467E-02
        -0.15101E-02
         0.93572E-03
         0.00000E+00
         0.18171E-02
         0.25928E-02
         0.32179E-02
         0.36559E-02
         0.38815E-02
         0.38815E-02
         0.36559E-02
         0.32179E-02
         0.25928E-02
         0.18171E-02
         0.93572E-03
        -0.47884E-18
        -0.93572E-03
        -0.18171E-02
        -0.25928E-02
        -0.32179E-02
        -0.36559E-02
        -0.38815E-02
        -0.38815E-02
        -0.36559E-02
        -0.32179E-02
        -0.25928E-02
        -0.18171E-02
        -0.93572E-03
         0.67570E-03
         0.12341E-02
         0.59412E-03
        -0.33398E-03
         0.15064E-03
        -0.67396E-03
         0.18421E-02
         0.14626E-02
         0.30507E-03
         0.11760E-02
         0.22754E-02
         0.28264E-02
         0.24245E-02
         0.21686E-02
         0.29353E-02
        -0.10040E-02
         0.83015E-04
        -0.69955E-03
        -0.71126E-03
         0.83367E-04
        -0.77780E-03
         0.42080E-04
        -0.15192E-02
        -0.13224E-02
         0.99526E-03
        -0.17323E-02
         0.20234E-02
         0.18609E-02
         0.17175E-02
         0.91060E-03
        -0.19801E-02
        -0.23490E-02
        -0.17074E-02
        -0.14906E-02
         0.76539E-03
         0.12498E-02
         0.18667E-02
         0.28984E-02
         0.27184E-02
         0.24631E-02
         0.22359E-02
         0.16503E-02
         0.87623E-03
        -0.21374E-02
        -0.26932E-02
        -0.31291E-02
        -0.30382E-02
        -0.28748E-02
        -0.26436E-02
        -0.23717E-02
        -0.21472E-02
        -0.15100E-02
         0.93572E-03
         0.00000E+00
         0.18171E-02
         0.25928E-02
         0.32179E-02
         0.36559E-02
         0.38815E-02
         0.38815E-02
         0.36559E-02
         0.32179E-02
         0.25928E-02
         0.18171E-02
         0.93572E-03
        -0.47884E-18
        -0.93572E-03
        -0.18171E-02
        -0.25928E-02
        -0.32179E-02
        -0.36559E-02
        -0.38815E-02
        -0.38815E-02
        -0.36559E-02
        -0.32179E-02
        -0.25928E-02
        -0.18171E-02
        -0.93572E-03
         0.67625E-03
         0.12348E-02
         0.59465E-03
        -0.33323E-03
         0.15100E-03
        -0.67347E-03
         0.18423E-02
         0.14636E-02
         0.30622E-03
         0.11777E-02
         0.22755E-02
         0.28260E-02
         0.24247E-02
         0.21687E-02
         0.29351E-02
        -0.10042E-02
         0.83825E-04
        -0.69882E-03
        -0.71112E-03
         0.83490E-04
        -0.77763E-03
         0.42353E-04
        -0.15192E-02
        -0.13223E-02
         0.99661E-03
        -0.17322E-02
         0.20237E-02
         0.18607E-02
         0.17175E-02
         0.91084E-03
        -0.19801E-02
        -0.23491E-02
        -0.17074E-02
        -0.14909E-02
         0.76640E-03
         0.12503E-02
         0.18667E-02
         0.28974E-02
         0.27179E-02
         0.24629E-02
         0.22359E-02
         0.16503E-02
         0.87650E-03
        -0.21374E-02
        -0.26933E-02
        -0.31291E-02
        -0.30382E-02
        -0.28749E-02
        -0.26439E-02
        -0.23719E-02
        -0.21478E-02
        -0.15099E-02
         0.93572E-03
         0.00000E+00
         0.18171E-02
         0.25928E-02
         0.32179E-02
         0.36559E-02
         0.38815E-02
         0.38815E-02
         0.36559E-02
         0.32179E-02
         0.25928E-02
         0.18171E-02
         0.93572E-03
        -0.47884E-18
        -0.93572E-03
        -0.18171E-02
        -0.25928E-02
        -0.32179E-02
        -0.36559E-02
        -0.38815E-02
        -0.38815E-02
        -0.36559E-02
        -0.32179E-02
        -0.25928E-02
        -0.18171E-02
        -0.93572E-03
         0.67680E-03
         0.12354E-02
         0.59517E-03
        -0.33247E-03
         0.15136E-03
        -0.67298E-03
         0.18425E-02
         0.14646E-02
         0.30737E-03
         0.11795E-02
         0.22757E-02
         0.28255E-02
         0.24248E-02
         0.21687E-02
         0.29348E-02
        -0.10043E-02
         0.84634E-04
        -0.69810E-03
        -0.71098E-03
         0.83614E-04
        -0.77746E-03
         0.42626E-04
        -0.15191E-02
        -0.13223E-02
         0.99797E-03
        -0.17322E-02
         0.20240E-02
         0.18606E-02
         0.17175E-02
         0.91108E-03
        -0.19802E-02
        -0.23491E-02
        -0.17074E-02
        -0.14911E-02
         0.76740E-03
         0.12507E-02
         0.18668E-02
         0.28963E-02
         0.27174E-02
         0.24627E-02
         0.22358E-02
         0.16503E-02
         0.87676E-03
        -0.21374E-02
        -0.26933E-02
        -0.31291E-02
        -0.30382E-02
        -0.28749E-02
        -0.26442E-02
        -0.23721E-02
        -0.21483E-02
        -0.15097E-02
         0.93572E-03
         0.00000E+00
         0.18171E-02
         0.25928E-02
         0.32179E-02
         0.36559E-02
         0.38815E-02
         0.38815E-02
         0.36559E-02
         0.32179E-02
         0.25928E-02
         0.18171E-02
         0.93572E-03
        -0.47884E-18
        -0.93572E-03
        -0.18171E-02
        -0.25928E-02
        -0.32179E-02
        -0.36559E-02
        -0.38815E-02
        -0.38815E-02
        -0.36559E-02
        -0.32179E-02
        -0.25928E-02
        -0.18171E-02
        -0.93572E-03
         0.67736E-03
         0.12361E-02
         0.59570E-03
        -0.33172E-03
         0.15173E-03
        -0.67248E-03
         0.18427E-02
         0.14656E-02
         0.30852E-03
         0.11812E-02
         0.22758E-02
         0.28251E-02
         0.24249E-02
         0.21688E-02
         0.29345E-02
        -0.10044E-02
         0.85443E-04
        -0.69737E-03
        -0.71084E-03
         0.83737E-04
        -0.77729E-03
         0.42899E-04
        -0.15191E-02
        -0.13222E-02
         0.99932E-03
        -0.17322E-02
         0.20243E-02
         0.18605E-02
         0.17175E-02
         0.91132E-03
        -0.19802E-02
        -0.23491E-02
        -0.17074E-02
        -0.14914E-02
         0.76841E-03
         0.12511E-02
         0.18668E-02
         0.28952E-02
         0.27170E-02
         0.24624E-02
         0.22358E-02
         0.16503E-02
         0.87702E-03
        -0.21374E-02
        -0.26933E-02
        -0.31291E-02
        -0.30382E-02
        -0.28749E-02
        -0.26444E-02
        -0.23723E-02
        -0.21489E-02
        -0.15096E-02
         0.93572E-03
         0.00000E+00
         0.18171E-02
         0.25928E-02
         0.32179E-02
         0.36559E-02
         0.38815E-02
         0.38815E-02
         0.36559E-02
         0.32179E-02
         0.25928E-02
         0.18171E-02
         0.93572E-03
        -0.47884E-18
        -0.93572E-03
        -0.18171E-02
        -0.25928E-02
        -0.32179E-02
        -0.36559E-02
        -0.38815E-02
        -0.38815E-02
        -0.36559E-02
        -0.32179E-02
        -0.25928E-02
        -0.18171E-02
        -0.93572E-03
         0.67791E-03
         0.12368E-02
         0.59622E-03
        -0.33096E-03
         0.15209E-03
        -0.67199E-03
         0.18429E-02
         0.14666E-02
         0.30967E-03
         0.11830E-02
         0.22759E-02
         0.28247E-02
         0.24251E-02
         0.21688E-02
         0.29343E-02
        -0.10046E-02
         0.86253E-04
        -0.69665E-03
        -0.71070E-03
         0.83861E-04
        -0.77712E-03
         0.43173E-04
        -0.15190E-02
        -0.13220E-02
         0.10007E-02
        -0.17321E-02
         0.20245E-02
         0.18603E-02
         0.17175E-02
         0.91156E-03
        -0.19802E-02
        -0.23491E-02
        -0.17074E-02
        -0.14916E-02
         0.76941E-03
         0.12515E-02
         0.18668E-02
         0.28942E-02
         0.27165E-02
         0.24622E-02
         0.22358E-02
         0.16503E-02
         0.87728E-03
        -0.21374E-02
        -0.26933E-02
        -0.31291E-02
        -0.30382E-02
        -0.28749E-02
        -0.26447E-02
        -0.23725E-02
        -0.21494E-02
        -0.15095E-02
         0.93572E-03
         0.00000E+00
         0.18171E-02
         0.25928E-02
         0.32179E-02
         0.36559E-02
         0.38815E-02
         0.38815E-02
         0.36559E-02
         0.32179E-02
         0.25928E-02
         0.18171E-02
         0.93572E-03
        -0.47884E-18
        -0.93572E-03
        -0.18171E-02
        -0.25928E-02
        -0.32179E-02
        -0.36559E-02
        -0.38815E-02
        -0.38815E-02
        -0.36559E-02
        -0.32179E-02
        -0.25928E-02
        -0.18171E-02
        -0.93572E-03
         0.67847E-03
         0.12374E-02
         0.59674E-03
        -0.33021E-03
         0.15245E-03
        -0.67150E-03
         0.18430E-02
         0.14676E-02
         0.31081E-03
         0.11847E-02
         0.22761E-02
         0.28242E-02
         0.24252E-02
         0.21688E-02
         0.29340E-02
        -0.10047E-02
         0.87062E-04
        -0.69592E-03
        -0.71056E-03
         0.83985E-04
        -0.77695E-03
         0.43446E-04
        -0.15190E-02
        -0.13219E-02
         0.10020E-02
        -0.17321E-02
         0.20248E-02
         0.18602E-02
         0.17175E-02
         0.91180E-03
        -0.19803E-02
        -0.23491E-02
        -0.17073E-02
        -0.14919E-02
         0.77042E-03
         0.12520E-02
         0.18669E-02
         0.28931E-02
         0.27160E-02
         0.24620E-02
         0.22358E-02
         0.16503E-02
         0.87754E-03
        -0.21374E-02
        -0.26933E-02
        -0.31291E-02
        -0.30382E-02
        -0.28749E-02
        -0.26450E-02
        -0.23727E-02
        -0.21500E-02
        -0.15094E-02
         0.93572E-03
         0.00000E+00
         0.18171E-02
         0.25928E-02
         0.32179E-02
         0.36559E-02
         0.38815E-02
         0.38815E-02
         0.36559E-02
         0.32179E-02
         0.25928E-02
         0.18171E-02
         0.93572E-03
         0.39516E-17
        -0.93572E-03
        -0.18171E-02
        -0.25928E-02
        -0.32179E-02
        -0.36559E-02
        -0.38815E-02
        -0.38815E-02
        -0.36559E-02
        -0.32179E-02
        -0.25928E-02
        -0.18171E-02
        -0.93572E-03
         0.67902E-03
         0.12381E-02
         0.59727E-03
        -0.32945E-03
         0.15282E-03
        -0.67100E-03
         0.18432E-02
         0.14686E-02
         0.31196E-03
         0.11865E-02
         0.22762E-02
         0.28238E-02
         0.24254E-02
         0.21688E-02
         0.29337E-02
        -0.10049E-02
         0.87871E-04
        -0.69519E-03
        -0.71042E-03
         0.84108E-04
        -0.77678E-03
         0.43720E-04
        -0.15189E-02
        -0.13219E-02
         0.10034E-02
        -0.17320E-02
         0.20251E-02
         0.18601E-02
         0.17175E-02
         0.91204E-03
        -0.19803E-02
        -0.23492E-02
        -0.17073E-02
        -0.14921E-02
         0.77142E-03
         0.12524E-02
         0.18669E-02
         0.28920E-02
         0.27155E-02
         0.24618E-02
         0.22358E-02
         0.16503E-02
         0.87781E-03
        -0.21374E-02
        -0.26934E-02
        -0.31291E-02
        -0.30382E-02
        -0.28749E-02
        -0.26452E-02
        -0.23729E-02
        -0.21505E-02
        -0.15093E-02
         0.93572E-03
         0.00000E+00
         0.18171E-02
         0.25928E-02
         0.32179E-02
         0.36559E-02
         0.38815E-02
         0.38815E-02
         0.36559E-02
         0.32179E-02
         0.25928E-02
         0.18171E-02
         0.93572E-03
        -0.47884E-18
        -0.93572E-03
        -0.18171E-02
        -0.25928E-02
        -0.32179E-02
        -0.36559E-02
        -0.38815E-02
        -0.38815E-02
        -0.36559E-02
        -0.32179E-02
        -0.25928E-02
        -0.18171E-02
        -0.93572E-03
         0.67958E-03
         0.12387E-02
         0.59779E-03
        -0.32870E-03
         0.15318E-03
        -0.67051E-03
         0.18434E-02
         0.14696E-02
         0.31311E-03
         0.11882E-02
         0.22763E-02
         0.28233E-02
         0.24255E-02
         0.21689E-02
         0.29335E-02
        -0.10050E-02
         0.88681E-04
        -0.69447E-03
        -0.71028E-03
         0.84232E-04
        -0.77661E-03
         0.43993E-04
        -0.15189E-02
        -0.13218E-02
         0.10048E-02
        -0.17320E-02
         0.20254E-02
         0.18599E-02
         0.17175E-02
         0.91228E-03
        -0.19803E-02
        -0.23492E-02
        -0.17073E-02
        -0.14923E-02
         0.77243E-03
         0.12528E-02
         0.18670E-02
         0.28910E-02
         0.27151E-02
         0.24615E-02
         0.22358E-02
         0.16503E-02
         0.87807E-03
        -0.21374E-02
        -0.26934E-02
        -0.31291E-02
        -0.30382E-02
        -0.28749E-02
        -0.26455E-02
        -0.23732E-02
        -0.21511E-02
        -0.15092E-02
         0.93572E-03
         0.00000E+00
         0.18171E-02
         0.25928E-02
         0.32179E-02
         0.36559E-02
         0.38815E-02
         0.38815E-02
         0.36559E-02
         0.32179E-02
         0.25928E-02
         0.18171E-02
         0.93572E-03
         0.22152E-17
        -0.93572E-03
        -0.18171E-02
        -0.25928E-02
        -0.32179E-02
        -0.36559E-02
        -0.38815E-02
        -0.38815E-02
        -0.36559E-02
        -0.32179E-02
        -0.25928E-02
        -0.18171E-02
        -0.93572E-03
         0.68013E-03
         0.12394E-02
         0.59831E-03
        -0.32794E-03
         0.15354E-03
        -0.67002E-03
         0.18436E-02
         0.14706E-02
         0.31426E-03
         0.11900E-02
         0.22765E-02
         0.28229E-02
         0.24257E-02
         0.21689E-02
         0.29332E-02
        -0.10051E-02
         0.89490E-04
        -0.69374E-03
        -0.71013E-03
         0.84355E-04
        -0.77644E-03
         0.44266E-04
        -0.15188E-02
        -0.13216E-02
         0.10061E-02
        -0.17320E-02
         0.20257E-02
         0.18598E-02
         0.17175E-02
         0.91252E-03
        -0.19803E-02
        -0.23492E-02
        -0.17073E-02
        -0.14926E-02
         0.77343E-03
         0.12533E-02
         0.18670E-02
         0.28899E-02
         0.27146E-02
         0.24613E-02
         0.22358E-02
         0.16503E-02
         0.87833E-03
        -0.21374E-02
        -0.26934E-02
        -0.31291E-02
        -0.30382E-02
        -0.28750E-02
        -0.26458E-02
        -0.23734E-02
        -0.21516E-02
        -0.15091E-02
         0.93572E-03
         0.00000E+00
         0.18171E-02
         0.25928E-02
         0.32179E-02
         0.36559E-02
         0.38815E-02
         0.38815E-02
         0.36559E-02
         0.32179E-02
         0.25928E-02
         0.18171E-02
         0.93572E-03
        -0.47884E-18
        -0.93572E-03
        -0.18171E-02
        -0.25928E-02
        -0.32179E-02
        -0.36559E-02
        -0.38815E-02
        -0.38815E-02
        -0.36559E-02
        -0.32179E-02
        -0.25928E-02
        -0.18171E-02
        -0.93572E-03
         0.68068E-03
         0.12401E-02
         0.59884E-03
        -0.32719E-03
         0.15391E-03
        -0.66953E-03
         0.18438E-02
         0.14716E-02
         0.31541E-03
         0.11917E-02
         0.22766E-02
         0.28225E-02
         0.24258E-02
         0.21690E-02
         0.29330E-02
        -0.10053E-02
         0.90299E-04
        -0.69302E-03
        -0.70999E-03
         0.84479E-04
        -0.77627E-03
         0.44540E-04
        -0.15188E-02
        -0.13215E-02
         0.10075E-02
        -0.17319E-02
         0.20260E-02
         0.18597E-02
         0.17175E-02
         0.91276E-03
        -0.19804E-02
        -0.23493E-02
        -0.17073E-02
        -0.14928E-02
         0.77444E-03
         0.12537E-02
         0.18670E-02
         0.28888E-02
         0.27141E-02
         0.24611E-02
         0.22358E-02
         0.16503E-02
         0.87859E-03
        -0.21374E-02
        -0.26934E-02
        -0.31291E-02
        -0.30382E-02
        -0.28750E-02
        -0.26460E-02
        -0.23736E-02
        -0.21521E-02
        -0.15090E-02
         0.93572E-03
         0.00000E+00
         0.18171E-02
         0.25928E-02
         0.32179E-02
         0.36559E-02
         0.38815E-02
         0.38815E-02
         0.36559E-02
         0.32179E-02
         0.25928E-02
         0.18171E-02
         0.93572E-03
         0.22152E-17
        -0.93572E-03
        -0.18171E-02
        -0.25928E-02
        -0.32179E-02
        -0.36559E-02
        -0.38815E-02
        -0.38815E-02
        -0.36559E-02
        -0.32179E-02
        -0.25928E-02
        -0.18171E-02
        -0.93572E-03
         0.68124E-03
         0.12407E-02
         0.59936E-03
        -0.32643E-03
         0.15427E-03
        -0.66903E-03
         0.18440E-02
         0.14727E-02
         0.31656E-03
         0.11935E-02
         0.22767E-02
         0.28220E-02
         0.24260E-02
         0.21690E-02
         0.29327E-02
        -0.10054E-02
         0.91108E-04
        -0.69229E-03
        -0.70985E-03
         0.84602E-04
        -0.77610E-03
         0.44813E-04
        -0.15187E-02
        -0.13215E-02
         0.10088E-02
        -0.17319E-02
         0.20262E-02
         0.18595E-02
         0.17175E-02
         0.91300E-03
        -0.19804E-02
        -0.23493E-02
        -0.17073E-02
        -0.14931E-02
         0.77544E-03
         0.12541E-02
         0.18671E-02
         0.28877E-02
         0.27137E-02
         0.24609E-02
         0.22358E-02
         0.16503E-02
         0.87885E-03
        -0.21374E-02
        -0.26934E-02
        -0.31291E-02
        -0.30382E-02
        -0.28750E-02
        -0.26463E-02
        -0.23738E-02
        -0.21527E-02
        -0.15088E-02
         0.93572E-03
         0.00000E+00
         0.18171E-02
         0.25928E-02
         0.32179E-02
         0.36559E-02
         0.38815E-02
         0.38815E-02
         0.36559E-02
         0.32179E-02
         0.25928E-02
         0.18171E-02
         0.93572E-03
        -0.47884E-18
        -0.93572E-03
        -0.18171E-02
        -0.25928E-02
        -0.32179E-02
        -0.36559E-02
        -0.38815E-02
        -0.38815E-02
        -0.36559E-02
        -0.32179E-02
        -0.25928E-02
        -0.18171E-02
        -0.93572E-03
         0.68179E-03
         0.12414E-02
         0.59988E-03
        -0.32568E-03
         0.15463E-03
        -0.66854E-03
         0.18442E-02
         0.14736E-02
         0.31770E-03
         0.11952E-02
         0.22768E-02
         0.28216E-02
         0.24261E-02
         0.21690E-02
         0.29324E-02
        -0.10056E-02
         0.91918E-04
        -0.69156E-03
        -0.70971E-03
         0.84726E-04
        -0.77593E-03
         0.45086E-04
        -0.15187E-02
        -0.13213E-02
         0.10102E-02
        -0.17318E-02
         0.20265E-02
         0.18594E-02
         0.17175E-02
         0.91324E-03
        -0.19804E-02
        -0.23493E-02
        -0.17073E-02
        -0.14933E-02
         0.77645E-03
         0.12545E-02
         0.18671E-02
         0.28867E-02
         0.27132E-02
         0.24606E-02
         0.22358E-02
         0.16503E-02
         0.87912E-03
        -0.21374E-02
        -0.26935E-02
        -0.31291E-02
        -0.30381E-02
        -0.28750E-02
        -0.26466E-02
        -0.23740E-02
        -0.21533E-02
        -0.15087E-02
         0.93572E-03
         0.00000E+00
         0.18171E-02
         0.25928E-02
         0.32179E-02
         0.36559E-02
         0.38815E-02
         0.38815E-02
         0.36559E-02
         0.32179E-02
         0.25928E-02
         0.18171E-02
         0.93572E-03
        -0.47884E-18
        -0.93572E-03
        -0.18171E-02
        -0.25928E-02
        -0.32179E-02
        -0.36559E-02
        -0.38815E-02
        -0.38815E-02
        -0.36559E-02
        -0.32179E-02
        -0.25928E-02
        -0.18171E-02
        -0.93572E-03
         0.68235E-03
         0.12421E-02
         0.60041E-03
        -0.32493E-03
         0.15500E-03
        -0.66805E-03
         0.18444E-02
         0.14747E-02
         0.31885E-03
         0.11970E-02
         0.22770E-02
         0.28211E-02
         0.24262E-02
         0.21691E-02
         0.29322E-02
        -0.10057E-02
         0.92727E-04
        -0.69084E-03
        -0.70957E-03
         0.84849E-04
        -0.77576E-03
         0.45359E-04
        -0.15186E-02
        -0.13212E-02
         0.10115E-02
        -0.17318E-02
         0.20268E-02
         0.18593E-02
         0.17175E-02
         0.91347E-03
        -0.19804E-02
        -0.23493E-02
        -0.17073E-02
        -0.14936E-02
         0.77745E-03
         0.12550E-02
         0.18671E-02
         0.28856E-02
         0.27127E-02
         0.24604E-02
         0.22358E-02
         0.16503E-02
         0.87938E-03
        -0.21374E-02
        -0.26935E-02
        -0.31291E-02
        -0.30381E-02
        -0.28750E-02
        -0.26468E-02
        -0.23742E-02
        -0.21538E-02
        -0.15086E-02
         0.93572E-03
         0.00000E+00
         0.18171E-02
         0.25928E-02
         0.32179E-02
         0.36559E-02
         0.38815E-02
         0.38815E-02
         0.36559E-02
         0.32179E-02
         0.25928E-02
         0.18171E-02
         0.93572E-03
        -0.47884E-18
        -0.93572E-03
        -0.18171E-02
        -0.25928E-02
        -0.32179E-02
        -0.36559E-02
        -0.38815E-02
        -0.38815E-02
        -0.36559E-02
        -0.32179E-02
        -0.25928E-02
        -0.18171E-02
        -0.93572E-03
         0.68290E-03
         0.12427E-02
         0.60093E-03
        -0.32417E-03
         0.15536E-03
        -0.66755E-03
         0.18445E-02
         0.14757E-02
         0.32000E-03
         0.11987E-02
         0.22771E-02
         0.28207E-02
         0.24264E-02
         0.21691E-02
         0.29319E-02
        -0.10058E-02
         0.93536E-04
        -0.69011E-03
        -0.70943E-03
         0.84973E-04
        -0.77559E-03
         0.45633E-04
        -0.15186E-02
        -0.13212E-02
         0.10129E-02
        -0.17318E-02
         0.20271E-02
         0.18592E-02
         0.17175E-02
         0.91371E-03
        -0.19805E-02
        -0.23493E-02
        -0.17073E-02
        -0.14938E-02
         0.77846E-03
         0.12554E-02
         0.18672E-02
         0.28845E-02
         0.27122E-02
         0.24602E-02
         0.22358E-02
         0.16502E-02
         0.87964E-03
        -0.21374E-02
        -0.26935E-02
        -0.31291E-02
        -0.30381E-02
        -0.28750E-02
        -0.26471E-02
        -0.23744E-02
        -0.21543E-02
        -0.15085E-02
         0.93572E-03
         0.00000E+00
         0.18171E-02
         0.25928E-02
         0.32179E-02
         0.36559E-02
         0.38815E-02
         0.38815E-02
         0.36559E-02
         0.32179E-02
         0.25928E-02
         0.18171E-02
         0.93572E-03
        -0.47884E-18
        -0.93572E-03
        -0.18171E-02
        -0.25928E-02
        -0.32179E-02
        -0.36559E-02
        -0.38815E-02
        -0.38815E-02
        -0.36559E-02
        -0.32179E-02
        -0.25928E-02
        -0.18171E-02
        -0.93572E-03
         0.68346E-03
         0.12434E-02
         0.60145E-03
        -0.32342E-03
         0.15572E-03
        -0.66706E-03
         0.18447E-02
         0.14767E-02
         0.32115E-03
         0.12005E-02
         0.22772E-02
         0.28203E-02
         0.24265E-02
         0.21691E-02
         0.29316E-02
        -0.10060E-02
         0.94345E-04
        -0.68939E-03
        -0.70929E-03
         0.85096E-04
        -0.77542E-03
         0.45906E-04
        -0.15185E-02
        -0.13211E-02
         0.10142E-02
        -0.17317E-02
         0.20274E-02
         0.18590E-02
         0.17175E-02
         0.91395E-03
        -0.19805E-02
        -0.23494E-02
        -0.17073E-02
        -0.14941E-02
         0.77946E-03
         0.12558E-02
         0.18672E-02
         0.28835E-02
         0.27118E-02
         0.24600E-02
         0.22358E-02
         0.16502E-02
         0.87990E-03
        -0.21374E-02
        -0.26935E-02
        -0.31291E-02
        -0.30381E-02
        -0.28750E-02
        -0.26474E-02
        -0.23746E-02
        -0.21549E-02
        -0.15084E-02
         0.93572E-03
         0.00000E+00
         0.18171E-02
         0.25928E-02
         0.32179E-02
         0.36559E-02
         0.38815E-02
         0.38815E-02
         0.36559E-02
         0.32179E-02
         0.25928E-02
         0.18171E-02
         0.93572E-03
         0.22152E-17
        -0.93572E-03
        -0.18171E-02
        -0.25928E-02
        -0.32179E-02
        -0.36559E-02
        -0.38815E-02
        -0.38815E-02
        -0.36559E-02
        -0.32179E-02
        -0.25928E-02
        -0.18171E-02
        -0.93572E-03
         0.68401E-03
         0.12440E-02
         0.60198E-03
        -0.32266E-03
         0.15609E-03
        -0.66657E-03
         0.18449E-02
         0.14777E-02
         0.32230E-03
         0.12022E-02
         0.22774E-02
         0.28198E-02
         0.24267E-02
         0.21692E-02
         0.29314E-02
        -0.10061E-02
         0.95155E-04
        -0.68866E-03
        -0.70915E-03
         0.85220E-04
        -0.77525E-03
         0.46180E-04
        -0.15185E-02
        -0.13210E-02
         0.10156E-02
        -0.17317E-02
         0.20277E-02
         0.18589E-02
         0.17175E-02
         0.91419E-03
        -0.19805E-02
        -0.23494E-02
        -0.17073E-02
        -0.14943E-02
         0.78047E-03
         0.12563E-02
         0.18672E-02
         0.28824E-02
         0.27113E-02
         0.24597E-02
         0.22358E-02
         0.16502E-02
         0.88016E-03
        -0.21374E-02
        -0.26935E-02
        -0.31291E-02
        -0.30381E-02
        -0.28751E-02
        -0.26476E-02
        -0.23748E-02
        -0.21554E-02
        -0.15083E-02
         0.93572E-03
         0.00000E+00
         0.18171E-02
         0.25928E-02
         0.32179E-02
         0.36559E-02
         0.38815E-02
         0.38815E-02
         0.36559E-02
         0.32179E-02
         0.25928E-02
         0.18171E-02
         0.93572E-03
        -0.47884E-18
        -0.93572E-03
        -0.18171E-02
        -0.25928E-02
        -0.32179E-02
        -0.36559E-02
        -0.38815E-02
        -0.38815E-02
        -0.36559E-02
        -0.32179E-02
        -0.25928E-02
        -0.18171E-02
        -0.93572E-03
         0.68457E-03
         0.12447E-02
         0.60250E-03
        -0.32191E-03
         0.15645E-03
        -0.66607E-03
         0.18451E-02
         0.14787E-02
         0.32345E-03
         0.12040E-02
         0.22775E-02
         0.28194E-02
         0.24268E-02
         0.21692E-02
         0.29311E-02
        -0.10062E-02
         0.95964E-04
        -0.68793E-03
        -0.70901E-03
         0.85343E-04
        -0.77507E-03
         0.46453E-04
        -0.15184E-02
        -0.13209E-02
         0.10169E-02
        -0.17316E-02
         0.20280E-02
         0.18588E-02
         0.17175E-02
         0.91443E-03
        -0.19806E-02
        -0.23494E-02
        -0.17073E-02
        -0.14945E-02
         0.78148E-03
         0.12567E-02
         0.18673E-02
         0.28813E-02
         0.27108E-02
         0.24595E-02
         0.22358E-02
         0.16502E-02
         0.88043E-03
        -0.21374E-02
        -0.26936E-02
        -0.31291E-02
        -0.30381E-02
        -0.28751E-02
        -0.26479E-02
        -0.23750E-02
        -0.21560E-02
        -0.15082E-02
         0.93572E-03
         0.00000E+00
         0.18171E-02
         0.25928E-02
         0.32179E-02
         0.36559E-02
         0.38815E-02
         0.38815E-02
         0.36559E-02
         0.32179E-02
         0.25928E-02
         0.18171E-02
         0.93572E-03
        -0.47884E-18
        -0.93572E-03
        -0.18171E-02
        -0.25928E-02
        -0.32179E-02
        -0.36559E-02
        -0.38815E-02
        -0.38815E-02
        -0.36559E-02
        -0.32179E-02
        -0.25928E-02
        -0.18171E-02
        -0.93572E-03
         0.68512E-03
         0.12454E-02
         0.60302E-03
        -0.32115E-03
         0.15681E-03
        -0.66558E-03
         0.18453E-02
         0.14797E-02
         0.32459E-03
         0.12058E-02
         0.22776E-02
         0.28189E-02
         0.24270E-02
         0.21693E-02
         0.29308E-02
        -0.10064E-02
         0.96773E-04
        -0.68721E-03
        -0.70887E-03
         0.85467E-04
        -0.77490E-03
         0.46726E-04
        -0.15184E-02
        -0.13208E-02
         0.10183E-02
        -0.17316E-02
         0.20283E-02
         0.18586E-02
         0.17175E-02
         0.91467E-03
        -0.19806E-02
        -0.23494E-02
        -0.17073E-02
        -0.14948E-02
         0.78248E-03
         0.12571E-02
         0.18673E-02
         0.28802E-02
         0.27103E-02
         0.24593E-02
         0.22358E-02
         0.16502E-02
         0.88069E-03
        -0.21374E-02
        -0.26936E-02
        -0.31291E-02
        -0.30381E-02
        -0.28751E-02
        -0.26482E-02
        -0.23752E-02
        -0.21565E-02
        -0.15081E-02
         0.93572E-03
         0.00000E+00
         0.18171E-02
         0.25928E-02
         0.32179E-02
         0.36559E-02
         0.38815E-02
         0.38815E-02
         0.36559E-02
         0.32179E-02
         0.25928E-02
         0.18171E-02
         0.93572E-03
        -0.47884E-18
        -0.93572E-03
        -0.18171E-02
        -0.25928E-02
        -0.32179E-02
        -0.36559E-02
        -0.38815E-02
        -0.38815E-02
        -0.36559E-02
        -0.32179E-02
        -0.25928E-02
        -0.18171E-02
        -0.93572E-03
         0.68567E-03
         0.12460E-02
         0.60355E-03
        -0.32040E-03
         0.15718E-03
        -0.66509E-03
         0.18455E-02
         0.14807E-02
         0.32574E-03
         0.12075E-02
         0.22777E-02
         0.28185E-02
         0.24271E-02
         0.21693E-02
         0.29306E-02
        -0.10065E-02
         0.97583E-04
        -0.68648E-03
        -0.70873E-03
         0.85591E-04
        -0.77474E-03
         0.47000E-04
        -0.15183E-02
        -0.13207E-02
         0.10197E-02
        -0.17316E-02
         0.20285E-02
         0.18585E-02
         0.17175E-02
         0.91491E-03
        -0.19806E-02
        -0.23495E-02
        -0.17073E-02
        -0.14950E-02
         0.78348E-03
         0.12576E-02
         0.18674E-02
         0.28792E-02
         0.27099E-02
         0.24591E-02
         0.22358E-02
         0.16502E-02
         0.88095E-03
        -0.21374E-02
        -0.26936E-02
        -0.31290E-02
        -0.30381E-02
        -0.28751E-02
        -0.26484E-02
        -0.23754E-02
        -0.21571E-02
        -0.15080E-02
         0.93572E-03
         0.00000E+00
         0.18171E-02
         0.25928E-02
         0.32179E-02
         0.36559E-02
         0.38815E-02
         0.38815E-02
         0.36559E-02
         0.32179E-02
         0.25928E-02
         0.18171E-02
         0.93572E-03
         0.47884E-18
        -0.93572E-03
        -0.18171E-02
        -0.25928E-02
        -0.32179E-02
        -0.36559E-02
        -0.38815E-02
        -0.38815E-02
        -0.36559E-02
        -0.32179E-02
        -0.25928E-02
        -0.18171E-02
        -0.93572E-03
  
SCALARS           initial_coordinate_z  double 1
LOOKUP_TABLE default
        -0.10771E-01
        -0.10771E-01
        -0.10771E-01
        -0.10771E-01
        -0.11750E-01
        -0.11750E-01
        -0.11750E-01
        -0.11750E-01
        -0.10771E-01
        -0.10771E-01
        -0.11750E-01
        -0.11750E-01
        -0.10771E-01
        -0.10771E-01
        -0.11750E-01
        -0.11750E-01
        -0.10771E-01
        -0.10771E-01
        -0.11750E-01
        -0.11750E-01
        -0.10771E-01
        -0.10771E-01
        -0.10771E-01
        -0.11750E-01
        -0.11750E-01
        -0.11750E-01
        -0.10771E-01
        -0.10771E-01
        -0.11750E-01
        -0.11750E-01
        -0.10771E-01
        -0.10771E-01
        -0.10771E-01
        -0.11750E-01
        -0.11750E-01
        -0.11750E-01
        -0.10771E-01
        -0.10771E-01
        -0.11750E-01
        -0.11750E-01
        -0.10771E-01
        -0.10771E-01
        -0.11750E-01
        -0.11750E-01
        -0.10771E-01
        -0.10771E-01
        -0.11750E-01
        -0.11750E-01
        -0.10771E-01
        -0.11750E-01
        -0.10771E-01
        -0.11750E-01
        -0.10771E-01
        -0.11750E-01
        -0.10771E-01
        -0.11750E-01
        -0.10771E-01
        -0.10771E-01
        -0.11750E-01
        -0.11750E-01
        -0.10771E-01
        -0.10771E-01
        -0.11750E-01
        -0.11750E-01
        -0.10771E-01
        -0.11750E-01
        -0.10771E-01
        -0.11750E-01
        -0.10771E-01
        -0.10771E-01
        -0.11750E-01
        -0.11750E-01
        -0.10771E-01
        -0.11750E-01
        -0.10771E-01
        -0.11750E-01
        -0.10771E-01
        -0.11750E-01
        -0.10771E-01
        -0.11750E-01
        -0.10771E-01
        -0.10771E-01
        -0.11750E-01
        -0.11750E-01
        -0.10771E-01
        -0.11750E-01
        -0.10771E-01
        -0.11750E-01
        -0.10771E-01
        -0.11750E-01
        -0.10771E-01
        -0.10771E-01
        -0.11750E-01
        -0.11750E-01
        -0.10771E-01
        -0.11750E-01
        -0.10771E-01
        -0.11750E-01
        -0.10771E-01
        -0.11750E-01
        -0.10771E-01
        -0.10771E-01
        -0.11750E-01
        -0.11750E-01
        -0.10771E-01
        -0.10771E-01
        -0.11750E-01
        -0.11750E-01
        -0.10771E-01
        -0.11750E-01
        -0.10771E-01
        -0.11750E-01
        -0.10771E-01
        -0.11750E-01
        -0.10771E-01
        -0.11750E-01
        -0.10771E-01
        -0.11750E-01
        -0.10771E-01
        -0.11750E-01
        -0.10771E-01
        -0.11750E-01
        -0.10771E-01
        -0.11750E-01
        -0.10771E-01
        -0.11750E-01
        -0.10771E-01
        -0.11750E-01
        -0.10771E-01
        -0.11750E-01
        -0.10771E-01
        -0.11750E-01
        -0.10771E-01
        -0.11750E-01
        -0.10771E-01
        -0.11750E-01
        -0.10771E-01
        -0.11750E-01
        -0.10771E-01
        -0.11750E-01
        -0.10771E-01
        -0.11750E-01
        -0.10771E-01
        -0.11750E-01
        -0.10771E-01
        -0.11750E-01
        -0.10771E-01
        -0.11750E-01
        -0.10771E-01
        -0.11750E-01
        -0.10771E-01
        -0.11750E-01
        -0.10771E-01
        -0.11750E-01
        -0.10771E-01
        -0.11750E-01
        -0.97917E-02
        -0.97917E-02
        -0.97917E-02
        -0.97917E-02
        -0.97917E-02
        -0.97917E-02
        -0.97917E-02
        -0.97917E-02
        -0.97917E-02
        -0.97917E-02
        -0.97917E-02
        -0.97917E-02
        -0.97917E-02
        -0.97917E-02
        -0.97917E-02
        -0.97917E-02
        -0.97917E-02
        -0.97917E-02
        -0.97917E-02
        -0.97917E-02
        -0.97917E-02
        -0.97917E-02
        -0.97917E-02
        -0.97917E-02
        -0.97917E-02
        -0.97917E-02
        -0.97917E-02
        -0.97917E-02
        -0.97917E-02
        -0.97917E-02
        -0.97917E-02
        -0.97917E-02
        -0.97917E-02
        -0.97917E-02
        -0.97917E-02
        -0.97917E-02
        -0.97917E-02
        -0.97917E-02
        -0.97917E-02
        -0.97917E-02
        -0.97917E-02
        -0.97917E-02
        -0.97917E-02
        -0.97917E-02
        -0.97917E-02
        -0.97917E-02
        -0.97917E-02
        -0.97917E-02
        -0.97917E-02
        -0.97917E-02
        -0.97917E-02
        -0.97917E-02
        -0.97917E-02
        -0.97917E-02
        -0.97917E-02
        -0.97917E-02
        -0.97917E-02
        -0.97917E-02
        -0.97917E-02
        -0.97917E-02
        -0.97917E-02
        -0.97917E-02
        -0.97917E-02
        -0.97917E-02
        -0.97917E-02
        -0.97917E-02
        -0.97917E-02
        -0.97917E-02
        -0.97917E-02
        -0.97917E-02
        -0.97917E-02
        -0.97917E-02
        -0.97917E-02
        -0.97917E-02
        -0.97917E-02
        -0.97917E-02
        -0.97917E-02
        -0.97917E-02
        -0.88125E-02
        -0.88125E-02
        -0.88125E-02
        -0.88125E-02
        -0.88125E-02
        -0.88125E-02
        -0.88125E-02
        -0.88125E-02
        -0.88125E-02
        -0.88125E-02
        -0.88125E-02
        -0.88125E-02
        -0.88125E-02
        -0.88125E-02
        -0.88125E-02
        -0.88125E-02
        -0.88125E-02
        -0.88125E-02
        -0.88125E-02
        -0.88125E-02
        -0.88125E-02
        -0.88125E-02
        -0.88125E-02
        -0.88125E-02
        -0.88125E-02
        -0.88125E-02
        -0.88125E-02
        -0.88125E-02
        -0.88125E-02
        -0.88125E-02
        -0.88125E-02
        -0.88125E-02
        -0.88125E-02
        -0.88125E-02
        -0.88125E-02
        -0.88125E-02
        -0.88125E-02
        -0.88125E-02
        -0.88125E-02
        -0.88125E-02
        -0.88125E-02
        -0.88125E-02
        -0.88125E-02
        -0.88125E-02
        -0.88125E-02
        -0.88125E-02
        -0.88125E-02
        -0.88125E-02
        -0.88125E-02
        -0.88125E-02
        -0.88125E-02
        -0.88125E-02
        -0.88125E-02
        -0.88125E-02
        -0.88125E-02
        -0.88125E-02
        -0.88125E-02
        -0.88125E-02
        -0.88125E-02
        -0.88125E-02
        -0.88125E-02
        -0.88125E-02
        -0.88125E-02
        -0.88125E-02
        -0.88125E-02
        -0.88125E-02
        -0.88125E-02
        -0.88125E-02
        -0.88125E-02
        -0.88125E-02
        -0.88125E-02
        -0.88125E-02
        -0.88125E-02
        -0.88125E-02
        -0.88125E-02
        -0.88125E-02
        -0.88125E-02
        -0.88125E-02
        -0.78333E-02
        -0.78333E-02
        -0.78333E-02
        -0.78333E-02
        -0.78333E-02
        -0.78333E-02
        -0.78333E-02
        -0.78333E-02
        -0.78333E-02
        -0.78333E-02
        -0.78333E-02
        -0.78333E-02
        -0.78333E-02
        -0.78333E-02
        -0.78333E-02
        -0.78333E-02
        -0.78333E-02
        -0.78333E-02
        -0.78333E-02
        -0.78333E-02
        -0.78333E-02
        -0.78333E-02
        -0.78333E-02
        -0.78333E-02
        -0.78333E-02
        -0.78333E-02
        -0.78333E-02
        -0.78333E-02
        -0.78333E-02
        -0.78333E-02
        -0.78333E-02
        -0.78333E-02
        -0.78333E-02
        -0.78333E-02
        -0.78333E-02
        -0.78333E-02
        -0.78333E-02
        -0.78333E-02
        -0.78333E-02
        -0.78333E-02
        -0.78333E-02
        -0.78333E-02
        -0.78333E-02
        -0.78333E-02
        -0.78333E-02
        -0.78333E-02
        -0.78333E-02
        -0.78333E-02
        -0.78333E-02
        -0.78333E-02
        -0.78333E-02
        -0.78333E-02
        -0.78333E-02
        -0.78333E-02
        -0.78333E-02
        -0.78333E-02
        -0.78333E-02
        -0.78333E-02
        -0.78333E-02
        -0.78333E-02
        -0.78333E-02
        -0.78333E-02
        -0.78333E-02
        -0.78333E-02
        -0.78333E-02
        -0.78333E-02
        -0.78333E-02
        -0.78333E-02
        -0.78333E-02
        -0.78333E-02
        -0.78333E-02
        -0.78333E-02
        -0.78333E-02
        -0.78333E-02
        -0.78333E-02
        -0.78333E-02
        -0.78333E-02
        -0.78333E-02
        -0.68542E-02
        -0.68542E-02
        -0.68542E-02
        -0.68542E-02
        -0.68542E-02
        -0.68542E-02
        -0.68542E-02
        -0.68542E-02
        -0.68542E-02
        -0.68542E-02
        -0.68542E-02
        -0.68542E-02
        -0.68542E-02
        -0.68542E-02
        -0.68542E-02
        -0.68542E-02
        -0.68542E-02
        -0.68542E-02
        -0.68542E-02
        -0.68542E-02
        -0.68542E-02
        -0.68542E-02
        -0.68542E-02
        -0.68542E-02
        -0.68542E-02
        -0.68542E-02
        -0.68542E-02
        -0.68542E-02
        -0.68542E-02
        -0.68542E-02
        -0.68542E-02
        -0.68542E-02
        -0.68542E-02
        -0.68542E-02
        -0.68542E-02
        -0.68542E-02
        -0.68542E-02
        -0.68542E-02
        -0.68542E-02
        -0.68542E-02
        -0.68542E-02
        -0.68542E-02
        -0.68542E-02
        -0.68542E-02
        -0.68542E-02
        -0.68542E-02
        -0.68542E-02
        -0.68542E-02
        -0.68542E-02
        -0.68542E-02
        -0.68542E-02
        -0.68542E-02
        -0.68542E-02
        -0.68542E-02
        -0.68542E-02
        -0.68542E-02
        -0.68542E-02
        -0.68542E-02
        -0.68542E-02
        -0.68542E-02
        -0.68542E-02
        -0.68542E-02
        -0.68542E-02
        -0.68542E-02
        -0.68542E-02
        -0.68542E-02
        -0.68542E-02
        -0.68542E-02
        -0.68542E-02
        -0.68542E-02
        -0.68542E-02
        -0.68542E-02
        -0.68542E-02
        -0.68542E-02
        -0.68542E-02
        -0.68542E-02
        -0.68542E-02
        -0.68542E-02
        -0.58750E-02
        -0.58750E-02
        -0.58750E-02
        -0.58750E-02
        -0.58750E-02
        -0.58750E-02
        -0.58750E-02
        -0.58750E-02
        -0.58750E-02
        -0.58750E-02
        -0.58750E-02
        -0.58750E-02
        -0.58750E-02
        -0.58750E-02
        -0.58750E-02
        -0.58750E-02
        -0.58750E-02
        -0.58750E-02
        -0.58750E-02
        -0.58750E-02
        -0.58750E-02
        -0.58750E-02
        -0.58750E-02
        -0.58750E-02
        -0.58750E-02
        -0.58750E-02
        -0.58750E-02
        -0.58750E-02
        -0.58750E-02
        -0.58750E-02
        -0.58750E-02
        -0.58750E-02
        -0.58750E-02
        -0.58750E-02
        -0.58750E-02
        -0.58750E-02
        -0.58750E-02
        -0.58750E-02
        -0.58750E-02
        -0.58750E-02
        -0.58750E-02
        -0.58750E-02
        -0.58750E-02
        -0.58750E-02
        -0.58750E-02
        -0.58750E-02
        -0.58750E-02
        -0.58750E-02
        -0.58750E-02
        -0.58750E-02
        -0.58750E-02
        -0.58750E-02
        -0.58750E-02
        -0.58750E-02
        -0.58750E-02
        -0.58750E-02
        -0.58750E-02
        -0.58750E-02
        -0.58750E-02
        -0.58750E-02
        -0.58750E-02
        -0.58750E-02
        -0.58750E-02
        -0.58750E-02
        -0.58750E-02
        -0.58750E-02
        -0.58750E-02
        -0.58750E-02
        -0.58750E-02
        -0.58750E-02
        -0.58750E-02
        -0.58750E-02
        -0.58750E-02
        -0.58750E-02
        -0.58750E-02
        -0.58750E-02
        -0.58750E-02
        -0.58750E-02
        -0.48958E-02
        -0.48958E-02
        -0.48958E-02
        -0.48958E-02
        -0.48958E-02
        -0.48958E-02
        -0.48958E-02
        -0.48958E-02
        -0.48958E-02
        -0.48958E-02
        -0.48958E-02
        -0.48958E-02
        -0.48958E-02
        -0.48958E-02
        -0.48958E-02
        -0.48958E-02
        -0.48958E-02
        -0.48958E-02
        -0.48958E-02
        -0.48958E-02
        -0.48958E-02
        -0.48958E-02
        -0.48958E-02
        -0.48958E-02
        -0.48958E-02
        -0.48958E-02
        -0.48958E-02
        -0.48958E-02
        -0.48958E-02
        -0.48958E-02
        -0.48958E-02
        -0.48958E-02
        -0.48958E-02
        -0.48958E-02
        -0.48958E-02
        -0.48958E-02
        -0.48958E-02
        -0.48958E-02
        -0.48958E-02
        -0.48958E-02
        -0.48958E-02
        -0.48958E-02
        -0.48958E-02
        -0.48958E-02
        -0.48958E-02
        -0.48958E-02
        -0.48958E-02
        -0.48958E-02
        -0.48958E-02
        -0.48958E-02
        -0.48958E-02
        -0.48958E-02
        -0.48958E-02
        -0.48958E-02
        -0.48958E-02
        -0.48958E-02
        -0.48958E-02
        -0.48958E-02
        -0.48958E-02
        -0.48958E-02
        -0.48958E-02
        -0.48958E-02
        -0.48958E-02
        -0.48958E-02
        -0.48958E-02
        -0.48958E-02
        -0.48958E-02
        -0.48958E-02
        -0.48958E-02
        -0.48958E-02
        -0.48958E-02
        -0.48958E-02
        -0.48958E-02
        -0.48958E-02
        -0.48958E-02
        -0.48958E-02
        -0.48958E-02
        -0.48958E-02
        -0.39167E-02
        -0.39167E-02
        -0.39167E-02
        -0.39167E-02
        -0.39167E-02
        -0.39167E-02
        -0.39167E-02
        -0.39167E-02
        -0.39167E-02
        -0.39167E-02
        -0.39167E-02
        -0.39167E-02
        -0.39167E-02
        -0.39167E-02
        -0.39167E-02
        -0.39167E-02
        -0.39167E-02
        -0.39167E-02
        -0.39167E-02
        -0.39167E-02
        -0.39167E-02
        -0.39167E-02
        -0.39167E-02
        -0.39167E-02
        -0.39167E-02
        -0.39167E-02
        -0.39167E-02
        -0.39167E-02
        -0.39167E-02
        -0.39167E-02
        -0.39167E-02
        -0.39167E-02
        -0.39167E-02
        -0.39167E-02
        -0.39167E-02
        -0.39167E-02
        -0.39167E-02
        -0.39167E-02
        -0.39167E-02
        -0.39167E-02
        -0.39167E-02
        -0.39167E-02
        -0.39167E-02
        -0.39167E-02
        -0.39167E-02
        -0.39167E-02
        -0.39167E-02
        -0.39167E-02
        -0.39167E-02
        -0.39167E-02
        -0.39167E-02
        -0.39167E-02
        -0.39167E-02
        -0.39167E-02
        -0.39167E-02
        -0.39167E-02
        -0.39167E-02
        -0.39167E-02
        -0.39167E-02
        -0.39167E-02
        -0.39167E-02
        -0.39167E-02
        -0.39167E-02
        -0.39167E-02
        -0.39167E-02
        -0.39167E-02
        -0.39167E-02
        -0.39167E-02
        -0.39167E-02
        -0.39167E-02
        -0.39167E-02
        -0.39167E-02
        -0.39167E-02
        -0.39167E-02
        -0.39167E-02
        -0.39167E-02
        -0.39167E-02
        -0.39167E-02
        -0.29375E-02
        -0.29375E-02
        -0.29375E-02
        -0.29375E-02
        -0.29375E-02
        -0.29375E-02
        -0.29375E-02
        -0.29375E-02
        -0.29375E-02
        -0.29375E-02
        -0.29375E-02
        -0.29375E-02
        -0.29375E-02
        -0.29375E-02
        -0.29375E-02
        -0.29375E-02
        -0.29375E-02
        -0.29375E-02
        -0.29375E-02
        -0.29375E-02
        -0.29375E-02
        -0.29375E-02
        -0.29375E-02
        -0.29375E-02
        -0.29375E-02
        -0.29375E-02
        -0.29375E-02
        -0.29375E-02
        -0.29375E-02
        -0.29375E-02
        -0.29375E-02
        -0.29375E-02
        -0.29375E-02
        -0.29375E-02
        -0.29375E-02
        -0.29375E-02
        -0.29375E-02
        -0.29375E-02
        -0.29375E-02
        -0.29375E-02
        -0.29375E-02
        -0.29375E-02
        -0.29375E-02
        -0.29375E-02
        -0.29375E-02
        -0.29375E-02
        -0.29375E-02
        -0.29375E-02
        -0.29375E-02
        -0.29375E-02
        -0.29375E-02
        -0.29375E-02
        -0.29375E-02
        -0.29375E-02
        -0.29375E-02
        -0.29375E-02
        -0.29375E-02
        -0.29375E-02
        -0.29375E-02
        -0.29375E-02
        -0.29375E-02
        -0.29375E-02
        -0.29375E-02
        -0.29375E-02
        -0.29375E-02
        -0.29375E-02
        -0.29375E-02
        -0.29375E-02
        -0.29375E-02
        -0.29375E-02
        -0.29375E-02
        -0.29375E-02
        -0.29375E-02
        -0.29375E-02
        -0.29375E-02
        -0.29375E-02
        -0.29375E-02
        -0.29375E-02
        -0.19583E-02
        -0.19583E-02
        -0.19583E-02
        -0.19583E-02
        -0.19583E-02
        -0.19583E-02
        -0.19583E-02
        -0.19583E-02
        -0.19583E-02
        -0.19583E-02
        -0.19583E-02
        -0.19583E-02
        -0.19583E-02
        -0.19583E-02
        -0.19583E-02
        -0.19583E-02
        -0.19583E-02
        -0.19583E-02
        -0.19583E-02
        -0.19583E-02
        -0.19583E-02
        -0.19583E-02
        -0.19583E-02
        -0.19583E-02
        -0.19583E-02
        -0.19583E-02
        -0.19583E-02
        -0.19583E-02
        -0.19583E-02
        -0.19583E-02
        -0.19583E-02
        -0.19583E-02
        -0.19583E-02
        -0.19583E-02
        -0.19583E-02
        -0.19583E-02
        -0.19583E-02
        -0.19583E-02
        -0.19583E-02
        -0.19583E-02
        -0.19583E-02
        -0.19583E-02
        -0.19583E-02
        -0.19583E-02
        -0.19583E-02
        -0.19583E-02
        -0.19583E-02
        -0.19583E-02
        -0.19583E-02
        -0.19583E-02
        -0.19583E-02
        -0.19583E-02
        -0.19583E-02
        -0.19583E-02
        -0.19583E-02
        -0.19583E-02
        -0.19583E-02
        -0.19583E-02
        -0.19583E-02
        -0.19583E-02
        -0.19583E-02
        -0.19583E-02
        -0.19583E-02
        -0.19583E-02
        -0.19583E-02
        -0.19583E-02
        -0.19583E-02
        -0.19583E-02
        -0.19583E-02
        -0.19583E-02
        -0.19583E-02
        -0.19583E-02
        -0.19583E-02
        -0.19583E-02
        -0.19583E-02
        -0.19583E-02
        -0.19583E-02
        -0.19583E-02
        -0.97917E-03
        -0.97917E-03
        -0.97917E-03
        -0.97917E-03
        -0.97917E-03
        -0.97917E-03
        -0.97917E-03
        -0.97917E-03
        -0.97917E-03
        -0.97917E-03
        -0.97917E-03
        -0.97917E-03
        -0.97917E-03
        -0.97917E-03
        -0.97917E-03
        -0.97917E-03
        -0.97917E-03
        -0.97917E-03
        -0.97917E-03
        -0.97917E-03
        -0.97917E-03
        -0.97917E-03
        -0.97917E-03
        -0.97917E-03
        -0.97917E-03
        -0.97917E-03
        -0.97917E-03
        -0.97917E-03
        -0.97917E-03
        -0.97917E-03
        -0.97917E-03
        -0.97917E-03
        -0.97917E-03
        -0.97917E-03
        -0.97917E-03
        -0.97917E-03
        -0.97917E-03
        -0.97917E-03
        -0.97917E-03
        -0.97917E-03
        -0.97917E-03
        -0.97917E-03
        -0.97917E-03
        -0.97917E-03
        -0.97917E-03
        -0.97917E-03
        -0.97917E-03
        -0.97917E-03
        -0.97917E-03
        -0.97917E-03
        -0.97917E-03
        -0.97917E-03
        -0.97917E-03
        -0.97917E-03
        -0.97917E-03
        -0.97917E-03
        -0.97917E-03
        -0.97917E-03
        -0.97917E-03
        -0.97917E-03
        -0.97917E-03
        -0.97917E-03
        -0.97917E-03
        -0.97917E-03
        -0.97917E-03
        -0.97917E-03
        -0.97917E-03
        -0.97917E-03
        -0.97917E-03
        -0.97917E-03
        -0.97917E-03
        -0.97917E-03
        -0.97917E-03
        -0.97917E-03
        -0.97917E-03
        -0.97917E-03
        -0.97917E-03
        -0.97917E-03
         0.38917E-18
         0.44621E-18
         0.34485E-18
         0.23671E-18
         0.26613E-18
         0.16162E-18
         0.53980E-18
         0.50579E-18
         0.36337E-18
         0.48798E-18
         0.60712E-18
         0.67611E-18
         0.60634E-18
         0.60658E-18
         0.70997E-18
         0.20892E-18
         0.35894E-18
         0.21887E-18
         0.27638E-18
         0.38382E-18
         0.29058E-18
         0.40326E-18
         0.18564E-18
         0.19650E-18
         0.48570E-18
         0.12837E-18
         0.60589E-18
         0.60416E-18
         0.60524E-18
         0.49621E-18
         0.61582E-19
         0.32255E-19
         0.73874E-19
         0.78478E-19
         0.34514E-18
         0.42054E-18
         0.51644E-18
         0.72521E-18
         0.72233E-18
         0.70722E-18
         0.69126E-18
         0.61573E-18
         0.51484E-18
         0.91170E-19
         0.30347E-20
        -0.66516E-19
        -0.69988E-19
        -0.68643E-19
        -0.59779E-19
        -0.43507E-19
        -0.29471E-19
         0.53205E-19
         0.86819E-18
         0.00000E+00
         0.86819E-18
         0.86819E-18
         0.00000E+00
         0.00000E+00
         0.00000E+00
         0.17364E-17
         0.17364E-17
         0.17364E-17
         0.43410E-18
         0.43410E-18
         0.43410E-18
         0.00000E+00
         0.00000E+00
         0.00000E+00
         0.00000E+00
         0.00000E+00
         0.21705E-18
        -0.21705E-18
         0.00000E+00
         0.00000E+00
         0.00000E+00
        -0.32557E-18
         0.54262E-19
        -0.40697E-18
         0.97917E-03
         0.97917E-03
         0.97917E-03
         0.97917E-03
         0.97917E-03
         0.97917E-03
         0.97917E-03
         0.97917E-03
         0.97917E-03
         0.97917E-03
         0.97917E-03
         0.97917E-03
         0.97917E-03
         0.97917E-03
         0.97917E-03
         0.97917E-03
         0.97917E-03
         0.97917E-03
         0.97917E-03
         0.97917E-03
         0.97917E-03
         0.97917E-03
         0.97917E-03
         0.97917E-03
         0.97917E-03
         0.97917E-03
         0.97917E-03
         0.97917E-03
         0.97917E-03
         0.97917E-03
         0.97917E-03
         0.97917E-03
         0.97917E-03
         0.97917E-03
         0.97917E-03
         0.97917E-03
         0.97917E-03
         0.97917E-03
         0.97917E-03
         0.97917E-03
         0.97917E-03
         0.97917E-03
         0.97917E-03
         0.97917E-03
         0.97917E-03
         0.97917E-03
         0.97917E-03
         0.97917E-03
         0.97917E-03
         0.97917E-03
         0.97917E-03
         0.97917E-03
         0.97917E-03
         0.97917E-03
         0.97917E-03
         0.97917E-03
         0.97917E-03
         0.97917E-03
         0.97917E-03
         0.97917E-03
         0.97917E-03
         0.97917E-03
         0.97917E-03
         0.97917E-03
         0.97917E-03
         0.97917E-03
         0.97917E-03
         0.97917E-03
         0.97917E-03
         0.97917E-03
         0.97917E-03
         0.97917E-03
         0.97917E-03
         0.97917E-03
         0.97917E-03
         0.97917E-03
         0.97917E-03
         0.97917E-03
         0.19583E-02
         0.19583E-02
         0.19583E-02
         0.19583E-02
         0.19583E-02
         0.19583E-02
         0.19583E-02
         0.19583E-02
         0.19583E-02
         0.19583E-02
         0.19583E-02
         0.19583E-02
         0.19583E-02
         0.19583E-02
         0.19583E-02
         0.19583E-02
         0.19583E-02
         0.19583E-02
         0.19583E-02
         0.19583E-02
         0.19583E-02
         0.19583E-02
         0.19583E-02
         0.19583E-02
         0.19583E-02
         0.19583E-02
         0.19583E-02
         0.19583E-02
         0.19583E-02
         0.19583E-02
         0.19583E-02
         0.19583E-02
         0.19583E-02
         0.19583E-02
         0.19583E-02
         0.19583E-02
         0.19583E-02
         0.19583E-02
         0.19583E-02
         0.19583E-02
         0.19583E-02
         0.19583E-02
         0.19583E-02
         0.19583E-02
         0.19583E-02
         0.19583E-02
         0.19583E-02
         0.19583E-02
         0.19583E-02
         0.19583E-02
         0.19583E-02
         0.19583E-02
         0.19583E-02
         0.19583E-02
         0.19583E-02
         0.19583E-02
         0.19583E-02
         0.19583E-02
         0.19583E-02
         0.19583E-02
         0.19583E-02
         0.19583E-02
         0.19583E-02
         0.19583E-02
         0.19583E-02
         0.19583E-02
         0.19583E-02
         0.19583E-02
         0.19583E-02
         0.19583E-02
         0.19583E-02
         0.19583E-02
         0.19583E-02
         0.19583E-02
         0.19583E-02
         0.19583E-02
         0.19583E-02
         0.19583E-02
         0.29375E-02
         0.29375E-02
         0.29375E-02
         0.29375E-02
         0.29375E-02
         0.29375E-02
         0.29375E-02
         0.29375E-02
         0.29375E-02
         0.29375E-02
         0.29375E-02
         0.29375E-02
         0.29375E-02
         0.29375E-02
         0.29375E-02
         0.29375E-02
         0.29375E-02
         0.29375E-02
         0.29375E-02
         0.29375E-02
         0.29375E-02
         0.29375E-02
         0.29375E-02
         0.29375E-02
         0.29375E-02
         0.29375E-02
         0.29375E-02
         0.29375E-02
         0.29375E-02
         0.29375E-02
         0.29375E-02
         0.29375E-02
         0.29375E-02
         0.29375E-02
         0.29375E-02
         0.29375E-02
         0.29375E-02
         0.29375E-02
         0.29375E-02
         0.29375E-02
         0.29375E-02
         0.29375E-02
         0.29375E-02
         0.29375E-02
         0.29375E-02
         0.29375E-02
         0.29375E-02
         0.29375E-02
         0.29375E-02
         0.29375E-02
         0.29375E-02
         0.29375E-02
         0.29375E-02
         0.29375E-02
         0.29375E-02
         0.29375E-02
         0.29375E-02
         0.29375E-02
         0.29375E-02
         0.29375E-02
         0.29375E-02
         0.29375E-02
         0.29375E-02
         0.29375E-02
         0.29375E-02
         0.29375E-02
         0.29375E-02
         0.29375E-02
         0.29375E-02
         0.29375E-02
         0.29375E-02
         0.29375E-02
         0.29375E-02
         0.29375E-02
         0.29375E-02
         0.29375E-02
         0.29375E-02
         0.29375E-02
         0.39167E-02
         0.39167E-02
         0.39167E-02
         0.39167E-02
         0.39167E-02
         0.39167E-02
         0.39167E-02
         0.39167E-02
         0.39167E-02
         0.39167E-02
         0.39167E-02
         0.39167E-02
         0.39167E-02
         0.39167E-02
         0.39167E-02
         0.39167E-02
         0.39167E-02
         0.39167E-02
         0.39167E-02
         0.39167E-02
         0.39167E-02
         0.39167E-02
         0.39167E-02
         0.39167E-02
         0.39167E-02
         0.39167E-02
         0.39167E-02
         0.39167E-02
         0.39167E-02
         0.39167E-02
         0.39167E-02
         0.39167E-02
         0.39167E-02
         0.39167E-02
         0.39167E-02
         0.39167E-02
         0.39167E-02
         0.39167E-02
         0.39167E-02
         0.39167E-02
         0.39167E-02
         0.39167E-02
         0.39167E-02
         0.39167E-02
         0.39167E-02
         0.39167E-02
         0.39167E-02
         0.39167E-02
         0.39167E-02
         0.39167E-02
         0.39167E-02
         0.39167E-02
         0.39167E-02
         0.39167E-02
         0.39167E-02
         0.39167E-02
         0.39167E-02
         0.39167E-02
         0.39167E-02
         0.39167E-02
         0.39167E-02
         0.39167E-02
         0.39167E-02
         0.39167E-02
         0.39167E-02
         0.39167E-02
         0.39167E-02
         0.39167E-02
         0.39167E-02
         0.39167E-02
         0.39167E-02
         0.39167E-02
         0.39167E-02
         0.39167E-02
         0.39167E-02
         0.39167E-02
         0.39167E-02
         0.39167E-02
         0.48958E-02
         0.48958E-02
         0.48958E-02
         0.48958E-02
         0.48958E-02
         0.48958E-02
         0.48958E-02
         0.48958E-02
         0.48958E-02
         0.48958E-02
         0.48958E-02
         0.48958E-02
         0.48958E-02
         0.48958E-02
         0.48958E-02
         0.48958E-02
         0.48958E-02
         0.48958E-02
         0.48958E-02
         0.48958E-02
         0.48958E-02
         0.48958E-02
         0.48958E-02
         0.48958E-02
         0.48958E-02
         0.48958E-02
         0.48958E-02
         0.48958E-02
         0.48958E-02
         0.48958E-02
         0.48958E-02
         0.48958E-02
         0.48958E-02
         0.48958E-02
         0.48958E-02
         0.48958E-02
         0.48958E-02
         0.48958E-02
         0.48958E-02
         0.48958E-02
         0.48958E-02
         0.48958E-02
         0.48958E-02
         0.48958E-02
         0.48958E-02
         0.48958E-02
         0.48958E-02
         0.48958E-02
         0.48958E-02
         0.48958E-02
         0.48958E-02
         0.48958E-02
         0.48958E-02
         0.48958E-02
         0.48958E-02
         0.48958E-02
         0.48958E-02
         0.48958E-02
         0.48958E-02
         0.48958E-02
         0.48958E-02
         0.48958E-02
         0.48958E-02
         0.48958E-02
         0.48958E-02
         0.48958E-02
         0.48958E-02
         0.48958E-02
         0.48958E-02
         0.48958E-02
         0.48958E-02
         0.48958E-02
         0.48958E-02
         0.48958E-02
         0.48958E-02
         0.48958E-02
         0.48958E-02
         0.48958E-02
         0.58750E-02
         0.58750E-02
         0.58750E-02
         0.58750E-02
         0.58750E-02
         0.58750E-02
         0.58750E-02
         0.58750E-02
         0.58750E-02
         0.58750E-02
         0.58750E-02
         0.58750E-02
         0.58750E-02
         0.58750E-02
         0.58750E-02
         0.58750E-02
         0.58750E-02
         0.58750E-02
         0.58750E-02
         0.58750E-02
         0.58750E-02
         0.58750E-02
         0.58750E-02
         0.58750E-02
         0.58750E-02
         0.58750E-02
         0.58750E-02
         0.58750E-02
         0.58750E-02
         0.58750E-02
         0.58750E-02
         0.58750E-02
         0.58750E-02
         0.58750E-02
         0.58750E-02
         0.58750E-02
         0.58750E-02
         0.58750E-02
         0.58750E-02
         0.58750E-02
         0.58750E-02
         0.58750E-02
         0.58750E-02
         0.58750E-02
         0.58750E-02
         0.58750E-02
         0.58750E-02
         0.58750E-02
         0.58750E-02
         0.58750E-02
         0.58750E-02
         0.58750E-02
         0.58750E-02
         0.58750E-02
         0.58750E-02
         0.58750E-02
         0.58750E-02
         0.58750E-02
         0.58750E-02
         0.58750E-02
         0.58750E-02
         0.58750E-02
         0.58750E-02
         0.58750E-02
         0.58750E-02
         0.58750E-02
         0.58750E-02
         0.58750E-02
         0.58750E-02
         0.58750E-02
         0.58750E-02
         0.58750E-02
         0.58750E-02
         0.58750E-02
         0.58750E-02
         0.58750E-02
         0.58750E-02
         0.58750E-02
         0.68542E-02
         0.68542E-02
         0.68542E-02
         0.68542E-02
         0.68542E-02
         0.68542E-02
         0.68542E-02
         0.68542E-02
         0.68542E-02
         0.68542E-02
         0.68542E-02
         0.68542E-02
         0.68542E-02
         0.68542E-02
         0.68542E-02
         0.68542E-02
         0.68542E-02
         0.68542E-02
         0.68542E-02
         0.68542E-02
         0.68542E-02
         0.68542E-02
         0.68542E-02
         0.68542E-02
         0.68542E-02
         0.68542E-02
         0.68542E-02
         0.68542E-02
         0.68542E-02
         0.68542E-02
         0.68542E-02
         0.68542E-02
         0.68542E-02
         0.68542E-02
         0.68542E-02
         0.68542E-02
         0.68542E-02
         0.68542E-02
         0.68542E-02
         0.68542E-02
         0.68542E-02
         0.68542E-02
         0.68542E-02
         0.68542E-02
         0.68542E-02
         0.68542E-02
         0.68542E-02
         0.68542E-02
         0.68542E-02
         0.68542E-02
         0.68542E-02
         0.68542E-02
         0.68542E-02
         0.68542E-02
         0.68542E-02
         0.68542E-02
         0.68542E-02
         0.68542E-02
         0.68542E-02
         0.68542E-02
         0.68542E-02
         0.68542E-02
         0.68542E-02
         0.68542E-02
         0.68542E-02
         0.68542E-02
         0.68542E-02
         0.68542E-02
         0.68542E-02
         0.68542E-02
         0.68542E-02
         0.68542E-02
         0.68542E-02
         0.68542E-02
         0.68542E-02
         0.68542E-02
         0.68542E-02
         0.68542E-02
         0.78333E-02
         0.78333E-02
         0.78333E-02
         0.78333E-02
         0.78333E-02
         0.78333E-02
         0.78333E-02
         0.78333E-02
         0.78333E-02
         0.78333E-02
         0.78333E-02
         0.78333E-02
         0.78333E-02
         0.78333E-02
         0.78333E-02
         0.78333E-02
         0.78333E-02
         0.78333E-02
         0.78333E-02
         0.78333E-02
         0.78333E-02
         0.78333E-02
         0.78333E-02
         0.78333E-02
         0.78333E-02
         0.78333E-02
         0.78333E-02
         0.78333E-02
         0.78333E-02
         0.78333E-02
         0.78333E-02
         0.78333E-02
         0.78333E-02
         0.78333E-02
         0.78333E-02
         0.78333E-02
         0.78333E-02
         0.78333E-02
         0.78333E-02
         0.78333E-02
         0.78333E-02
         0.78333E-02
         0.78333E-02
         0.78333E-02
         0.78333E-02
         0.78333E-02
         0.78333E-02
         0.78333E-02
         0.78333E-02
         0.78333E-02
         0.78333E-02
         0.78333E-02
         0.78333E-02
         0.78333E-02
         0.78333E-02
         0.78333E-02
         0.78333E-02
         0.78333E-02
         0.78333E-02
         0.78333E-02
         0.78333E-02
         0.78333E-02
         0.78333E-02
         0.78333E-02
         0.78333E-02
         0.78333E-02
         0.78333E-02
         0.78333E-02
         0.78333E-02
         0.78333E-02
         0.78333E-02
         0.78333E-02
         0.78333E-02
         0.78333E-02
         0.78333E-02
         0.78333E-02
         0.78333E-02
         0.78333E-02
         0.88125E-02
         0.88125E-02
         0.88125E-02
         0.88125E-02
         0.88125E-02
         0.88125E-02
         0.88125E-02
         0.88125E-02
         0.88125E-02
         0.88125E-02
         0.88125E-02
         0.88125E-02
         0.88125E-02
         0.88125E-02
         0.88125E-02
         0.88125E-02
         0.88125E-02
         0.88125E-02
         0.88125E-02
         0.88125E-02
         0.88125E-02
         0.88125E-02
         0.88125E-02
         0.88125E-02
         0.88125E-02
         0.88125E-02
         0.88125E-02
         0.88125E-02
         0.88125E-02
         0.88125E-02
         0.88125E-02
         0.88125E-02
         0.88125E-02
         0.88125E-02
         0.88125E-02
         0.88125E-02
         0.88125E-02
         0.88125E-02
         0.88125E-02
         0.88125E-02
         0.88125E-02
         0.88125E-02
         0.88125E-02
         0.88125E-02
         0.88125E-02
         0.88125E-02
         0.88125E-02
         0.88125E-02
         0.88125E-02
         0.88125E-02
         0.88125E-02
         0.88125E-02
         0.88125E-02
         0.88125E-02
         0.88125E-02
         0.88125E-02
         0.88125E-02
         0.88125E-02
         0.88125E-02
         0.88125E-02
         0.88125E-02
         0.88125E-02
         0.88125E-02
         0.88125E-02
         0.88125E-02
         0.88125E-02
         0.88125E-02
         0.88125E-02
         0.88125E-02
         0.88125E-02
         0.88125E-02
         0.88125E-02
         0.88125E-02
         0.88125E-02
         0.88125E-02
         0.88125E-02
         0.88125E-02
         0.88125E-02
         0.97917E-02
         0.97917E-02
         0.97917E-02
         0.97917E-02
         0.97917E-02
         0.97917E-02
         0.97917E-02
         0.97917E-02
         0.97917E-02
         0.97917E-02
         0.97917E-02
         0.97917E-02
         0.97917E-02
         0.97917E-02
         0.97917E-02
         0.97917E-02
         0.97917E-02
         0.97917E-02
         0.97917E-02
         0.97917E-02
         0.97917E-02
         0.97917E-02
         0.97917E-02
         0.97917E-02
         0.97917E-02
         0.97917E-02
         0.97917E-02
         0.97917E-02
         0.97917E-02
         0.97917E-02
         0.97917E-02
         0.97917E-02
         0.97917E-02
         0.97917E-02
         0.97917E-02
         0.97917E-02
         0.97917E-02
         0.97917E-02
         0.97917E-02
         0.97917E-02
         0.97917E-02
         0.97917E-02
         0.97917E-02
         0.97917E-02
         0.97917E-02
         0.97917E-02
         0.97917E-02
         0.97917E-02
         0.97917E-02
         0.97917E-02
         0.97917E-02
         0.97917E-02
         0.97917E-02
         0.97917E-02
         0.97917E-02
         0.97917E-02
         0.97917E-02
         0.97917E-02
         0.97917E-02
         0.97917E-02
         0.97917E-02
         0.97917E-02
         0.97917E-02
         0.97917E-02
         0.97917E-02
         0.97917E-02
         0.97917E-02
         0.97917E-02
         0.97917E-02
         0.97917E-02
         0.97917E-02
         0.97917E-02
         0.97917E-02
         0.97917E-02
         0.97917E-02
         0.97917E-02
         0.97917E-02
         0.97917E-02
         0.10771E-01
         0.10771E-01
         0.10771E-01
         0.10771E-01
         0.10771E-01
         0.10771E-01
         0.10771E-01
         0.10771E-01
         0.10771E-01
         0.10771E-01
         0.10771E-01
         0.10771E-01
         0.10771E-01
         0.10771E-01
         0.10771E-01
         0.10771E-01
         0.10771E-01
         0.10771E-01
         0.10771E-01
         0.10771E-01
         0.10771E-01
         0.10771E-01
         0.10771E-01
         0.10771E-01
         0.10771E-01
         0.10771E-01
         0.10771E-01
         0.10771E-01
         0.10771E-01
         0.10771E-01
         0.10771E-01
         0.10771E-01
         0.10771E-01
         0.10771E-01
         0.10771E-01
         0.10771E-01
         0.10771E-01
         0.10771E-01
         0.10771E-01
         0.10771E-01
         0.10771E-01
         0.10771E-01
         0.10771E-01
         0.10771E-01
         0.10771E-01
         0.10771E-01
         0.10771E-01
         0.10771E-01
         0.10771E-01
         0.10771E-01
         0.10771E-01
         0.10771E-01
         0.10771E-01
         0.10771E-01
         0.10771E-01
         0.10771E-01
         0.10771E-01
         0.10771E-01
         0.10771E-01
         0.10771E-01
         0.10771E-01
         0.10771E-01
         0.10771E-01
         0.10771E-01
         0.10771E-01
         0.10771E-01
         0.10771E-01
         0.10771E-01
         0.10771E-01
         0.10771E-01
         0.10771E-01
         0.10771E-01
         0.10771E-01
         0.10771E-01
         0.10771E-01
         0.10771E-01
         0.10771E-01
         0.10771E-01
         0.11750E-01
         0.11750E-01
         0.11750E-01
         0.11750E-01
         0.11750E-01
         0.11750E-01
         0.11750E-01
         0.11750E-01
         0.11750E-01
         0.11750E-01
         0.11750E-01
         0.11750E-01
         0.11750E-01
         0.11750E-01
         0.11750E-01
         0.11750E-01
         0.11750E-01
         0.11750E-01
         0.11750E-01
         0.11750E-01
         0.11750E-01
         0.11750E-01
         0.11750E-01
         0.11750E-01
         0.11750E-01
         0.11750E-01
         0.11750E-01
         0.11750E-01
         0.11750E-01
         0.11750E-01
         0.11750E-01
         0.11750E-01
         0.11750E-01
         0.11750E-01
         0.11750E-01
         0.11750E-01
         0.11750E-01
         0.11750E-01
         0.11750E-01
         0.11750E-01
         0.11750E-01
         0.11750E-01
         0.11750E-01
         0.11750E-01
         0.11750E-01
         0.11750E-01
         0.11750E-01
         0.11750E-01
         0.11750E-01
         0.11750E-01
         0.11750E-01
         0.11750E-01
         0.11750E-01
         0.11750E-01
         0.11750E-01
         0.11750E-01
         0.11750E-01
         0.11750E-01
         0.11750E-01
         0.11750E-01
         0.11750E-01
         0.11750E-01
         0.11750E-01
         0.11750E-01
         0.11750E-01
         0.11750E-01
         0.11750E-01
         0.11750E-01
         0.11750E-01
         0.11750E-01
         0.11750E-01
         0.11750E-01
         0.11750E-01
         0.11750E-01
         0.11750E-01
         0.11750E-01
         0.11750E-01
         0.11750E-01
  
SCALARS                init_velocity_x  double 1
LOOKUP_TABLE default
         0.00000E+00
         0.00000E+00
         0.00000E+00
         0.00000E+00
         0.00000E+00
         0.00000E+00
         0.00000E+00
         0.00000E+00
         0.00000E+00
         0.00000E+00
         0.00000E+00
         0.00000E+00
         0.00000E+00
         0.00000E+00
         0.00000E+00
         0.00000E+00
         0.00000E+00
         0.00000E+00
         0.00000E+00
         0.00000E+00
         0.00000E+00
         0.00000E+00
         0.00000E+00
         0.00000E+00
         0.00000E+00
         0.00000E+00
         0.00000E+00
         0.00000E+00
         0.00000E+00
         0.00000E+00
         0.00000E+00
         0.00000E+00
         0.00000E+00
         0.00000E+00
         0.00000E+00
         0.00000E+00
         0.00000E+00
         0.00000E+00
         0.00000E+00
         0.00000E+00
         0.00000E+00
         0.00000E+00
         0.00000E+00
         0.00000E+00
         0.00000E+00
         0.00000E+00
         0.00000E+00
         0.00000E+00
         0.00000E+00
         0.00000E+00
         0.00000E+00
         0.00000E+00
         0.00000E+00
         0.00000E+00
         0.00000E+00
         0.00000E+00
         0.00000E+00
         0.00000E+00
         0.00000E+00
         0.00000E+00
         0.00000E+00
         0.00000E+00
         0.00000E+00
         0.00000E+00
         0.00000E+00
         0.00000E+00
         0.00000E+00
         0.00000E+00
         0.00000E+00
         0.00000E+00
         0.00000E+00
         0.00000E+00
         0.00000E+00
         0.00000E+00
         0.00000E+00
         0.00000E+00
         0.00000E+00
         0.00000E+00
         0.00000E+00
         0.00000E+00
         0.00000E+00
         0.00000E+00
         0.00000E+00
         0.00000E+00
         0.00000E+00
         0.00000E+00
         0.00000E+00
         0.00000E+00
         0.00000E+00
         0.00000E+00
         0.00000E+00
         0.00000E+00
         0.00000E+00
         0.00000E+00
         0.00000E+00
         0.00000E+00
         0.00000E+00
         0.00000E+00
         0.00000E+00
         0.00000E+00
         0.00000E+00
         0.00000E+00
         0.00000E+00
         0.00000E+00
         0.00000E+00
         0.00000E+00
         0.00000E+00
         0.00000E+00
         0.00000E+00
         0.00000E+00
         0.00000E+00
         0.00000E+00
         0.00000E+00
         0.00000E+00
         0.00000E+00
         0.00000E+00
         0.00000E+00
         0.00000E+00
         0.00000E+00
         0.00000E+00
         0.00000E+00
         0.00000E+00
         0.00000E+00
         0.00000E+00
         0.00000E+00
         0.00000E+00
         0.00000E+00
         0.00000E+00
         0.00000E+00
         0.00000E+00
         0.00000E+00
         0.00000E+00
         0.00000E+00
         0.00000E+00
         0.00000E+00
         0.00000E+00
         0.00000E+00
         0.00000E+00
         0.00000E+00
         0.00000E+00
         0.00000E+00
         0.00000E+00
         0.00000E+00
         0.00000E+00
         0.00000E+00
         0.00000E+00
         0.00000E+00
         0.00000E+00
         0.00000E+00
         0.00000E+00
         0.00000E+00
         0.00000E+00
         0.00000E+00
         0.00000E+00
         0.00000E+00
         0.00000E+00
         0.00000E+00
         0.00000E+00
         0.00000E+00
         0.00000E+00
         0.00000E+00
         0.00000E+00
         0.00000E+00
         0.00000E+00
         0.00000E+00
         0.00000E+00
         0.00000E+00
         0.00000E+00
         0.00000E+00
         0.00000E+00
         0.00000E+00
         0.00000E+00
         0.00000E+00
         0.00000E+00
         0.00000E+00
         0.00000E+00
         0.00000E+00
         0.00000E+00
         0.00000E+00
         0.00000E+00
         0.00000E+00
         0.00000E+00
         0.00000E+00
         0.00000E+00
         0.00000E+00
         0.00000E+00
         0.00000E+00
         0.00000E+00
         0.00000E+00
         0.00000E+00
         0.00000E+00
         0.00000E+00
         0.00000E+00
         0.00000E+00
         0.00000E+00
         0.00000E+00
         0.00000E+00
         0.00000E+00
         0.00000E+00
         0.00000E+00
         0.00000E+00
         0.00000E+00
         0.00000E+00
         0.00000E+00
         0.00000E+00
         0.00000E+00
         0.00000E+00
         0.00000E+00
         0.00000E+00
         0.00000E+00
         0.00000E+00
         0.00000E+00
         0.00000E+00
         0.00000E+00
         0.00000E+00
         0.00000E+00
         0.00000E+00
         0.00000E+00
         0.00000E+00
         0.00000E+00
         0.00000E+00
         0.00000E+00
         0.00000E+00
         0.00000E+00
         0.00000E+00
         0.00000E+00
         0.00000E+00
         0.00000E+00
         0.00000E+00
         0.00000E+00
         0.00000E+00
         0.00000E+00
         0.00000E+00
         0.00000E+00
         0.00000E+00
         0.00000E+00
         0.00000E+00
         0.00000E+00
         0.00000E+00
         0.00000E+00
         0.00000E+00
         0.00000E+00
         0.00000E+00
         0.00000E+00
         0.00000E+00
         0.00000E+00
         0.00000E+00
         0.00000E+00
         0.00000E+00
         0.00000E+00
         0.00000E+00
         0.00000E+00
         0.00000E+00
         0.00000E+00
         0.00000E+00
         0.00000E+00
         0.00000E+00
         0.00000E+00
         0.00000E+00
         0.00000E+00
         0.00000E+00
         0.00000E+00
         0.00000E+00
         0.00000E+00
         0.00000E+00
         0.00000E+00
         0.00000E+00
         0.00000E+00
         0.00000E+00
         0.00000E+00
         0.00000E+00
         0.00000E+00
         0.00000E+00
         0.00000E+00
         0.00000E+00
         0.00000E+00
         0.00000E+00
         0.00000E+00
         0.00000E+00
         0.00000E+00
         0.00000E+00
         0.00000E+00
         0.00000E+00
         0.00000E+00
         0.00000E+00
         0.00000E+00
         0.00000E+00
         0.00000E+00
         0.00000E+00
         0.00000E+00
         0.00000E+00
         0.00000E+00
         0.00000E+00
         0.00000E+00
         0.00000E+00
         0.00000E+00
         0.00000E+00
         0.00000E+00
         0.00000E+00
         0.00000E+00
         0.00000E+00
         0.00000E+00
         0.00000E+00
         0.00000E+00
         0.00000E+00
         0.00000E+00
         0.00000E+00
         0.00000E+00
         0.00000E+00
         0.00000E+00
         0.00000E+00
         0.00000E+00
         0.00000E+00
         0.00000E+00
         0.00000E+00
         0.00000E+00
         0.00000E+00
         0.00000E+00
         0.00000E+00
         0.00000E+00
         0.00000E+00
         0.00000E+00
         0.00000E+00
         0.00000E+00
         0.00000E+00
         0.00000E+00
         0.00000E+00
         0.00000E+00
         0.00000E+00
         0.00000E+00
         0.00000E+00
         0.00000E+00
         0.00000E+00
         0.00000E+00
         0.00000E+00
         0.00000E+00
         0.00000E+00
         0.00000E+00
         0.00000E+00
         0.00000E+00
         0.00000E+00
         0.00000E+00
         0.00000E+00
         0.00000E+00
         0.00000E+00
         0.00000E+00
         0.00000E+00
         0.00000E+00
         0.00000E+00
         0.00000E+00
         0.00000E+00
         0.00000E+00
         0.00000E+00
         0.00000E+00
         0.00000E+00
         0.00000E+00
         0.00000E+00
         0.00000E+00
         0.00000E+00
         0.00000E+00
         0.00000E+00
         0.00000E+00
         0.00000E+00
         0.00000E+00
         0.00000E+00
         0.00000E+00
         0.00000E+00
         0.00000E+00
         0.00000E+00
         0.00000E+00
         0.00000E+00
         0.00000E+00
         0.00000E+00
         0.00000E+00
         0.00000E+00
         0.00000E+00
         0.00000E+00
         0.00000E+00
         0.00000E+00
         0.00000E+00
         0.00000E+00
         0.00000E+00
         0.00000E+00
         0.00000E+00
         0.00000E+00
         0.00000E+00
         0.00000E+00
         0.00000E+00
         0.00000E+00
         0.00000E+00
         0.00000E+00
         0.00000E+00
         0.00000E+00
         0.00000E+00
         0.00000E+00
         0.00000E+00
         0.00000E+00
         0.00000E+00
         0.00000E+00
         0.00000E+00
         0.00000E+00
         0.00000E+00
         0.00000E+00
         0.00000E+00
         0.00000E+00
         0.00000E+00
         0.00000E+00
         0.00000E+00
         0.00000E+00
         0.00000E+00
         0.00000E+00
         0.00000E+00
         0.00000E+00
         0.00000E+00
         0.00000E+00
         0.00000E+00
         0.00000E+00
         0.00000E+00
         0.00000E+00
         0.00000E+00
         0.00000E+00
         0.00000E+00
         0.00000E+00
         0.00000E+00
         0.00000E+00
         0.00000E+00
         0.00000E+00
         0.00000E+00
         0.00000E+00
         0.00000E+00
         0.00000E+00
         0.00000E+00
         0.00000E+00
         0.00000E+00
         0.00000E+00
         0.00000E+00
         0.00000E+00
         0.00000E+00
         0.00000E+00
         0.00000E+00
         0.00000E+00
         0.00000E+00
         0.00000E+00
         0.00000E+00
         0.00000E+00
         0.00000E+00
         0.00000E+00
         0.00000E+00
         0.00000E+00
         0.00000E+00
         0.00000E+00
         0.00000E+00
         0.00000E+00
         0.00000E+00
         0.00000E+00
         0.00000E+00
         0.00000E+00
         0.00000E+00
         0.00000E+00
         0.00000E+00
         0.00000E+00
         0.00000E+00
         0.00000E+00
         0.00000E+00
         0.00000E+00
         0.00000E+00
         0.00000E+00
         0.00000E+00
         0.00000E+00
         0.00000E+00
         0.00000E+00
         0.00000E+00
         0.00000E+00
         0.00000E+00
         0.00000E+00
         0.00000E+00
         0.00000E+00
         0.00000E+00
         0.00000E+00
         0.00000E+00
         0.00000E+00
         0.00000E+00
         0.00000E+00
         0.00000E+00
         0.00000E+00
         0.00000E+00
         0.00000E+00
         0.00000E+00
         0.00000E+00
         0.00000E+00
         0.00000E+00
         0.00000E+00
         0.00000E+00
         0.00000E+00
         0.00000E+00
         0.00000E+00
         0.00000E+00
         0.00000E+00
         0.00000E+00
         0.00000E+00
         0.00000E+00
         0.00000E+00
         0.00000E+00
         0.00000E+00
         0.00000E+00
         0.00000E+00
         0.00000E+00
         0.00000E+00
         0.00000E+00
         0.00000E+00
         0.00000E+00
         0.00000E+00
         0.00000E+00
         0.00000E+00
         0.00000E+00
         0.00000E+00
         0.00000E+00
         0.00000E+00
         0.00000E+00
         0.00000E+00
         0.00000E+00
         0.00000E+00
         0.00000E+00
         0.00000E+00
         0.00000E+00
         0.00000E+00
         0.00000E+00
         0.00000E+00
         0.00000E+00
         0.00000E+00
         0.00000E+00
         0.00000E+00
         0.00000E+00
         0.00000E+00
         0.00000E+00
         0.00000E+00
         0.00000E+00
         0.00000E+00
         0.00000E+00
         0.00000E+00
         0.00000E+00
         0.00000E+00
         0.00000E+00
         0.00000E+00
         0.00000E+00
         0.00000E+00
         0.00000E+00
         0.00000E+00
         0.00000E+00
         0.00000E+00
         0.00000E+00
         0.00000E+00
         0.00000E+00
         0.00000E+00
         0.00000E+00
         0.00000E+00
         0.00000E+00
         0.00000E+00
         0.00000E+00
         0.00000E+00
         0.00000E+00
         0.00000E+00
         0.00000E+00
         0.00000E+00
         0.00000E+00
         0.00000E+00
         0.00000E+00
         0.00000E+00
         0.00000E+00
         0.00000E+00
         0.00000E+00
         0.00000E+00
         0.00000E+00
         0.00000E+00
         0.00000E+00
         0.00000E+00
         0.00000E+00
         0.00000E+00
         0.00000E+00
         0.00000E+00
         0.00000E+00
         0.00000E+00
         0.00000E+00
         0.00000E+00
         0.00000E+00
         0.00000E+00
         0.00000E+00
         0.00000E+00
         0.00000E+00
         0.00000E+00
         0.00000E+00
         0.00000E+00
         0.00000E+00
         0.00000E+00
         0.00000E+00
         0.00000E+00
         0.00000E+00
         0.00000E+00
         0.00000E+00
         0.00000E+00
         0.00000E+00
         0.00000E+00
         0.00000E+00
         0.00000E+00
         0.00000E+00
         0.00000E+00
         0.00000E+00
         0.00000E+00
         0.00000E+00
         0.00000E+00
         0.00000E+00
         0.00000E+00
         0.00000E+00
         0.00000E+00
         0.00000E+00
         0.00000E+00
         0.00000E+00
         0.00000E+00
         0.00000E+00
         0.00000E+00
         0.00000E+00
         0.00000E+00
         0.00000E+00
         0.00000E+00
         0.00000E+00
         0.00000E+00
         0.00000E+00
         0.00000E+00
         0.00000E+00
         0.00000E+00
         0.00000E+00
         0.00000E+00
         0.00000E+00
         0.00000E+00
         0.00000E+00
         0.00000E+00
         0.00000E+00
         0.00000E+00
         0.00000E+00
         0.00000E+00
         0.00000E+00
         0.00000E+00
         0.00000E+00
         0.00000E+00
         0.00000E+00
         0.00000E+00
         0.00000E+00
         0.00000E+00
         0.00000E+00
         0.00000E+00
         0.00000E+00
         0.00000E+00
         0.00000E+00
         0.00000E+00
         0.00000E+00
         0.00000E+00
         0.00000E+00
         0.00000E+00
         0.00000E+00
         0.00000E+00
         0.00000E+00
         0.00000E+00
         0.00000E+00
         0.00000E+00
         0.00000E+00
         0.00000E+00
         0.00000E+00
         0.00000E+00
         0.00000E+00
         0.00000E+00
         0.00000E+00
         0.00000E+00
         0.00000E+00
         0.00000E+00
         0.00000E+00
         0.00000E+00
         0.00000E+00
         0.00000E+00
         0.00000E+00
         0.00000E+00
         0.00000E+00
         0.00000E+00
         0.00000E+00
         0.00000E+00
         0.00000E+00
         0.00000E+00
         0.00000E+00
         0.00000E+00
         0.00000E+00
         0.00000E+00
         0.00000E+00
         0.00000E+00
         0.00000E+00
         0.00000E+00
         0.00000E+00
         0.00000E+00
         0.00000E+00
         0.00000E+00
         0.00000E+00
         0.00000E+00
         0.00000E+00
         0.00000E+00
         0.00000E+00
         0.00000E+00
         0.00000E+00
         0.00000E+00
         0.00000E+00
         0.00000E+00
         0.00000E+00
         0.00000E+00
         0.00000E+00
         0.00000E+00
         0.00000E+00
         0.00000E+00
         0.00000E+00
         0.00000E+00
         0.00000E+00
         0.00000E+00
         0.00000E+00
         0.00000E+00
         0.00000E+00
         0.00000E+00
         0.00000E+00
         0.00000E+00
         0.00000E+00
         0.00000E+00
         0.00000E+00
         0.00000E+00
         0.00000E+00
         0.00000E+00
         0.00000E+00
         0.00000E+00
         0.00000E+00
         0.00000E+00
         0.00000E+00
         0.00000E+00
         0.00000E+00
         0.00000E+00
         0.00000E+00
         0.00000E+00
         0.00000E+00
         0.00000E+00
         0.00000E+00
         0.00000E+00
         0.00000E+00
         0.00000E+00
         0.00000E+00
         0.00000E+00
         0.00000E+00
         0.00000E+00
         0.00000E+00
         0.00000E+00
         0.00000E+00
         0.00000E+00
         0.00000E+00
         0.00000E+00
         0.00000E+00
         0.00000E+00
         0.00000E+00
         0.00000E+00
         0.00000E+00
         0.00000E+00
         0.00000E+00
         0.00000E+00
         0.00000E+00
         0.00000E+00
         0.00000E+00
         0.00000E+00
         0.00000E+00
         0.00000E+00
         0.00000E+00
         0.00000E+00
         0.00000E+00
         0.00000E+00
         0.00000E+00
         0.00000E+00
         0.00000E+00
         0.00000E+00
         0.00000E+00
         0.00000E+00
         0.00000E+00
         0.00000E+00
         0.00000E+00
         0.00000E+00
         0.00000E+00
         0.00000E+00
         0.00000E+00
         0.00000E+00
         0.00000E+00
         0.00000E+00
         0.00000E+00
         0.00000E+00
         0.00000E+00
         0.00000E+00
         0.00000E+00
         0.00000E+00
         0.00000E+00
         0.00000E+00
         0.00000E+00
         0.00000E+00
         0.00000E+00
         0.00000E+00
         0.00000E+00
         0.00000E+00
         0.00000E+00
         0.00000E+00
         0.00000E+00
         0.00000E+00
         0.00000E+00
         0.00000E+00
         0.00000E+00
         0.00000E+00
         0.00000E+00
         0.00000E+00
         0.00000E+00
         0.00000E+00
         0.00000E+00
         0.00000E+00
         0.00000E+00
         0.00000E+00
         0.00000E+00
         0.00000E+00
         0.00000E+00
         0.00000E+00
         0.00000E+00
         0.00000E+00
         0.00000E+00
         0.00000E+00
         0.00000E+00
         0.00000E+00
         0.00000E+00
         0.00000E+00
         0.00000E+00
         0.00000E+00
         0.00000E+00
         0.00000E+00
         0.00000E+00
         0.00000E+00
         0.00000E+00
         0.00000E+00
         0.00000E+00
         0.00000E+00
         0.00000E+00
         0.00000E+00
         0.00000E+00
         0.00000E+00
         0.00000E+00
         0.00000E+00
         0.00000E+00
         0.00000E+00
         0.00000E+00
         0.00000E+00
         0.00000E+00
         0.00000E+00
         0.00000E+00
         0.00000E+00
         0.00000E+00
         0.00000E+00
         0.00000E+00
         0.00000E+00
         0.00000E+00
         0.00000E+00
         0.00000E+00
         0.00000E+00
         0.00000E+00
         0.00000E+00
         0.00000E+00
         0.00000E+00
         0.00000E+00
         0.00000E+00
         0.00000E+00
         0.00000E+00
         0.00000E+00
         0.00000E+00
         0.00000E+00
         0.00000E+00
         0.00000E+00
         0.00000E+00
         0.00000E+00
         0.00000E+00
         0.00000E+00
         0.00000E+00
         0.00000E+00
         0.00000E+00
         0.00000E+00
         0.00000E+00
         0.00000E+00
         0.00000E+00
         0.00000E+00
         0.00000E+00
         0.00000E+00
         0.00000E+00
         0.00000E+00
         0.00000E+00
         0.00000E+00
         0.00000E+00
         0.00000E+00
         0.00000E+00
         0.00000E+00
         0.00000E+00
         0.00000E+00
         0.00000E+00
         0.00000E+00
         0.00000E+00
         0.00000E+00
         0.00000E+00
         0.00000E+00
         0.00000E+00
         0.00000E+00
         0.00000E+00
         0.00000E+00
         0.00000E+00
         0.00000E+00
         0.00000E+00
         0.00000E+00
         0.00000E+00
         0.00000E+00
         0.00000E+00
         0.00000E+00
         0.00000E+00
         0.00000E+00
         0.00000E+00
         0.00000E+00
         0.00000E+00
         0.00000E+00
         0.00000E+00
         0.00000E+00
         0.00000E+00
         0.00000E+00
         0.00000E+00
         0.00000E+00
         0.00000E+00
         0.00000E+00
         0.00000E+00
         0.00000E+00
         0.00000E+00
         0.00000E+00
         0.00000E+00
         0.00000E+00
         0.00000E+00
         0.00000E+00
         0.00000E+00
         0.00000E+00
         0.00000E+00
         0.00000E+00
         0.00000E+00
         0.00000E+00
         0.00000E+00
         0.00000E+00
         0.00000E+00
         0.00000E+00
         0.00000E+00
         0.00000E+00
         0.00000E+00
         0.00000E+00
         0.00000E+00
         0.00000E+00
         0.00000E+00
         0.00000E+00
         0.00000E+00
         0.00000E+00
         0.00000E+00
         0.00000E+00
         0.00000E+00
         0.00000E+00
         0.00000E+00
         0.00000E+00
         0.00000E+00
         0.00000E+00
         0.00000E+00
         0.00000E+00
         0.00000E+00
         0.00000E+00
         0.00000E+00
         0.00000E+00
         0.00000E+00
         0.00000E+00
         0.00000E+00
         0.00000E+00
         0.00000E+00
         0.00000E+00
         0.00000E+00
         0.00000E+00
         0.00000E+00
         0.00000E+00
         0.00000E+00
         0.00000E+00
         0.00000E+00
         0.00000E+00
         0.00000E+00
         0.00000E+00
         0.00000E+00
         0.00000E+00
         0.00000E+00
         0.00000E+00
         0.00000E+00
         0.00000E+00
         0.00000E+00
         0.00000E+00
         0.00000E+00
         0.00000E+00
         0.00000E+00
         0.00000E+00
         0.00000E+00
         0.00000E+00
         0.00000E+00
         0.00000E+00
         0.00000E+00
         0.00000E+00
         0.00000E+00
         0.00000E+00
         0.00000E+00
         0.00000E+00
         0.00000E+00
         0.00000E+00
         0.00000E+00
         0.00000E+00
         0.00000E+00
         0.00000E+00
         0.00000E+00
         0.00000E+00
         0.00000E+00
         0.00000E+00
         0.00000E+00
         0.00000E+00
         0.00000E+00
         0.00000E+00
         0.00000E+00
         0.00000E+00
         0.00000E+00
         0.00000E+00
         0.00000E+00
         0.00000E+00
         0.00000E+00
         0.00000E+00
         0.00000E+00
         0.00000E+00
         0.00000E+00
         0.00000E+00
         0.00000E+00
         0.00000E+00
         0.00000E+00
         0.00000E+00
         0.00000E+00
         0.00000E+00
         0.00000E+00
         0.00000E+00
         0.00000E+00
         0.00000E+00
         0.00000E+00
         0.00000E+00
         0.00000E+00
         0.00000E+00
         0.00000E+00
         0.00000E+00
         0.00000E+00
         0.00000E+00
         0.00000E+00
         0.00000E+00
         0.00000E+00
         0.00000E+00
         0.00000E+00
         0.00000E+00
         0.00000E+00
         0.00000E+00
         0.00000E+00
         0.00000E+00
         0.00000E+00
         0.00000E+00
         0.00000E+00
         0.00000E+00
         0.00000E+00
         0.00000E+00
         0.00000E+00
         0.00000E+00
         0.00000E+00
         0.00000E+00
         0.00000E+00
         0.00000E+00
         0.00000E+00
         0.00000E+00
         0.00000E+00
         0.00000E+00
         0.00000E+00
         0.00000E+00
         0.00000E+00
         0.00000E+00
         0.00000E+00
         0.00000E+00
         0.00000E+00
         0.00000E+00
         0.00000E+00
         0.00000E+00
         0.00000E+00
         0.00000E+00
         0.00000E+00
         0.00000E+00
         0.00000E+00
         0.00000E+00
         0.00000E+00
         0.00000E+00
         0.00000E+00
         0.00000E+00
         0.00000E+00
         0.00000E+00
         0.00000E+00
         0.00000E+00
         0.00000E+00
         0.00000E+00
         0.00000E+00
         0.00000E+00
         0.00000E+00
         0.00000E+00
         0.00000E+00
         0.00000E+00
         0.00000E+00
         0.00000E+00
         0.00000E+00
         0.00000E+00
         0.00000E+00
         0.00000E+00
         0.00000E+00
         0.00000E+00
         0.00000E+00
         0.00000E+00
         0.00000E+00
         0.00000E+00
         0.00000E+00
         0.00000E+00
         0.00000E+00
         0.00000E+00
         0.00000E+00
         0.00000E+00
         0.00000E+00
         0.00000E+00
         0.00000E+00
         0.00000E+00
         0.00000E+00
         0.00000E+00
         0.00000E+00
         0.00000E+00
         0.00000E+00
         0.00000E+00
         0.00000E+00
         0.00000E+00
         0.00000E+00
         0.00000E+00
         0.00000E+00
         0.00000E+00
         0.00000E+00
         0.00000E+00
         0.00000E+00
         0.00000E+00
         0.00000E+00
         0.00000E+00
         0.00000E+00
         0.00000E+00
         0.00000E+00
         0.00000E+00
         0.00000E+00
         0.00000E+00
         0.00000E+00
         0.00000E+00
         0.00000E+00
         0.00000E+00
         0.00000E+00
         0.00000E+00
         0.00000E+00
         0.00000E+00
         0.00000E+00
         0.00000E+00
         0.00000E+00
         0.00000E+00
         0.00000E+00
         0.00000E+00
         0.00000E+00
         0.00000E+00
         0.00000E+00
         0.00000E+00
         0.00000E+00
         0.00000E+00
         0.00000E+00
         0.00000E+00
         0.00000E+00
         0.00000E+00
         0.00000E+00
         0.00000E+00
         0.00000E+00
         0.00000E+00
         0.00000E+00
         0.00000E+00
         0.00000E+00
         0.00000E+00
         0.00000E+00
         0.00000E+00
         0.00000E+00
         0.00000E+00
         0.00000E+00
         0.00000E+00
         0.00000E+00
         0.00000E+00
         0.00000E+00
         0.00000E+00
         0.00000E+00
         0.00000E+00
         0.00000E+00
         0.00000E+00
         0.00000E+00
         0.00000E+00
         0.00000E+00
         0.00000E+00
         0.00000E+00
         0.00000E+00
         0.00000E+00
         0.00000E+00
         0.00000E+00
         0.00000E+00
         0.00000E+00
         0.00000E+00
         0.00000E+00
         0.00000E+00
         0.00000E+00
         0.00000E+00
         0.00000E+00
         0.00000E+00
         0.00000E+00
         0.00000E+00
         0.00000E+00
         0.00000E+00
         0.00000E+00
         0.00000E+00
         0.00000E+00
         0.00000E+00
         0.00000E+00
         0.00000E+00
         0.00000E+00
         0.00000E+00
         0.00000E+00
         0.00000E+00
         0.00000E+00
         0.00000E+00
         0.00000E+00
         0.00000E+00
         0.00000E+00
         0.00000E+00
         0.00000E+00
         0.00000E+00
         0.00000E+00
         0.00000E+00
         0.00000E+00
         0.00000E+00
         0.00000E+00
         0.00000E+00
         0.00000E+00
         0.00000E+00
         0.00000E+00
         0.00000E+00
         0.00000E+00
         0.00000E+00
         0.00000E+00
         0.00000E+00
         0.00000E+00
         0.00000E+00
         0.00000E+00
         0.00000E+00
         0.00000E+00
         0.00000E+00
         0.00000E+00
         0.00000E+00
         0.00000E+00
         0.00000E+00
         0.00000E+00
         0.00000E+00
         0.00000E+00
         0.00000E+00
         0.00000E+00
         0.00000E+00
         0.00000E+00
         0.00000E+00
         0.00000E+00
         0.00000E+00
         0.00000E+00
         0.00000E+00
         0.00000E+00
         0.00000E+00
         0.00000E+00
         0.00000E+00
         0.00000E+00
         0.00000E+00
         0.00000E+00
         0.00000E+00
         0.00000E+00
         0.00000E+00
         0.00000E+00
         0.00000E+00
         0.00000E+00
         0.00000E+00
         0.00000E+00
         0.00000E+00
         0.00000E+00
         0.00000E+00
         0.00000E+00
         0.00000E+00
         0.00000E+00
         0.00000E+00
         0.00000E+00
         0.00000E+00
         0.00000E+00
         0.00000E+00
         0.00000E+00
         0.00000E+00
         0.00000E+00
         0.00000E+00
         0.00000E+00
         0.00000E+00
         0.00000E+00
         0.00000E+00
         0.00000E+00
         0.00000E+00
         0.00000E+00
         0.00000E+00
         0.00000E+00
         0.00000E+00
         0.00000E+00
         0.00000E+00
         0.00000E+00
         0.00000E+00
         0.00000E+00
         0.00000E+00
         0.00000E+00
         0.00000E+00
         0.00000E+00
         0.00000E+00
         0.00000E+00
         0.00000E+00
         0.00000E+00
         0.00000E+00
         0.00000E+00
         0.00000E+00
         0.00000E+00
         0.00000E+00
         0.00000E+00
         0.00000E+00
         0.00000E+00
         0.00000E+00
         0.00000E+00
         0.00000E+00
         0.00000E+00
         0.00000E+00
         0.00000E+00
         0.00000E+00
         0.00000E+00
         0.00000E+00
         0.00000E+00
         0.00000E+00
         0.00000E+00
         0.00000E+00
         0.00000E+00
         0.00000E+00
         0.00000E+00
         0.00000E+00
         0.00000E+00
         0.00000E+00
         0.00000E+00
         0.00000E+00
         0.00000E+00
         0.00000E+00
         0.00000E+00
         0.00000E+00
         0.00000E+00
         0.00000E+00
         0.00000E+00
         0.00000E+00
         0.00000E+00
         0.00000E+00
         0.00000E+00
         0.00000E+00
         0.00000E+00
         0.00000E+00
         0.00000E+00
         0.00000E+00
         0.00000E+00
         0.00000E+00
         0.00000E+00
         0.00000E+00
         0.00000E+00
         0.00000E+00
         0.00000E+00
         0.00000E+00
         0.00000E+00
         0.00000E+00
         0.00000E+00
         0.00000E+00
         0.00000E+00
         0.00000E+00
         0.00000E+00
         0.00000E+00
         0.00000E+00
         0.00000E+00
         0.00000E+00
         0.00000E+00
         0.00000E+00
         0.00000E+00
         0.00000E+00
         0.00000E+00
         0.00000E+00
         0.00000E+00
         0.00000E+00
         0.00000E+00
         0.00000E+00
         0.00000E+00
         0.00000E+00
         0.00000E+00
         0.00000E+00
         0.00000E+00
         0.00000E+00
         0.00000E+00
         0.00000E+00
         0.00000E+00
         0.00000E+00
         0.00000E+00
         0.00000E+00
         0.00000E+00
         0.00000E+00
         0.00000E+00
         0.00000E+00
         0.00000E+00
         0.00000E+00
         0.00000E+00
         0.00000E+00
         0.00000E+00
         0.00000E+00
         0.00000E+00
         0.00000E+00
         0.00000E+00
         0.00000E+00
         0.00000E+00
         0.00000E+00
         0.00000E+00
         0.00000E+00
         0.00000E+00
         0.00000E+00
         0.00000E+00
         0.00000E+00
         0.00000E+00
         0.00000E+00
         0.00000E+00
         0.00000E+00
         0.00000E+00
         0.00000E+00
         0.00000E+00
         0.00000E+00
         0.00000E+00
         0.00000E+00
         0.00000E+00
         0.00000E+00
         0.00000E+00
         0.00000E+00
         0.00000E+00
         0.00000E+00
         0.00000E+00
         0.00000E+00
         0.00000E+00
         0.00000E+00
         0.00000E+00
         0.00000E+00
         0.00000E+00
         0.00000E+00
         0.00000E+00
         0.00000E+00
         0.00000E+00
         0.00000E+00
         0.00000E+00
         0.00000E+00
         0.00000E+00
         0.00000E+00
         0.00000E+00
         0.00000E+00
         0.00000E+00
         0.00000E+00
         0.00000E+00
         0.00000E+00
         0.00000E+00
         0.00000E+00
         0.00000E+00
         0.00000E+00
         0.00000E+00
         0.00000E+00
         0.00000E+00
         0.00000E+00
         0.00000E+00
         0.00000E+00
         0.00000E+00
         0.00000E+00
         0.00000E+00
         0.00000E+00
         0.00000E+00
         0.00000E+00
         0.00000E+00
         0.00000E+00
         0.00000E+00
         0.00000E+00
         0.00000E+00
         0.00000E+00
         0.00000E+00
         0.00000E+00
         0.00000E+00
         0.00000E+00
         0.00000E+00
         0.00000E+00
         0.00000E+00
         0.00000E+00
         0.00000E+00
         0.00000E+00
         0.00000E+00
         0.00000E+00
         0.00000E+00
         0.00000E+00
         0.00000E+00
         0.00000E+00
         0.00000E+00
         0.00000E+00
         0.00000E+00
         0.00000E+00
         0.00000E+00
         0.00000E+00
         0.00000E+00
         0.00000E+00
         0.00000E+00
         0.00000E+00
         0.00000E+00
         0.00000E+00
         0.00000E+00
         0.00000E+00
         0.00000E+00
         0.00000E+00
         0.00000E+00
         0.00000E+00
         0.00000E+00
         0.00000E+00
         0.00000E+00
         0.00000E+00
         0.00000E+00
         0.00000E+00
         0.00000E+00
         0.00000E+00
         0.00000E+00
         0.00000E+00
         0.00000E+00
         0.00000E+00
         0.00000E+00
         0.00000E+00
         0.00000E+00
         0.00000E+00
         0.00000E+00
         0.00000E+00
         0.00000E+00
         0.00000E+00
         0.00000E+00
         0.00000E+00
         0.00000E+00
         0.00000E+00
         0.00000E+00
         0.00000E+00
         0.00000E+00
         0.00000E+00
         0.00000E+00
         0.00000E+00
         0.00000E+00
         0.00000E+00
         0.00000E+00
         0.00000E+00
         0.00000E+00
         0.00000E+00
         0.00000E+00
         0.00000E+00
         0.00000E+00
         0.00000E+00
         0.00000E+00
         0.00000E+00
         0.00000E+00
         0.00000E+00
         0.00000E+00
         0.00000E+00
         0.00000E+00
         0.00000E+00
         0.00000E+00
         0.00000E+00
         0.00000E+00
         0.00000E+00
         0.00000E+00
         0.00000E+00
         0.00000E+00
         0.00000E+00
         0.00000E+00
         0.00000E+00
         0.00000E+00
         0.00000E+00
         0.00000E+00
         0.00000E+00
         0.00000E+00
         0.00000E+00
         0.00000E+00
         0.00000E+00
         0.00000E+00
         0.00000E+00
         0.00000E+00
         0.00000E+00
         0.00000E+00
         0.00000E+00
         0.00000E+00
         0.00000E+00
         0.00000E+00
         0.00000E+00
         0.00000E+00
         0.00000E+00
         0.00000E+00
         0.00000E+00
         0.00000E+00
         0.00000E+00
         0.00000E+00
         0.00000E+00
         0.00000E+00
         0.00000E+00
         0.00000E+00
         0.00000E+00
         0.00000E+00
         0.00000E+00
         0.00000E+00
         0.00000E+00
         0.00000E+00
         0.00000E+00
         0.00000E+00
         0.00000E+00
         0.00000E+00
         0.00000E+00
         0.00000E+00
         0.00000E+00
         0.00000E+00
         0.00000E+00
         0.00000E+00
         0.00000E+00
         0.00000E+00
         0.00000E+00
         0.00000E+00
         0.00000E+00
         0.00000E+00
         0.00000E+00
         0.00000E+00
         0.00000E+00
         0.00000E+00
         0.00000E+00
         0.00000E+00
         0.00000E+00
         0.00000E+00
         0.00000E+00
         0.00000E+00
         0.00000E+00
         0.00000E+00
         0.00000E+00
         0.00000E+00
         0.00000E+00
         0.00000E+00
         0.00000E+00
         0.00000E+00
         0.00000E+00
         0.00000E+00
         0.00000E+00
         0.00000E+00
         0.00000E+00
         0.00000E+00
         0.00000E+00
         0.00000E+00
         0.00000E+00
         0.00000E+00
         0.00000E+00
         0.00000E+00
         0.00000E+00
         0.00000E+00
         0.00000E+00
         0.00000E+00
         0.00000E+00
         0.00000E+00
         0.00000E+00
         0.00000E+00
         0.00000E+00
         0.00000E+00
         0.00000E+00
         0.00000E+00
         0.00000E+00
         0.00000E+00
         0.00000E+00
         0.00000E+00
         0.00000E+00
         0.00000E+00
         0.00000E+00
         0.00000E+00
         0.00000E+00
         0.00000E+00
         0.00000E+00
         0.00000E+00
         0.00000E+00
         0.00000E+00
         0.00000E+00
         0.00000E+00
         0.00000E+00
         0.00000E+00
         0.00000E+00
         0.00000E+00
         0.00000E+00
         0.00000E+00
         0.00000E+00
         0.00000E+00
         0.00000E+00
         0.00000E+00
         0.00000E+00
         0.00000E+00
         0.00000E+00
         0.00000E+00
         0.00000E+00
         0.00000E+00
         0.00000E+00
         0.00000E+00
         0.00000E+00
         0.00000E+00
         0.00000E+00
         0.00000E+00
         0.00000E+00
         0.00000E+00
         0.00000E+00
         0.00000E+00
         0.00000E+00
         0.00000E+00
         0.00000E+00
         0.00000E+00
         0.00000E+00
         0.00000E+00
         0.00000E+00
         0.00000E+00
         0.00000E+00
         0.00000E+00
         0.00000E+00
         0.00000E+00
         0.00000E+00
         0.00000E+00
         0.00000E+00
         0.00000E+00
         0.00000E+00
         0.00000E+00
         0.00000E+00
         0.00000E+00
         0.00000E+00
         0.00000E+00
         0.00000E+00
         0.00000E+00
         0.00000E+00
         0.00000E+00
         0.00000E+00
         0.00000E+00
         0.00000E+00
         0.00000E+00
         0.00000E+00
         0.00000E+00
         0.00000E+00
         0.00000E+00
         0.00000E+00
         0.00000E+00
         0.00000E+00
         0.00000E+00
         0.00000E+00
         0.00000E+00
         0.00000E+00
         0.00000E+00
         0.00000E+00
         0.00000E+00
         0.00000E+00
         0.00000E+00
         0.00000E+00
         0.00000E+00
         0.00000E+00
         0.00000E+00
         0.00000E+00
         0.00000E+00
         0.00000E+00
         0.00000E+00
         0.00000E+00
         0.00000E+00
         0.00000E+00
         0.00000E+00
         0.00000E+00
         0.00000E+00
         0.00000E+00
         0.00000E+00
         0.00000E+00
         0.00000E+00
         0.00000E+00
         0.00000E+00
         0.00000E+00
         0.00000E+00
         0.00000E+00
         0.00000E+00
         0.00000E+00
         0.00000E+00
         0.00000E+00
         0.00000E+00
         0.00000E+00
         0.00000E+00
         0.00000E+00
         0.00000E+00
         0.00000E+00
         0.00000E+00
         0.00000E+00
         0.00000E+00
         0.00000E+00
         0.00000E+00
         0.00000E+00
         0.00000E+00
         0.00000E+00
         0.00000E+00
         0.00000E+00
         0.00000E+00
         0.00000E+00
         0.00000E+00
         0.00000E+00
         0.00000E+00
         0.00000E+00
         0.00000E+00
         0.00000E+00
         0.00000E+00
         0.00000E+00
         0.00000E+00
         0.00000E+00
         0.00000E+00
         0.00000E+00
         0.00000E+00
         0.00000E+00
         0.00000E+00
         0.00000E+00
         0.00000E+00
         0.00000E+00
         0.00000E+00
         0.00000E+00
         0.00000E+00
         0.00000E+00
         0.00000E+00
         0.00000E+00
         0.00000E+00
         0.00000E+00
         0.00000E+00
         0.00000E+00
         0.00000E+00
         0.00000E+00
         0.00000E+00
         0.00000E+00
         0.00000E+00
         0.00000E+00
         0.00000E+00
         0.00000E+00
         0.00000E+00
         0.00000E+00
         0.00000E+00
         0.00000E+00
         0.00000E+00
         0.00000E+00
         0.00000E+00
         0.00000E+00
         0.00000E+00
         0.00000E+00
         0.00000E+00
         0.00000E+00
         0.00000E+00
         0.00000E+00
         0.00000E+00
         0.00000E+00
         0.00000E+00
         0.00000E+00
         0.00000E+00
         0.00000E+00
         0.00000E+00
         0.00000E+00
         0.00000E+00
         0.00000E+00
         0.00000E+00
         0.00000E+00
         0.00000E+00
         0.00000E+00
         0.00000E+00
         0.00000E+00
         0.00000E+00
         0.00000E+00
         0.00000E+00
         0.00000E+00
         0.00000E+00
         0.00000E+00
         0.00000E+00
         0.00000E+00
         0.00000E+00
         0.00000E+00
         0.00000E+00
         0.00000E+00
         0.00000E+00
         0.00000E+00
         0.00000E+00
         0.00000E+00
         0.00000E+00
         0.00000E+00
         0.00000E+00
         0.00000E+00
         0.00000E+00
         0.00000E+00
         0.00000E+00
         0.00000E+00
         0.00000E+00
         0.00000E+00
         0.00000E+00
         0.00000E+00
         0.00000E+00
         0.00000E+00
         0.00000E+00
         0.00000E+00
         0.00000E+00
         0.00000E+00
         0.00000E+00
         0.00000E+00
         0.00000E+00
         0.00000E+00
         0.00000E+00
         0.00000E+00
         0.00000E+00
         0.00000E+00
         0.00000E+00
         0.00000E+00
         0.00000E+00
         0.00000E+00
         0.00000E+00
         0.00000E+00
         0.00000E+00
         0.00000E+00
         0.00000E+00
         0.00000E+00
         0.00000E+00
         0.00000E+00
         0.00000E+00
         0.00000E+00
         0.00000E+00
         0.00000E+00
         0.00000E+00
         0.00000E+00
         0.00000E+00
         0.00000E+00
  
SCALARS                init_velocity_y  double 1
LOOKUP_TABLE default
         0.00000E+00
         0.00000E+00
         0.00000E+00
         0.00000E+00
         0.00000E+00
         0.00000E+00
         0.00000E+00
         0.00000E+00
         0.00000E+00
         0.00000E+00
         0.00000E+00
         0.00000E+00
         0.00000E+00
         0.00000E+00
         0.00000E+00
         0.00000E+00
         0.00000E+00
         0.00000E+00
         0.00000E+00
         0.00000E+00
         0.00000E+00
         0.00000E+00
         0.00000E+00
         0.00000E+00
         0.00000E+00
         0.00000E+00
         0.00000E+00
         0.00000E+00
         0.00000E+00
         0.00000E+00
         0.00000E+00
         0.00000E+00
         0.00000E+00
         0.00000E+00
         0.00000E+00
         0.00000E+00
         0.00000E+00
         0.00000E+00
         0.00000E+00
         0.00000E+00
         0.00000E+00
         0.00000E+00
         0.00000E+00
         0.00000E+00
         0.00000E+00
         0.00000E+00
         0.00000E+00
         0.00000E+00
         0.00000E+00
         0.00000E+00
         0.00000E+00
         0.00000E+00
         0.00000E+00
         0.00000E+00
         0.00000E+00
         0.00000E+00
         0.00000E+00
         0.00000E+00
         0.00000E+00
         0.00000E+00
         0.00000E+00
         0.00000E+00
         0.00000E+00
         0.00000E+00
         0.00000E+00
         0.00000E+00
         0.00000E+00
         0.00000E+00
         0.00000E+00
         0.00000E+00
         0.00000E+00
         0.00000E+00
         0.00000E+00
         0.00000E+00
         0.00000E+00
         0.00000E+00
         0.00000E+00
         0.00000E+00
         0.00000E+00
         0.00000E+00
         0.00000E+00
         0.00000E+00
         0.00000E+00
         0.00000E+00
         0.00000E+00
         0.00000E+00
         0.00000E+00
         0.00000E+00
         0.00000E+00
         0.00000E+00
         0.00000E+00
         0.00000E+00
         0.00000E+00
         0.00000E+00
         0.00000E+00
         0.00000E+00
         0.00000E+00
         0.00000E+00
         0.00000E+00
         0.00000E+00
         0.00000E+00
         0.00000E+00
         0.00000E+00
         0.00000E+00
         0.00000E+00
         0.00000E+00
         0.00000E+00
         0.00000E+00
         0.00000E+00
         0.00000E+00
         0.00000E+00
         0.00000E+00
         0.00000E+00
         0.00000E+00
         0.00000E+00
         0.00000E+00
         0.00000E+00
         0.00000E+00
         0.00000E+00
         0.00000E+00
         0.00000E+00
         0.00000E+00
         0.00000E+00
         0.00000E+00
         0.00000E+00
         0.00000E+00
         0.00000E+00
         0.00000E+00
         0.00000E+00
         0.00000E+00
         0.00000E+00
         0.00000E+00
         0.00000E+00
         0.00000E+00
         0.00000E+00
         0.00000E+00
         0.00000E+00
         0.00000E+00
         0.00000E+00
         0.00000E+00
         0.00000E+00
         0.00000E+00
         0.00000E+00
         0.00000E+00
         0.00000E+00
         0.00000E+00
         0.00000E+00
         0.00000E+00
         0.00000E+00
         0.00000E+00
         0.00000E+00
         0.00000E+00
         0.00000E+00
         0.00000E+00
         0.00000E+00
         0.00000E+00
         0.00000E+00
         0.00000E+00
         0.00000E+00
         0.00000E+00
         0.00000E+00
         0.00000E+00
         0.00000E+00
         0.00000E+00
         0.00000E+00
         0.00000E+00
         0.00000E+00
         0.00000E+00
         0.00000E+00
         0.00000E+00
         0.00000E+00
         0.00000E+00
         0.00000E+00
         0.00000E+00
         0.00000E+00
         0.00000E+00
         0.00000E+00
         0.00000E+00
         0.00000E+00
         0.00000E+00
         0.00000E+00
         0.00000E+00
         0.00000E+00
         0.00000E+00
         0.00000E+00
         0.00000E+00
         0.00000E+00
         0.00000E+00
         0.00000E+00
         0.00000E+00
         0.00000E+00
         0.00000E+00
         0.00000E+00
         0.00000E+00
         0.00000E+00
         0.00000E+00
         0.00000E+00
         0.00000E+00
         0.00000E+00
         0.00000E+00
         0.00000E+00
         0.00000E+00
         0.00000E+00
         0.00000E+00
         0.00000E+00
         0.00000E+00
         0.00000E+00
         0.00000E+00
         0.00000E+00
         0.00000E+00
         0.00000E+00
         0.00000E+00
         0.00000E+00
         0.00000E+00
         0.00000E+00
         0.00000E+00
         0.00000E+00
         0.00000E+00
         0.00000E+00
         0.00000E+00
         0.00000E+00
         0.00000E+00
         0.00000E+00
         0.00000E+00
         0.00000E+00
         0.00000E+00
         0.00000E+00
         0.00000E+00
         0.00000E+00
         0.00000E+00
         0.00000E+00
         0.00000E+00
         0.00000E+00
         0.00000E+00
         0.00000E+00
         0.00000E+00
         0.00000E+00
         0.00000E+00
         0.00000E+00
         0.00000E+00
         0.00000E+00
         0.00000E+00
         0.00000E+00
         0.00000E+00
         0.00000E+00
         0.00000E+00
         0.00000E+00
         0.00000E+00
         0.00000E+00
         0.00000E+00
         0.00000E+00
         0.00000E+00
         0.00000E+00
         0.00000E+00
         0.00000E+00
         0.00000E+00
         0.00000E+00
         0.00000E+00
         0.00000E+00
         0.00000E+00
         0.00000E+00
         0.00000E+00
         0.00000E+00
         0.00000E+00
         0.00000E+00
         0.00000E+00
         0.00000E+00
         0.00000E+00
         0.00000E+00
         0.00000E+00
         0.00000E+00
         0.00000E+00
         0.00000E+00
         0.00000E+00
         0.00000E+00
         0.00000E+00
         0.00000E+00
         0.00000E+00
         0.00000E+00
         0.00000E+00
         0.00000E+00
         0.00000E+00
         0.00000E+00
         0.00000E+00
         0.00000E+00
         0.00000E+00
         0.00000E+00
         0.00000E+00
         0.00000E+00
         0.00000E+00
         0.00000E+00
         0.00000E+00
         0.00000E+00
         0.00000E+00
         0.00000E+00
         0.00000E+00
         0.00000E+00
         0.00000E+00
         0.00000E+00
         0.00000E+00
         0.00000E+00
         0.00000E+00
         0.00000E+00
         0.00000E+00
         0.00000E+00
         0.00000E+00
         0.00000E+00
         0.00000E+00
         0.00000E+00
         0.00000E+00
         0.00000E+00
         0.00000E+00
         0.00000E+00
         0.00000E+00
         0.00000E+00
         0.00000E+00
         0.00000E+00
         0.00000E+00
         0.00000E+00
         0.00000E+00
         0.00000E+00
         0.00000E+00
         0.00000E+00
         0.00000E+00
         0.00000E+00
         0.00000E+00
         0.00000E+00
         0.00000E+00
         0.00000E+00
         0.00000E+00
         0.00000E+00
         0.00000E+00
         0.00000E+00
         0.00000E+00
         0.00000E+00
         0.00000E+00
         0.00000E+00
         0.00000E+00
         0.00000E+00
         0.00000E+00
         0.00000E+00
         0.00000E+00
         0.00000E+00
         0.00000E+00
         0.00000E+00
         0.00000E+00
         0.00000E+00
         0.00000E+00
         0.00000E+00
         0.00000E+00
         0.00000E+00
         0.00000E+00
         0.00000E+00
         0.00000E+00
         0.00000E+00
         0.00000E+00
         0.00000E+00
         0.00000E+00
         0.00000E+00
         0.00000E+00
         0.00000E+00
         0.00000E+00
         0.00000E+00
         0.00000E+00
         0.00000E+00
         0.00000E+00
         0.00000E+00
         0.00000E+00
         0.00000E+00
         0.00000E+00
         0.00000E+00
         0.00000E+00
         0.00000E+00
         0.00000E+00
         0.00000E+00
         0.00000E+00
         0.00000E+00
         0.00000E+00
         0.00000E+00
         0.00000E+00
         0.00000E+00
         0.00000E+00
         0.00000E+00
         0.00000E+00
         0.00000E+00
         0.00000E+00
         0.00000E+00
         0.00000E+00
         0.00000E+00
         0.00000E+00
         0.00000E+00
         0.00000E+00
         0.00000E+00
         0.00000E+00
         0.00000E+00
         0.00000E+00
         0.00000E+00
         0.00000E+00
         0.00000E+00
         0.00000E+00
         0.00000E+00
         0.00000E+00
         0.00000E+00
         0.00000E+00
         0.00000E+00
         0.00000E+00
         0.00000E+00
         0.00000E+00
         0.00000E+00
         0.00000E+00
         0.00000E+00
         0.00000E+00
         0.00000E+00
         0.00000E+00
         0.00000E+00
         0.00000E+00
         0.00000E+00
         0.00000E+00
         0.00000E+00
         0.00000E+00
         0.00000E+00
         0.00000E+00
         0.00000E+00
         0.00000E+00
         0.00000E+00
         0.00000E+00
         0.00000E+00
         0.00000E+00
         0.00000E+00
         0.00000E+00
         0.00000E+00
         0.00000E+00
         0.00000E+00
         0.00000E+00
         0.00000E+00
         0.00000E+00
         0.00000E+00
         0.00000E+00
         0.00000E+00
         0.00000E+00
         0.00000E+00
         0.00000E+00
         0.00000E+00
         0.00000E+00
         0.00000E+00
         0.00000E+00
         0.00000E+00
         0.00000E+00
         0.00000E+00
         0.00000E+00
         0.00000E+00
         0.00000E+00
         0.00000E+00
         0.00000E+00
         0.00000E+00
         0.00000E+00
         0.00000E+00
         0.00000E+00
         0.00000E+00
         0.00000E+00
         0.00000E+00
         0.00000E+00
         0.00000E+00
         0.00000E+00
         0.00000E+00
         0.00000E+00
         0.00000E+00
         0.00000E+00
         0.00000E+00
         0.00000E+00
         0.00000E+00
         0.00000E+00
         0.00000E+00
         0.00000E+00
         0.00000E+00
         0.00000E+00
         0.00000E+00
         0.00000E+00
         0.00000E+00
         0.00000E+00
         0.00000E+00
         0.00000E+00
         0.00000E+00
         0.00000E+00
         0.00000E+00
         0.00000E+00
         0.00000E+00
         0.00000E+00
         0.00000E+00
         0.00000E+00
         0.00000E+00
         0.00000E+00
         0.00000E+00
         0.00000E+00
         0.00000E+00
         0.00000E+00
         0.00000E+00
         0.00000E+00
         0.00000E+00
         0.00000E+00
         0.00000E+00
         0.00000E+00
         0.00000E+00
         0.00000E+00
         0.00000E+00
         0.00000E+00
         0.00000E+00
         0.00000E+00
         0.00000E+00
         0.00000E+00
         0.00000E+00
         0.00000E+00
         0.00000E+00
         0.00000E+00
         0.00000E+00
         0.00000E+00
         0.00000E+00
         0.00000E+00
         0.00000E+00
         0.00000E+00
         0.00000E+00
         0.00000E+00
         0.00000E+00
         0.00000E+00
         0.00000E+00
         0.00000E+00
         0.00000E+00
         0.00000E+00
         0.00000E+00
         0.00000E+00
         0.00000E+00
         0.00000E+00
         0.00000E+00
         0.00000E+00
         0.00000E+00
         0.00000E+00
         0.00000E+00
         0.00000E+00
         0.00000E+00
         0.00000E+00
         0.00000E+00
         0.00000E+00
         0.00000E+00
         0.00000E+00
         0.00000E+00
         0.00000E+00
         0.00000E+00
         0.00000E+00
         0.00000E+00
         0.00000E+00
         0.00000E+00
         0.00000E+00
         0.00000E+00
         0.00000E+00
         0.00000E+00
         0.00000E+00
         0.00000E+00
         0.00000E+00
         0.00000E+00
         0.00000E+00
         0.00000E+00
         0.00000E+00
         0.00000E+00
         0.00000E+00
         0.00000E+00
         0.00000E+00
         0.00000E+00
         0.00000E+00
         0.00000E+00
         0.00000E+00
         0.00000E+00
         0.00000E+00
         0.00000E+00
         0.00000E+00
         0.00000E+00
         0.00000E+00
         0.00000E+00
         0.00000E+00
         0.00000E+00
         0.00000E+00
         0.00000E+00
         0.00000E+00
         0.00000E+00
         0.00000E+00
         0.00000E+00
         0.00000E+00
         0.00000E+00
         0.00000E+00
         0.00000E+00
         0.00000E+00
         0.00000E+00
         0.00000E+00
         0.00000E+00
         0.00000E+00
         0.00000E+00
         0.00000E+00
         0.00000E+00
         0.00000E+00
         0.00000E+00
         0.00000E+00
         0.00000E+00
         0.00000E+00
         0.00000E+00
         0.00000E+00
         0.00000E+00
         0.00000E+00
         0.00000E+00
         0.00000E+00
         0.00000E+00
         0.00000E+00
         0.00000E+00
         0.00000E+00
         0.00000E+00
         0.00000E+00
         0.00000E+00
         0.00000E+00
         0.00000E+00
         0.00000E+00
         0.00000E+00
         0.00000E+00
         0.00000E+00
         0.00000E+00
         0.00000E+00
         0.00000E+00
         0.00000E+00
         0.00000E+00
         0.00000E+00
         0.00000E+00
         0.00000E+00
         0.00000E+00
         0.00000E+00
         0.00000E+00
         0.00000E+00
         0.00000E+00
         0.00000E+00
         0.00000E+00
         0.00000E+00
         0.00000E+00
         0.00000E+00
         0.00000E+00
         0.00000E+00
         0.00000E+00
         0.00000E+00
         0.00000E+00
         0.00000E+00
         0.00000E+00
         0.00000E+00
         0.00000E+00
         0.00000E+00
         0.00000E+00
         0.00000E+00
         0.00000E+00
         0.00000E+00
         0.00000E+00
         0.00000E+00
         0.00000E+00
         0.00000E+00
         0.00000E+00
         0.00000E+00
         0.00000E+00
         0.00000E+00
         0.00000E+00
         0.00000E+00
         0.00000E+00
         0.00000E+00
         0.00000E+00
         0.00000E+00
         0.00000E+00
         0.00000E+00
         0.00000E+00
         0.00000E+00
         0.00000E+00
         0.00000E+00
         0.00000E+00
         0.00000E+00
         0.00000E+00
         0.00000E+00
         0.00000E+00
         0.00000E+00
         0.00000E+00
         0.00000E+00
         0.00000E+00
         0.00000E+00
         0.00000E+00
         0.00000E+00
         0.00000E+00
         0.00000E+00
         0.00000E+00
         0.00000E+00
         0.00000E+00
         0.00000E+00
         0.00000E+00
         0.00000E+00
         0.00000E+00
         0.00000E+00
         0.00000E+00
         0.00000E+00
         0.00000E+00
         0.00000E+00
         0.00000E+00
         0.00000E+00
         0.00000E+00
         0.00000E+00
         0.00000E+00
         0.00000E+00
         0.00000E+00
         0.00000E+00
         0.00000E+00
         0.00000E+00
         0.00000E+00
         0.00000E+00
         0.00000E+00
         0.00000E+00
         0.00000E+00
         0.00000E+00
         0.00000E+00
         0.00000E+00
         0.00000E+00
         0.00000E+00
         0.00000E+00
         0.00000E+00
         0.00000E+00
         0.00000E+00
         0.00000E+00
         0.00000E+00
         0.00000E+00
         0.00000E+00
         0.00000E+00
         0.00000E+00
         0.00000E+00
         0.00000E+00
         0.00000E+00
         0.00000E+00
         0.00000E+00
         0.00000E+00
         0.00000E+00
         0.00000E+00
         0.00000E+00
         0.00000E+00
         0.00000E+00
         0.00000E+00
         0.00000E+00
         0.00000E+00
         0.00000E+00
         0.00000E+00
         0.00000E+00
         0.00000E+00
         0.00000E+00
         0.00000E+00
         0.00000E+00
         0.00000E+00
         0.00000E+00
         0.00000E+00
         0.00000E+00
         0.00000E+00
         0.00000E+00
         0.00000E+00
         0.00000E+00
         0.00000E+00
         0.00000E+00
         0.00000E+00
         0.00000E+00
         0.00000E+00
         0.00000E+00
         0.00000E+00
         0.00000E+00
         0.00000E+00
         0.00000E+00
         0.00000E+00
         0.00000E+00
         0.00000E+00
         0.00000E+00
         0.00000E+00
         0.00000E+00
         0.00000E+00
         0.00000E+00
         0.00000E+00
         0.00000E+00
         0.00000E+00
         0.00000E+00
         0.00000E+00
         0.00000E+00
         0.00000E+00
         0.00000E+00
         0.00000E+00
         0.00000E+00
         0.00000E+00
         0.00000E+00
         0.00000E+00
         0.00000E+00
         0.00000E+00
         0.00000E+00
         0.00000E+00
         0.00000E+00
         0.00000E+00
         0.00000E+00
         0.00000E+00
         0.00000E+00
         0.00000E+00
         0.00000E+00
         0.00000E+00
         0.00000E+00
         0.00000E+00
         0.00000E+00
         0.00000E+00
         0.00000E+00
         0.00000E+00
         0.00000E+00
         0.00000E+00
         0.00000E+00
         0.00000E+00
         0.00000E+00
         0.00000E+00
         0.00000E+00
         0.00000E+00
         0.00000E+00
         0.00000E+00
         0.00000E+00
         0.00000E+00
         0.00000E+00
         0.00000E+00
         0.00000E+00
         0.00000E+00
         0.00000E+00
         0.00000E+00
         0.00000E+00
         0.00000E+00
         0.00000E+00
         0.00000E+00
         0.00000E+00
         0.00000E+00
         0.00000E+00
         0.00000E+00
         0.00000E+00
         0.00000E+00
         0.00000E+00
         0.00000E+00
         0.00000E+00
         0.00000E+00
         0.00000E+00
         0.00000E+00
         0.00000E+00
         0.00000E+00
         0.00000E+00
         0.00000E+00
         0.00000E+00
         0.00000E+00
         0.00000E+00
         0.00000E+00
         0.00000E+00
         0.00000E+00
         0.00000E+00
         0.00000E+00
         0.00000E+00
         0.00000E+00
         0.00000E+00
         0.00000E+00
         0.00000E+00
         0.00000E+00
         0.00000E+00
         0.00000E+00
         0.00000E+00
         0.00000E+00
         0.00000E+00
         0.00000E+00
         0.00000E+00
         0.00000E+00
         0.00000E+00
         0.00000E+00
         0.00000E+00
         0.00000E+00
         0.00000E+00
         0.00000E+00
         0.00000E+00
         0.00000E+00
         0.00000E+00
         0.00000E+00
         0.00000E+00
         0.00000E+00
         0.00000E+00
         0.00000E+00
         0.00000E+00
         0.00000E+00
         0.00000E+00
         0.00000E+00
         0.00000E+00
         0.00000E+00
         0.00000E+00
         0.00000E+00
         0.00000E+00
         0.00000E+00
         0.00000E+00
         0.00000E+00
         0.00000E+00
         0.00000E+00
         0.00000E+00
         0.00000E+00
         0.00000E+00
         0.00000E+00
         0.00000E+00
         0.00000E+00
         0.00000E+00
         0.00000E+00
         0.00000E+00
         0.00000E+00
         0.00000E+00
         0.00000E+00
         0.00000E+00
         0.00000E+00
         0.00000E+00
         0.00000E+00
         0.00000E+00
         0.00000E+00
         0.00000E+00
         0.00000E+00
         0.00000E+00
         0.00000E+00
         0.00000E+00
         0.00000E+00
         0.00000E+00
         0.00000E+00
         0.00000E+00
         0.00000E+00
         0.00000E+00
         0.00000E+00
         0.00000E+00
         0.00000E+00
         0.00000E+00
         0.00000E+00
         0.00000E+00
         0.00000E+00
         0.00000E+00
         0.00000E+00
         0.00000E+00
         0.00000E+00
         0.00000E+00
         0.00000E+00
         0.00000E+00
         0.00000E+00
         0.00000E+00
         0.00000E+00
         0.00000E+00
         0.00000E+00
         0.00000E+00
         0.00000E+00
         0.00000E+00
         0.00000E+00
         0.00000E+00
         0.00000E+00
         0.00000E+00
         0.00000E+00
         0.00000E+00
         0.00000E+00
         0.00000E+00
         0.00000E+00
         0.00000E+00
         0.00000E+00
         0.00000E+00
         0.00000E+00
         0.00000E+00
         0.00000E+00
         0.00000E+00
         0.00000E+00
         0.00000E+00
         0.00000E+00
         0.00000E+00
         0.00000E+00
         0.00000E+00
         0.00000E+00
         0.00000E+00
         0.00000E+00
         0.00000E+00
         0.00000E+00
         0.00000E+00
         0.00000E+00
         0.00000E+00
         0.00000E+00
         0.00000E+00
         0.00000E+00
         0.00000E+00
         0.00000E+00
         0.00000E+00
         0.00000E+00
         0.00000E+00
         0.00000E+00
         0.00000E+00
         0.00000E+00
         0.00000E+00
         0.00000E+00
         0.00000E+00
         0.00000E+00
         0.00000E+00
         0.00000E+00
         0.00000E+00
         0.00000E+00
         0.00000E+00
         0.00000E+00
         0.00000E+00
         0.00000E+00
         0.00000E+00
         0.00000E+00
         0.00000E+00
         0.00000E+00
         0.00000E+00
         0.00000E+00
         0.00000E+00
         0.00000E+00
         0.00000E+00
         0.00000E+00
         0.00000E+00
         0.00000E+00
         0.00000E+00
         0.00000E+00
         0.00000E+00
         0.00000E+00
         0.00000E+00
         0.00000E+00
         0.00000E+00
         0.00000E+00
         0.00000E+00
         0.00000E+00
         0.00000E+00
         0.00000E+00
         0.00000E+00
         0.00000E+00
         0.00000E+00
         0.00000E+00
         0.00000E+00
         0.00000E+00
         0.00000E+00
         0.00000E+00
         0.00000E+00
         0.00000E+00
         0.00000E+00
         0.00000E+00
         0.00000E+00
         0.00000E+00
         0.00000E+00
         0.00000E+00
         0.00000E+00
         0.00000E+00
         0.00000E+00
         0.00000E+00
         0.00000E+00
         0.00000E+00
         0.00000E+00
         0.00000E+00
         0.00000E+00
         0.00000E+00
         0.00000E+00
         0.00000E+00
         0.00000E+00
         0.00000E+00
         0.00000E+00
         0.00000E+00
         0.00000E+00
         0.00000E+00
         0.00000E+00
         0.00000E+00
         0.00000E+00
         0.00000E+00
         0.00000E+00
         0.00000E+00
         0.00000E+00
         0.00000E+00
         0.00000E+00
         0.00000E+00
         0.00000E+00
         0.00000E+00
         0.00000E+00
         0.00000E+00
         0.00000E+00
         0.00000E+00
         0.00000E+00
         0.00000E+00
         0.00000E+00
         0.00000E+00
         0.00000E+00
         0.00000E+00
         0.00000E+00
         0.00000E+00
         0.00000E+00
         0.00000E+00
         0.00000E+00
         0.00000E+00
         0.00000E+00
         0.00000E+00
         0.00000E+00
         0.00000E+00
         0.00000E+00
         0.00000E+00
         0.00000E+00
         0.00000E+00
         0.00000E+00
         0.00000E+00
         0.00000E+00
         0.00000E+00
         0.00000E+00
         0.00000E+00
         0.00000E+00
         0.00000E+00
         0.00000E+00
         0.00000E+00
         0.00000E+00
         0.00000E+00
         0.00000E+00
         0.00000E+00
         0.00000E+00
         0.00000E+00
         0.00000E+00
         0.00000E+00
         0.00000E+00
         0.00000E+00
         0.00000E+00
         0.00000E+00
         0.00000E+00
         0.00000E+00
         0.00000E+00
         0.00000E+00
         0.00000E+00
         0.00000E+00
         0.00000E+00
         0.00000E+00
         0.00000E+00
         0.00000E+00
         0.00000E+00
         0.00000E+00
         0.00000E+00
         0.00000E+00
         0.00000E+00
         0.00000E+00
         0.00000E+00
         0.00000E+00
         0.00000E+00
         0.00000E+00
         0.00000E+00
         0.00000E+00
         0.00000E+00
         0.00000E+00
         0.00000E+00
         0.00000E+00
         0.00000E+00
         0.00000E+00
         0.00000E+00
         0.00000E+00
         0.00000E+00
         0.00000E+00
         0.00000E+00
         0.00000E+00
         0.00000E+00
         0.00000E+00
         0.00000E+00
         0.00000E+00
         0.00000E+00
         0.00000E+00
         0.00000E+00
         0.00000E+00
         0.00000E+00
         0.00000E+00
         0.00000E+00
         0.00000E+00
         0.00000E+00
         0.00000E+00
         0.00000E+00
         0.00000E+00
         0.00000E+00
         0.00000E+00
         0.00000E+00
         0.00000E+00
         0.00000E+00
         0.00000E+00
         0.00000E+00
         0.00000E+00
         0.00000E+00
         0.00000E+00
         0.00000E+00
         0.00000E+00
         0.00000E+00
         0.00000E+00
         0.00000E+00
         0.00000E+00
         0.00000E+00
         0.00000E+00
         0.00000E+00
         0.00000E+00
         0.00000E+00
         0.00000E+00
         0.00000E+00
         0.00000E+00
         0.00000E+00
         0.00000E+00
         0.00000E+00
         0.00000E+00
         0.00000E+00
         0.00000E+00
         0.00000E+00
         0.00000E+00
         0.00000E+00
         0.00000E+00
         0.00000E+00
         0.00000E+00
         0.00000E+00
         0.00000E+00
         0.00000E+00
         0.00000E+00
         0.00000E+00
         0.00000E+00
         0.00000E+00
         0.00000E+00
         0.00000E+00
         0.00000E+00
         0.00000E+00
         0.00000E+00
         0.00000E+00
         0.00000E+00
         0.00000E+00
         0.00000E+00
         0.00000E+00
         0.00000E+00
         0.00000E+00
         0.00000E+00
         0.00000E+00
         0.00000E+00
         0.00000E+00
         0.00000E+00
         0.00000E+00
         0.00000E+00
         0.00000E+00
         0.00000E+00
         0.00000E+00
         0.00000E+00
         0.00000E+00
         0.00000E+00
         0.00000E+00
         0.00000E+00
         0.00000E+00
         0.00000E+00
         0.00000E+00
         0.00000E+00
         0.00000E+00
         0.00000E+00
         0.00000E+00
         0.00000E+00
         0.00000E+00
         0.00000E+00
         0.00000E+00
         0.00000E+00
         0.00000E+00
         0.00000E+00
         0.00000E+00
         0.00000E+00
         0.00000E+00
         0.00000E+00
         0.00000E+00
         0.00000E+00
         0.00000E+00
         0.00000E+00
         0.00000E+00
         0.00000E+00
         0.00000E+00
         0.00000E+00
         0.00000E+00
         0.00000E+00
         0.00000E+00
         0.00000E+00
         0.00000E+00
         0.00000E+00
         0.00000E+00
         0.00000E+00
         0.00000E+00
         0.00000E+00
         0.00000E+00
         0.00000E+00
         0.00000E+00
         0.00000E+00
         0.00000E+00
         0.00000E+00
         0.00000E+00
         0.00000E+00
         0.00000E+00
         0.00000E+00
         0.00000E+00
         0.00000E+00
         0.00000E+00
         0.00000E+00
         0.00000E+00
         0.00000E+00
         0.00000E+00
         0.00000E+00
         0.00000E+00
         0.00000E+00
         0.00000E+00
         0.00000E+00
         0.00000E+00
         0.00000E+00
         0.00000E+00
         0.00000E+00
         0.00000E+00
         0.00000E+00
         0.00000E+00
         0.00000E+00
         0.00000E+00
         0.00000E+00
         0.00000E+00
         0.00000E+00
         0.00000E+00
         0.00000E+00
         0.00000E+00
         0.00000E+00
         0.00000E+00
         0.00000E+00
         0.00000E+00
         0.00000E+00
         0.00000E+00
         0.00000E+00
         0.00000E+00
         0.00000E+00
         0.00000E+00
         0.00000E+00
         0.00000E+00
         0.00000E+00
         0.00000E+00
         0.00000E+00
         0.00000E+00
         0.00000E+00
         0.00000E+00
         0.00000E+00
         0.00000E+00
         0.00000E+00
         0.00000E+00
         0.00000E+00
         0.00000E+00
         0.00000E+00
         0.00000E+00
         0.00000E+00
         0.00000E+00
         0.00000E+00
         0.00000E+00
         0.00000E+00
         0.00000E+00
         0.00000E+00
         0.00000E+00
         0.00000E+00
         0.00000E+00
         0.00000E+00
         0.00000E+00
         0.00000E+00
         0.00000E+00
         0.00000E+00
         0.00000E+00
         0.00000E+00
         0.00000E+00
         0.00000E+00
         0.00000E+00
         0.00000E+00
         0.00000E+00
         0.00000E+00
         0.00000E+00
         0.00000E+00
         0.00000E+00
         0.00000E+00
         0.00000E+00
         0.00000E+00
         0.00000E+00
         0.00000E+00
         0.00000E+00
         0.00000E+00
         0.00000E+00
         0.00000E+00
         0.00000E+00
         0.00000E+00
         0.00000E+00
         0.00000E+00
         0.00000E+00
         0.00000E+00
         0.00000E+00
         0.00000E+00
         0.00000E+00
         0.00000E+00
         0.00000E+00
         0.00000E+00
         0.00000E+00
         0.00000E+00
         0.00000E+00
         0.00000E+00
         0.00000E+00
         0.00000E+00
         0.00000E+00
         0.00000E+00
         0.00000E+00
         0.00000E+00
         0.00000E+00
         0.00000E+00
         0.00000E+00
         0.00000E+00
         0.00000E+00
         0.00000E+00
         0.00000E+00
         0.00000E+00
         0.00000E+00
         0.00000E+00
         0.00000E+00
         0.00000E+00
         0.00000E+00
         0.00000E+00
         0.00000E+00
         0.00000E+00
         0.00000E+00
         0.00000E+00
         0.00000E+00
         0.00000E+00
         0.00000E+00
         0.00000E+00
         0.00000E+00
         0.00000E+00
         0.00000E+00
         0.00000E+00
         0.00000E+00
         0.00000E+00
         0.00000E+00
         0.00000E+00
         0.00000E+00
         0.00000E+00
         0.00000E+00
         0.00000E+00
         0.00000E+00
         0.00000E+00
         0.00000E+00
         0.00000E+00
         0.00000E+00
         0.00000E+00
         0.00000E+00
         0.00000E+00
         0.00000E+00
         0.00000E+00
         0.00000E+00
         0.00000E+00
         0.00000E+00
         0.00000E+00
         0.00000E+00
         0.00000E+00
         0.00000E+00
         0.00000E+00
         0.00000E+00
         0.00000E+00
         0.00000E+00
         0.00000E+00
         0.00000E+00
         0.00000E+00
         0.00000E+00
         0.00000E+00
         0.00000E+00
         0.00000E+00
         0.00000E+00
         0.00000E+00
         0.00000E+00
         0.00000E+00
         0.00000E+00
         0.00000E+00
         0.00000E+00
         0.00000E+00
         0.00000E+00
         0.00000E+00
         0.00000E+00
         0.00000E+00
         0.00000E+00
         0.00000E+00
         0.00000E+00
         0.00000E+00
         0.00000E+00
         0.00000E+00
         0.00000E+00
         0.00000E+00
         0.00000E+00
         0.00000E+00
         0.00000E+00
         0.00000E+00
         0.00000E+00
         0.00000E+00
         0.00000E+00
         0.00000E+00
         0.00000E+00
         0.00000E+00
         0.00000E+00
         0.00000E+00
         0.00000E+00
         0.00000E+00
         0.00000E+00
         0.00000E+00
         0.00000E+00
         0.00000E+00
         0.00000E+00
         0.00000E+00
         0.00000E+00
         0.00000E+00
         0.00000E+00
         0.00000E+00
         0.00000E+00
         0.00000E+00
         0.00000E+00
         0.00000E+00
         0.00000E+00
         0.00000E+00
         0.00000E+00
         0.00000E+00
         0.00000E+00
         0.00000E+00
         0.00000E+00
         0.00000E+00
         0.00000E+00
         0.00000E+00
         0.00000E+00
         0.00000E+00
         0.00000E+00
         0.00000E+00
         0.00000E+00
         0.00000E+00
         0.00000E+00
         0.00000E+00
         0.00000E+00
         0.00000E+00
         0.00000E+00
         0.00000E+00
         0.00000E+00
         0.00000E+00
         0.00000E+00
         0.00000E+00
         0.00000E+00
         0.00000E+00
         0.00000E+00
         0.00000E+00
         0.00000E+00
         0.00000E+00
         0.00000E+00
         0.00000E+00
         0.00000E+00
         0.00000E+00
         0.00000E+00
         0.00000E+00
         0.00000E+00
         0.00000E+00
         0.00000E+00
         0.00000E+00
         0.00000E+00
         0.00000E+00
         0.00000E+00
         0.00000E+00
         0.00000E+00
         0.00000E+00
         0.00000E+00
         0.00000E+00
         0.00000E+00
         0.00000E+00
         0.00000E+00
         0.00000E+00
         0.00000E+00
         0.00000E+00
         0.00000E+00
         0.00000E+00
         0.00000E+00
         0.00000E+00
         0.00000E+00
         0.00000E+00
         0.00000E+00
         0.00000E+00
         0.00000E+00
         0.00000E+00
         0.00000E+00
         0.00000E+00
         0.00000E+00
         0.00000E+00
         0.00000E+00
         0.00000E+00
         0.00000E+00
         0.00000E+00
         0.00000E+00
         0.00000E+00
         0.00000E+00
         0.00000E+00
         0.00000E+00
         0.00000E+00
         0.00000E+00
         0.00000E+00
         0.00000E+00
         0.00000E+00
         0.00000E+00
         0.00000E+00
         0.00000E+00
         0.00000E+00
         0.00000E+00
         0.00000E+00
         0.00000E+00
         0.00000E+00
         0.00000E+00
         0.00000E+00
         0.00000E+00
         0.00000E+00
         0.00000E+00
         0.00000E+00
         0.00000E+00
         0.00000E+00
         0.00000E+00
         0.00000E+00
         0.00000E+00
         0.00000E+00
         0.00000E+00
         0.00000E+00
         0.00000E+00
         0.00000E+00
         0.00000E+00
         0.00000E+00
         0.00000E+00
         0.00000E+00
         0.00000E+00
         0.00000E+00
         0.00000E+00
         0.00000E+00
         0.00000E+00
         0.00000E+00
         0.00000E+00
         0.00000E+00
         0.00000E+00
         0.00000E+00
         0.00000E+00
         0.00000E+00
         0.00000E+00
         0.00000E+00
         0.00000E+00
         0.00000E+00
         0.00000E+00
         0.00000E+00
         0.00000E+00
         0.00000E+00
         0.00000E+00
         0.00000E+00
         0.00000E+00
         0.00000E+00
         0.00000E+00
         0.00000E+00
         0.00000E+00
         0.00000E+00
         0.00000E+00
         0.00000E+00
         0.00000E+00
         0.00000E+00
         0.00000E+00
         0.00000E+00
         0.00000E+00
         0.00000E+00
         0.00000E+00
         0.00000E+00
         0.00000E+00
         0.00000E+00
         0.00000E+00
         0.00000E+00
         0.00000E+00
         0.00000E+00
         0.00000E+00
         0.00000E+00
         0.00000E+00
         0.00000E+00
         0.00000E+00
         0.00000E+00
         0.00000E+00
         0.00000E+00
         0.00000E+00
         0.00000E+00
         0.00000E+00
         0.00000E+00
         0.00000E+00
         0.00000E+00
         0.00000E+00
         0.00000E+00
         0.00000E+00
         0.00000E+00
         0.00000E+00
         0.00000E+00
         0.00000E+00
         0.00000E+00
         0.00000E+00
         0.00000E+00
         0.00000E+00
         0.00000E+00
         0.00000E+00
         0.00000E+00
         0.00000E+00
         0.00000E+00
         0.00000E+00
         0.00000E+00
         0.00000E+00
         0.00000E+00
         0.00000E+00
         0.00000E+00
         0.00000E+00
         0.00000E+00
         0.00000E+00
         0.00000E+00
         0.00000E+00
         0.00000E+00
         0.00000E+00
         0.00000E+00
         0.00000E+00
         0.00000E+00
         0.00000E+00
         0.00000E+00
         0.00000E+00
         0.00000E+00
         0.00000E+00
         0.00000E+00
         0.00000E+00
         0.00000E+00
         0.00000E+00
         0.00000E+00
         0.00000E+00
         0.00000E+00
         0.00000E+00
         0.00000E+00
         0.00000E+00
         0.00000E+00
         0.00000E+00
         0.00000E+00
         0.00000E+00
         0.00000E+00
         0.00000E+00
         0.00000E+00
         0.00000E+00
         0.00000E+00
         0.00000E+00
         0.00000E+00
         0.00000E+00
         0.00000E+00
         0.00000E+00
         0.00000E+00
         0.00000E+00
         0.00000E+00
         0.00000E+00
         0.00000E+00
         0.00000E+00
         0.00000E+00
         0.00000E+00
         0.00000E+00
         0.00000E+00
         0.00000E+00
         0.00000E+00
         0.00000E+00
         0.00000E+00
         0.00000E+00
         0.00000E+00
         0.00000E+00
         0.00000E+00
         0.00000E+00
         0.00000E+00
         0.00000E+00
         0.00000E+00
         0.00000E+00
         0.00000E+00
         0.00000E+00
         0.00000E+00
         0.00000E+00
         0.00000E+00
         0.00000E+00
         0.00000E+00
         0.00000E+00
         0.00000E+00
         0.00000E+00
         0.00000E+00
         0.00000E+00
         0.00000E+00
         0.00000E+00
         0.00000E+00
         0.00000E+00
         0.00000E+00
         0.00000E+00
         0.00000E+00
         0.00000E+00
         0.00000E+00
         0.00000E+00
         0.00000E+00
         0.00000E+00
         0.00000E+00
         0.00000E+00
         0.00000E+00
         0.00000E+00
         0.00000E+00
         0.00000E+00
         0.00000E+00
         0.00000E+00
         0.00000E+00
         0.00000E+00
         0.00000E+00
         0.00000E+00
         0.00000E+00
         0.00000E+00
         0.00000E+00
         0.00000E+00
         0.00000E+00
         0.00000E+00
         0.00000E+00
         0.00000E+00
         0.00000E+00
         0.00000E+00
         0.00000E+00
         0.00000E+00
         0.00000E+00
         0.00000E+00
         0.00000E+00
         0.00000E+00
         0.00000E+00
         0.00000E+00
         0.00000E+00
         0.00000E+00
         0.00000E+00
         0.00000E+00
         0.00000E+00
         0.00000E+00
         0.00000E+00
         0.00000E+00
         0.00000E+00
         0.00000E+00
         0.00000E+00
         0.00000E+00
         0.00000E+00
         0.00000E+00
         0.00000E+00
         0.00000E+00
         0.00000E+00
         0.00000E+00
         0.00000E+00
         0.00000E+00
         0.00000E+00
         0.00000E+00
         0.00000E+00
         0.00000E+00
         0.00000E+00
         0.00000E+00
         0.00000E+00
         0.00000E+00
         0.00000E+00
         0.00000E+00
         0.00000E+00
         0.00000E+00
         0.00000E+00
         0.00000E+00
         0.00000E+00
         0.00000E+00
         0.00000E+00
         0.00000E+00
         0.00000E+00
         0.00000E+00
         0.00000E+00
         0.00000E+00
         0.00000E+00
         0.00000E+00
         0.00000E+00
         0.00000E+00
         0.00000E+00
         0.00000E+00
         0.00000E+00
         0.00000E+00
         0.00000E+00
         0.00000E+00
         0.00000E+00
         0.00000E+00
         0.00000E+00
         0.00000E+00
         0.00000E+00
         0.00000E+00
         0.00000E+00
         0.00000E+00
         0.00000E+00
         0.00000E+00
         0.00000E+00
         0.00000E+00
         0.00000E+00
         0.00000E+00
         0.00000E+00
         0.00000E+00
         0.00000E+00
         0.00000E+00
         0.00000E+00
         0.00000E+00
         0.00000E+00
         0.00000E+00
         0.00000E+00
         0.00000E+00
         0.00000E+00
         0.00000E+00
         0.00000E+00
         0.00000E+00
         0.00000E+00
         0.00000E+00
         0.00000E+00
         0.00000E+00
         0.00000E+00
         0.00000E+00
         0.00000E+00
         0.00000E+00
         0.00000E+00
         0.00000E+00
         0.00000E+00
         0.00000E+00
         0.00000E+00
         0.00000E+00
         0.00000E+00
         0.00000E+00
         0.00000E+00
         0.00000E+00
         0.00000E+00
         0.00000E+00
         0.00000E+00
         0.00000E+00
         0.00000E+00
         0.00000E+00
         0.00000E+00
         0.00000E+00
         0.00000E+00
         0.00000E+00
         0.00000E+00
         0.00000E+00
         0.00000E+00
         0.00000E+00
         0.00000E+00
         0.00000E+00
         0.00000E+00
         0.00000E+00
         0.00000E+00
         0.00000E+00
         0.00000E+00
         0.00000E+00
         0.00000E+00
         0.00000E+00
         0.00000E+00
         0.00000E+00
         0.00000E+00
         0.00000E+00
         0.00000E+00
         0.00000E+00
         0.00000E+00
         0.00000E+00
         0.00000E+00
         0.00000E+00
         0.00000E+00
         0.00000E+00
         0.00000E+00
         0.00000E+00
         0.00000E+00
         0.00000E+00
         0.00000E+00
         0.00000E+00
         0.00000E+00
  
SCALARS                init_velocity_z  double 1
LOOKUP_TABLE default
        -0.37300E+03
        -0.37300E+03
        -0.37300E+03
        -0.37300E+03
        -0.37300E+03
        -0.37300E+03
        -0.37300E+03
        -0.37300E+03
        -0.37300E+03
        -0.37300E+03
        -0.37300E+03
        -0.37300E+03
        -0.37300E+03
        -0.37300E+03
        -0.37300E+03
        -0.37300E+03
        -0.37300E+03
        -0.37300E+03
        -0.37300E+03
        -0.37300E+03
        -0.37300E+03
        -0.37300E+03
        -0.37300E+03
        -0.37300E+03
        -0.37300E+03
        -0.37300E+03
        -0.37300E+03
        -0.37300E+03
        -0.37300E+03
        -0.37300E+03
        -0.37300E+03
        -0.37300E+03
        -0.37300E+03
        -0.37300E+03
        -0.37300E+03
        -0.37300E+03
        -0.37300E+03
        -0.37300E+03
        -0.37300E+03
        -0.37300E+03
        -0.37300E+03
        -0.37300E+03
        -0.37300E+03
        -0.37300E+03
        -0.37300E+03
        -0.37300E+03
        -0.37300E+03
        -0.37300E+03
        -0.37300E+03
        -0.37300E+03
        -0.37300E+03
        -0.37300E+03
        -0.37300E+03
        -0.37300E+03
        -0.37300E+03
        -0.37300E+03
        -0.37300E+03
        -0.37300E+03
        -0.37300E+03
        -0.37300E+03
        -0.37300E+03
        -0.37300E+03
        -0.37300E+03
        -0.37300E+03
        -0.37300E+03
        -0.37300E+03
        -0.37300E+03
        -0.37300E+03
        -0.37300E+03
        -0.37300E+03
        -0.37300E+03
        -0.37300E+03
        -0.37300E+03
        -0.37300E+03
        -0.37300E+03
        -0.37300E+03
        -0.37300E+03
        -0.37300E+03
        -0.37300E+03
        -0.37300E+03
        -0.37300E+03
        -0.37300E+03
        -0.37300E+03
        -0.37300E+03
        -0.37300E+03
        -0.37300E+03
        -0.37300E+03
        -0.37300E+03
        -0.37300E+03
        -0.37300E+03
        -0.37300E+03
        -0.37300E+03
        -0.37300E+03
        -0.37300E+03
        -0.37300E+03
        -0.37300E+03
        -0.37300E+03
        -0.37300E+03
        -0.37300E+03
        -0.37300E+03
        -0.37300E+03
        -0.37300E+03
        -0.37300E+03
        -0.37300E+03
        -0.37300E+03
        -0.37300E+03
        -0.37300E+03
        -0.37300E+03
        -0.37300E+03
        -0.37300E+03
        -0.37300E+03
        -0.37300E+03
        -0.37300E+03
        -0.37300E+03
        -0.37300E+03
        -0.37300E+03
        -0.37300E+03
        -0.37300E+03
        -0.37300E+03
        -0.37300E+03
        -0.37300E+03
        -0.37300E+03
        -0.37300E+03
        -0.37300E+03
        -0.37300E+03
        -0.37300E+03
        -0.37300E+03
        -0.37300E+03
        -0.37300E+03
        -0.37300E+03
        -0.37300E+03
        -0.37300E+03
        -0.37300E+03
        -0.37300E+03
        -0.37300E+03
        -0.37300E+03
        -0.37300E+03
        -0.37300E+03
        -0.37300E+03
        -0.37300E+03
        -0.37300E+03
        -0.37300E+03
        -0.37300E+03
        -0.37300E+03
        -0.37300E+03
        -0.37300E+03
        -0.37300E+03
        -0.37300E+03
        -0.37300E+03
        -0.37300E+03
        -0.37300E+03
        -0.37300E+03
        -0.37300E+03
        -0.37300E+03
        -0.37300E+03
        -0.37300E+03
        -0.37300E+03
        -0.37300E+03
        -0.37300E+03
        -0.37300E+03
        -0.37300E+03
        -0.37300E+03
        -0.37300E+03
        -0.37300E+03
        -0.37300E+03
        -0.37300E+03
        -0.37300E+03
        -0.37300E+03
        -0.37300E+03
        -0.37300E+03
        -0.37300E+03
        -0.37300E+03
        -0.37300E+03
        -0.37300E+03
        -0.37300E+03
        -0.37300E+03
        -0.37300E+03
        -0.37300E+03
        -0.37300E+03
        -0.37300E+03
        -0.37300E+03
        -0.37300E+03
        -0.37300E+03
        -0.37300E+03
        -0.37300E+03
        -0.37300E+03
        -0.37300E+03
        -0.37300E+03
        -0.37300E+03
        -0.37300E+03
        -0.37300E+03
        -0.37300E+03
        -0.37300E+03
        -0.37300E+03
        -0.37300E+03
        -0.37300E+03
        -0.37300E+03
        -0.37300E+03
        -0.37300E+03
        -0.37300E+03
        -0.37300E+03
        -0.37300E+03
        -0.37300E+03
        -0.37300E+03
        -0.37300E+03
        -0.37300E+03
        -0.37300E+03
        -0.37300E+03
        -0.37300E+03
        -0.37300E+03
        -0.37300E+03
        -0.37300E+03
        -0.37300E+03
        -0.37300E+03
        -0.37300E+03
        -0.37300E+03
        -0.37300E+03
        -0.37300E+03
        -0.37300E+03
        -0.37300E+03
        -0.37300E+03
        -0.37300E+03
        -0.37300E+03
        -0.37300E+03
        -0.37300E+03
        -0.37300E+03
        -0.37300E+03
        -0.37300E+03
        -0.37300E+03
        -0.37300E+03
        -0.37300E+03
        -0.37300E+03
        -0.37300E+03
        -0.37300E+03
        -0.37300E+03
        -0.37300E+03
        -0.37300E+03
        -0.37300E+03
        -0.37300E+03
        -0.37300E+03
        -0.37300E+03
        -0.37300E+03
        -0.37300E+03
        -0.37300E+03
        -0.37300E+03
        -0.37300E+03
        -0.37300E+03
        -0.37300E+03
        -0.37300E+03
        -0.37300E+03
        -0.37300E+03
        -0.37300E+03
        -0.37300E+03
        -0.37300E+03
        -0.37300E+03
        -0.37300E+03
        -0.37300E+03
        -0.37300E+03
        -0.37300E+03
        -0.37300E+03
        -0.37300E+03
        -0.37300E+03
        -0.37300E+03
        -0.37300E+03
        -0.37300E+03
        -0.37300E+03
        -0.37300E+03
        -0.37300E+03
        -0.37300E+03
        -0.37300E+03
        -0.37300E+03
        -0.37300E+03
        -0.37300E+03
        -0.37300E+03
        -0.37300E+03
        -0.37300E+03
        -0.37300E+03
        -0.37300E+03
        -0.37300E+03
        -0.37300E+03
        -0.37300E+03
        -0.37300E+03
        -0.37300E+03
        -0.37300E+03
        -0.37300E+03
        -0.37300E+03
        -0.37300E+03
        -0.37300E+03
        -0.37300E+03
        -0.37300E+03
        -0.37300E+03
        -0.37300E+03
        -0.37300E+03
        -0.37300E+03
        -0.37300E+03
        -0.37300E+03
        -0.37300E+03
        -0.37300E+03
        -0.37300E+03
        -0.37300E+03
        -0.37300E+03
        -0.37300E+03
        -0.37300E+03
        -0.37300E+03
        -0.37300E+03
        -0.37300E+03
        -0.37300E+03
        -0.37300E+03
        -0.37300E+03
        -0.37300E+03
        -0.37300E+03
        -0.37300E+03
        -0.37300E+03
        -0.37300E+03
        -0.37300E+03
        -0.37300E+03
        -0.37300E+03
        -0.37300E+03
        -0.37300E+03
        -0.37300E+03
        -0.37300E+03
        -0.37300E+03
        -0.37300E+03
        -0.37300E+03
        -0.37300E+03
        -0.37300E+03
        -0.37300E+03
        -0.37300E+03
        -0.37300E+03
        -0.37300E+03
        -0.37300E+03
        -0.37300E+03
        -0.37300E+03
        -0.37300E+03
        -0.37300E+03
        -0.37300E+03
        -0.37300E+03
        -0.37300E+03
        -0.37300E+03
        -0.37300E+03
        -0.37300E+03
        -0.37300E+03
        -0.37300E+03
        -0.37300E+03
        -0.37300E+03
        -0.37300E+03
        -0.37300E+03
        -0.37300E+03
        -0.37300E+03
        -0.37300E+03
        -0.37300E+03
        -0.37300E+03
        -0.37300E+03
        -0.37300E+03
        -0.37300E+03
        -0.37300E+03
        -0.37300E+03
        -0.37300E+03
        -0.37300E+03
        -0.37300E+03
        -0.37300E+03
        -0.37300E+03
        -0.37300E+03
        -0.37300E+03
        -0.37300E+03
        -0.37300E+03
        -0.37300E+03
        -0.37300E+03
        -0.37300E+03
        -0.37300E+03
        -0.37300E+03
        -0.37300E+03
        -0.37300E+03
        -0.37300E+03
        -0.37300E+03
        -0.37300E+03
        -0.37300E+03
        -0.37300E+03
        -0.37300E+03
        -0.37300E+03
        -0.37300E+03
        -0.37300E+03
        -0.37300E+03
        -0.37300E+03
        -0.37300E+03
        -0.37300E+03
        -0.37300E+03
        -0.37300E+03
        -0.37300E+03
        -0.37300E+03
        -0.37300E+03
        -0.37300E+03
        -0.37300E+03
        -0.37300E+03
        -0.37300E+03
        -0.37300E+03
        -0.37300E+03
        -0.37300E+03
        -0.37300E+03
        -0.37300E+03
        -0.37300E+03
        -0.37300E+03
        -0.37300E+03
        -0.37300E+03
        -0.37300E+03
        -0.37300E+03
        -0.37300E+03
        -0.37300E+03
        -0.37300E+03
        -0.37300E+03
        -0.37300E+03
        -0.37300E+03
        -0.37300E+03
        -0.37300E+03
        -0.37300E+03
        -0.37300E+03
        -0.37300E+03
        -0.37300E+03
        -0.37300E+03
        -0.37300E+03
        -0.37300E+03
        -0.37300E+03
        -0.37300E+03
        -0.37300E+03
        -0.37300E+03
        -0.37300E+03
        -0.37300E+03
        -0.37300E+03
        -0.37300E+03
        -0.37300E+03
        -0.37300E+03
        -0.37300E+03
        -0.37300E+03
        -0.37300E+03
        -0.37300E+03
        -0.37300E+03
        -0.37300E+03
        -0.37300E+03
        -0.37300E+03
        -0.37300E+03
        -0.37300E+03
        -0.37300E+03
        -0.37300E+03
        -0.37300E+03
        -0.37300E+03
        -0.37300E+03
        -0.37300E+03
        -0.37300E+03
        -0.37300E+03
        -0.37300E+03
        -0.37300E+03
        -0.37300E+03
        -0.37300E+03
        -0.37300E+03
        -0.37300E+03
        -0.37300E+03
        -0.37300E+03
        -0.37300E+03
        -0.37300E+03
        -0.37300E+03
        -0.37300E+03
        -0.37300E+03
        -0.37300E+03
        -0.37300E+03
        -0.37300E+03
        -0.37300E+03
        -0.37300E+03
        -0.37300E+03
        -0.37300E+03
        -0.37300E+03
        -0.37300E+03
        -0.37300E+03
        -0.37300E+03
        -0.37300E+03
        -0.37300E+03
        -0.37300E+03
        -0.37300E+03
        -0.37300E+03
        -0.37300E+03
        -0.37300E+03
        -0.37300E+03
        -0.37300E+03
        -0.37300E+03
        -0.37300E+03
        -0.37300E+03
        -0.37300E+03
        -0.37300E+03
        -0.37300E+03
        -0.37300E+03
        -0.37300E+03
        -0.37300E+03
        -0.37300E+03
        -0.37300E+03
        -0.37300E+03
        -0.37300E+03
        -0.37300E+03
        -0.37300E+03
        -0.37300E+03
        -0.37300E+03
        -0.37300E+03
        -0.37300E+03
        -0.37300E+03
        -0.37300E+03
        -0.37300E+03
        -0.37300E+03
        -0.37300E+03
        -0.37300E+03
        -0.37300E+03
        -0.37300E+03
        -0.37300E+03
        -0.37300E+03
        -0.37300E+03
        -0.37300E+03
        -0.37300E+03
        -0.37300E+03
        -0.37300E+03
        -0.37300E+03
        -0.37300E+03
        -0.37300E+03
        -0.37300E+03
        -0.37300E+03
        -0.37300E+03
        -0.37300E+03
        -0.37300E+03
        -0.37300E+03
        -0.37300E+03
        -0.37300E+03
        -0.37300E+03
        -0.37300E+03
        -0.37300E+03
        -0.37300E+03
        -0.37300E+03
        -0.37300E+03
        -0.37300E+03
        -0.37300E+03
        -0.37300E+03
        -0.37300E+03
        -0.37300E+03
        -0.37300E+03
        -0.37300E+03
        -0.37300E+03
        -0.37300E+03
        -0.37300E+03
        -0.37300E+03
        -0.37300E+03
        -0.37300E+03
        -0.37300E+03
        -0.37300E+03
        -0.37300E+03
        -0.37300E+03
        -0.37300E+03
        -0.37300E+03
        -0.37300E+03
        -0.37300E+03
        -0.37300E+03
        -0.37300E+03
        -0.37300E+03
        -0.37300E+03
        -0.37300E+03
        -0.37300E+03
        -0.37300E+03
        -0.37300E+03
        -0.37300E+03
        -0.37300E+03
        -0.37300E+03
        -0.37300E+03
        -0.37300E+03
        -0.37300E+03
        -0.37300E+03
        -0.37300E+03
        -0.37300E+03
        -0.37300E+03
        -0.37300E+03
        -0.37300E+03
        -0.37300E+03
        -0.37300E+03
        -0.37300E+03
        -0.37300E+03
        -0.37300E+03
        -0.37300E+03
        -0.37300E+03
        -0.37300E+03
        -0.37300E+03
        -0.37300E+03
        -0.37300E+03
        -0.37300E+03
        -0.37300E+03
        -0.37300E+03
        -0.37300E+03
        -0.37300E+03
        -0.37300E+03
        -0.37300E+03
        -0.37300E+03
        -0.37300E+03
        -0.37300E+03
        -0.37300E+03
        -0.37300E+03
        -0.37300E+03
        -0.37300E+03
        -0.37300E+03
        -0.37300E+03
        -0.37300E+03
        -0.37300E+03
        -0.37300E+03
        -0.37300E+03
        -0.37300E+03
        -0.37300E+03
        -0.37300E+03
        -0.37300E+03
        -0.37300E+03
        -0.37300E+03
        -0.37300E+03
        -0.37300E+03
        -0.37300E+03
        -0.37300E+03
        -0.37300E+03
        -0.37300E+03
        -0.37300E+03
        -0.37300E+03
        -0.37300E+03
        -0.37300E+03
        -0.37300E+03
        -0.37300E+03
        -0.37300E+03
        -0.37300E+03
        -0.37300E+03
        -0.37300E+03
        -0.37300E+03
        -0.37300E+03
        -0.37300E+03
        -0.37300E+03
        -0.37300E+03
        -0.37300E+03
        -0.37300E+03
        -0.37300E+03
        -0.37300E+03
        -0.37300E+03
        -0.37300E+03
        -0.37300E+03
        -0.37300E+03
        -0.37300E+03
        -0.37300E+03
        -0.37300E+03
        -0.37300E+03
        -0.37300E+03
        -0.37300E+03
        -0.37300E+03
        -0.37300E+03
        -0.37300E+03
        -0.37300E+03
        -0.37300E+03
        -0.37300E+03
        -0.37300E+03
        -0.37300E+03
        -0.37300E+03
        -0.37300E+03
        -0.37300E+03
        -0.37300E+03
        -0.37300E+03
        -0.37300E+03
        -0.37300E+03
        -0.37300E+03
        -0.37300E+03
        -0.37300E+03
        -0.37300E+03
        -0.37300E+03
        -0.37300E+03
        -0.37300E+03
        -0.37300E+03
        -0.37300E+03
        -0.37300E+03
        -0.37300E+03
        -0.37300E+03
        -0.37300E+03
        -0.37300E+03
        -0.37300E+03
        -0.37300E+03
        -0.37300E+03
        -0.37300E+03
        -0.37300E+03
        -0.37300E+03
        -0.37300E+03
        -0.37300E+03
        -0.37300E+03
        -0.37300E+03
        -0.37300E+03
        -0.37300E+03
        -0.37300E+03
        -0.37300E+03
        -0.37300E+03
        -0.37300E+03
        -0.37300E+03
        -0.37300E+03
        -0.37300E+03
        -0.37300E+03
        -0.37300E+03
        -0.37300E+03
        -0.37300E+03
        -0.37300E+03
        -0.37300E+03
        -0.37300E+03
        -0.37300E+03
        -0.37300E+03
        -0.37300E+03
        -0.37300E+03
        -0.37300E+03
        -0.37300E+03
        -0.37300E+03
        -0.37300E+03
        -0.37300E+03
        -0.37300E+03
        -0.37300E+03
        -0.37300E+03
        -0.37300E+03
        -0.37300E+03
        -0.37300E+03
        -0.37300E+03
        -0.37300E+03
        -0.37300E+03
        -0.37300E+03
        -0.37300E+03
        -0.37300E+03
        -0.37300E+03
        -0.37300E+03
        -0.37300E+03
        -0.37300E+03
        -0.37300E+03
        -0.37300E+03
        -0.37300E+03
        -0.37300E+03
        -0.37300E+03
        -0.37300E+03
        -0.37300E+03
        -0.37300E+03
        -0.37300E+03
        -0.37300E+03
        -0.37300E+03
        -0.37300E+03
        -0.37300E+03
        -0.37300E+03
        -0.37300E+03
        -0.37300E+03
        -0.37300E+03
        -0.37300E+03
        -0.37300E+03
        -0.37300E+03
        -0.37300E+03
        -0.37300E+03
        -0.37300E+03
        -0.37300E+03
        -0.37300E+03
        -0.37300E+03
        -0.37300E+03
        -0.37300E+03
        -0.37300E+03
        -0.37300E+03
        -0.37300E+03
        -0.37300E+03
        -0.37300E+03
        -0.37300E+03
        -0.37300E+03
        -0.37300E+03
        -0.37300E+03
        -0.37300E+03
        -0.37300E+03
        -0.37300E+03
        -0.37300E+03
        -0.37300E+03
        -0.37300E+03
        -0.37300E+03
        -0.37300E+03
        -0.37300E+03
        -0.37300E+03
        -0.37300E+03
        -0.37300E+03
        -0.37300E+03
        -0.37300E+03
        -0.37300E+03
        -0.37300E+03
        -0.37300E+03
        -0.37300E+03
        -0.37300E+03
        -0.37300E+03
        -0.37300E+03
        -0.37300E+03
        -0.37300E+03
        -0.37300E+03
        -0.37300E+03
        -0.37300E+03
        -0.37300E+03
        -0.37300E+03
        -0.37300E+03
        -0.37300E+03
        -0.37300E+03
        -0.37300E+03
        -0.37300E+03
        -0.37300E+03
        -0.37300E+03
        -0.37300E+03
        -0.37300E+03
        -0.37300E+03
        -0.37300E+03
        -0.37300E+03
        -0.37300E+03
        -0.37300E+03
        -0.37300E+03
        -0.37300E+03
        -0.37300E+03
        -0.37300E+03
        -0.37300E+03
        -0.37300E+03
        -0.37300E+03
        -0.37300E+03
        -0.37300E+03
        -0.37300E+03
        -0.37300E+03
        -0.37300E+03
        -0.37300E+03
        -0.37300E+03
        -0.37300E+03
        -0.37300E+03
        -0.37300E+03
        -0.37300E+03
        -0.37300E+03
        -0.37300E+03
        -0.37300E+03
        -0.37300E+03
        -0.37300E+03
        -0.37300E+03
        -0.37300E+03
        -0.37300E+03
        -0.37300E+03
        -0.37300E+03
        -0.37300E+03
        -0.37300E+03
        -0.37300E+03
        -0.37300E+03
        -0.37300E+03
        -0.37300E+03
        -0.37300E+03
        -0.37300E+03
        -0.37300E+03
        -0.37300E+03
        -0.37300E+03
        -0.37300E+03
        -0.37300E+03
        -0.37300E+03
        -0.37300E+03
        -0.37300E+03
        -0.37300E+03
        -0.37300E+03
        -0.37300E+03
        -0.37300E+03
        -0.37300E+03
        -0.37300E+03
        -0.37300E+03
        -0.37300E+03
        -0.37300E+03
        -0.37300E+03
        -0.37300E+03
        -0.37300E+03
        -0.37300E+03
        -0.37300E+03
        -0.37300E+03
        -0.37300E+03
        -0.37300E+03
        -0.37300E+03
        -0.37300E+03
        -0.37300E+03
        -0.37300E+03
        -0.37300E+03
        -0.37300E+03
        -0.37300E+03
        -0.37300E+03
        -0.37300E+03
        -0.37300E+03
        -0.37300E+03
        -0.37300E+03
        -0.37300E+03
        -0.37300E+03
        -0.37300E+03
        -0.37300E+03
        -0.37300E+03
        -0.37300E+03
        -0.37300E+03
        -0.37300E+03
        -0.37300E+03
        -0.37300E+03
        -0.37300E+03
        -0.37300E+03
        -0.37300E+03
        -0.37300E+03
        -0.37300E+03
        -0.37300E+03
        -0.37300E+03
        -0.37300E+03
        -0.37300E+03
        -0.37300E+03
        -0.37300E+03
        -0.37300E+03
        -0.37300E+03
        -0.37300E+03
        -0.37300E+03
        -0.37300E+03
        -0.37300E+03
        -0.37300E+03
        -0.37300E+03
        -0.37300E+03
        -0.37300E+03
        -0.37300E+03
        -0.37300E+03
        -0.37300E+03
        -0.37300E+03
        -0.37300E+03
        -0.37300E+03
        -0.37300E+03
        -0.37300E+03
        -0.37300E+03
        -0.37300E+03
        -0.37300E+03
        -0.37300E+03
        -0.37300E+03
        -0.37300E+03
        -0.37300E+03
        -0.37300E+03
        -0.37300E+03
        -0.37300E+03
        -0.37300E+03
        -0.37300E+03
        -0.37300E+03
        -0.37300E+03
        -0.37300E+03
        -0.37300E+03
        -0.37300E+03
        -0.37300E+03
        -0.37300E+03
        -0.37300E+03
        -0.37300E+03
        -0.37300E+03
        -0.37300E+03
        -0.37300E+03
        -0.37300E+03
        -0.37300E+03
        -0.37300E+03
        -0.37300E+03
        -0.37300E+03
        -0.37300E+03
        -0.37300E+03
        -0.37300E+03
        -0.37300E+03
        -0.37300E+03
        -0.37300E+03
        -0.37300E+03
        -0.37300E+03
        -0.37300E+03
        -0.37300E+03
        -0.37300E+03
        -0.37300E+03
        -0.37300E+03
        -0.37300E+03
        -0.37300E+03
        -0.37300E+03
        -0.37300E+03
        -0.37300E+03
        -0.37300E+03
        -0.37300E+03
        -0.37300E+03
        -0.37300E+03
        -0.37300E+03
        -0.37300E+03
        -0.37300E+03
        -0.37300E+03
        -0.37300E+03
        -0.37300E+03
        -0.37300E+03
        -0.37300E+03
        -0.37300E+03
        -0.37300E+03
        -0.37300E+03
        -0.37300E+03
        -0.37300E+03
        -0.37300E+03
        -0.37300E+03
        -0.37300E+03
        -0.37300E+03
        -0.37300E+03
        -0.37300E+03
        -0.37300E+03
        -0.37300E+03
        -0.37300E+03
        -0.37300E+03
        -0.37300E+03
        -0.37300E+03
        -0.37300E+03
        -0.37300E+03
        -0.37300E+03
        -0.37300E+03
        -0.37300E+03
        -0.37300E+03
        -0.37300E+03
        -0.37300E+03
        -0.37300E+03
        -0.37300E+03
        -0.37300E+03
        -0.37300E+03
        -0.37300E+03
        -0.37300E+03
        -0.37300E+03
        -0.37300E+03
        -0.37300E+03
        -0.37300E+03
        -0.37300E+03
        -0.37300E+03
        -0.37300E+03
        -0.37300E+03
        -0.37300E+03
        -0.37300E+03
        -0.37300E+03
        -0.37300E+03
        -0.37300E+03
        -0.37300E+03
        -0.37300E+03
        -0.37300E+03
        -0.37300E+03
        -0.37300E+03
        -0.37300E+03
        -0.37300E+03
        -0.37300E+03
        -0.37300E+03
        -0.37300E+03
        -0.37300E+03
        -0.37300E+03
        -0.37300E+03
        -0.37300E+03
        -0.37300E+03
        -0.37300E+03
        -0.37300E+03
        -0.37300E+03
        -0.37300E+03
        -0.37300E+03
        -0.37300E+03
        -0.37300E+03
        -0.37300E+03
        -0.37300E+03
        -0.37300E+03
        -0.37300E+03
        -0.37300E+03
        -0.37300E+03
        -0.37300E+03
        -0.37300E+03
        -0.37300E+03
        -0.37300E+03
        -0.37300E+03
        -0.37300E+03
        -0.37300E+03
        -0.37300E+03
        -0.37300E+03
        -0.37300E+03
        -0.37300E+03
        -0.37300E+03
        -0.37300E+03
        -0.37300E+03
        -0.37300E+03
        -0.37300E+03
        -0.37300E+03
        -0.37300E+03
        -0.37300E+03
        -0.37300E+03
        -0.37300E+03
        -0.37300E+03
        -0.37300E+03
        -0.37300E+03
        -0.37300E+03
        -0.37300E+03
        -0.37300E+03
        -0.37300E+03
        -0.37300E+03
        -0.37300E+03
        -0.37300E+03
        -0.37300E+03
        -0.37300E+03
        -0.37300E+03
        -0.37300E+03
        -0.37300E+03
        -0.37300E+03
        -0.37300E+03
        -0.37300E+03
        -0.37300E+03
        -0.37300E+03
        -0.37300E+03
        -0.37300E+03
        -0.37300E+03
        -0.37300E+03
        -0.37300E+03
        -0.37300E+03
        -0.37300E+03
        -0.37300E+03
        -0.37300E+03
        -0.37300E+03
        -0.37300E+03
        -0.37300E+03
        -0.37300E+03
        -0.37300E+03
        -0.37300E+03
        -0.37300E+03
        -0.37300E+03
        -0.37300E+03
        -0.37300E+03
        -0.37300E+03
        -0.37300E+03
        -0.37300E+03
        -0.37300E+03
        -0.37300E+03
        -0.37300E+03
        -0.37300E+03
        -0.37300E+03
        -0.37300E+03
        -0.37300E+03
        -0.37300E+03
        -0.37300E+03
        -0.37300E+03
        -0.37300E+03
        -0.37300E+03
        -0.37300E+03
        -0.37300E+03
        -0.37300E+03
        -0.37300E+03
        -0.37300E+03
        -0.37300E+03
        -0.37300E+03
        -0.37300E+03
        -0.37300E+03
        -0.37300E+03
        -0.37300E+03
        -0.37300E+03
        -0.37300E+03
        -0.37300E+03
        -0.37300E+03
        -0.37300E+03
        -0.37300E+03
        -0.37300E+03
        -0.37300E+03
        -0.37300E+03
        -0.37300E+03
        -0.37300E+03
        -0.37300E+03
        -0.37300E+03
        -0.37300E+03
        -0.37300E+03
        -0.37300E+03
        -0.37300E+03
        -0.37300E+03
        -0.37300E+03
        -0.37300E+03
        -0.37300E+03
        -0.37300E+03
        -0.37300E+03
        -0.37300E+03
        -0.37300E+03
        -0.37300E+03
        -0.37300E+03
        -0.37300E+03
        -0.37300E+03
        -0.37300E+03
        -0.37300E+03
        -0.37300E+03
        -0.37300E+03
        -0.37300E+03
        -0.37300E+03
        -0.37300E+03
        -0.37300E+03
        -0.37300E+03
        -0.37300E+03
        -0.37300E+03
        -0.37300E+03
        -0.37300E+03
        -0.37300E+03
        -0.37300E+03
        -0.37300E+03
        -0.37300E+03
        -0.37300E+03
        -0.37300E+03
        -0.37300E+03
        -0.37300E+03
        -0.37300E+03
        -0.37300E+03
        -0.37300E+03
        -0.37300E+03
        -0.37300E+03
        -0.37300E+03
        -0.37300E+03
        -0.37300E+03
        -0.37300E+03
        -0.37300E+03
        -0.37300E+03
        -0.37300E+03
        -0.37300E+03
        -0.37300E+03
        -0.37300E+03
        -0.37300E+03
        -0.37300E+03
        -0.37300E+03
        -0.37300E+03
        -0.37300E+03
        -0.37300E+03
        -0.37300E+03
        -0.37300E+03
        -0.37300E+03
        -0.37300E+03
        -0.37300E+03
        -0.37300E+03
        -0.37300E+03
        -0.37300E+03
        -0.37300E+03
        -0.37300E+03
        -0.37300E+03
        -0.37300E+03
        -0.37300E+03
        -0.37300E+03
        -0.37300E+03
        -0.37300E+03
        -0.37300E+03
        -0.37300E+03
        -0.37300E+03
        -0.37300E+03
        -0.37300E+03
        -0.37300E+03
        -0.37300E+03
        -0.37300E+03
        -0.37300E+03
        -0.37300E+03
        -0.37300E+03
        -0.37300E+03
        -0.37300E+03
        -0.37300E+03
        -0.37300E+03
        -0.37300E+03
        -0.37300E+03
        -0.37300E+03
        -0.37300E+03
        -0.37300E+03
        -0.37300E+03
        -0.37300E+03
        -0.37300E+03
        -0.37300E+03
        -0.37300E+03
        -0.37300E+03
        -0.37300E+03
        -0.37300E+03
        -0.37300E+03
        -0.37300E+03
        -0.37300E+03
        -0.37300E+03
        -0.37300E+03
        -0.37300E+03
        -0.37300E+03
        -0.37300E+03
        -0.37300E+03
        -0.37300E+03
        -0.37300E+03
        -0.37300E+03
        -0.37300E+03
        -0.37300E+03
        -0.37300E+03
        -0.37300E+03
        -0.37300E+03
        -0.37300E+03
        -0.37300E+03
        -0.37300E+03
        -0.37300E+03
        -0.37300E+03
        -0.37300E+03
        -0.37300E+03
        -0.37300E+03
        -0.37300E+03
        -0.37300E+03
        -0.37300E+03
        -0.37300E+03
        -0.37300E+03
        -0.37300E+03
        -0.37300E+03
        -0.37300E+03
        -0.37300E+03
        -0.37300E+03
        -0.37300E+03
        -0.37300E+03
        -0.37300E+03
        -0.37300E+03
        -0.37300E+03
        -0.37300E+03
        -0.37300E+03
        -0.37300E+03
        -0.37300E+03
        -0.37300E+03
        -0.37300E+03
        -0.37300E+03
        -0.37300E+03
        -0.37300E+03
        -0.37300E+03
        -0.37300E+03
        -0.37300E+03
        -0.37300E+03
        -0.37300E+03
        -0.37300E+03
        -0.37300E+03
        -0.37300E+03
        -0.37300E+03
        -0.37300E+03
        -0.37300E+03
        -0.37300E+03
        -0.37300E+03
        -0.37300E+03
        -0.37300E+03
        -0.37300E+03
        -0.37300E+03
        -0.37300E+03
        -0.37300E+03
        -0.37300E+03
        -0.37300E+03
        -0.37300E+03
        -0.37300E+03
        -0.37300E+03
        -0.37300E+03
        -0.37300E+03
        -0.37300E+03
        -0.37300E+03
        -0.37300E+03
        -0.37300E+03
        -0.37300E+03
        -0.37300E+03
        -0.37300E+03
        -0.37300E+03
        -0.37300E+03
        -0.37300E+03
        -0.37300E+03
        -0.37300E+03
        -0.37300E+03
        -0.37300E+03
        -0.37300E+03
        -0.37300E+03
        -0.37300E+03
        -0.37300E+03
        -0.37300E+03
        -0.37300E+03
        -0.37300E+03
        -0.37300E+03
        -0.37300E+03
        -0.37300E+03
        -0.37300E+03
        -0.37300E+03
        -0.37300E+03
        -0.37300E+03
        -0.37300E+03
        -0.37300E+03
        -0.37300E+03
        -0.37300E+03
        -0.37300E+03
        -0.37300E+03
        -0.37300E+03
        -0.37300E+03
        -0.37300E+03
        -0.37300E+03
        -0.37300E+03
        -0.37300E+03
        -0.37300E+03
        -0.37300E+03
        -0.37300E+03
        -0.37300E+03
        -0.37300E+03
        -0.37300E+03
        -0.37300E+03
        -0.37300E+03
        -0.37300E+03
        -0.37300E+03
        -0.37300E+03
        -0.37300E+03
        -0.37300E+03
        -0.37300E+03
        -0.37300E+03
        -0.37300E+03
        -0.37300E+03
        -0.37300E+03
        -0.37300E+03
        -0.37300E+03
        -0.37300E+03
        -0.37300E+03
        -0.37300E+03
        -0.37300E+03
        -0.37300E+03
        -0.37300E+03
        -0.37300E+03
        -0.37300E+03
        -0.37300E+03
        -0.37300E+03
        -0.37300E+03
        -0.37300E+03
        -0.37300E+03
        -0.37300E+03
        -0.37300E+03
        -0.37300E+03
        -0.37300E+03
        -0.37300E+03
        -0.37300E+03
        -0.37300E+03
        -0.37300E+03
        -0.37300E+03
        -0.37300E+03
        -0.37300E+03
        -0.37300E+03
        -0.37300E+03
        -0.37300E+03
        -0.37300E+03
        -0.37300E+03
        -0.37300E+03
        -0.37300E+03
        -0.37300E+03
        -0.37300E+03
        -0.37300E+03
        -0.37300E+03
        -0.37300E+03
        -0.37300E+03
        -0.37300E+03
        -0.37300E+03
        -0.37300E+03
        -0.37300E+03
        -0.37300E+03
        -0.37300E+03
        -0.37300E+03
        -0.37300E+03
        -0.37300E+03
        -0.37300E+03
        -0.37300E+03
        -0.37300E+03
        -0.37300E+03
        -0.37300E+03
        -0.37300E+03
        -0.37300E+03
        -0.37300E+03
        -0.37300E+03
        -0.37300E+03
        -0.37300E+03
        -0.37300E+03
        -0.37300E+03
        -0.37300E+03
        -0.37300E+03
        -0.37300E+03
        -0.37300E+03
        -0.37300E+03
        -0.37300E+03
        -0.37300E+03
        -0.37300E+03
        -0.37300E+03
        -0.37300E+03
        -0.37300E+03
        -0.37300E+03
        -0.37300E+03
        -0.37300E+03
        -0.37300E+03
        -0.37300E+03
        -0.37300E+03
        -0.37300E+03
        -0.37300E+03
        -0.37300E+03
        -0.37300E+03
        -0.37300E+03
        -0.37300E+03
        -0.37300E+03
        -0.37300E+03
        -0.37300E+03
        -0.37300E+03
        -0.37300E+03
        -0.37300E+03
        -0.37300E+03
        -0.37300E+03
        -0.37300E+03
        -0.37300E+03
        -0.37300E+03
        -0.37300E+03
        -0.37300E+03
        -0.37300E+03
        -0.37300E+03
        -0.37300E+03
        -0.37300E+03
        -0.37300E+03
        -0.37300E+03
        -0.37300E+03
        -0.37300E+03
        -0.37300E+03
        -0.37300E+03
        -0.37300E+03
        -0.37300E+03
        -0.37300E+03
        -0.37300E+03
        -0.37300E+03
        -0.37300E+03
        -0.37300E+03
        -0.37300E+03
        -0.37300E+03
        -0.37300E+03
        -0.37300E+03
        -0.37300E+03
        -0.37300E+03
        -0.37300E+03
        -0.37300E+03
        -0.37300E+03
        -0.37300E+03
        -0.37300E+03
        -0.37300E+03
        -0.37300E+03
        -0.37300E+03
        -0.37300E+03
        -0.37300E+03
        -0.37300E+03
        -0.37300E+03
        -0.37300E+03
        -0.37300E+03
        -0.37300E+03
        -0.37300E+03
        -0.37300E+03
        -0.37300E+03
        -0.37300E+03
        -0.37300E+03
        -0.37300E+03
        -0.37300E+03
        -0.37300E+03
        -0.37300E+03
        -0.37300E+03
        -0.37300E+03
        -0.37300E+03
        -0.37300E+03
        -0.37300E+03
        -0.37300E+03
        -0.37300E+03
        -0.37300E+03
        -0.37300E+03
        -0.37300E+03
        -0.37300E+03
        -0.37300E+03
        -0.37300E+03
        -0.37300E+03
        -0.37300E+03
        -0.37300E+03
        -0.37300E+03
        -0.37300E+03
        -0.37300E+03
        -0.37300E+03
        -0.37300E+03
        -0.37300E+03
        -0.37300E+03
        -0.37300E+03
        -0.37300E+03
        -0.37300E+03
        -0.37300E+03
        -0.37300E+03
        -0.37300E+03
        -0.37300E+03
        -0.37300E+03
        -0.37300E+03
        -0.37300E+03
        -0.37300E+03
        -0.37300E+03
        -0.37300E+03
        -0.37300E+03
        -0.37300E+03
        -0.37300E+03
        -0.37300E+03
        -0.37300E+03
        -0.37300E+03
        -0.37300E+03
        -0.37300E+03
        -0.37300E+03
        -0.37300E+03
        -0.37300E+03
        -0.37300E+03
        -0.37300E+03
        -0.37300E+03
        -0.37300E+03
        -0.37300E+03
        -0.37300E+03
        -0.37300E+03
        -0.37300E+03
        -0.37300E+03
        -0.37300E+03
        -0.37300E+03
        -0.37300E+03
        -0.37300E+03
        -0.37300E+03
        -0.37300E+03
        -0.37300E+03
        -0.37300E+03
        -0.37300E+03
        -0.37300E+03
        -0.37300E+03
        -0.37300E+03
        -0.37300E+03
        -0.37300E+03
        -0.37300E+03
        -0.37300E+03
        -0.37300E+03
        -0.37300E+03
        -0.37300E+03
        -0.37300E+03
        -0.37300E+03
        -0.37300E+03
        -0.37300E+03
        -0.37300E+03
        -0.37300E+03
        -0.37300E+03
        -0.37300E+03
        -0.37300E+03
        -0.37300E+03
        -0.37300E+03
        -0.37300E+03
        -0.37300E+03
        -0.37300E+03
        -0.37300E+03
        -0.37300E+03
        -0.37300E+03
        -0.37300E+03
        -0.37300E+03
        -0.37300E+03
        -0.37300E+03
        -0.37300E+03
        -0.37300E+03
        -0.37300E+03
        -0.37300E+03
        -0.37300E+03
        -0.37300E+03
        -0.37300E+03
        -0.37300E+03
        -0.37300E+03
        -0.37300E+03
        -0.37300E+03
        -0.37300E+03
        -0.37300E+03
        -0.37300E+03
        -0.37300E+03
        -0.37300E+03
        -0.37300E+03
        -0.37300E+03
        -0.37300E+03
        -0.37300E+03
        -0.37300E+03
        -0.37300E+03
        -0.37300E+03
        -0.37300E+03
        -0.37300E+03
        -0.37300E+03
        -0.37300E+03
        -0.37300E+03
        -0.37300E+03
        -0.37300E+03
        -0.37300E+03
        -0.37300E+03
        -0.37300E+03
        -0.37300E+03
        -0.37300E+03
        -0.37300E+03
        -0.37300E+03
        -0.37300E+03
        -0.37300E+03
        -0.37300E+03
        -0.37300E+03
        -0.37300E+03
        -0.37300E+03
        -0.37300E+03
        -0.37300E+03
        -0.37300E+03
        -0.37300E+03
        -0.37300E+03
        -0.37300E+03
        -0.37300E+03
        -0.37300E+03
        -0.37300E+03
        -0.37300E+03
        -0.37300E+03
        -0.37300E+03
        -0.37300E+03
        -0.37300E+03
        -0.37300E+03
        -0.37300E+03
        -0.37300E+03
        -0.37300E+03
        -0.37300E+03
        -0.37300E+03
        -0.37300E+03
        -0.37300E+03
        -0.37300E+03
        -0.37300E+03
        -0.37300E+03
        -0.37300E+03
        -0.37300E+03
        -0.37300E+03
        -0.37300E+03
        -0.37300E+03
        -0.37300E+03
        -0.37300E+03
        -0.37300E+03
        -0.37300E+03
        -0.37300E+03
        -0.37300E+03
        -0.37300E+03
        -0.37300E+03
        -0.37300E+03
        -0.37300E+03
        -0.37300E+03
        -0.37300E+03
        -0.37300E+03
        -0.37300E+03
        -0.37300E+03
        -0.37300E+03
        -0.37300E+03
        -0.37300E+03
        -0.37300E+03
        -0.37300E+03
        -0.37300E+03
        -0.37300E+03
        -0.37300E+03
        -0.37300E+03
        -0.37300E+03
        -0.37300E+03
        -0.37300E+03
        -0.37300E+03
        -0.37300E+03
        -0.37300E+03
        -0.37300E+03
        -0.37300E+03
        -0.37300E+03
        -0.37300E+03
        -0.37300E+03
        -0.37300E+03
        -0.37300E+03
        -0.37300E+03
        -0.37300E+03
        -0.37300E+03
        -0.37300E+03
        -0.37300E+03
        -0.37300E+03
        -0.37300E+03
        -0.37300E+03
        -0.37300E+03
        -0.37300E+03
        -0.37300E+03
        -0.37300E+03
        -0.37300E+03
        -0.37300E+03
        -0.37300E+03
        -0.37300E+03
        -0.37300E+03
        -0.37300E+03
        -0.37300E+03
        -0.37300E+03
        -0.37300E+03
        -0.37300E+03
        -0.37300E+03
        -0.37300E+03
        -0.37300E+03
        -0.37300E+03
        -0.37300E+03
        -0.37300E+03
        -0.37300E+03
        -0.37300E+03
        -0.37300E+03
        -0.37300E+03
        -0.37300E+03
        -0.37300E+03
        -0.37300E+03
        -0.37300E+03
        -0.37300E+03
        -0.37300E+03
        -0.37300E+03
        -0.37300E+03
        -0.37300E+03
        -0.37300E+03
        -0.37300E+03
        -0.37300E+03
        -0.37300E+03
        -0.37300E+03
        -0.37300E+03
        -0.37300E+03
        -0.37300E+03
        -0.37300E+03
        -0.37300E+03
        -0.37300E+03
        -0.37300E+03
        -0.37300E+03
        -0.37300E+03
        -0.37300E+03
        -0.37300E+03
        -0.37300E+03
        -0.37300E+03
        -0.37300E+03
        -0.37300E+03
        -0.37300E+03
        -0.37300E+03
        -0.37300E+03
        -0.37300E+03
        -0.37300E+03
        -0.37300E+03
        -0.37300E+03
        -0.37300E+03
        -0.37300E+03
        -0.37300E+03
        -0.37300E+03
        -0.37300E+03
        -0.37300E+03
        -0.37300E+03
        -0.37300E+03
        -0.37300E+03
        -0.37300E+03
        -0.37300E+03
        -0.37300E+03
        -0.37300E+03
        -0.37300E+03
        -0.37300E+03
        -0.37300E+03
        -0.37300E+03
        -0.37300E+03
        -0.37300E+03
        -0.37300E+03
        -0.37300E+03
        -0.37300E+03
        -0.37300E+03
        -0.37300E+03
        -0.37300E+03
        -0.37300E+03
        -0.37300E+03
        -0.37300E+03
        -0.37300E+03
        -0.37300E+03
        -0.37300E+03
        -0.37300E+03
        -0.37300E+03
        -0.37300E+03
        -0.37300E+03
        -0.37300E+03
        -0.37300E+03
        -0.37300E+03
        -0.37300E+03
        -0.37300E+03
        -0.37300E+03
        -0.37300E+03
        -0.37300E+03
        -0.37300E+03
        -0.37300E+03
        -0.37300E+03
        -0.37300E+03
        -0.37300E+03
        -0.37300E+03
        -0.37300E+03
        -0.37300E+03
        -0.37300E+03
        -0.37300E+03
        -0.37300E+03
        -0.37300E+03
        -0.37300E+03
        -0.37300E+03
        -0.37300E+03
        -0.37300E+03
        -0.37300E+03
        -0.37300E+03
        -0.37300E+03
        -0.37300E+03
        -0.37300E+03
        -0.37300E+03
        -0.37300E+03
        -0.37300E+03
        -0.37300E+03
        -0.37300E+03
        -0.37300E+03
        -0.37300E+03
        -0.37300E+03
        -0.37300E+03
        -0.37300E+03
        -0.37300E+03
        -0.37300E+03
        -0.37300E+03
        -0.37300E+03
        -0.37300E+03
        -0.37300E+03
        -0.37300E+03
        -0.37300E+03
        -0.37300E+03
        -0.37300E+03
        -0.37300E+03
        -0.37300E+03
        -0.37300E+03
        -0.37300E+03
        -0.37300E+03
        -0.37300E+03
        -0.37300E+03
        -0.37300E+03
        -0.37300E+03
        -0.37300E+03
        -0.37300E+03
        -0.37300E+03
        -0.37300E+03
        -0.37300E+03
        -0.37300E+03
        -0.37300E+03
        -0.37300E+03
        -0.37300E+03
        -0.37300E+03
        -0.37300E+03
        -0.37300E+03
        -0.37300E+03
        -0.37300E+03
        -0.37300E+03
        -0.37300E+03
        -0.37300E+03
        -0.37300E+03
        -0.37300E+03
        -0.37300E+03
        -0.37300E+03
        -0.37300E+03
        -0.37300E+03
        -0.37300E+03
        -0.37300E+03
        -0.37300E+03
        -0.37300E+03
        -0.37300E+03
        -0.37300E+03
        -0.37300E+03
        -0.37300E+03
        -0.37300E+03
        -0.37300E+03
        -0.37300E+03
        -0.37300E+03
        -0.37300E+03
        -0.37300E+03
        -0.37300E+03
        -0.37300E+03
        -0.37300E+03
        -0.37300E+03
        -0.37300E+03
        -0.37300E+03
        -0.37300E+03
        -0.37300E+03
        -0.37300E+03
        -0.37300E+03
        -0.37300E+03
        -0.37300E+03
        -0.37300E+03
        -0.37300E+03
        -0.37300E+03
        -0.37300E+03
        -0.37300E+03
        -0.37300E+03
        -0.37300E+03
        -0.37300E+03
  
SCALARS              normalized_window  double 1
LOOKUP_TABLE default
         0.27500E+01
         0.27500E+01
         0.27500E+01
         0.27500E+01
         0.27500E+01
         0.27500E+01
         0.27500E+01
         0.27500E+01
         0.27500E+01
         0.27500E+01
         0.27500E+01
         0.27500E+01
         0.27500E+01
         0.27500E+01
         0.27500E+01
         0.27500E+01
         0.27500E+01
         0.27500E+01
         0.27500E+01
         0.27500E+01
         0.27500E+01
         0.27500E+01
         0.27500E+01
         0.27500E+01
         0.27500E+01
         0.27500E+01
         0.27500E+01
         0.27500E+01
         0.27500E+01
         0.27500E+01
         0.27500E+01
         0.27500E+01
         0.27500E+01
         0.27500E+01
         0.27500E+01
         0.27500E+01
         0.27500E+01
         0.27500E+01
         0.27500E+01
         0.27500E+01
         0.27500E+01
         0.27500E+01
         0.27500E+01
         0.27500E+01
         0.27500E+01
         0.27500E+01
         0.27500E+01
         0.27500E+01
         0.27500E+01
         0.27500E+01
         0.27500E+01
         0.27500E+01
         0.27500E+01
         0.27500E+01
         0.27500E+01
         0.27500E+01
         0.27500E+01
         0.27500E+01
         0.27500E+01
         0.27500E+01
         0.27500E+01
         0.27500E+01
         0.27500E+01
         0.27500E+01
         0.27500E+01
         0.27500E+01
         0.27500E+01
         0.27500E+01
         0.27500E+01
         0.27500E+01
         0.27500E+01
         0.27500E+01
         0.27500E+01
         0.27500E+01
         0.27500E+01
         0.27500E+01
         0.27500E+01
         0.27500E+01
         0.27500E+01
         0.27500E+01
         0.27500E+01
         0.27500E+01
         0.27500E+01
         0.27500E+01
         0.27500E+01
         0.27500E+01
         0.27500E+01
         0.27500E+01
         0.27500E+01
         0.27500E+01
         0.27500E+01
         0.27500E+01
         0.27500E+01
         0.27500E+01
         0.27500E+01
         0.27500E+01
         0.27500E+01
         0.27500E+01
         0.27500E+01
         0.27500E+01
         0.27500E+01
         0.27500E+01
         0.27500E+01
         0.27500E+01
         0.27500E+01
         0.27500E+01
         0.27500E+01
         0.27500E+01
         0.27500E+01
         0.27500E+01
         0.27500E+01
         0.27500E+01
         0.27500E+01
         0.27500E+01
         0.27500E+01
         0.27500E+01
         0.27500E+01
         0.27500E+01
         0.27500E+01
         0.27500E+01
         0.27500E+01
         0.27500E+01
         0.27500E+01
         0.27500E+01
         0.27500E+01
         0.27500E+01
         0.27500E+01
         0.27500E+01
         0.27500E+01
         0.27500E+01
         0.27500E+01
         0.27500E+01
         0.27500E+01
         0.27500E+01
         0.27500E+01
         0.27500E+01
         0.27500E+01
         0.27500E+01
         0.27500E+01
         0.27500E+01
         0.27500E+01
         0.27500E+01
         0.27500E+01
         0.27500E+01
         0.27500E+01
         0.27500E+01
         0.27500E+01
         0.27500E+01
         0.27500E+01
         0.27500E+01
         0.27500E+01
         0.27500E+01
         0.27500E+01
         0.27500E+01
         0.27500E+01
         0.27500E+01
         0.27500E+01
         0.27500E+01
         0.27500E+01
         0.27500E+01
         0.27500E+01
         0.27500E+01
         0.27500E+01
         0.27500E+01
         0.27500E+01
         0.27500E+01
         0.27500E+01
         0.27500E+01
         0.27500E+01
         0.27500E+01
         0.27500E+01
         0.27500E+01
         0.27500E+01
         0.27500E+01
         0.27500E+01
         0.27500E+01
         0.27500E+01
         0.27500E+01
         0.27500E+01
         0.27500E+01
         0.27500E+01
         0.27500E+01
         0.27500E+01
         0.27500E+01
         0.27500E+01
         0.27500E+01
         0.27500E+01
         0.27500E+01
         0.27500E+01
         0.27500E+01
         0.27500E+01
         0.27500E+01
         0.27500E+01
         0.27500E+01
         0.27500E+01
         0.27500E+01
         0.27500E+01
         0.27500E+01
         0.27500E+01
         0.27500E+01
         0.27500E+01
         0.27500E+01
         0.27500E+01
         0.27500E+01
         0.27500E+01
         0.27500E+01
         0.27500E+01
         0.27500E+01
         0.27500E+01
         0.27500E+01
         0.27500E+01
         0.27500E+01
         0.27500E+01
         0.27500E+01
         0.27500E+01
         0.27500E+01
         0.27500E+01
         0.27500E+01
         0.27500E+01
         0.27500E+01
         0.27500E+01
         0.27500E+01
         0.27500E+01
         0.27500E+01
         0.27500E+01
         0.27500E+01
         0.27500E+01
         0.27500E+01
         0.27500E+01
         0.27500E+01
         0.27500E+01
         0.27500E+01
         0.27500E+01
         0.27500E+01
         0.27500E+01
         0.27500E+01
         0.27500E+01
         0.27500E+01
         0.27500E+01
         0.27500E+01
         0.27500E+01
         0.27500E+01
         0.27500E+01
         0.27500E+01
         0.27500E+01
         0.27500E+01
         0.27500E+01
         0.27500E+01
         0.27500E+01
         0.27500E+01
         0.27500E+01
         0.27500E+01
         0.27500E+01
         0.27500E+01
         0.27500E+01
         0.27500E+01
         0.27500E+01
         0.27500E+01
         0.27500E+01
         0.27500E+01
         0.27500E+01
         0.27500E+01
         0.27500E+01
         0.27500E+01
         0.27500E+01
         0.27500E+01
         0.27500E+01
         0.27500E+01
         0.27500E+01
         0.27500E+01
         0.27500E+01
         0.27500E+01
         0.27500E+01
         0.27500E+01
         0.27500E+01
         0.27500E+01
         0.27500E+01
         0.27500E+01
         0.27500E+01
         0.27500E+01
         0.27500E+01
         0.27500E+01
         0.27500E+01
         0.27500E+01
         0.27500E+01
         0.27500E+01
         0.27500E+01
         0.27500E+01
         0.27500E+01
         0.27500E+01
         0.27500E+01
         0.27500E+01
         0.27500E+01
         0.27500E+01
         0.27500E+01
         0.27500E+01
         0.27500E+01
         0.27500E+01
         0.27500E+01
         0.27500E+01
         0.27500E+01
         0.27500E+01
         0.27500E+01
         0.27500E+01
         0.27500E+01
         0.27500E+01
         0.27500E+01
         0.27500E+01
         0.27500E+01
         0.27500E+01
         0.27500E+01
         0.27500E+01
         0.27500E+01
         0.27500E+01
         0.27500E+01
         0.27500E+01
         0.27500E+01
         0.27500E+01
         0.27500E+01
         0.27500E+01
         0.27500E+01
         0.27500E+01
         0.27500E+01
         0.27500E+01
         0.27500E+01
         0.27500E+01
         0.27500E+01
         0.27500E+01
         0.27500E+01
         0.27500E+01
         0.27500E+01
         0.27500E+01
         0.27500E+01
         0.27500E+01
         0.27500E+01
         0.27500E+01
         0.27500E+01
         0.27500E+01
         0.27500E+01
         0.27500E+01
         0.27500E+01
         0.27500E+01
         0.27500E+01
         0.27500E+01
         0.27500E+01
         0.27500E+01
         0.27500E+01
         0.27500E+01
         0.27500E+01
         0.27500E+01
         0.27500E+01
         0.27500E+01
         0.27500E+01
         0.27500E+01
         0.27500E+01
         0.27500E+01
         0.27500E+01
         0.27500E+01
         0.27500E+01
         0.27500E+01
         0.27500E+01
         0.27500E+01
         0.27500E+01
         0.27500E+01
         0.27500E+01
         0.27500E+01
         0.27500E+01
         0.27500E+01
         0.27500E+01
         0.27500E+01
         0.27500E+01
         0.27500E+01
         0.27500E+01
         0.27500E+01
         0.27500E+01
         0.27500E+01
         0.27500E+01
         0.27500E+01
         0.27500E+01
         0.27500E+01
         0.27500E+01
         0.27500E+01
         0.27500E+01
         0.27500E+01
         0.27500E+01
         0.27500E+01
         0.27500E+01
         0.27500E+01
         0.27500E+01
         0.27500E+01
         0.27500E+01
         0.27500E+01
         0.27500E+01
         0.27500E+01
         0.27500E+01
         0.27500E+01
         0.27500E+01
         0.27500E+01
         0.27500E+01
         0.27500E+01
         0.27500E+01
         0.27500E+01
         0.27500E+01
         0.27500E+01
         0.27500E+01
         0.27500E+01
         0.27500E+01
         0.27500E+01
         0.27500E+01
         0.27500E+01
         0.27500E+01
         0.27500E+01
         0.27500E+01
         0.27500E+01
         0.27500E+01
         0.27500E+01
         0.27500E+01
         0.27500E+01
         0.27500E+01
         0.27500E+01
         0.27500E+01
         0.27500E+01
         0.27500E+01
         0.27500E+01
         0.27500E+01
         0.27500E+01
         0.27500E+01
         0.27500E+01
         0.27500E+01
         0.27500E+01
         0.27500E+01
         0.27500E+01
         0.27500E+01
         0.27500E+01
         0.27500E+01
         0.27500E+01
         0.27500E+01
         0.27500E+01
         0.27500E+01
         0.27500E+01
         0.27500E+01
         0.27500E+01
         0.27500E+01
         0.27500E+01
         0.27500E+01
         0.27500E+01
         0.27500E+01
         0.27500E+01
         0.27500E+01
         0.27500E+01
         0.27500E+01
         0.27500E+01
         0.27500E+01
         0.27500E+01
         0.27500E+01
         0.27500E+01
         0.27500E+01
         0.27500E+01
         0.27500E+01
         0.27500E+01
         0.27500E+01
         0.27500E+01
         0.27500E+01
         0.27500E+01
         0.27500E+01
         0.27500E+01
         0.27500E+01
         0.27500E+01
         0.27500E+01
         0.27500E+01
         0.27500E+01
         0.27500E+01
         0.27500E+01
         0.27500E+01
         0.27500E+01
         0.27500E+01
         0.27500E+01
         0.27500E+01
         0.27500E+01
         0.27500E+01
         0.27500E+01
         0.27500E+01
         0.27500E+01
         0.27500E+01
         0.27500E+01
         0.27500E+01
         0.27500E+01
         0.27500E+01
         0.27500E+01
         0.27500E+01
         0.27500E+01
         0.27500E+01
         0.27500E+01
         0.27500E+01
         0.27500E+01
         0.27500E+01
         0.27500E+01
         0.27500E+01
         0.27500E+01
         0.27500E+01
         0.27500E+01
         0.27500E+01
         0.27500E+01
         0.27500E+01
         0.27500E+01
         0.27500E+01
         0.27500E+01
         0.27500E+01
         0.27500E+01
         0.27500E+01
         0.27500E+01
         0.27500E+01
         0.27500E+01
         0.27500E+01
         0.27500E+01
         0.27500E+01
         0.27500E+01
         0.27500E+01
         0.27500E+01
         0.27500E+01
         0.27500E+01
         0.27500E+01
         0.27500E+01
         0.27500E+01
         0.27500E+01
         0.27500E+01
         0.27500E+01
         0.27500E+01
         0.27500E+01
         0.27500E+01
         0.27500E+01
         0.27500E+01
         0.27500E+01
         0.27500E+01
         0.27500E+01
         0.27500E+01
         0.27500E+01
         0.27500E+01
         0.27500E+01
         0.27500E+01
         0.27500E+01
         0.27500E+01
         0.27500E+01
         0.27500E+01
         0.27500E+01
         0.27500E+01
         0.27500E+01
         0.27500E+01
         0.27500E+01
         0.27500E+01
         0.27500E+01
         0.27500E+01
         0.27500E+01
         0.27500E+01
         0.27500E+01
         0.27500E+01
         0.27500E+01
         0.27500E+01
         0.27500E+01
         0.27500E+01
         0.27500E+01
         0.27500E+01
         0.27500E+01
         0.27500E+01
         0.27500E+01
         0.27500E+01
         0.27500E+01
         0.27500E+01
         0.27500E+01
         0.27500E+01
         0.27500E+01
         0.27500E+01
         0.27500E+01
         0.27500E+01
         0.27500E+01
         0.27500E+01
         0.27500E+01
         0.27500E+01
         0.27500E+01
         0.27500E+01
         0.27500E+01
         0.27500E+01
         0.27500E+01
         0.27500E+01
         0.27500E+01
         0.27500E+01
         0.27500E+01
         0.27500E+01
         0.27500E+01
         0.27500E+01
         0.27500E+01
         0.27500E+01
         0.27500E+01
         0.27500E+01
         0.27500E+01
         0.27500E+01
         0.27500E+01
         0.27500E+01
         0.27500E+01
         0.27500E+01
         0.27500E+01
         0.27500E+01
         0.27500E+01
         0.27500E+01
         0.27500E+01
         0.27500E+01
         0.27500E+01
         0.27500E+01
         0.27500E+01
         0.27500E+01
         0.27500E+01
         0.27500E+01
         0.27500E+01
         0.27500E+01
         0.27500E+01
         0.27500E+01
         0.27500E+01
         0.27500E+01
         0.27500E+01
         0.27500E+01
         0.27500E+01
         0.27500E+01
         0.27500E+01
         0.27500E+01
         0.27500E+01
         0.27500E+01
         0.27500E+01
         0.27500E+01
         0.27500E+01
         0.27500E+01
         0.27500E+01
         0.27500E+01
         0.27500E+01
         0.27500E+01
         0.27500E+01
         0.27500E+01
         0.27500E+01
         0.27500E+01
         0.27500E+01
         0.27500E+01
         0.27500E+01
         0.27500E+01
         0.27500E+01
         0.27500E+01
         0.27500E+01
         0.27500E+01
         0.27500E+01
         0.27500E+01
         0.27500E+01
         0.27500E+01
         0.27500E+01
         0.27500E+01
         0.27500E+01
         0.27500E+01
         0.27500E+01
         0.27500E+01
         0.27500E+01
         0.27500E+01
         0.27500E+01
         0.27500E+01
         0.27500E+01
         0.27500E+01
         0.27500E+01
         0.27500E+01
         0.27500E+01
         0.27500E+01
         0.27500E+01
         0.27500E+01
         0.27500E+01
         0.27500E+01
         0.27500E+01
         0.27500E+01
         0.27500E+01
         0.27500E+01
         0.27500E+01
         0.27500E+01
         0.27500E+01
         0.27500E+01
         0.27500E+01
         0.27500E+01
         0.27500E+01
         0.27500E+01
         0.27500E+01
         0.27500E+01
         0.27500E+01
         0.27500E+01
         0.27500E+01
         0.27500E+01
         0.27500E+01
         0.27500E+01
         0.27500E+01
         0.27500E+01
         0.27500E+01
         0.27500E+01
         0.27500E+01
         0.27500E+01
         0.27500E+01
         0.27500E+01
         0.27500E+01
         0.27500E+01
         0.27500E+01
         0.27500E+01
         0.27500E+01
         0.27500E+01
         0.27500E+01
         0.27500E+01
         0.27500E+01
         0.27500E+01
         0.27500E+01
         0.27500E+01
         0.27500E+01
         0.27500E+01
         0.27500E+01
         0.27500E+01
         0.27500E+01
         0.27500E+01
         0.27500E+01
         0.27500E+01
         0.27500E+01
         0.27500E+01
         0.27500E+01
         0.27500E+01
         0.27500E+01
         0.27500E+01
         0.27500E+01
         0.27500E+01
         0.27500E+01
         0.27500E+01
         0.27500E+01
         0.27500E+01
         0.27500E+01
         0.27500E+01
         0.27500E+01
         0.27500E+01
         0.27500E+01
         0.27500E+01
         0.27500E+01
         0.27500E+01
         0.27500E+01
         0.27500E+01
         0.27500E+01
         0.27500E+01
         0.27500E+01
         0.27500E+01
         0.27500E+01
         0.27500E+01
         0.27500E+01
         0.27500E+01
         0.27500E+01
         0.27500E+01
         0.27500E+01
         0.27500E+01
         0.27500E+01
         0.27500E+01
         0.27500E+01
         0.27500E+01
         0.27500E+01
         0.27500E+01
         0.27500E+01
         0.27500E+01
         0.27500E+01
         0.27500E+01
         0.27500E+01
         0.27500E+01
         0.27500E+01
         0.27500E+01
         0.27500E+01
         0.27500E+01
         0.27500E+01
         0.27500E+01
         0.27500E+01
         0.27500E+01
         0.27500E+01
         0.27500E+01
         0.27500E+01
         0.27500E+01
         0.27500E+01
         0.27500E+01
         0.27500E+01
         0.27500E+01
         0.27500E+01
         0.27500E+01
         0.27500E+01
         0.27500E+01
         0.27500E+01
         0.27500E+01
         0.27500E+01
         0.27500E+01
         0.27500E+01
         0.27500E+01
         0.27500E+01
         0.27500E+01
         0.27500E+01
         0.27500E+01
         0.27500E+01
         0.27500E+01
         0.27500E+01
         0.27500E+01
         0.27500E+01
         0.27500E+01
         0.27500E+01
         0.27500E+01
         0.27500E+01
         0.27500E+01
         0.27500E+01
         0.27500E+01
         0.27500E+01
         0.27500E+01
         0.27500E+01
         0.27500E+01
         0.27500E+01
         0.27500E+01
         0.27500E+01
         0.27500E+01
         0.27500E+01
         0.27500E+01
         0.27500E+01
         0.27500E+01
         0.27500E+01
         0.27500E+01
         0.27500E+01
         0.27500E+01
         0.27500E+01
         0.27500E+01
         0.27500E+01
         0.27500E+01
         0.27500E+01
         0.27500E+01
         0.27500E+01
         0.27500E+01
         0.27500E+01
         0.27500E+01
         0.27500E+01
         0.27500E+01
         0.27500E+01
         0.27500E+01
         0.27500E+01
         0.27500E+01
         0.27500E+01
         0.27500E+01
         0.27500E+01
         0.27500E+01
         0.27500E+01
         0.27500E+01
         0.27500E+01
         0.27500E+01
         0.27500E+01
         0.27500E+01
         0.27500E+01
         0.27500E+01
         0.27500E+01
         0.27500E+01
         0.27500E+01
         0.27500E+01
         0.27500E+01
         0.27500E+01
         0.27500E+01
         0.27500E+01
         0.27500E+01
         0.27500E+01
         0.27500E+01
         0.27500E+01
         0.27500E+01
         0.27500E+01
         0.27500E+01
         0.27500E+01
         0.27500E+01
         0.27500E+01
         0.27500E+01
         0.27500E+01
         0.27500E+01
         0.27500E+01
         0.27500E+01
         0.27500E+01
         0.27500E+01
         0.27500E+01
         0.27500E+01
         0.27500E+01
         0.27500E+01
         0.27500E+01
         0.27500E+01
         0.27500E+01
         0.27500E+01
         0.27500E+01
         0.27500E+01
         0.27500E+01
         0.27500E+01
         0.27500E+01
         0.27500E+01
         0.27500E+01
         0.27500E+01
         0.27500E+01
         0.27500E+01
         0.27500E+01
         0.27500E+01
         0.27500E+01
         0.27500E+01
         0.27500E+01
         0.27500E+01
         0.27500E+01
         0.27500E+01
         0.27500E+01
         0.27500E+01
         0.27500E+01
         0.27500E+01
         0.27500E+01
         0.27500E+01
         0.27500E+01
         0.27500E+01
         0.27500E+01
         0.27500E+01
         0.27500E+01
         0.27500E+01
         0.27500E+01
         0.27500E+01
         0.27500E+01
         0.27500E+01
         0.27500E+01
         0.27500E+01
         0.27500E+01
         0.27500E+01
         0.27500E+01
         0.27500E+01
         0.27500E+01
         0.27500E+01
         0.27500E+01
         0.27500E+01
         0.27500E+01
         0.27500E+01
         0.27500E+01
         0.27500E+01
         0.27500E+01
         0.27500E+01
         0.27500E+01
         0.27500E+01
         0.27500E+01
         0.27500E+01
         0.27500E+01
         0.27500E+01
         0.27500E+01
         0.27500E+01
         0.27500E+01
         0.27500E+01
         0.27500E+01
         0.27500E+01
         0.27500E+01
         0.27500E+01
         0.27500E+01
         0.27500E+01
         0.27500E+01
         0.27500E+01
         0.27500E+01
         0.27500E+01
         0.27500E+01
         0.27500E+01
         0.27500E+01
         0.27500E+01
         0.27500E+01
         0.27500E+01
         0.27500E+01
         0.27500E+01
         0.27500E+01
         0.27500E+01
         0.27500E+01
         0.27500E+01
         0.27500E+01
         0.27500E+01
         0.27500E+01
         0.27500E+01
         0.27500E+01
         0.27500E+01
         0.27500E+01
         0.27500E+01
         0.27500E+01
         0.27500E+01
         0.27500E+01
         0.27500E+01
         0.27500E+01
         0.27500E+01
         0.27500E+01
         0.27500E+01
         0.27500E+01
         0.27500E+01
         0.27500E+01
         0.27500E+01
         0.27500E+01
         0.27500E+01
         0.27500E+01
         0.27500E+01
         0.27500E+01
         0.27500E+01
         0.27500E+01
         0.27500E+01
         0.27500E+01
         0.27500E+01
         0.27500E+01
         0.27500E+01
         0.27500E+01
         0.27500E+01
         0.27500E+01
         0.27500E+01
         0.27500E+01
         0.27500E+01
         0.27500E+01
         0.27500E+01
         0.27500E+01
         0.27500E+01
         0.27500E+01
         0.27500E+01
         0.27500E+01
         0.27500E+01
         0.27500E+01
         0.27500E+01
         0.27500E+01
         0.27500E+01
         0.27500E+01
         0.27500E+01
         0.27500E+01
         0.27500E+01
         0.27500E+01
         0.27500E+01
         0.27500E+01
         0.27500E+01
         0.27500E+01
         0.27500E+01
         0.27500E+01
         0.27500E+01
         0.27500E+01
         0.27500E+01
         0.27500E+01
         0.27500E+01
         0.27500E+01
         0.27500E+01
         0.27500E+01
         0.27500E+01
         0.27500E+01
         0.27500E+01
         0.27500E+01
         0.27500E+01
         0.27500E+01
         0.27500E+01
         0.27500E+01
         0.27500E+01
         0.27500E+01
         0.27500E+01
         0.27500E+01
         0.27500E+01
         0.27500E+01
         0.27500E+01
         0.27500E+01
         0.27500E+01
         0.27500E+01
         0.27500E+01
         0.27500E+01
         0.27500E+01
         0.27500E+01
         0.27500E+01
         0.27500E+01
         0.27500E+01
         0.27500E+01
         0.27500E+01
         0.27500E+01
         0.27500E+01
         0.27500E+01
         0.27500E+01
         0.27500E+01
         0.27500E+01
         0.27500E+01
         0.27500E+01
         0.27500E+01
         0.27500E+01
         0.27500E+01
         0.27500E+01
         0.27500E+01
         0.27500E+01
         0.27500E+01
         0.27500E+01
         0.27500E+01
         0.27500E+01
         0.27500E+01
         0.27500E+01
         0.27500E+01
         0.27500E+01
         0.27500E+01
         0.27500E+01
         0.27500E+01
         0.27500E+01
         0.27500E+01
         0.27500E+01
         0.27500E+01
         0.27500E+01
         0.27500E+01
         0.27500E+01
         0.27500E+01
         0.27500E+01
         0.27500E+01
         0.27500E+01
         0.27500E+01
         0.27500E+01
         0.27500E+01
         0.27500E+01
         0.27500E+01
         0.27500E+01
         0.27500E+01
         0.27500E+01
         0.27500E+01
         0.27500E+01
         0.27500E+01
         0.27500E+01
         0.27500E+01
         0.27500E+01
         0.27500E+01
         0.27500E+01
         0.27500E+01
         0.27500E+01
         0.27500E+01
         0.27500E+01
         0.27500E+01
         0.27500E+01
         0.27500E+01
         0.27500E+01
         0.27500E+01
         0.27500E+01
         0.27500E+01
         0.27500E+01
         0.27500E+01
         0.27500E+01
         0.27500E+01
         0.27500E+01
         0.27500E+01
         0.27500E+01
         0.27500E+01
         0.27500E+01
         0.27500E+01
         0.27500E+01
         0.27500E+01
         0.27500E+01
         0.27500E+01
         0.27500E+01
         0.27500E+01
         0.27500E+01
         0.27500E+01
         0.27500E+01
         0.27500E+01
         0.27500E+01
         0.27500E+01
         0.27500E+01
         0.27500E+01
         0.27500E+01
         0.27500E+01
         0.27500E+01
         0.27500E+01
         0.27500E+01
         0.27500E+01
         0.27500E+01
         0.27500E+01
         0.27500E+01
         0.27500E+01
         0.27500E+01
         0.27500E+01
         0.27500E+01
         0.27500E+01
         0.27500E+01
         0.27500E+01
         0.27500E+01
         0.27500E+01
         0.27500E+01
         0.27500E+01
         0.27500E+01
         0.27500E+01
         0.27500E+01
         0.27500E+01
         0.27500E+01
         0.27500E+01
         0.27500E+01
         0.27500E+01
         0.27500E+01
         0.27500E+01
         0.27500E+01
         0.27500E+01
         0.27500E+01
         0.27500E+01
         0.27500E+01
         0.27500E+01
         0.27500E+01
         0.27500E+01
         0.27500E+01
         0.27500E+01
         0.27500E+01
         0.27500E+01
         0.27500E+01
         0.27500E+01
         0.27500E+01
         0.27500E+01
         0.27500E+01
         0.27500E+01
         0.27500E+01
         0.27500E+01
         0.27500E+01
         0.27500E+01
         0.27500E+01
         0.27500E+01
         0.27500E+01
         0.27500E+01
         0.27500E+01
         0.27500E+01
         0.27500E+01
         0.27500E+01
         0.27500E+01
         0.27500E+01
         0.27500E+01
         0.27500E+01
         0.27500E+01
         0.27500E+01
         0.27500E+01
         0.27500E+01
         0.27500E+01
         0.27500E+01
         0.27500E+01
         0.27500E+01
         0.27500E+01
         0.27500E+01
         0.27500E+01
         0.27500E+01
         0.27500E+01
         0.27500E+01
         0.27500E+01
         0.27500E+01
         0.27500E+01
         0.27500E+01
         0.27500E+01
         0.27500E+01
         0.27500E+01
         0.27500E+01
         0.27500E+01
         0.27500E+01
         0.27500E+01
         0.27500E+01
         0.27500E+01
         0.27500E+01
         0.27500E+01
         0.27500E+01
         0.27500E+01
         0.27500E+01
         0.27500E+01
         0.27500E+01
         0.27500E+01
         0.27500E+01
         0.27500E+01
         0.27500E+01
         0.27500E+01
         0.27500E+01
         0.27500E+01
         0.27500E+01
         0.27500E+01
         0.27500E+01
         0.27500E+01
         0.27500E+01
         0.27500E+01
         0.27500E+01
         0.27500E+01
         0.27500E+01
         0.27500E+01
         0.27500E+01
         0.27500E+01
         0.27500E+01
         0.27500E+01
         0.27500E+01
         0.27500E+01
         0.27500E+01
         0.27500E+01
         0.27500E+01
         0.27500E+01
         0.27500E+01
         0.27500E+01
         0.27500E+01
         0.27500E+01
         0.27500E+01
         0.27500E+01
         0.27500E+01
         0.27500E+01
         0.27500E+01
         0.27500E+01
         0.27500E+01
         0.27500E+01
         0.27500E+01
         0.27500E+01
         0.27500E+01
         0.27500E+01
         0.27500E+01
         0.27500E+01
         0.27500E+01
         0.27500E+01
         0.27500E+01
         0.27500E+01
         0.27500E+01
         0.27500E+01
         0.27500E+01
         0.27500E+01
         0.27500E+01
         0.27500E+01
         0.27500E+01
         0.27500E+01
         0.27500E+01
         0.27500E+01
         0.27500E+01
         0.27500E+01
         0.27500E+01
         0.27500E+01
         0.27500E+01
         0.27500E+01
         0.27500E+01
         0.27500E+01
         0.27500E+01
         0.27500E+01
         0.27500E+01
         0.27500E+01
         0.27500E+01
         0.27500E+01
         0.27500E+01
         0.27500E+01
         0.27500E+01
         0.27500E+01
         0.27500E+01
         0.27500E+01
         0.27500E+01
         0.27500E+01
         0.27500E+01
         0.27500E+01
         0.27500E+01
         0.27500E+01
         0.27500E+01
         0.27500E+01
         0.27500E+01
         0.27500E+01
         0.27500E+01
         0.27500E+01
         0.27500E+01
         0.27500E+01
         0.27500E+01
         0.27500E+01
         0.27500E+01
         0.27500E+01
         0.27500E+01
         0.27500E+01
         0.27500E+01
         0.27500E+01
         0.27500E+01
         0.27500E+01
         0.27500E+01
         0.27500E+01
         0.27500E+01
         0.27500E+01
         0.27500E+01
         0.27500E+01
         0.27500E+01
         0.27500E+01
         0.27500E+01
         0.27500E+01
         0.27500E+01
         0.27500E+01
         0.27500E+01
         0.27500E+01
         0.27500E+01
         0.27500E+01
         0.27500E+01
         0.27500E+01
         0.27500E+01
         0.27500E+01
         0.27500E+01
         0.27500E+01
         0.27500E+01
         0.27500E+01
         0.27500E+01
         0.27500E+01
         0.27500E+01
         0.27500E+01
         0.27500E+01
         0.27500E+01
         0.27500E+01
         0.27500E+01
         0.27500E+01
         0.27500E+01
         0.27500E+01
         0.27500E+01
         0.27500E+01
         0.27500E+01
         0.27500E+01
         0.27500E+01
         0.27500E+01
         0.27500E+01
         0.27500E+01
         0.27500E+01
         0.27500E+01
         0.27500E+01
         0.27500E+01
         0.27500E+01
         0.27500E+01
         0.27500E+01
         0.27500E+01
         0.27500E+01
         0.27500E+01
         0.27500E+01
         0.27500E+01
         0.27500E+01
         0.27500E+01
         0.27500E+01
         0.27500E+01
         0.27500E+01
         0.27500E+01
         0.27500E+01
         0.27500E+01
         0.27500E+01
         0.27500E+01
         0.27500E+01
         0.27500E+01
         0.27500E+01
         0.27500E+01
         0.27500E+01
         0.27500E+01
         0.27500E+01
         0.27500E+01
         0.27500E+01
         0.27500E+01
         0.27500E+01
         0.27500E+01
         0.27500E+01
         0.27500E+01
         0.27500E+01
         0.27500E+01
         0.27500E+01
         0.27500E+01
         0.27500E+01
         0.27500E+01
         0.27500E+01
         0.27500E+01
         0.27500E+01
         0.27500E+01
         0.27500E+01
         0.27500E+01
         0.27500E+01
         0.27500E+01
         0.27500E+01
         0.27500E+01
         0.27500E+01
         0.27500E+01
         0.27500E+01
         0.27500E+01
         0.27500E+01
         0.27500E+01
         0.27500E+01
         0.27500E+01
         0.27500E+01
         0.27500E+01
         0.27500E+01
         0.27500E+01
         0.27500E+01
         0.27500E+01
         0.27500E+01
         0.27500E+01
         0.27500E+01
         0.27500E+01
         0.27500E+01
         0.27500E+01
         0.27500E+01
         0.27500E+01
         0.27500E+01
         0.27500E+01
         0.27500E+01
         0.27500E+01
         0.27500E+01
         0.27500E+01
         0.27500E+01
         0.27500E+01
         0.27500E+01
         0.27500E+01
         0.27500E+01
         0.27500E+01
         0.27500E+01
         0.27500E+01
         0.27500E+01
         0.27500E+01
         0.27500E+01
         0.27500E+01
         0.27500E+01
         0.27500E+01
         0.27500E+01
         0.27500E+01
         0.27500E+01
         0.27500E+01
         0.27500E+01
         0.27500E+01
         0.27500E+01
         0.27500E+01
         0.27500E+01
         0.27500E+01
         0.27500E+01
         0.27500E+01
         0.27500E+01
         0.27500E+01
         0.27500E+01
         0.27500E+01
         0.27500E+01
         0.27500E+01
         0.27500E+01
         0.27500E+01
         0.27500E+01
         0.27500E+01
         0.27500E+01
         0.27500E+01
         0.27500E+01
         0.27500E+01
         0.27500E+01
         0.27500E+01
         0.27500E+01
         0.27500E+01
         0.27500E+01
         0.27500E+01
         0.27500E+01
         0.27500E+01
         0.27500E+01
         0.27500E+01
         0.27500E+01
         0.27500E+01
         0.27500E+01
         0.27500E+01
         0.27500E+01
         0.27500E+01
         0.27500E+01
         0.27500E+01
         0.27500E+01
         0.27500E+01
         0.27500E+01
         0.27500E+01
         0.27500E+01
         0.27500E+01
         0.27500E+01
         0.27500E+01
         0.27500E+01
         0.27500E+01
         0.27500E+01
         0.27500E+01
         0.27500E+01
         0.27500E+01
         0.27500E+01
         0.27500E+01
         0.27500E+01
         0.27500E+01
         0.27500E+01
         0.27500E+01
         0.27500E+01
         0.27500E+01
         0.27500E+01
         0.27500E+01
         0.27500E+01
         0.27500E+01
         0.27500E+01
         0.27500E+01
         0.27500E+01
         0.27500E+01
         0.27500E+01
         0.27500E+01
         0.27500E+01
         0.27500E+01
         0.27500E+01
         0.27500E+01
         0.27500E+01
         0.27500E+01
         0.27500E+01
         0.27500E+01
         0.27500E+01
         0.27500E+01
         0.27500E+01
         0.27500E+01
         0.27500E+01
         0.27500E+01
         0.27500E+01
         0.27500E+01
         0.27500E+01
         0.27500E+01
         0.27500E+01
         0.27500E+01
         0.27500E+01
         0.27500E+01
         0.27500E+01
         0.27500E+01
         0.27500E+01
         0.27500E+01
         0.27500E+01
         0.27500E+01
         0.27500E+01
         0.27500E+01
         0.27500E+01
         0.27500E+01
         0.27500E+01
         0.27500E+01
         0.27500E+01
         0.27500E+01
         0.27500E+01
         0.27500E+01
         0.27500E+01
         0.27500E+01
         0.27500E+01
         0.27500E+01
         0.27500E+01
         0.27500E+01
         0.27500E+01
         0.27500E+01
         0.27500E+01
         0.27500E+01
         0.27500E+01
         0.27500E+01
         0.27500E+01
         0.27500E+01
         0.27500E+01
         0.27500E+01
         0.27500E+01
         0.27500E+01
         0.27500E+01
         0.27500E+01
         0.27500E+01
         0.27500E+01
         0.27500E+01
         0.27500E+01
         0.27500E+01
         0.27500E+01
         0.27500E+01
         0.27500E+01
         0.27500E+01
         0.27500E+01
         0.27500E+01
         0.27500E+01
         0.27500E+01
         0.27500E+01
         0.27500E+01
         0.27500E+01
         0.27500E+01
         0.27500E+01
         0.27500E+01
         0.27500E+01
         0.27500E+01
         0.27500E+01
         0.27500E+01
         0.27500E+01
         0.27500E+01
         0.27500E+01
         0.27500E+01
         0.27500E+01
         0.27500E+01
         0.27500E+01
         0.27500E+01
         0.27500E+01
         0.27500E+01
         0.27500E+01
         0.27500E+01
         0.27500E+01
         0.27500E+01
         0.27500E+01
         0.27500E+01
         0.27500E+01
         0.27500E+01
         0.27500E+01
         0.27500E+01
         0.27500E+01
         0.27500E+01
         0.27500E+01
         0.27500E+01
         0.27500E+01
         0.27500E+01
         0.27500E+01
         0.27500E+01
         0.27500E+01
         0.27500E+01
         0.27500E+01
         0.27500E+01
         0.27500E+01
         0.27500E+01
         0.27500E+01
         0.27500E+01
         0.27500E+01
         0.27500E+01
         0.27500E+01
         0.27500E+01
         0.27500E+01
         0.27500E+01
         0.27500E+01
         0.27500E+01
         0.27500E+01
         0.27500E+01
         0.27500E+01
         0.27500E+01
         0.27500E+01
         0.27500E+01
         0.27500E+01
         0.27500E+01
         0.27500E+01
         0.27500E+01
         0.27500E+01
         0.27500E+01
         0.27500E+01
         0.27500E+01
         0.27500E+01
         0.27500E+01
         0.27500E+01
         0.27500E+01
         0.27500E+01
         0.27500E+01
         0.27500E+01
         0.27500E+01
         0.27500E+01
         0.27500E+01
         0.27500E+01
         0.27500E+01
         0.27500E+01
         0.27500E+01
         0.27500E+01
         0.27500E+01
         0.27500E+01
         0.27500E+01
         0.27500E+01
         0.27500E+01
         0.27500E+01
         0.27500E+01
         0.27500E+01
         0.27500E+01
         0.27500E+01
         0.27500E+01
         0.27500E+01
         0.27500E+01
         0.27500E+01
         0.27500E+01
         0.27500E+01
         0.27500E+01
         0.27500E+01
         0.27500E+01
         0.27500E+01
         0.27500E+01
         0.27500E+01
         0.27500E+01
         0.27500E+01
         0.27500E+01
         0.27500E+01
         0.27500E+01
         0.27500E+01
         0.27500E+01
         0.27500E+01
         0.27500E+01
         0.27500E+01
         0.27500E+01
         0.27500E+01
         0.27500E+01
         0.27500E+01
         0.27500E+01
         0.27500E+01
         0.27500E+01
         0.27500E+01
         0.27500E+01
         0.27500E+01
         0.27500E+01
         0.27500E+01
         0.27500E+01
         0.27500E+01
         0.27500E+01
         0.27500E+01
         0.27500E+01
         0.27500E+01
         0.27500E+01
         0.27500E+01
         0.27500E+01
         0.27500E+01
         0.27500E+01
         0.27500E+01
         0.27500E+01
         0.27500E+01
         0.27500E+01
         0.27500E+01
         0.27500E+01
         0.27500E+01
         0.27500E+01
         0.27500E+01
         0.27500E+01
         0.27500E+01
         0.27500E+01
         0.27500E+01
         0.27500E+01
         0.27500E+01
         0.27500E+01
         0.27500E+01
         0.27500E+01
         0.27500E+01
         0.27500E+01
         0.27500E+01
         0.27500E+01
         0.27500E+01
         0.27500E+01
         0.27500E+01
         0.27500E+01
         0.27500E+01
         0.27500E+01
         0.27500E+01
         0.27500E+01
         0.27500E+01
         0.27500E+01
         0.27500E+01
         0.27500E+01
         0.27500E+01
         0.27500E+01
         0.27500E+01
         0.27500E+01
         0.27500E+01
         0.27500E+01
         0.27500E+01
         0.27500E+01
         0.27500E+01
         0.27500E+01
         0.27500E+01
         0.27500E+01
         0.27500E+01
         0.27500E+01
         0.27500E+01
         0.27500E+01
         0.27500E+01
         0.27500E+01
         0.27500E+01
         0.27500E+01
         0.27500E+01
         0.27500E+01
         0.27500E+01
         0.27500E+01
         0.27500E+01
         0.27500E+01
         0.27500E+01
         0.27500E+01
         0.27500E+01
         0.27500E+01
         0.27500E+01
         0.27500E+01
         0.27500E+01
         0.27500E+01
         0.27500E+01
         0.27500E+01
         0.27500E+01
         0.27500E+01
         0.27500E+01
         0.27500E+01
         0.27500E+01
         0.27500E+01
         0.27500E+01
         0.27500E+01
         0.27500E+01
         0.27500E+01
         0.27500E+01
         0.27500E+01
         0.27500E+01
         0.27500E+01
         0.27500E+01
         0.27500E+01
         0.27500E+01
         0.27500E+01
         0.27500E+01
         0.27500E+01
         0.27500E+01
         0.27500E+01
         0.27500E+01
         0.27500E+01
         0.27500E+01
         0.27500E+01
         0.27500E+01
         0.27500E+01
         0.27500E+01
         0.27500E+01
         0.27500E+01
         0.27500E+01
         0.27500E+01
         0.27500E+01
         0.27500E+01
         0.27500E+01
         0.27500E+01
         0.27500E+01
         0.27500E+01
         0.27500E+01
         0.27500E+01
         0.27500E+01
         0.27500E+01
         0.27500E+01
         0.27500E+01
         0.27500E+01
         0.27500E+01
         0.27500E+01
         0.27500E+01
         0.27500E+01
         0.27500E+01
         0.27500E+01
         0.27500E+01
         0.27500E+01
         0.27500E+01
         0.27500E+01
         0.27500E+01
         0.27500E+01
         0.27500E+01
         0.27500E+01
         0.27500E+01
         0.27500E+01
         0.27500E+01
         0.27500E+01
         0.27500E+01
         0.27500E+01
         0.27500E+01
         0.27500E+01
         0.27500E+01
         0.27500E+01
         0.27500E+01
         0.27500E+01
         0.27500E+01
         0.27500E+01
         0.27500E+01
         0.27500E+01
         0.27500E+01
         0.27500E+01
         0.27500E+01
         0.27500E+01
         0.27500E+01
         0.27500E+01
         0.27500E+01
         0.27500E+01
         0.27500E+01
         0.27500E+01
         0.27500E+01
         0.27500E+01
         0.27500E+01
         0.27500E+01
         0.27500E+01
         0.27500E+01
         0.27500E+01
         0.27500E+01
         0.27500E+01
         0.27500E+01
         0.27500E+01
         0.27500E+01
         0.27500E+01
         0.27500E+01
         0.27500E+01
         0.27500E+01
         0.27500E+01
         0.27500E+01
         0.27500E+01
         0.27500E+01
         0.27500E+01
         0.27500E+01
         0.27500E+01
  
SCALARS              physical_window_x  double 1
LOOKUP_TABLE default
         0.42419E-02
         0.35201E-02
         0.37624E-02
         0.42419E-02
         0.42417E-02
         0.35201E-02
         0.37618E-02
         0.42417E-02
         0.37624E-02
         0.37624E-02
         0.37618E-02
         0.37618E-02
         0.30086E-02
         0.32069E-02
         0.30084E-02
         0.32067E-02
         0.42419E-02
         0.32069E-02
         0.42417E-02
         0.32067E-02
         0.24180E-02
         0.29942E-02
         0.32396E-02
         0.24180E-02
         0.29933E-02
         0.32385E-02
         0.26608E-02
         0.27190E-02
         0.26608E-02
         0.27190E-02
         0.42687E-02
         0.36511E-02
         0.42687E-02
         0.42687E-02
         0.36511E-02
         0.42687E-02
         0.32069E-02
         0.29739E-02
         0.32066E-02
         0.29739E-02
         0.34652E-02
         0.32621E-02
         0.34652E-02
         0.32621E-02
         0.37123E-02
         0.32069E-02
         0.37123E-02
         0.32066E-02
         0.30844E-02
         0.30844E-02
         0.35191E-02
         0.35189E-02
         0.26925E-02
         0.26925E-02
         0.26925E-02
         0.26925E-02
         0.24643E-02
         0.27651E-02
         0.24643E-02
         0.27651E-02
         0.42687E-02
         0.35191E-02
         0.42687E-02
         0.35189E-02
         0.42687E-02
         0.42687E-02
         0.34658E-02
         0.34648E-02
         0.27274E-02
         0.31799E-02
         0.27273E-02
         0.31796E-02
         0.32396E-02
         0.32385E-02
         0.26964E-02
         0.26960E-02
         0.27828E-02
         0.27828E-02
         0.27828E-02
         0.27828E-02
         0.27004E-02
         0.31883E-02
         0.27003E-02
         0.31880E-02
         0.31883E-02
         0.31880E-02
         0.37123E-02
         0.37123E-02
         0.36245E-02
         0.36245E-02
         0.28253E-02
         0.31642E-02
         0.28253E-02
         0.31636E-02
         0.33485E-02
         0.33485E-02
         0.33485E-02
         0.33485E-02
         0.31978E-02
         0.31969E-02
         0.29849E-02
         0.32843E-02
         0.29849E-02
         0.32843E-02
         0.27274E-02
         0.31109E-02
         0.27273E-02
         0.31109E-02
         0.31799E-02
         0.31796E-02
         0.32396E-02
         0.32385E-02
         0.32396E-02
         0.32385E-02
         0.29942E-02
         0.29933E-02
         0.27190E-02
         0.27190E-02
         0.26964E-02
         0.26960E-02
         0.27828E-02
         0.27828E-02
         0.27828E-02
         0.27828E-02
         0.27004E-02
         0.27003E-02
         0.31883E-02
         0.31880E-02
         0.31883E-02
         0.31880E-02
         0.32621E-02
         0.32621E-02
         0.34652E-02
         0.34652E-02
         0.37123E-02
         0.37123E-02
         0.37123E-02
         0.37123E-02
         0.36245E-02
         0.36245E-02
         0.28253E-02
         0.28253E-02
         0.29097E-02
         0.29087E-02
         0.32389E-02
         0.32378E-02
         0.32389E-02
         0.32378E-02
         0.31978E-02
         0.31969E-02
         0.29849E-02
         0.29849E-02
         0.32843E-02
         0.32843E-02
         0.32843E-02
         0.32843E-02
         0.42420E-02
         0.35201E-02
         0.37629E-02
         0.42420E-02
         0.37629E-02
         0.37629E-02
         0.30087E-02
         0.32071E-02
         0.42420E-02
         0.32071E-02
         0.24178E-02
         0.29952E-02
         0.32407E-02
         0.26596E-02
         0.27191E-02
         0.42679E-02
         0.36502E-02
         0.42679E-02
         0.32071E-02
         0.29727E-02
         0.34648E-02
         0.32622E-02
         0.37119E-02
         0.32071E-02
         0.30833E-02
         0.35193E-02
         0.26910E-02
         0.26910E-02
         0.24638E-02
         0.27644E-02
         0.42679E-02
         0.35193E-02
         0.42679E-02
         0.34670E-02
         0.27274E-02
         0.31802E-02
         0.32407E-02
         0.26968E-02
         0.27828E-02
         0.27828E-02
         0.27005E-02
         0.31885E-02
         0.31885E-02
         0.37119E-02
         0.36244E-02
         0.28250E-02
         0.31647E-02
         0.33484E-02
         0.33484E-02
         0.31986E-02
         0.29848E-02
         0.32841E-02
         0.27274E-02
         0.31099E-02
         0.31802E-02
         0.32407E-02
         0.32407E-02
         0.29952E-02
         0.27191E-02
         0.26968E-02
         0.27828E-02
         0.27828E-02
         0.27005E-02
         0.31885E-02
         0.31885E-02
         0.32622E-02
         0.34648E-02
         0.37119E-02
         0.37119E-02
         0.36244E-02
         0.28250E-02
         0.29106E-02
         0.32401E-02
         0.32401E-02
         0.31986E-02
         0.29848E-02
         0.32841E-02
         0.32841E-02
         0.42421E-02
         0.35201E-02
         0.37634E-02
         0.42421E-02
         0.37634E-02
         0.37634E-02
         0.30089E-02
         0.32073E-02
         0.42421E-02
         0.32073E-02
         0.24177E-02
         0.29961E-02
         0.32418E-02
         0.26584E-02
         0.27191E-02
         0.42670E-02
         0.36493E-02
         0.42670E-02
         0.32073E-02
         0.29714E-02
         0.34644E-02
         0.32623E-02
         0.37115E-02
         0.32073E-02
         0.30822E-02
         0.35195E-02
         0.26896E-02
         0.26896E-02
         0.24633E-02
         0.27638E-02
         0.42670E-02
         0.35195E-02
         0.42670E-02
         0.34681E-02
         0.27275E-02
         0.31805E-02
         0.32418E-02
         0.26972E-02
         0.27828E-02
         0.27828E-02
         0.27006E-02
         0.31888E-02
         0.31888E-02
         0.37115E-02
         0.36243E-02
         0.28247E-02
         0.31652E-02
         0.33483E-02
         0.33483E-02
         0.31995E-02
         0.29847E-02
         0.32839E-02
         0.27275E-02
         0.31090E-02
         0.31805E-02
         0.32418E-02
         0.32418E-02
         0.29961E-02
         0.27191E-02
         0.26972E-02
         0.27828E-02
         0.27828E-02
         0.27006E-02
         0.31888E-02
         0.31888E-02
         0.32623E-02
         0.34644E-02
         0.37115E-02
         0.37115E-02
         0.36243E-02
         0.28247E-02
         0.29116E-02
         0.32412E-02
         0.32412E-02
         0.31995E-02
         0.29847E-02
         0.32839E-02
         0.32839E-02
         0.42423E-02
         0.35200E-02
         0.37639E-02
         0.42423E-02
         0.37639E-02
         0.37639E-02
         0.30091E-02
         0.32075E-02
         0.42423E-02
         0.32075E-02
         0.24176E-02
         0.29970E-02
         0.32428E-02
         0.26572E-02
         0.27192E-02
         0.42662E-02
         0.36483E-02
         0.42662E-02
         0.32075E-02
         0.29702E-02
         0.34639E-02
         0.32624E-02
         0.37111E-02
         0.32075E-02
         0.30811E-02
         0.35197E-02
         0.26881E-02
         0.26881E-02
         0.24628E-02
         0.27631E-02
         0.42662E-02
         0.35197E-02
         0.42662E-02
         0.34692E-02
         0.27276E-02
         0.31808E-02
         0.32428E-02
         0.26975E-02
         0.27828E-02
         0.27828E-02
         0.27007E-02
         0.31890E-02
         0.31890E-02
         0.37111E-02
         0.36242E-02
         0.28243E-02
         0.31658E-02
         0.33482E-02
         0.33482E-02
         0.32003E-02
         0.29846E-02
         0.32837E-02
         0.27276E-02
         0.31081E-02
         0.31808E-02
         0.32428E-02
         0.32428E-02
         0.29970E-02
         0.27192E-02
         0.26975E-02
         0.27828E-02
         0.27828E-02
         0.27007E-02
         0.31890E-02
         0.31890E-02
         0.32624E-02
         0.34639E-02
         0.37111E-02
         0.37111E-02
         0.36242E-02
         0.28243E-02
         0.29125E-02
         0.32423E-02
         0.32423E-02
         0.32003E-02
         0.29846E-02
         0.32837E-02
         0.32837E-02
         0.42424E-02
         0.35200E-02
         0.37644E-02
         0.42424E-02
         0.37644E-02
         0.37644E-02
         0.30093E-02
         0.32077E-02
         0.42424E-02
         0.32077E-02
         0.24174E-02
         0.29979E-02
         0.32439E-02
         0.26559E-02
         0.27192E-02
         0.42653E-02
         0.36474E-02
         0.42653E-02
         0.32077E-02
         0.29690E-02
         0.34635E-02
         0.32624E-02
         0.37108E-02
         0.32077E-02
         0.30799E-02
         0.35199E-02
         0.26867E-02
         0.26867E-02
         0.24623E-02
         0.27625E-02
         0.42653E-02
         0.35199E-02
         0.42653E-02
         0.34703E-02
         0.27276E-02
         0.31812E-02
         0.32439E-02
         0.26979E-02
         0.27828E-02
         0.27828E-02
         0.27008E-02
         0.31893E-02
         0.31893E-02
         0.37108E-02
         0.36241E-02
         0.28240E-02
         0.31663E-02
         0.33481E-02
         0.33481E-02
         0.32012E-02
         0.29844E-02
         0.32835E-02
         0.27276E-02
         0.31071E-02
         0.31812E-02
         0.32439E-02
         0.32439E-02
         0.29979E-02
         0.27192E-02
         0.26979E-02
         0.27828E-02
         0.27828E-02
         0.27008E-02
         0.31893E-02
         0.31893E-02
         0.32624E-02
         0.34635E-02
         0.37108E-02
         0.37108E-02
         0.36241E-02
         0.28240E-02
         0.29135E-02
         0.32434E-02
         0.32434E-02
         0.32012E-02
         0.29844E-02
         0.32835E-02
         0.32835E-02
         0.42425E-02
         0.35200E-02
         0.37649E-02
         0.42425E-02
         0.37649E-02
         0.37649E-02
         0.30095E-02
         0.32079E-02
         0.42425E-02
         0.32079E-02
         0.24173E-02
         0.29989E-02
         0.32450E-02
         0.26547E-02
         0.27193E-02
         0.42645E-02
         0.36465E-02
         0.42645E-02
         0.32079E-02
         0.29677E-02
         0.34631E-02
         0.32625E-02
         0.37104E-02
         0.32079E-02
         0.30788E-02
         0.35201E-02
         0.26852E-02
         0.26852E-02
         0.24618E-02
         0.27618E-02
         0.42645E-02
         0.35201E-02
         0.42645E-02
         0.34715E-02
         0.27277E-02
         0.31815E-02
         0.32450E-02
         0.26983E-02
         0.27828E-02
         0.27828E-02
         0.27009E-02
         0.31895E-02
         0.31895E-02
         0.37104E-02
         0.36239E-02
         0.28237E-02
         0.31668E-02
         0.33480E-02
         0.33480E-02
         0.32020E-02
         0.29843E-02
         0.32833E-02
         0.27277E-02
         0.31062E-02
         0.31815E-02
         0.32450E-02
         0.32450E-02
         0.29989E-02
         0.27193E-02
         0.26983E-02
         0.27828E-02
         0.27828E-02
         0.27009E-02
         0.31895E-02
         0.31895E-02
         0.32625E-02
         0.34631E-02
         0.37104E-02
         0.37104E-02
         0.36239E-02
         0.28237E-02
         0.29145E-02
         0.32445E-02
         0.32445E-02
         0.32020E-02
         0.29843E-02
         0.32833E-02
         0.32833E-02
         0.42427E-02
         0.35200E-02
         0.37654E-02
         0.42427E-02
         0.37654E-02
         0.37654E-02
         0.30097E-02
         0.32081E-02
         0.42427E-02
         0.32081E-02
         0.24171E-02
         0.29998E-02
         0.32461E-02
         0.26535E-02
         0.27193E-02
         0.42636E-02
         0.36455E-02
         0.42636E-02
         0.32081E-02
         0.29665E-02
         0.34626E-02
         0.32626E-02
         0.37100E-02
         0.32081E-02
         0.30777E-02
         0.35203E-02
         0.26838E-02
         0.26838E-02
         0.24613E-02
         0.27611E-02
         0.42636E-02
         0.35203E-02
         0.42636E-02
         0.34726E-02
         0.27278E-02
         0.31818E-02
         0.32461E-02
         0.26987E-02
         0.27827E-02
         0.27827E-02
         0.27010E-02
         0.31898E-02
         0.31898E-02
         0.37100E-02
         0.36238E-02
         0.28234E-02
         0.31673E-02
         0.33479E-02
         0.33479E-02
         0.32029E-02
         0.29842E-02
         0.32831E-02
         0.27278E-02
         0.31052E-02
         0.31818E-02
         0.32461E-02
         0.32461E-02
         0.29998E-02
         0.27193E-02
         0.26987E-02
         0.27827E-02
         0.27827E-02
         0.27010E-02
         0.31898E-02
         0.31898E-02
         0.32626E-02
         0.34626E-02
         0.37100E-02
         0.37100E-02
         0.36238E-02
         0.28234E-02
         0.29154E-02
         0.32457E-02
         0.32457E-02
         0.32029E-02
         0.29842E-02
         0.32831E-02
         0.32831E-02
         0.42428E-02
         0.35199E-02
         0.37660E-02
         0.42428E-02
         0.37660E-02
         0.37660E-02
         0.30099E-02
         0.32083E-02
         0.42428E-02
         0.32083E-02
         0.24170E-02
         0.30007E-02
         0.32471E-02
         0.26523E-02
         0.27194E-02
         0.42628E-02
         0.36446E-02
         0.42628E-02
         0.32083E-02
         0.29652E-02
         0.34622E-02
         0.32627E-02
         0.37096E-02
         0.32083E-02
         0.30766E-02
         0.35205E-02
         0.26823E-02
         0.26823E-02
         0.24608E-02
         0.27605E-02
         0.42628E-02
         0.35205E-02
         0.42628E-02
         0.34737E-02
         0.27279E-02
         0.31821E-02
         0.32471E-02
         0.26991E-02
         0.27827E-02
         0.27827E-02
         0.27011E-02
         0.31900E-02
         0.31900E-02
         0.37096E-02
         0.36237E-02
         0.28231E-02
         0.31679E-02
         0.33478E-02
         0.33478E-02
         0.32038E-02
         0.29841E-02
         0.32829E-02
         0.27279E-02
         0.31043E-02
         0.31821E-02
         0.32471E-02
         0.32471E-02
         0.30007E-02
         0.27194E-02
         0.26991E-02
         0.27827E-02
         0.27827E-02
         0.27011E-02
         0.31900E-02
         0.31900E-02
         0.32627E-02
         0.34622E-02
         0.37096E-02
         0.37096E-02
         0.36237E-02
         0.28231E-02
         0.29164E-02
         0.32468E-02
         0.32468E-02
         0.32038E-02
         0.29841E-02
         0.32829E-02
         0.32829E-02
         0.42429E-02
         0.35199E-02
         0.37665E-02
         0.42429E-02
         0.37665E-02
         0.37665E-02
         0.30101E-02
         0.32085E-02
         0.42429E-02
         0.32085E-02
         0.24168E-02
         0.30017E-02
         0.32482E-02
         0.26510E-02
         0.27194E-02
         0.42619E-02
         0.36437E-02
         0.42619E-02
         0.32085E-02
         0.29640E-02
         0.34618E-02
         0.32627E-02
         0.37092E-02
         0.32085E-02
         0.30755E-02
         0.35207E-02
         0.26808E-02
         0.26808E-02
         0.24603E-02
         0.27599E-02
         0.42619E-02
         0.35207E-02
         0.42619E-02
         0.34748E-02
         0.27279E-02
         0.31824E-02
         0.32482E-02
         0.26994E-02
         0.27827E-02
         0.27827E-02
         0.27012E-02
         0.31902E-02
         0.31902E-02
         0.37092E-02
         0.36236E-02
         0.28227E-02
         0.31684E-02
         0.33477E-02
         0.33477E-02
         0.32046E-02
         0.29840E-02
         0.32827E-02
         0.27279E-02
         0.31034E-02
         0.31824E-02
         0.32482E-02
         0.32482E-02
         0.30017E-02
         0.27194E-02
         0.26994E-02
         0.27827E-02
         0.27827E-02
         0.27012E-02
         0.31902E-02
         0.31902E-02
         0.32627E-02
         0.34618E-02
         0.37092E-02
         0.37092E-02
         0.36236E-02
         0.28227E-02
         0.29173E-02
         0.32479E-02
         0.32479E-02
         0.32046E-02
         0.29840E-02
         0.32827E-02
         0.32827E-02
         0.42431E-02
         0.35199E-02
         0.37670E-02
         0.42431E-02
         0.37670E-02
         0.37670E-02
         0.30102E-02
         0.32087E-02
         0.42431E-02
         0.32087E-02
         0.24167E-02
         0.30026E-02
         0.32493E-02
         0.26498E-02
         0.27194E-02
         0.42611E-02
         0.36427E-02
         0.42611E-02
         0.32087E-02
         0.29628E-02
         0.34613E-02
         0.32628E-02
         0.37089E-02
         0.32087E-02
         0.30744E-02
         0.35209E-02
         0.26794E-02
         0.26794E-02
         0.24598E-02
         0.27592E-02
         0.42611E-02
         0.35209E-02
         0.42611E-02
         0.34759E-02
         0.27280E-02
         0.31827E-02
         0.32493E-02
         0.26998E-02
         0.27827E-02
         0.27827E-02
         0.27013E-02
         0.31905E-02
         0.31905E-02
         0.37089E-02
         0.36235E-02
         0.28224E-02
         0.31689E-02
         0.33476E-02
         0.33476E-02
         0.32055E-02
         0.29839E-02
         0.32825E-02
         0.27280E-02
         0.31024E-02
         0.31827E-02
         0.32493E-02
         0.32493E-02
         0.30026E-02
         0.27194E-02
         0.26998E-02
         0.27827E-02
         0.27827E-02
         0.27013E-02
         0.31905E-02
         0.31905E-02
         0.32628E-02
         0.34613E-02
         0.37089E-02
         0.37089E-02
         0.36235E-02
         0.28224E-02
         0.29183E-02
         0.32490E-02
         0.32490E-02
         0.32055E-02
         0.29839E-02
         0.32825E-02
         0.32825E-02
         0.42432E-02
         0.35199E-02
         0.37675E-02
         0.42432E-02
         0.37675E-02
         0.37675E-02
         0.30104E-02
         0.32089E-02
         0.42432E-02
         0.32089E-02
         0.24166E-02
         0.30035E-02
         0.32504E-02
         0.26486E-02
         0.27195E-02
         0.42603E-02
         0.36418E-02
         0.42603E-02
         0.32089E-02
         0.29615E-02
         0.34609E-02
         0.32629E-02
         0.37085E-02
         0.32089E-02
         0.30732E-02
         0.35211E-02
         0.26779E-02
         0.26779E-02
         0.24593E-02
         0.27585E-02
         0.42603E-02
         0.35211E-02
         0.42603E-02
         0.34771E-02
         0.27281E-02
         0.31830E-02
         0.32504E-02
         0.27002E-02
         0.27827E-02
         0.27827E-02
         0.27014E-02
         0.31907E-02
         0.31907E-02
         0.37085E-02
         0.36233E-02
         0.28221E-02
         0.31694E-02
         0.33475E-02
         0.33475E-02
         0.32063E-02
         0.29838E-02
         0.32823E-02
         0.27281E-02
         0.31015E-02
         0.31830E-02
         0.32504E-02
         0.32504E-02
         0.30035E-02
         0.27195E-02
         0.27002E-02
         0.27827E-02
         0.27827E-02
         0.27014E-02
         0.31907E-02
         0.31907E-02
         0.32629E-02
         0.34609E-02
         0.37085E-02
         0.37085E-02
         0.36233E-02
         0.28221E-02
         0.29193E-02
         0.32501E-02
         0.32501E-02
         0.32063E-02
         0.29838E-02
         0.32823E-02
         0.32823E-02
         0.42433E-02
         0.35199E-02
         0.37680E-02
         0.42433E-02
         0.37680E-02
         0.37680E-02
         0.30106E-02
         0.32091E-02
         0.42433E-02
         0.32091E-02
         0.24164E-02
         0.30045E-02
         0.32514E-02
         0.26474E-02
         0.27195E-02
         0.42594E-02
         0.36409E-02
         0.42594E-02
         0.32091E-02
         0.29603E-02
         0.34605E-02
         0.32630E-02
         0.37081E-02
         0.32091E-02
         0.30721E-02
         0.35213E-02
         0.26765E-02
         0.26765E-02
         0.24588E-02
         0.27579E-02
         0.42594E-02
         0.35213E-02
         0.42594E-02
         0.34782E-02
         0.27281E-02
         0.31833E-02
         0.32514E-02
         0.27006E-02
         0.27826E-02
         0.27826E-02
         0.27015E-02
         0.31910E-02
         0.31910E-02
         0.37081E-02
         0.36232E-02
         0.28218E-02
         0.31700E-02
         0.33474E-02
         0.33474E-02
         0.32072E-02
         0.29836E-02
         0.32821E-02
         0.27281E-02
         0.31005E-02
         0.31833E-02
         0.32514E-02
         0.32514E-02
         0.30045E-02
         0.27195E-02
         0.27006E-02
         0.27826E-02
         0.27826E-02
         0.27015E-02
         0.31910E-02
         0.31910E-02
         0.32630E-02
         0.34605E-02
         0.37081E-02
         0.37081E-02
         0.36232E-02
         0.28218E-02
         0.29202E-02
         0.32512E-02
         0.32512E-02
         0.32072E-02
         0.29836E-02
         0.32821E-02
         0.32821E-02
         0.42435E-02
         0.35199E-02
         0.37685E-02
         0.42435E-02
         0.37685E-02
         0.37685E-02
         0.30108E-02
         0.32093E-02
         0.42435E-02
         0.32093E-02
         0.24163E-02
         0.30054E-02
         0.32525E-02
         0.26461E-02
         0.27196E-02
         0.42586E-02
         0.36399E-02
         0.42586E-02
         0.32093E-02
         0.29591E-02
         0.34601E-02
         0.32630E-02
         0.37077E-02
         0.32093E-02
         0.30710E-02
         0.35215E-02
         0.26750E-02
         0.26750E-02
         0.24583E-02
         0.27572E-02
         0.42586E-02
         0.35215E-02
         0.42586E-02
         0.34793E-02
         0.27282E-02
         0.31836E-02
         0.32525E-02
         0.27010E-02
         0.27826E-02
         0.27826E-02
         0.27016E-02
         0.31912E-02
         0.31912E-02
         0.37077E-02
         0.36231E-02
         0.28215E-02
         0.31705E-02
         0.33473E-02
         0.33473E-02
         0.32080E-02
         0.29835E-02
         0.32819E-02
         0.27282E-02
         0.30996E-02
         0.31836E-02
         0.32525E-02
         0.32525E-02
         0.30054E-02
         0.27196E-02
         0.27010E-02
         0.27826E-02
         0.27826E-02
         0.27016E-02
         0.31912E-02
         0.31912E-02
         0.32630E-02
         0.34601E-02
         0.37077E-02
         0.37077E-02
         0.36231E-02
         0.28215E-02
         0.29212E-02
         0.32524E-02
         0.32524E-02
         0.32080E-02
         0.29835E-02
         0.32819E-02
         0.32819E-02
         0.42436E-02
         0.35198E-02
         0.37690E-02
         0.42436E-02
         0.37690E-02
         0.37690E-02
         0.30110E-02
         0.32095E-02
         0.42436E-02
         0.32095E-02
         0.24162E-02
         0.30064E-02
         0.32536E-02
         0.26449E-02
         0.27196E-02
         0.42577E-02
         0.36390E-02
         0.42577E-02
         0.32096E-02
         0.29578E-02
         0.34596E-02
         0.32631E-02
         0.37074E-02
         0.32096E-02
         0.30699E-02
         0.35217E-02
         0.26735E-02
         0.26735E-02
         0.24578E-02
         0.27566E-02
         0.42577E-02
         0.35217E-02
         0.42577E-02
         0.34804E-02
         0.27283E-02
         0.31839E-02
         0.32536E-02
         0.27013E-02
         0.27826E-02
         0.27826E-02
         0.27017E-02
         0.31915E-02
         0.31915E-02
         0.37074E-02
         0.36230E-02
         0.28211E-02
         0.31710E-02
         0.33472E-02
         0.33472E-02
         0.32089E-02
         0.29834E-02
         0.32817E-02
         0.27283E-02
         0.30986E-02
         0.31839E-02
         0.32536E-02
         0.32536E-02
         0.30064E-02
         0.27196E-02
         0.27013E-02
         0.27826E-02
         0.27826E-02
         0.27017E-02
         0.31915E-02
         0.31915E-02
         0.32631E-02
         0.34596E-02
         0.37074E-02
         0.37074E-02
         0.36230E-02
         0.28211E-02
         0.29221E-02
         0.32535E-02
         0.32535E-02
         0.32089E-02
         0.29834E-02
         0.32817E-02
         0.32817E-02
         0.42437E-02
         0.35198E-02
         0.37695E-02
         0.42437E-02
         0.37695E-02
         0.37695E-02
         0.30112E-02
         0.32097E-02
         0.42437E-02
         0.32097E-02
         0.24160E-02
         0.30073E-02
         0.32547E-02
         0.26437E-02
         0.27197E-02
         0.42569E-02
         0.36381E-02
         0.42569E-02
         0.32098E-02
         0.29566E-02
         0.34592E-02
         0.32632E-02
         0.37070E-02
         0.32098E-02
         0.30688E-02
         0.35219E-02
         0.26721E-02
         0.26721E-02
         0.24573E-02
         0.27560E-02
         0.42569E-02
         0.35219E-02
         0.42569E-02
         0.34815E-02
         0.27284E-02
         0.31843E-02
         0.32547E-02
         0.27017E-02
         0.27826E-02
         0.27826E-02
         0.27018E-02
         0.31917E-02
         0.31917E-02
         0.37070E-02
         0.36229E-02
         0.28208E-02
         0.31716E-02
         0.33471E-02
         0.33471E-02
         0.32097E-02
         0.29833E-02
         0.32815E-02
         0.27284E-02
         0.30977E-02
         0.31843E-02
         0.32547E-02
         0.32547E-02
         0.30073E-02
         0.27197E-02
         0.27017E-02
         0.27826E-02
         0.27826E-02
         0.27018E-02
         0.31917E-02
         0.31917E-02
         0.32632E-02
         0.34592E-02
         0.37070E-02
         0.37070E-02
         0.36229E-02
         0.28208E-02
         0.29231E-02
         0.32546E-02
         0.32546E-02
         0.32097E-02
         0.29833E-02
         0.32815E-02
         0.32815E-02
         0.42439E-02
         0.35198E-02
         0.37701E-02
         0.42439E-02
         0.37701E-02
         0.37701E-02
         0.30113E-02
         0.32099E-02
         0.42439E-02
         0.32099E-02
         0.24159E-02
         0.30082E-02
         0.32558E-02
         0.26425E-02
         0.27197E-02
         0.42560E-02
         0.36371E-02
         0.42560E-02
         0.32100E-02
         0.29554E-02
         0.34588E-02
         0.32633E-02
         0.37066E-02
         0.32100E-02
         0.30677E-02
         0.35221E-02
         0.26706E-02
         0.26706E-02
         0.24568E-02
         0.27553E-02
         0.42560E-02
         0.35221E-02
         0.42560E-02
         0.34827E-02
         0.27284E-02
         0.31846E-02
         0.32558E-02
         0.27021E-02
         0.27826E-02
         0.27826E-02
         0.27019E-02
         0.31920E-02
         0.31920E-02
         0.37066E-02
         0.36227E-02
         0.28205E-02
         0.31721E-02
         0.33470E-02
         0.33470E-02
         0.32106E-02
         0.29831E-02
         0.32813E-02
         0.27284E-02
         0.30968E-02
         0.31846E-02
         0.32558E-02
         0.32558E-02
         0.30082E-02
         0.27197E-02
         0.27021E-02
         0.27826E-02
         0.27826E-02
         0.27019E-02
         0.31920E-02
         0.31920E-02
         0.32633E-02
         0.34588E-02
         0.37066E-02
         0.37066E-02
         0.36227E-02
         0.28205E-02
         0.29241E-02
         0.32557E-02
         0.32557E-02
         0.32106E-02
         0.29831E-02
         0.32813E-02
         0.32813E-02
         0.42440E-02
         0.35198E-02
         0.37706E-02
         0.42440E-02
         0.37706E-02
         0.37706E-02
         0.30115E-02
         0.32101E-02
         0.42440E-02
         0.32101E-02
         0.24158E-02
         0.30091E-02
         0.32568E-02
         0.26412E-02
         0.27198E-02
         0.42552E-02
         0.36362E-02
         0.42552E-02
         0.32102E-02
         0.29541E-02
         0.34583E-02
         0.32633E-02
         0.37062E-02
         0.32102E-02
         0.30665E-02
         0.35223E-02
         0.26692E-02
         0.26692E-02
         0.24563E-02
         0.27546E-02
         0.42552E-02
         0.35223E-02
         0.42552E-02
         0.34838E-02
         0.27285E-02
         0.31849E-02
         0.32568E-02
         0.27025E-02
         0.27826E-02
         0.27826E-02
         0.27020E-02
         0.31922E-02
         0.31922E-02
         0.37062E-02
         0.36226E-02
         0.28202E-02
         0.31726E-02
         0.33469E-02
         0.33469E-02
         0.32114E-02
         0.29830E-02
         0.32811E-02
         0.27285E-02
         0.30958E-02
         0.31849E-02
         0.32568E-02
         0.32568E-02
         0.30091E-02
         0.27198E-02
         0.27025E-02
         0.27826E-02
         0.27826E-02
         0.27020E-02
         0.31922E-02
         0.31922E-02
         0.32633E-02
         0.34583E-02
         0.37062E-02
         0.37062E-02
         0.36226E-02
         0.28202E-02
         0.29250E-02
         0.32568E-02
         0.32568E-02
         0.32114E-02
         0.29830E-02
         0.32811E-02
         0.32811E-02
         0.42441E-02
         0.35198E-02
         0.37711E-02
         0.42441E-02
         0.37711E-02
         0.37711E-02
         0.30117E-02
         0.32103E-02
         0.42441E-02
         0.32103E-02
         0.24156E-02
         0.30101E-02
         0.32579E-02
         0.26400E-02
         0.27198E-02
         0.42543E-02
         0.36353E-02
         0.42543E-02
         0.32104E-02
         0.29529E-02
         0.34579E-02
         0.32634E-02
         0.37058E-02
         0.32104E-02
         0.30654E-02
         0.35225E-02
         0.26677E-02
         0.26677E-02
         0.24558E-02
         0.27540E-02
         0.42543E-02
         0.35225E-02
         0.42543E-02
         0.34849E-02
         0.27286E-02
         0.31852E-02
         0.32579E-02
         0.27029E-02
         0.27826E-02
         0.27826E-02
         0.27021E-02
         0.31924E-02
         0.31924E-02
         0.37058E-02
         0.36225E-02
         0.28198E-02
         0.31731E-02
         0.33468E-02
         0.33468E-02
         0.32123E-02
         0.29829E-02
         0.32809E-02
         0.27286E-02
         0.30949E-02
         0.31852E-02
         0.32579E-02
         0.32579E-02
         0.30101E-02
         0.27198E-02
         0.27029E-02
         0.27826E-02
         0.27826E-02
         0.27021E-02
         0.31924E-02
         0.31924E-02
         0.32634E-02
         0.34579E-02
         0.37058E-02
         0.37058E-02
         0.36225E-02
         0.28198E-02
         0.29260E-02
         0.32579E-02
         0.32579E-02
         0.32123E-02
         0.29829E-02
         0.32809E-02
         0.32809E-02
         0.42443E-02
         0.35197E-02
         0.37716E-02
         0.42443E-02
         0.37716E-02
         0.37716E-02
         0.30119E-02
         0.32105E-02
         0.42443E-02
         0.32105E-02
         0.24155E-02
         0.30110E-02
         0.32590E-02
         0.26388E-02
         0.27199E-02
         0.42535E-02
         0.36343E-02
         0.42535E-02
         0.32106E-02
         0.29517E-02
         0.34575E-02
         0.32635E-02
         0.37055E-02
         0.32106E-02
         0.30643E-02
         0.35227E-02
         0.26663E-02
         0.26663E-02
         0.24553E-02
         0.27533E-02
         0.42535E-02
         0.35227E-02
         0.42535E-02
         0.34860E-02
         0.27286E-02
         0.31855E-02
         0.32590E-02
         0.27032E-02
         0.27826E-02
         0.27826E-02
         0.27022E-02
         0.31927E-02
         0.31927E-02
         0.37055E-02
         0.36224E-02
         0.28195E-02
         0.31737E-02
         0.33467E-02
         0.33467E-02
         0.32132E-02
         0.29828E-02
         0.32807E-02
         0.27286E-02
         0.30939E-02
         0.31855E-02
         0.32590E-02
         0.32590E-02
         0.30110E-02
         0.27199E-02
         0.27032E-02
         0.27826E-02
         0.27826E-02
         0.27022E-02
         0.31927E-02
         0.31927E-02
         0.32635E-02
         0.34575E-02
         0.37055E-02
         0.37055E-02
         0.36224E-02
         0.28195E-02
         0.29269E-02
         0.32591E-02
         0.32591E-02
         0.32132E-02
         0.29828E-02
         0.32807E-02
         0.32807E-02
         0.42444E-02
         0.35197E-02
         0.37721E-02
         0.42444E-02
         0.37721E-02
         0.37721E-02
         0.30121E-02
         0.32107E-02
         0.42444E-02
         0.32107E-02
         0.24154E-02
         0.30119E-02
         0.32601E-02
         0.26376E-02
         0.27199E-02
         0.42527E-02
         0.36334E-02
         0.42527E-02
         0.32108E-02
         0.29504E-02
         0.34571E-02
         0.32636E-02
         0.37051E-02
         0.32108E-02
         0.30632E-02
         0.35229E-02
         0.26648E-02
         0.26648E-02
         0.24552E-02
         0.27527E-02
         0.42527E-02
         0.35229E-02
         0.42527E-02
         0.34871E-02
         0.27287E-02
         0.31858E-02
         0.32601E-02
         0.27036E-02
         0.27825E-02
         0.27825E-02
         0.27023E-02
         0.31929E-02
         0.31929E-02
         0.37051E-02
         0.36223E-02
         0.28192E-02
         0.31742E-02
         0.33466E-02
         0.33466E-02
         0.32140E-02
         0.29827E-02
         0.32805E-02
         0.27287E-02
         0.30930E-02
         0.31858E-02
         0.32601E-02
         0.32601E-02
         0.30119E-02
         0.27199E-02
         0.27036E-02
         0.27825E-02
         0.27825E-02
         0.27023E-02
         0.31929E-02
         0.31929E-02
         0.32636E-02
         0.34571E-02
         0.37051E-02
         0.37051E-02
         0.36223E-02
         0.28192E-02
         0.29279E-02
         0.32602E-02
         0.32602E-02
         0.32140E-02
         0.29827E-02
         0.32805E-02
         0.32805E-02
         0.42445E-02
         0.35197E-02
         0.37726E-02
         0.42445E-02
         0.37726E-02
         0.37726E-02
         0.30123E-02
         0.32108E-02
         0.42445E-02
         0.32108E-02
         0.24152E-02
         0.30129E-02
         0.32611E-02
         0.26363E-02
         0.27200E-02
         0.42518E-02
         0.36325E-02
         0.42518E-02
         0.32110E-02
         0.29492E-02
         0.34566E-02
         0.32636E-02
         0.37047E-02
         0.32110E-02
         0.30621E-02
         0.35231E-02
         0.26633E-02
         0.26633E-02
         0.24554E-02
         0.27520E-02
         0.42518E-02
         0.35231E-02
         0.42518E-02
         0.34882E-02
         0.27288E-02
         0.31861E-02
         0.32611E-02
         0.27040E-02
         0.27825E-02
         0.27825E-02
         0.27024E-02
         0.31932E-02
         0.31932E-02
         0.37047E-02
         0.36222E-02
         0.28189E-02
         0.31747E-02
         0.33465E-02
         0.33465E-02
         0.32149E-02
         0.29826E-02
         0.32803E-02
         0.27288E-02
         0.30921E-02
         0.31861E-02
         0.32611E-02
         0.32611E-02
         0.30129E-02
         0.27200E-02
         0.27040E-02
         0.27825E-02
         0.27825E-02
         0.27024E-02
         0.31932E-02
         0.31932E-02
         0.32636E-02
         0.34566E-02
         0.37047E-02
         0.37047E-02
         0.36222E-02
         0.28189E-02
         0.29289E-02
         0.32613E-02
         0.32613E-02
         0.32149E-02
         0.29826E-02
         0.32803E-02
         0.32803E-02
         0.42447E-02
         0.35196E-02
         0.37732E-02
         0.42447E-02
         0.37732E-02
         0.37732E-02
         0.30125E-02
         0.32111E-02
         0.42447E-02
         0.32111E-02
         0.24151E-02
         0.30138E-02
         0.32622E-02
         0.26351E-02
         0.27200E-02
         0.42510E-02
         0.36315E-02
         0.42510E-02
         0.32112E-02
         0.29480E-02
         0.34562E-02
         0.32637E-02
         0.37043E-02
         0.32112E-02
         0.30610E-02
         0.35233E-02
         0.26619E-02
         0.26619E-02
         0.24557E-02
         0.27514E-02
         0.42510E-02
         0.35233E-02
         0.42510E-02
         0.34894E-02
         0.27289E-02
         0.31864E-02
         0.32622E-02
         0.27044E-02
         0.27825E-02
         0.27825E-02
         0.27025E-02
         0.31934E-02
         0.31934E-02
         0.37043E-02
         0.36220E-02
         0.28186E-02
         0.31753E-02
         0.33464E-02
         0.33464E-02
         0.32157E-02
         0.29824E-02
         0.32801E-02
         0.27289E-02
         0.30911E-02
         0.31864E-02
         0.32622E-02
         0.32622E-02
         0.30138E-02
         0.27200E-02
         0.27044E-02
         0.27825E-02
         0.27825E-02
         0.27025E-02
         0.31934E-02
         0.31934E-02
         0.32637E-02
         0.34562E-02
         0.37043E-02
         0.37043E-02
         0.36220E-02
         0.28186E-02
         0.29298E-02
         0.32624E-02
         0.32624E-02
         0.32157E-02
         0.29824E-02
         0.32801E-02
         0.32801E-02
         0.42448E-02
         0.35196E-02
         0.37737E-02
         0.42448E-02
         0.37737E-02
         0.37737E-02
         0.30126E-02
         0.32112E-02
         0.42448E-02
         0.32112E-02
         0.24150E-02
         0.30147E-02
         0.32633E-02
         0.26339E-02
         0.27200E-02
         0.42501E-02
         0.36306E-02
         0.42501E-02
         0.32114E-02
         0.29467E-02
         0.34558E-02
         0.32638E-02
         0.37039E-02
         0.32114E-02
         0.30598E-02
         0.35235E-02
         0.26604E-02
         0.26604E-02
         0.24559E-02
         0.27507E-02
         0.42501E-02
         0.35235E-02
         0.42501E-02
         0.34905E-02
         0.27289E-02
         0.31867E-02
         0.32633E-02
         0.27048E-02
         0.27825E-02
         0.27825E-02
         0.27026E-02
         0.31937E-02
         0.31937E-02
         0.37039E-02
         0.36219E-02
         0.28183E-02
         0.31758E-02
         0.33463E-02
         0.33463E-02
         0.32166E-02
         0.29823E-02
         0.32799E-02
         0.27289E-02
         0.30902E-02
         0.31867E-02
         0.32633E-02
         0.32633E-02
         0.30147E-02
         0.27200E-02
         0.27048E-02
         0.27825E-02
         0.27825E-02
         0.27026E-02
         0.31937E-02
         0.31937E-02
         0.32638E-02
         0.34558E-02
         0.37039E-02
         0.37039E-02
         0.36219E-02
         0.28183E-02
         0.29308E-02
         0.32635E-02
         0.32635E-02
         0.32166E-02
         0.29823E-02
         0.32799E-02
         0.32799E-02
         0.42448E-02
         0.35196E-02
         0.37737E-02
         0.42448E-02
         0.37737E-02
         0.37737E-02
         0.30126E-02
         0.32112E-02
         0.42448E-02
         0.32112E-02
         0.24148E-02
         0.30147E-02
         0.32633E-02
         0.26327E-02
         0.27200E-02
         0.42493E-02
         0.36297E-02
         0.42493E-02
         0.32114E-02
         0.29455E-02
         0.34553E-02
         0.32638E-02
         0.37036E-02
         0.32114E-02
         0.30587E-02
         0.35235E-02
         0.26590E-02
         0.26590E-02
         0.24559E-02
         0.27501E-02
         0.42493E-02
         0.35235E-02
         0.42493E-02
         0.34905E-02
         0.27289E-02
         0.31867E-02
         0.32633E-02
         0.27048E-02
         0.27825E-02
         0.27825E-02
         0.27026E-02
         0.31937E-02
         0.31937E-02
         0.37036E-02
         0.36218E-02
         0.28180E-02
         0.31758E-02
         0.33462E-02
         0.33462E-02
         0.32166E-02
         0.29822E-02
         0.32797E-02
         0.27289E-02
         0.30892E-02
         0.31867E-02
         0.32633E-02
         0.32633E-02
         0.30147E-02
         0.27200E-02
         0.27048E-02
         0.27825E-02
         0.27825E-02
         0.27026E-02
         0.31937E-02
         0.31937E-02
         0.32638E-02
         0.34553E-02
         0.37036E-02
         0.37036E-02
         0.36218E-02
         0.28180E-02
         0.29308E-02
         0.32635E-02
         0.32635E-02
         0.32166E-02
         0.29822E-02
         0.32797E-02
         0.32797E-02
  
SCALARS              physical_window_y  double 1
LOOKUP_TABLE default
         0.43155E-02
         0.43155E-02
         0.43155E-02
         0.43155E-02
         0.43155E-02
         0.43155E-02
         0.43155E-02
         0.43155E-02
         0.34883E-02
         0.34883E-02
         0.34882E-02
         0.34882E-02
         0.32826E-02
         0.32142E-02
         0.32826E-02
         0.32142E-02
         0.37863E-02
         0.31884E-02
         0.37863E-02
         0.31884E-02
         0.27172E-02
         0.33887E-02
         0.37164E-02
         0.27172E-02
         0.33887E-02
         0.37164E-02
         0.27582E-02
         0.28966E-02
         0.27582E-02
         0.28954E-02
         0.37007E-02
         0.35859E-02
         0.37863E-02
         0.37007E-02
         0.35824E-02
         0.37863E-02
         0.29875E-02
         0.29875E-02
         0.29867E-02
         0.29867E-02
         0.28561E-02
         0.26860E-02
         0.28556E-02
         0.26852E-02
         0.29518E-02
         0.28068E-02
         0.29517E-02
         0.28066E-02
         0.29975E-02
         0.29949E-02
         0.37007E-02
         0.37007E-02
         0.28693E-02
         0.28693E-02
         0.28693E-02
         0.28693E-02
         0.27602E-02
         0.26193E-02
         0.27602E-02
         0.26193E-02
         0.37007E-02
         0.37007E-02
         0.37007E-02
         0.37007E-02
         0.37685E-02
         0.37665E-02
         0.37685E-02
         0.37665E-02
         0.30230E-02
         0.37003E-02
         0.30229E-02
         0.37003E-02
         0.37164E-02
         0.37164E-02
         0.31934E-02
         0.31921E-02
         0.32777E-02
         0.32771E-02
         0.32777E-02
         0.32771E-02
         0.27006E-02
         0.25920E-02
         0.27006E-02
         0.25920E-02
         0.25916E-02
         0.25916E-02
         0.29715E-02
         0.29715E-02
         0.29715E-02
         0.29715E-02
         0.26477E-02
         0.29102E-02
         0.26477E-02
         0.29102E-02
         0.34085E-02
         0.34085E-02
         0.35350E-02
         0.35350E-02
         0.35350E-02
         0.35350E-02
         0.29766E-02
         0.32272E-02
         0.29763E-02
         0.32254E-02
         0.29087E-02
         0.29835E-02
         0.29087E-02
         0.29825E-02
         0.37003E-02
         0.37003E-02
         0.37164E-02
         0.37164E-02
         0.37164E-02
         0.37164E-02
         0.33887E-02
         0.33887E-02
         0.28966E-02
         0.28954E-02
         0.31934E-02
         0.31921E-02
         0.32777E-02
         0.32771E-02
         0.32777E-02
         0.32771E-02
         0.27006E-02
         0.27006E-02
         0.25920E-02
         0.25920E-02
         0.25916E-02
         0.25916E-02
         0.26860E-02
         0.26852E-02
         0.28561E-02
         0.28556E-02
         0.29518E-02
         0.29517E-02
         0.29715E-02
         0.29715E-02
         0.29715E-02
         0.29715E-02
         0.26477E-02
         0.26477E-02
         0.27685E-02
         0.27685E-02
         0.34085E-02
         0.34085E-02
         0.35350E-02
         0.35350E-02
         0.35350E-02
         0.35350E-02
         0.29766E-02
         0.29763E-02
         0.31381E-02
         0.31368E-02
         0.31381E-02
         0.31368E-02
         0.43153E-02
         0.43153E-02
         0.43153E-02
         0.43153E-02
         0.34883E-02
         0.34883E-02
         0.32812E-02
         0.32132E-02
         0.37858E-02
         0.31880E-02
         0.27155E-02
         0.33883E-02
         0.37163E-02
         0.27535E-02
         0.28978E-02
         0.37004E-02
         0.35894E-02
         0.37858E-02
         0.29882E-02
         0.29882E-02
         0.28566E-02
         0.26867E-02
         0.29519E-02
         0.28071E-02
         0.30001E-02
         0.37004E-02
         0.28667E-02
         0.28667E-02
         0.27589E-02
         0.26183E-02
         0.37004E-02
         0.37004E-02
         0.37706E-02
         0.37706E-02
         0.30232E-02
         0.36991E-02
         0.37163E-02
         0.31947E-02
         0.32784E-02
         0.32784E-02
         0.27006E-02
         0.25920E-02
         0.25909E-02
         0.29715E-02
         0.29715E-02
         0.26476E-02
         0.29101E-02
         0.34078E-02
         0.35344E-02
         0.35344E-02
         0.29769E-02
         0.32290E-02
         0.29059E-02
         0.29845E-02
         0.36991E-02
         0.37163E-02
         0.37163E-02
         0.33883E-02
         0.28978E-02
         0.31947E-02
         0.32784E-02
         0.32784E-02
         0.27006E-02
         0.25920E-02
         0.25909E-02
         0.26867E-02
         0.28566E-02
         0.29519E-02
         0.29715E-02
         0.29715E-02
         0.26476E-02
         0.27685E-02
         0.34078E-02
         0.35344E-02
         0.35344E-02
         0.29769E-02
         0.31395E-02
         0.31395E-02
         0.43150E-02
         0.43150E-02
         0.43150E-02
         0.43150E-02
         0.34884E-02
         0.34884E-02
         0.32798E-02
         0.32122E-02
         0.37853E-02
         0.31876E-02
         0.27137E-02
         0.33879E-02
         0.37162E-02
         0.27488E-02
         0.28990E-02
         0.37001E-02
         0.35930E-02
         0.37853E-02
         0.29889E-02
         0.29889E-02
         0.28571E-02
         0.26875E-02
         0.29521E-02
         0.28074E-02
         0.30027E-02
         0.37001E-02
         0.28641E-02
         0.28641E-02
         0.27576E-02
         0.26173E-02
         0.37001E-02
         0.37001E-02
         0.37727E-02
         0.37727E-02
         0.30234E-02
         0.36979E-02
         0.37162E-02
         0.31960E-02
         0.32790E-02
         0.32790E-02
         0.27006E-02
         0.25920E-02
         0.25902E-02
         0.29715E-02
         0.29715E-02
         0.26476E-02
         0.29100E-02
         0.34071E-02
         0.35339E-02
         0.35339E-02
         0.29772E-02
         0.32307E-02
         0.29032E-02
         0.29855E-02
         0.36979E-02
         0.37162E-02
         0.37162E-02
         0.33879E-02
         0.28990E-02
         0.31960E-02
         0.32790E-02
         0.32790E-02
         0.27006E-02
         0.25920E-02
         0.25902E-02
         0.26875E-02
         0.28571E-02
         0.29521E-02
         0.29715E-02
         0.29715E-02
         0.26476E-02
         0.27684E-02
         0.34071E-02
         0.35339E-02
         0.35339E-02
         0.29772E-02
         0.31408E-02
         0.31408E-02
         0.43148E-02
         0.43148E-02
         0.43148E-02
         0.43148E-02
         0.34885E-02
         0.34885E-02
         0.32783E-02
         0.32112E-02
         0.37849E-02
         0.31872E-02
         0.27120E-02
         0.33875E-02
         0.37161E-02
         0.27441E-02
         0.29003E-02
         0.36998E-02
         0.35965E-02
         0.37849E-02
         0.29896E-02
         0.29896E-02
         0.28575E-02
         0.26882E-02
         0.29522E-02
         0.28077E-02
         0.30053E-02
         0.36998E-02
         0.28615E-02
         0.28615E-02
         0.27563E-02
         0.26163E-02
         0.36998E-02
         0.36998E-02
         0.37747E-02
         0.37747E-02
         0.30236E-02
         0.36967E-02
         0.37161E-02
         0.31973E-02
         0.32796E-02
         0.32796E-02
         0.27006E-02
         0.25920E-02
         0.25895E-02
         0.29714E-02
         0.29714E-02
         0.26475E-02
         0.29099E-02
         0.34063E-02
         0.35333E-02
         0.35333E-02
         0.29775E-02
         0.32325E-02
         0.29004E-02
         0.29865E-02
         0.36967E-02
         0.37161E-02
         0.37161E-02
         0.33875E-02
         0.29003E-02
         0.31973E-02
         0.32796E-02
         0.32796E-02
         0.27006E-02
         0.25920E-02
         0.25895E-02
         0.26882E-02
         0.28575E-02
         0.29522E-02
         0.29714E-02
         0.29714E-02
         0.26475E-02
         0.27684E-02
         0.34063E-02
         0.35333E-02
         0.35333E-02
         0.29775E-02
         0.31422E-02
         0.31422E-02
         0.43145E-02
         0.43145E-02
         0.43145E-02
         0.43145E-02
         0.34886E-02
         0.34886E-02
         0.32769E-02
         0.32102E-02
         0.37844E-02
         0.31868E-02
         0.27103E-02
         0.33871E-02
         0.37160E-02
         0.27394E-02
         0.29015E-02
         0.36995E-02
         0.36000E-02
         0.37844E-02
         0.29903E-02
         0.29903E-02
         0.28580E-02
         0.26890E-02
         0.29523E-02
         0.28079E-02
         0.30079E-02
         0.36995E-02
         0.28589E-02
         0.28589E-02
         0.27550E-02
         0.26152E-02
         0.36995E-02
         0.36995E-02
         0.37768E-02
         0.37768E-02
         0.30238E-02
         0.36956E-02
         0.37160E-02
         0.31986E-02
         0.32802E-02
         0.32802E-02
         0.27006E-02
         0.25920E-02
         0.25887E-02
         0.29714E-02
         0.29714E-02
         0.26475E-02
         0.29098E-02
         0.34056E-02
         0.35327E-02
         0.35327E-02
         0.29778E-02
         0.32342E-02
         0.28977E-02
         0.29875E-02
         0.36956E-02
         0.37160E-02
         0.37160E-02
         0.33871E-02
         0.29015E-02
         0.31986E-02
         0.32802E-02
         0.32802E-02
         0.27006E-02
         0.25920E-02
         0.25887E-02
         0.26890E-02
         0.28580E-02
         0.29523E-02
         0.29714E-02
         0.29714E-02
         0.26475E-02
         0.27683E-02
         0.34056E-02
         0.35327E-02
         0.35327E-02
         0.29778E-02
         0.31435E-02
         0.31435E-02
         0.43143E-02
         0.43143E-02
         0.43143E-02
         0.43143E-02
         0.34887E-02
         0.34887E-02
         0.32755E-02
         0.32091E-02
         0.37839E-02
         0.31864E-02
         0.27086E-02
         0.33867E-02
         0.37159E-02
         0.27347E-02
         0.29027E-02
         0.36991E-02
         0.36036E-02
         0.37839E-02
         0.29920E-02
         0.29920E-02
         0.28585E-02
         0.26897E-02
         0.29525E-02
         0.28082E-02
         0.30105E-02
         0.36991E-02
         0.28563E-02
         0.28563E-02
         0.27537E-02
         0.26142E-02
         0.36991E-02
         0.36991E-02
         0.37789E-02
         0.37789E-02
         0.30240E-02
         0.36944E-02
         0.37159E-02
         0.31999E-02
         0.32808E-02
         0.32808E-02
         0.27006E-02
         0.25920E-02
         0.25880E-02
         0.29714E-02
         0.29714E-02
         0.26474E-02
         0.29097E-02
         0.34049E-02
         0.35322E-02
         0.35322E-02
         0.29781E-02
         0.32360E-02
         0.28949E-02
         0.29885E-02
         0.36944E-02
         0.37159E-02
         0.37159E-02
         0.33867E-02
         0.29027E-02
         0.31999E-02
         0.32808E-02
         0.32808E-02
         0.27006E-02
         0.25920E-02
         0.25880E-02
         0.26897E-02
         0.28585E-02
         0.29525E-02
         0.29714E-02
         0.29714E-02
         0.26474E-02
         0.27683E-02
         0.34049E-02
         0.35322E-02
         0.35322E-02
         0.29781E-02
         0.31449E-02
         0.31449E-02
         0.43140E-02
         0.43140E-02
         0.43140E-02
         0.43140E-02
         0.34888E-02
         0.34888E-02
         0.32740E-02
         0.32081E-02
         0.37834E-02
         0.31860E-02
         0.27069E-02
         0.33863E-02
         0.37158E-02
         0.27299E-02
         0.29039E-02
         0.36988E-02
         0.36071E-02
         0.37834E-02
         0.29946E-02
         0.29946E-02
         0.28589E-02
         0.26905E-02
         0.29526E-02
         0.28085E-02
         0.30131E-02
         0.36988E-02
         0.28538E-02
         0.28538E-02
         0.27524E-02
         0.26132E-02
         0.36988E-02
         0.36988E-02
         0.37809E-02
         0.37809E-02
         0.30241E-02
         0.36932E-02
         0.37158E-02
         0.32012E-02
         0.32814E-02
         0.32814E-02
         0.27006E-02
         0.25920E-02
         0.25873E-02
         0.29714E-02
         0.29714E-02
         0.26473E-02
         0.29097E-02
         0.34041E-02
         0.35316E-02
         0.35316E-02
         0.29784E-02
         0.32378E-02
         0.28921E-02
         0.29895E-02
         0.36932E-02
         0.37158E-02
         0.37158E-02
         0.33863E-02
         0.29039E-02
         0.32012E-02
         0.32814E-02
         0.32814E-02
         0.27006E-02
         0.25920E-02
         0.25873E-02
         0.26905E-02
         0.28589E-02
         0.29526E-02
         0.29714E-02
         0.29714E-02
         0.26473E-02
         0.27683E-02
         0.34041E-02
         0.35316E-02
         0.35316E-02
         0.29784E-02
         0.31463E-02
         0.31463E-02
         0.43138E-02
         0.43138E-02
         0.43138E-02
         0.43138E-02
         0.34888E-02
         0.34888E-02
         0.32726E-02
         0.32071E-02
         0.37830E-02
         0.31856E-02
         0.27051E-02
         0.33859E-02
         0.37157E-02
         0.27252E-02
         0.29051E-02
         0.36985E-02
         0.36106E-02
         0.37830E-02
         0.29972E-02
         0.29972E-02
         0.28594E-02
         0.26912E-02
         0.29528E-02
         0.28087E-02
         0.30156E-02
         0.36985E-02
         0.28512E-02
         0.28512E-02
         0.27512E-02
         0.26122E-02
         0.36985E-02
         0.36985E-02
         0.37830E-02
         0.37830E-02
         0.30243E-02
         0.36920E-02
         0.37157E-02
         0.32025E-02
         0.32821E-02
         0.32821E-02
         0.27006E-02
         0.25920E-02
         0.25866E-02
         0.29714E-02
         0.29714E-02
         0.26473E-02
         0.29096E-02
         0.34034E-02
         0.35310E-02
         0.35310E-02
         0.29787E-02
         0.32396E-02
         0.28894E-02
         0.29905E-02
         0.36920E-02
         0.37157E-02
         0.37157E-02
         0.33859E-02
         0.29051E-02
         0.32025E-02
         0.32821E-02
         0.32821E-02
         0.27006E-02
         0.25920E-02
         0.25866E-02
         0.26912E-02
         0.28594E-02
         0.29528E-02
         0.29714E-02
         0.29714E-02
         0.26473E-02
         0.27682E-02
         0.34034E-02
         0.35310E-02
         0.35310E-02
         0.29787E-02
         0.31476E-02
         0.31476E-02
         0.43135E-02
         0.43135E-02
         0.43135E-02
         0.43135E-02
         0.34889E-02
         0.34889E-02
         0.32712E-02
         0.32061E-02
         0.37825E-02
         0.31852E-02
         0.27034E-02
         0.33856E-02
         0.37156E-02
         0.27205E-02
         0.29063E-02
         0.36982E-02
         0.36142E-02
         0.37851E-02
         0.29998E-02
         0.29998E-02
         0.28599E-02
         0.26920E-02
         0.29529E-02
         0.28090E-02
         0.30182E-02
         0.36982E-02
         0.28486E-02
         0.28486E-02
         0.27499E-02
         0.26112E-02
         0.36982E-02
         0.36982E-02
         0.37851E-02
         0.37851E-02
         0.30245E-02
         0.36908E-02
         0.37156E-02
         0.32038E-02
         0.32827E-02
         0.32827E-02
         0.27006E-02
         0.25920E-02
         0.25859E-02
         0.29714E-02
         0.29714E-02
         0.26472E-02
         0.29095E-02
         0.34027E-02
         0.35304E-02
         0.35304E-02
         0.29790E-02
         0.32413E-02
         0.28866E-02
         0.29915E-02
         0.36908E-02
         0.37156E-02
         0.37156E-02
         0.33856E-02
         0.29063E-02
         0.32038E-02
         0.32827E-02
         0.32827E-02
         0.27006E-02
         0.25920E-02
         0.25859E-02
         0.26920E-02
         0.28599E-02
         0.29529E-02
         0.29714E-02
         0.29714E-02
         0.26472E-02
         0.27682E-02
         0.34027E-02
         0.35304E-02
         0.35304E-02
         0.29790E-02
         0.31490E-02
         0.31490E-02
         0.43133E-02
         0.43133E-02
         0.43133E-02
         0.43133E-02
         0.34890E-02
         0.34890E-02
         0.32698E-02
         0.32051E-02
         0.37820E-02
         0.31848E-02
         0.27017E-02
         0.33851E-02
         0.37155E-02
         0.27158E-02
         0.29075E-02
         0.36979E-02
         0.36177E-02
         0.37871E-02
         0.30024E-02
         0.30024E-02
         0.28603E-02
         0.26927E-02
         0.29530E-02
         0.28093E-02
         0.30208E-02
         0.36979E-02
         0.28460E-02
         0.28460E-02
         0.27486E-02
         0.26101E-02
         0.36979E-02
         0.36979E-02
         0.37871E-02
         0.37871E-02
         0.30247E-02
         0.36896E-02
         0.37155E-02
         0.32051E-02
         0.32833E-02
         0.32833E-02
         0.27006E-02
         0.25920E-02
         0.25851E-02
         0.29714E-02
         0.29714E-02
         0.26472E-02
         0.29094E-02
         0.34019E-02
         0.35299E-02
         0.35299E-02
         0.29793E-02
         0.32431E-02
         0.28838E-02
         0.29925E-02
         0.36896E-02
         0.37155E-02
         0.37155E-02
         0.33851E-02
         0.29075E-02
         0.32051E-02
         0.32833E-02
         0.32833E-02
         0.27006E-02
         0.25920E-02
         0.25851E-02
         0.26927E-02
         0.28603E-02
         0.29530E-02
         0.29714E-02
         0.29714E-02
         0.26472E-02
         0.27681E-02
         0.34019E-02
         0.35299E-02
         0.35299E-02
         0.29793E-02
         0.31503E-02
         0.31503E-02
         0.43130E-02
         0.43130E-02
         0.43130E-02
         0.43130E-02
         0.34891E-02
         0.34891E-02
         0.32683E-02
         0.32041E-02
         0.37816E-02
         0.31844E-02
         0.27000E-02
         0.33848E-02
         0.37154E-02
         0.27111E-02
         0.29087E-02
         0.36976E-02
         0.36213E-02
         0.37892E-02
         0.30050E-02
         0.30050E-02
         0.28608E-02
         0.26935E-02
         0.29532E-02
         0.28096E-02
         0.30234E-02
         0.36976E-02
         0.28434E-02
         0.28434E-02
         0.27472E-02
         0.26091E-02
         0.36976E-02
         0.36976E-02
         0.37892E-02
         0.37892E-02
         0.30249E-02
         0.36885E-02
         0.37154E-02
         0.32064E-02
         0.32839E-02
         0.32839E-02
         0.27006E-02
         0.25920E-02
         0.25844E-02
         0.29714E-02
         0.29714E-02
         0.26471E-02
         0.29094E-02
         0.34012E-02
         0.35293E-02
         0.35293E-02
         0.29797E-02
         0.32449E-02
         0.28811E-02
         0.29935E-02
         0.36885E-02
         0.37154E-02
         0.37154E-02
         0.33848E-02
         0.29087E-02
         0.32064E-02
         0.32839E-02
         0.32839E-02
         0.27006E-02
         0.25920E-02
         0.25844E-02
         0.26935E-02
         0.28608E-02
         0.29532E-02
         0.29714E-02
         0.29714E-02
         0.26471E-02
         0.27681E-02
         0.34012E-02
         0.35293E-02
         0.35293E-02
         0.29797E-02
         0.31517E-02
         0.31517E-02
         0.43128E-02
         0.43128E-02
         0.43128E-02
         0.43128E-02
         0.34892E-02
         0.34892E-02
         0.32669E-02
         0.32031E-02
         0.37811E-02
         0.31840E-02
         0.26982E-02
         0.33844E-02
         0.37152E-02
         0.27063E-02
         0.29099E-02
         0.36973E-02
         0.36248E-02
         0.37913E-02
         0.30076E-02
         0.30076E-02
         0.28613E-02
         0.26942E-02
         0.29533E-02
         0.28099E-02
         0.30260E-02
         0.36973E-02
         0.28408E-02
         0.28408E-02
         0.27460E-02
         0.26081E-02
         0.36973E-02
         0.36973E-02
         0.37913E-02
         0.37913E-02
         0.30250E-02
         0.36873E-02
         0.37152E-02
         0.32077E-02
         0.32845E-02
         0.32845E-02
         0.27006E-02
         0.25920E-02
         0.25837E-02
         0.29714E-02
         0.29714E-02
         0.26471E-02
         0.29093E-02
         0.34005E-02
         0.35287E-02
         0.35287E-02
         0.29800E-02
         0.32467E-02
         0.28783E-02
         0.29945E-02
         0.36873E-02
         0.37152E-02
         0.37152E-02
         0.33844E-02
         0.29099E-02
         0.32077E-02
         0.32845E-02
         0.32845E-02
         0.27006E-02
         0.25920E-02
         0.25837E-02
         0.26942E-02
         0.28613E-02
         0.29533E-02
         0.29714E-02
         0.29714E-02
         0.26471E-02
         0.27681E-02
         0.34005E-02
         0.35287E-02
         0.35287E-02
         0.29800E-02
         0.31530E-02
         0.31530E-02
         0.43125E-02
         0.43125E-02
         0.43125E-02
         0.43125E-02
         0.34893E-02
         0.34893E-02
         0.32655E-02
         0.32021E-02
         0.37806E-02
         0.31836E-02
         0.26965E-02
         0.33840E-02
         0.37151E-02
         0.27016E-02
         0.29111E-02
         0.36969E-02
         0.36283E-02
         0.37933E-02
         0.30102E-02
         0.30102E-02
         0.28617E-02
         0.26950E-02
         0.29535E-02
         0.28101E-02
         0.30286E-02
         0.36969E-02
         0.28382E-02
         0.28382E-02
         0.27447E-02
         0.26071E-02
         0.36969E-02
         0.36969E-02
         0.37933E-02
         0.37933E-02
         0.30252E-02
         0.36861E-02
         0.37151E-02
         0.32090E-02
         0.32852E-02
         0.32852E-02
         0.27006E-02
         0.25920E-02
         0.25830E-02
         0.29714E-02
         0.29714E-02
         0.26470E-02
         0.29092E-02
         0.33997E-02
         0.35282E-02
         0.35282E-02
         0.29803E-02
         0.32484E-02
         0.28755E-02
         0.29955E-02
         0.36861E-02
         0.37151E-02
         0.37151E-02
         0.33840E-02
         0.29111E-02
         0.32090E-02
         0.32852E-02
         0.32852E-02
         0.27006E-02
         0.25920E-02
         0.25830E-02
         0.26950E-02
         0.28617E-02
         0.29535E-02
         0.29714E-02
         0.29714E-02
         0.26470E-02
         0.27680E-02
         0.33997E-02
         0.35282E-02
         0.35282E-02
         0.29803E-02
         0.31544E-02
         0.31544E-02
         0.43123E-02
         0.43123E-02
         0.43123E-02
         0.43123E-02
         0.34893E-02
         0.34893E-02
         0.32640E-02
         0.32011E-02
         0.37801E-02
         0.31832E-02
         0.26948E-02
         0.33836E-02
         0.37150E-02
         0.26969E-02
         0.29123E-02
         0.36966E-02
         0.36319E-02
         0.37954E-02
         0.30128E-02
         0.30128E-02
         0.28622E-02
         0.26957E-02
         0.29536E-02
         0.28104E-02
         0.30312E-02
         0.36966E-02
         0.28357E-02
         0.28357E-02
         0.27434E-02
         0.26061E-02
         0.36966E-02
         0.36966E-02
         0.37954E-02
         0.37954E-02
         0.30254E-02
         0.36849E-02
         0.37150E-02
         0.32103E-02
         0.32858E-02
         0.32858E-02
         0.27006E-02
         0.25920E-02
         0.25823E-02
         0.29714E-02
         0.29714E-02
         0.26470E-02
         0.29091E-02
         0.33990E-02
         0.35276E-02
         0.35276E-02
         0.29806E-02
         0.32502E-02
         0.28728E-02
         0.29965E-02
         0.36849E-02
         0.37150E-02
         0.37150E-02
         0.33836E-02
         0.29123E-02
         0.32103E-02
         0.32858E-02
         0.32858E-02
         0.27006E-02
         0.25920E-02
         0.25823E-02
         0.26957E-02
         0.28622E-02
         0.29536E-02
         0.29714E-02
         0.29714E-02
         0.26470E-02
         0.27680E-02
         0.33990E-02
         0.35276E-02
         0.35276E-02
         0.29806E-02
         0.31557E-02
         0.31557E-02
         0.43120E-02
         0.43120E-02
         0.43120E-02
         0.43120E-02
         0.34894E-02
         0.34894E-02
         0.32626E-02
         0.32001E-02
         0.37797E-02
         0.31828E-02
         0.26931E-02
         0.33832E-02
         0.37149E-02
         0.26922E-02
         0.29135E-02
         0.36963E-02
         0.36354E-02
         0.37975E-02
         0.30154E-02
         0.30154E-02
         0.28627E-02
         0.26965E-02
         0.29537E-02
         0.28107E-02
         0.30338E-02
         0.36963E-02
         0.28331E-02
         0.28331E-02
         0.27421E-02
         0.26051E-02
         0.36963E-02
         0.36963E-02
         0.37975E-02
         0.37975E-02
         0.30256E-02
         0.36838E-02
         0.37149E-02
         0.32116E-02
         0.32864E-02
         0.32864E-02
         0.27006E-02
         0.25920E-02
         0.25815E-02
         0.29714E-02
         0.29714E-02
         0.26469E-02
         0.29090E-02
         0.33983E-02
         0.35270E-02
         0.35270E-02
         0.29809E-02
         0.32519E-02
         0.28700E-02
         0.29975E-02
         0.36838E-02
         0.37149E-02
         0.37149E-02
         0.33832E-02
         0.29135E-02
         0.32116E-02
         0.32864E-02
         0.32864E-02
         0.27006E-02
         0.25920E-02
         0.25815E-02
         0.26965E-02
         0.28627E-02
         0.29537E-02
         0.29714E-02
         0.29714E-02
         0.26469E-02
         0.27680E-02
         0.33983E-02
         0.35270E-02
         0.35270E-02
         0.29809E-02
         0.31571E-02
         0.31571E-02
         0.43118E-02
         0.43118E-02
         0.43118E-02
         0.43118E-02
         0.34895E-02
         0.34895E-02
         0.32612E-02
         0.31990E-02
         0.37792E-02
         0.31824E-02
         0.26913E-02
         0.33828E-02
         0.37148E-02
         0.26875E-02
         0.29148E-02
         0.36960E-02
         0.36390E-02
         0.37995E-02
         0.30180E-02
         0.30180E-02
         0.28631E-02
         0.26972E-02
         0.29539E-02
         0.28110E-02
         0.30364E-02
         0.36960E-02
         0.28305E-02
         0.28305E-02
         0.27408E-02
         0.26040E-02
         0.36960E-02
         0.36960E-02
         0.37995E-02
         0.37995E-02
         0.30258E-02
         0.36826E-02
         0.37148E-02
         0.32129E-02
         0.32870E-02
         0.32870E-02
         0.27006E-02
         0.25920E-02
         0.25808E-02
         0.29713E-02
         0.29713E-02
         0.26468E-02
         0.29089E-02
         0.33975E-02
         0.35264E-02
         0.35264E-02
         0.29812E-02
         0.32537E-02
         0.28672E-02
         0.29985E-02
         0.36826E-02
         0.37148E-02
         0.37148E-02
         0.33828E-02
         0.29148E-02
         0.32129E-02
         0.32870E-02
         0.32870E-02
         0.27006E-02
         0.25920E-02
         0.25808E-02
         0.26972E-02
         0.28631E-02
         0.29539E-02
         0.29713E-02
         0.29713E-02
         0.26468E-02
         0.27679E-02
         0.33975E-02
         0.35264E-02
         0.35264E-02
         0.29812E-02
         0.31585E-02
         0.31585E-02
         0.43115E-02
         0.43115E-02
         0.43115E-02
         0.43115E-02
         0.34896E-02
         0.34896E-02
         0.32597E-02
         0.31980E-02
         0.37787E-02
         0.31820E-02
         0.26896E-02
         0.33824E-02
         0.37147E-02
         0.26827E-02
         0.29160E-02
         0.36957E-02
         0.36425E-02
         0.38016E-02
         0.30206E-02
         0.30206E-02
         0.28636E-02
         0.26980E-02
         0.29540E-02
         0.28112E-02
         0.30390E-02
         0.36957E-02
         0.28279E-02
         0.28279E-02
         0.27395E-02
         0.26030E-02
         0.36957E-02
         0.36957E-02
         0.38016E-02
         0.38016E-02
         0.30260E-02
         0.36814E-02
         0.37147E-02
         0.32141E-02
         0.32876E-02
         0.32876E-02
         0.27006E-02
         0.25920E-02
         0.25801E-02
         0.29713E-02
         0.29713E-02
         0.26468E-02
         0.29089E-02
         0.33968E-02
         0.35259E-02
         0.35259E-02
         0.29815E-02
         0.32555E-02
         0.28645E-02
         0.29995E-02
         0.36814E-02
         0.37147E-02
         0.37147E-02
         0.33824E-02
         0.29160E-02
         0.32141E-02
         0.32876E-02
         0.32876E-02
         0.27006E-02
         0.25920E-02
         0.25801E-02
         0.26980E-02
         0.28636E-02
         0.29540E-02
         0.29713E-02
         0.29713E-02
         0.26468E-02
         0.27679E-02
         0.33968E-02
         0.35259E-02
         0.35259E-02
         0.29815E-02
         0.31598E-02
         0.31598E-02
         0.43113E-02
         0.43113E-02
         0.43113E-02
         0.43113E-02
         0.34897E-02
         0.34897E-02
         0.32583E-02
         0.31970E-02
         0.37783E-02
         0.31816E-02
         0.26879E-02
         0.33820E-02
         0.37146E-02
         0.26780E-02
         0.29172E-02
         0.36954E-02
         0.36460E-02
         0.38037E-02
         0.30232E-02
         0.30232E-02
         0.28641E-02
         0.26987E-02
         0.29542E-02
         0.28115E-02
         0.30416E-02
         0.36954E-02
         0.28253E-02
         0.28253E-02
         0.27382E-02
         0.26020E-02
         0.36954E-02
         0.36954E-02
         0.38037E-02
         0.38037E-02
         0.30261E-02
         0.36802E-02
         0.37146E-02
         0.32154E-02
         0.32882E-02
         0.32882E-02
         0.27006E-02
         0.25921E-02
         0.25794E-02
         0.29713E-02
         0.29713E-02
         0.26467E-02
         0.29088E-02
         0.33961E-02
         0.35253E-02
         0.35253E-02
         0.29818E-02
         0.32573E-02
         0.28617E-02
         0.30005E-02
         0.36802E-02
         0.37146E-02
         0.37146E-02
         0.33820E-02
         0.29172E-02
         0.32154E-02
         0.32882E-02
         0.32882E-02
         0.27006E-02
         0.25921E-02
         0.25794E-02
         0.26987E-02
         0.28641E-02
         0.29542E-02
         0.29713E-02
         0.29713E-02
         0.26467E-02
         0.27678E-02
         0.33961E-02
         0.35253E-02
         0.35253E-02
         0.29818E-02
         0.31612E-02
         0.31612E-02
         0.43110E-02
         0.43110E-02
         0.43110E-02
         0.43110E-02
         0.34898E-02
         0.34898E-02
         0.32569E-02
         0.31960E-02
         0.37778E-02
         0.31812E-02
         0.26862E-02
         0.33816E-02
         0.37145E-02
         0.26733E-02
         0.29184E-02
         0.36950E-02
         0.36495E-02
         0.38057E-02
         0.30258E-02
         0.30258E-02
         0.28645E-02
         0.26995E-02
         0.29543E-02
         0.28118E-02
         0.30442E-02
         0.36950E-02
         0.28227E-02
         0.28227E-02
         0.27369E-02
         0.26010E-02
         0.36950E-02
         0.36950E-02
         0.38057E-02
         0.38057E-02
         0.30263E-02
         0.36790E-02
         0.37145E-02
         0.32167E-02
         0.32889E-02
         0.32889E-02
         0.27006E-02
         0.25921E-02
         0.25787E-02
         0.29713E-02
         0.29713E-02
         0.26467E-02
         0.29087E-02
         0.33953E-02
         0.35247E-02
         0.35247E-02
         0.29821E-02
         0.32590E-02
         0.28589E-02
         0.30015E-02
         0.36790E-02
         0.37145E-02
         0.37145E-02
         0.33816E-02
         0.29184E-02
         0.32167E-02
         0.32889E-02
         0.32889E-02
         0.27006E-02
         0.25921E-02
         0.25787E-02
         0.26995E-02
         0.28645E-02
         0.29543E-02
         0.29713E-02
         0.29713E-02
         0.26467E-02
         0.27678E-02
         0.33953E-02
         0.35247E-02
         0.35247E-02
         0.29821E-02
         0.31625E-02
         0.31625E-02
         0.43108E-02
         0.43108E-02
         0.43108E-02
         0.43108E-02
         0.34898E-02
         0.34898E-02
         0.32555E-02
         0.31950E-02
         0.37773E-02
         0.31808E-02
         0.26845E-02
         0.33812E-02
         0.37144E-02
         0.26686E-02
         0.29196E-02
         0.36948E-02
         0.36531E-02
         0.38078E-02
         0.30285E-02
         0.30285E-02
         0.28650E-02
         0.27002E-02
         0.29544E-02
         0.28120E-02
         0.30467E-02
         0.36948E-02
         0.28201E-02
         0.28201E-02
         0.27356E-02
         0.26000E-02
         0.36948E-02
         0.36948E-02
         0.38078E-02
         0.38078E-02
         0.30265E-02
         0.36779E-02
         0.37144E-02
         0.32181E-02
         0.32895E-02
         0.32895E-02
         0.27006E-02
         0.25921E-02
         0.25779E-02
         0.29713E-02
         0.29713E-02
         0.26466E-02
         0.29086E-02
         0.33946E-02
         0.35242E-02
         0.35242E-02
         0.29824E-02
         0.32608E-02
         0.28562E-02
         0.30025E-02
         0.36779E-02
         0.37144E-02
         0.37144E-02
         0.33812E-02
         0.29196E-02
         0.32181E-02
         0.32895E-02
         0.32895E-02
         0.27006E-02
         0.25921E-02
         0.25779E-02
         0.27002E-02
         0.28650E-02
         0.29544E-02
         0.29713E-02
         0.29713E-02
         0.26466E-02
         0.27678E-02
         0.33946E-02
         0.35242E-02
         0.35242E-02
         0.29824E-02
         0.31639E-02
         0.31639E-02
         0.43105E-02
         0.43105E-02
         0.43105E-02
         0.43105E-02
         0.34899E-02
         0.34899E-02
         0.32540E-02
         0.31940E-02
         0.37768E-02
         0.31804E-02
         0.26827E-02
         0.33808E-02
         0.37143E-02
         0.26639E-02
         0.29208E-02
         0.36944E-02
         0.36566E-02
         0.38099E-02
         0.30311E-02
         0.30311E-02
         0.28655E-02
         0.27010E-02
         0.29546E-02
         0.28123E-02
         0.30493E-02
         0.36944E-02
         0.28175E-02
         0.28175E-02
         0.27343E-02
         0.25990E-02
         0.36944E-02
         0.36944E-02
         0.38099E-02
         0.38099E-02
         0.30267E-02
         0.36767E-02
         0.37143E-02
         0.32193E-02
         0.32901E-02
         0.32901E-02
         0.27006E-02
         0.25921E-02
         0.25772E-02
         0.29713E-02
         0.29713E-02
         0.26466E-02
         0.29085E-02
         0.33939E-02
         0.35236E-02
         0.35236E-02
         0.29827E-02
         0.32626E-02
         0.28534E-02
         0.30035E-02
         0.36767E-02
         0.37143E-02
         0.37143E-02
         0.33808E-02
         0.29208E-02
         0.32193E-02
         0.32901E-02
         0.32901E-02
         0.27006E-02
         0.25921E-02
         0.25772E-02
         0.27010E-02
         0.28655E-02
         0.29546E-02
         0.29713E-02
         0.29713E-02
         0.26466E-02
         0.27677E-02
         0.33939E-02
         0.35236E-02
         0.35236E-02
         0.29827E-02
         0.31652E-02
         0.31652E-02
         0.43103E-02
         0.43103E-02
         0.43103E-02
         0.43103E-02
         0.34900E-02
         0.34900E-02
         0.32526E-02
         0.31930E-02
         0.37764E-02
         0.31800E-02
         0.26810E-02
         0.33804E-02
         0.37142E-02
         0.26591E-02
         0.29220E-02
         0.36941E-02
         0.36602E-02
         0.38119E-02
         0.30337E-02
         0.30337E-02
         0.28660E-02
         0.27017E-02
         0.29547E-02
         0.28126E-02
         0.30519E-02
         0.36941E-02
         0.28150E-02
         0.28150E-02
         0.27330E-02
         0.25979E-02
         0.36941E-02
         0.36941E-02
         0.38119E-02
         0.38119E-02
         0.30269E-02
         0.36755E-02
         0.37142E-02
         0.32206E-02
         0.32907E-02
         0.32907E-02
         0.27006E-02
         0.25921E-02
         0.25765E-02
         0.29713E-02
         0.29713E-02
         0.26465E-02
         0.29085E-02
         0.33931E-02
         0.35230E-02
         0.35230E-02
         0.29830E-02
         0.32643E-02
         0.28507E-02
         0.30045E-02
         0.36755E-02
         0.37142E-02
         0.37142E-02
         0.33804E-02
         0.29220E-02
         0.32206E-02
         0.32907E-02
         0.32907E-02
         0.27006E-02
         0.25921E-02
         0.25765E-02
         0.27017E-02
         0.28660E-02
         0.29547E-02
         0.29713E-02
         0.29713E-02
         0.26465E-02
         0.27677E-02
         0.33931E-02
         0.35230E-02
         0.35230E-02
         0.29830E-02
         0.31666E-02
         0.31666E-02
         0.43100E-02
         0.43100E-02
         0.43100E-02
         0.43100E-02
         0.34901E-02
         0.34901E-02
         0.32512E-02
         0.31920E-02
         0.37759E-02
         0.31796E-02
         0.26793E-02
         0.33800E-02
         0.37141E-02
         0.26544E-02
         0.29232E-02
         0.36938E-02
         0.36637E-02
         0.38140E-02
         0.30363E-02
         0.30363E-02
         0.28664E-02
         0.27025E-02
         0.29548E-02
         0.28129E-02
         0.30545E-02
         0.36938E-02
         0.28124E-02
         0.28124E-02
         0.27317E-02
         0.25969E-02
         0.36938E-02
         0.36938E-02
         0.38140E-02
         0.38140E-02
         0.30271E-02
         0.36743E-02
         0.37141E-02
         0.32219E-02
         0.32913E-02
         0.32913E-02
         0.27006E-02
         0.25921E-02
         0.25758E-02
         0.29713E-02
         0.29713E-02
         0.26465E-02
         0.29084E-02
         0.33924E-02
         0.35224E-02
         0.35224E-02
         0.29833E-02
         0.32661E-02
         0.28479E-02
         0.30055E-02
         0.36743E-02
         0.37141E-02
         0.37141E-02
         0.33800E-02
         0.29232E-02
         0.32219E-02
         0.32913E-02
         0.32913E-02
         0.27006E-02
         0.25921E-02
         0.25758E-02
         0.27025E-02
         0.28664E-02
         0.29548E-02
         0.29713E-02
         0.29713E-02
         0.26465E-02
         0.27677E-02
         0.33924E-02
         0.35224E-02
         0.35224E-02
         0.29833E-02
         0.31680E-02
         0.31680E-02
         0.43098E-02
         0.43098E-02
         0.43098E-02
         0.43098E-02
         0.34901E-02
         0.34901E-02
         0.32498E-02
         0.31910E-02
         0.37754E-02
         0.31792E-02
         0.26776E-02
         0.33796E-02
         0.37140E-02
         0.26497E-02
         0.29232E-02
         0.36935E-02
         0.36637E-02
         0.38140E-02
         0.30363E-02
         0.30363E-02
         0.28664E-02
         0.27025E-02
         0.29548E-02
         0.28129E-02
         0.30545E-02
         0.36935E-02
         0.28098E-02
         0.28098E-02
         0.27304E-02
         0.25959E-02
         0.36935E-02
         0.36935E-02
         0.38140E-02
         0.38140E-02
         0.30271E-02
         0.36731E-02
         0.37140E-02
         0.32219E-02
         0.32913E-02
         0.32913E-02
         0.27006E-02
         0.25921E-02
         0.25751E-02
         0.29713E-02
         0.29713E-02
         0.26464E-02
         0.29083E-02
         0.33916E-02
         0.35219E-02
         0.35219E-02
         0.29833E-02
         0.32661E-02
         0.28451E-02
         0.30055E-02
         0.36731E-02
         0.37140E-02
         0.37140E-02
         0.33796E-02
         0.29232E-02
         0.32219E-02
         0.32913E-02
         0.32913E-02
         0.27006E-02
         0.25921E-02
         0.25751E-02
         0.27025E-02
         0.28664E-02
         0.29548E-02
         0.29713E-02
         0.29713E-02
         0.26464E-02
         0.27676E-02
         0.33916E-02
         0.35219E-02
         0.35219E-02
         0.29833E-02
         0.31680E-02
         0.31680E-02
  
SCALARS              physical_window_z  double 1
LOOKUP_TABLE default
         0.26928E-02
         0.26928E-02
         0.26928E-02
         0.26928E-02
         0.26928E-02
         0.26928E-02
         0.26928E-02
         0.26928E-02
         0.26928E-02
         0.26928E-02
         0.26928E-02
         0.26928E-02
         0.26928E-02
         0.26928E-02
         0.26928E-02
         0.26928E-02
         0.26928E-02
         0.26928E-02
         0.26928E-02
         0.26928E-02
         0.26928E-02
         0.26928E-02
         0.26928E-02
         0.26928E-02
         0.26928E-02
         0.26928E-02
         0.26928E-02
         0.26928E-02
         0.26928E-02
         0.26928E-02
         0.26928E-02
         0.26928E-02
         0.26928E-02
         0.26928E-02
         0.26928E-02
         0.26928E-02
         0.26928E-02
         0.26928E-02
         0.26928E-02
         0.26928E-02
         0.26928E-02
         0.26928E-02
         0.26928E-02
         0.26928E-02
         0.26928E-02
         0.26928E-02
         0.26928E-02
         0.26928E-02
         0.26928E-02
         0.26928E-02
         0.26928E-02
         0.26928E-02
         0.26928E-02
         0.26928E-02
         0.26928E-02
         0.26928E-02
         0.26928E-02
         0.26928E-02
         0.26928E-02
         0.26928E-02
         0.26928E-02
         0.26928E-02
         0.26928E-02
         0.26928E-02
         0.26928E-02
         0.26928E-02
         0.26928E-02
         0.26928E-02
         0.26928E-02
         0.26928E-02
         0.26928E-02
         0.26928E-02
         0.26928E-02
         0.26928E-02
         0.26928E-02
         0.26928E-02
         0.26928E-02
         0.26928E-02
         0.26928E-02
         0.26928E-02
         0.26928E-02
         0.26928E-02
         0.26928E-02
         0.26928E-02
         0.26928E-02
         0.26928E-02
         0.26928E-02
         0.26928E-02
         0.26928E-02
         0.26928E-02
         0.26928E-02
         0.26928E-02
         0.26928E-02
         0.26928E-02
         0.26928E-02
         0.26928E-02
         0.26928E-02
         0.26928E-02
         0.26928E-02
         0.26928E-02
         0.26928E-02
         0.26928E-02
         0.26928E-02
         0.26928E-02
         0.26928E-02
         0.26928E-02
         0.26928E-02
         0.26928E-02
         0.26928E-02
         0.26928E-02
         0.26928E-02
         0.26928E-02
         0.26928E-02
         0.26928E-02
         0.26928E-02
         0.26928E-02
         0.26928E-02
         0.26928E-02
         0.26928E-02
         0.26928E-02
         0.26928E-02
         0.26928E-02
         0.26928E-02
         0.26928E-02
         0.26928E-02
         0.26928E-02
         0.26928E-02
         0.26928E-02
         0.26928E-02
         0.26928E-02
         0.26928E-02
         0.26928E-02
         0.26928E-02
         0.26928E-02
         0.26928E-02
         0.26928E-02
         0.26928E-02
         0.26928E-02
         0.26928E-02
         0.26928E-02
         0.26928E-02
         0.26928E-02
         0.26928E-02
         0.26928E-02
         0.26928E-02
         0.26928E-02
         0.26928E-02
         0.26928E-02
         0.26928E-02
         0.26928E-02
         0.26928E-02
         0.26928E-02
         0.26928E-02
         0.26928E-02
         0.26928E-02
         0.26928E-02
         0.26927E-02
         0.26927E-02
         0.26927E-02
         0.26927E-02
         0.26927E-02
         0.26927E-02
         0.26927E-02
         0.26927E-02
         0.26927E-02
         0.26927E-02
         0.26927E-02
         0.26927E-02
         0.26927E-02
         0.26927E-02
         0.26927E-02
         0.26927E-02
         0.26927E-02
         0.26927E-02
         0.26927E-02
         0.26927E-02
         0.26927E-02
         0.26927E-02
         0.26927E-02
         0.26927E-02
         0.26927E-02
         0.26927E-02
         0.26927E-02
         0.26927E-02
         0.26927E-02
         0.26927E-02
         0.26927E-02
         0.26927E-02
         0.26927E-02
         0.26927E-02
         0.26927E-02
         0.26927E-02
         0.26927E-02
         0.26927E-02
         0.26927E-02
         0.26927E-02
         0.26927E-02
         0.26927E-02
         0.26927E-02
         0.26927E-02
         0.26927E-02
         0.26927E-02
         0.26927E-02
         0.26927E-02
         0.26927E-02
         0.26927E-02
         0.26927E-02
         0.26927E-02
         0.26927E-02
         0.26927E-02
         0.26927E-02
         0.26927E-02
         0.26927E-02
         0.26927E-02
         0.26927E-02
         0.26927E-02
         0.26927E-02
         0.26927E-02
         0.26927E-02
         0.26927E-02
         0.26927E-02
         0.26927E-02
         0.26927E-02
         0.26927E-02
         0.26927E-02
         0.26927E-02
         0.26927E-02
         0.26927E-02
         0.26927E-02
         0.26927E-02
         0.26927E-02
         0.26927E-02
         0.26927E-02
         0.26927E-02
         0.26927E-02
         0.26927E-02
         0.26927E-02
         0.26927E-02
         0.26927E-02
         0.26927E-02
         0.26927E-02
         0.26927E-02
         0.26927E-02
         0.26927E-02
         0.26927E-02
         0.26927E-02
         0.26927E-02
         0.26927E-02
         0.26927E-02
         0.26927E-02
         0.26927E-02
         0.26927E-02
         0.26927E-02
         0.26927E-02
         0.26927E-02
         0.26927E-02
         0.26927E-02
         0.26927E-02
         0.26927E-02
         0.26927E-02
         0.26927E-02
         0.26927E-02
         0.26927E-02
         0.26927E-02
         0.26927E-02
         0.26927E-02
         0.26927E-02
         0.26927E-02
         0.26927E-02
         0.26927E-02
         0.26927E-02
         0.26927E-02
         0.26927E-02
         0.26927E-02
         0.26927E-02
         0.26927E-02
         0.26927E-02
         0.26927E-02
         0.26927E-02
         0.26927E-02
         0.26927E-02
         0.26927E-02
         0.26927E-02
         0.26927E-02
         0.26927E-02
         0.26927E-02
         0.26927E-02
         0.26927E-02
         0.26927E-02
         0.26927E-02
         0.26927E-02
         0.26927E-02
         0.26927E-02
         0.26927E-02
         0.26927E-02
         0.26927E-02
         0.26927E-02
         0.26927E-02
         0.26927E-02
         0.26927E-02
         0.26927E-02
         0.26927E-02
         0.26927E-02
         0.26927E-02
         0.26927E-02
         0.26927E-02
         0.26927E-02
         0.26927E-02
         0.26927E-02
         0.26927E-02
         0.26927E-02
         0.26927E-02
         0.26927E-02
         0.26927E-02
         0.26927E-02
         0.26927E-02
         0.26927E-02
         0.26927E-02
         0.26927E-02
         0.26927E-02
         0.26927E-02
         0.26927E-02
         0.26927E-02
         0.26927E-02
         0.26927E-02
         0.26927E-02
         0.26927E-02
         0.26927E-02
         0.26927E-02
         0.26927E-02
         0.26927E-02
         0.26927E-02
         0.26927E-02
         0.26927E-02
         0.26927E-02
         0.26927E-02
         0.26927E-02
         0.26927E-02
         0.26927E-02
         0.26927E-02
         0.26927E-02
         0.26927E-02
         0.26927E-02
         0.26927E-02
         0.26927E-02
         0.26927E-02
         0.26927E-02
         0.26927E-02
         0.26927E-02
         0.26927E-02
         0.26927E-02
         0.26927E-02
         0.26927E-02
         0.26927E-02
         0.26927E-02
         0.26927E-02
         0.26927E-02
         0.26927E-02
         0.26927E-02
         0.26927E-02
         0.26927E-02
         0.26927E-02
         0.26927E-02
         0.26927E-02
         0.26927E-02
         0.26927E-02
         0.26927E-02
         0.26927E-02
         0.26927E-02
         0.26927E-02
         0.26927E-02
         0.26927E-02
         0.26927E-02
         0.26927E-02
         0.26927E-02
         0.26927E-02
         0.26927E-02
         0.26927E-02
         0.26927E-02
         0.26927E-02
         0.26927E-02
         0.26927E-02
         0.26927E-02
         0.26927E-02
         0.26927E-02
         0.26927E-02
         0.26927E-02
         0.26927E-02
         0.26927E-02
         0.26927E-02
         0.26927E-02
         0.26927E-02
         0.26927E-02
         0.26927E-02
         0.26927E-02
         0.26927E-02
         0.26927E-02
         0.26927E-02
         0.26927E-02
         0.26927E-02
         0.26927E-02
         0.26927E-02
         0.26927E-02
         0.26927E-02
         0.26927E-02
         0.26927E-02
         0.26927E-02
         0.26927E-02
         0.26927E-02
         0.26927E-02
         0.26927E-02
         0.26927E-02
         0.26927E-02
         0.26927E-02
         0.26927E-02
         0.26927E-02
         0.26927E-02
         0.26927E-02
         0.26927E-02
         0.26927E-02
         0.26927E-02
         0.26927E-02
         0.26927E-02
         0.26927E-02
         0.26927E-02
         0.26927E-02
         0.26927E-02
         0.26927E-02
         0.26927E-02
         0.26927E-02
         0.26927E-02
         0.26927E-02
         0.26927E-02
         0.26927E-02
         0.26927E-02
         0.26927E-02
         0.26927E-02
         0.26927E-02
         0.26927E-02
         0.26927E-02
         0.26927E-02
         0.26927E-02
         0.26927E-02
         0.26927E-02
         0.26927E-02
         0.26927E-02
         0.26927E-02
         0.26927E-02
         0.26927E-02
         0.26927E-02
         0.26927E-02
         0.26927E-02
         0.26927E-02
         0.26927E-02
         0.26927E-02
         0.26927E-02
         0.26927E-02
         0.26927E-02
         0.26927E-02
         0.26927E-02
         0.26927E-02
         0.26927E-02
         0.26927E-02
         0.26927E-02
         0.26927E-02
         0.26927E-02
         0.26927E-02
         0.26927E-02
         0.26927E-02
         0.26927E-02
         0.26927E-02
         0.26927E-02
         0.26927E-02
         0.26927E-02
         0.26927E-02
         0.26927E-02
         0.26927E-02
         0.26927E-02
         0.26927E-02
         0.26927E-02
         0.26927E-02
         0.26927E-02
         0.26927E-02
         0.26927E-02
         0.26927E-02
         0.26927E-02
         0.26927E-02
         0.26927E-02
         0.26927E-02
         0.26927E-02
         0.26927E-02
         0.26927E-02
         0.26927E-02
         0.26927E-02
         0.26927E-02
         0.26927E-02
         0.26927E-02
         0.26927E-02
         0.26927E-02
         0.26927E-02
         0.26927E-02
         0.26927E-02
         0.26927E-02
         0.26927E-02
         0.26927E-02
         0.26927E-02
         0.26927E-02
         0.26927E-02
         0.26927E-02
         0.26927E-02
         0.26927E-02
         0.26927E-02
         0.26927E-02
         0.26927E-02
         0.26927E-02
         0.26927E-02
         0.26927E-02
         0.26927E-02
         0.26927E-02
         0.26927E-02
         0.26927E-02
         0.26927E-02
         0.26927E-02
         0.26927E-02
         0.26927E-02
         0.26927E-02
         0.26927E-02
         0.26927E-02
         0.26927E-02
         0.26927E-02
         0.26927E-02
         0.26927E-02
         0.26927E-02
         0.26927E-02
         0.26927E-02
         0.26927E-02
         0.26927E-02
         0.26927E-02
         0.26927E-02
         0.26927E-02
         0.26927E-02
         0.26927E-02
         0.26927E-02
         0.26927E-02
         0.26927E-02
         0.26927E-02
         0.26927E-02
         0.26927E-02
         0.26927E-02
         0.26927E-02
         0.26927E-02
         0.26927E-02
         0.26927E-02
         0.26927E-02
         0.26927E-02
         0.26927E-02
         0.26927E-02
         0.26927E-02
         0.26927E-02
         0.26927E-02
         0.26927E-02
         0.26927E-02
         0.26927E-02
         0.26927E-02
         0.26927E-02
         0.26927E-02
         0.26927E-02
         0.26927E-02
         0.26927E-02
         0.26927E-02
         0.26927E-02
         0.26927E-02
         0.26927E-02
         0.26927E-02
         0.26927E-02
         0.26927E-02
         0.26927E-02
         0.26927E-02
         0.26927E-02
         0.26927E-02
         0.26927E-02
         0.26927E-02
         0.26927E-02
         0.26927E-02
         0.26927E-02
         0.26927E-02
         0.26927E-02
         0.26927E-02
         0.26927E-02
         0.26927E-02
         0.26927E-02
         0.26927E-02
         0.26927E-02
         0.26927E-02
         0.26927E-02
         0.26927E-02
         0.26927E-02
         0.26927E-02
         0.26927E-02
         0.26927E-02
         0.26927E-02
         0.26927E-02
         0.26927E-02
         0.26927E-02
         0.26927E-02
         0.26927E-02
         0.26927E-02
         0.26927E-02
         0.26927E-02
         0.26927E-02
         0.26927E-02
         0.26927E-02
         0.26927E-02
         0.26927E-02
         0.26927E-02
         0.26927E-02
         0.26927E-02
         0.26927E-02
         0.26927E-02
         0.26927E-02
         0.26927E-02
         0.26927E-02
         0.26927E-02
         0.26927E-02
         0.26927E-02
         0.26927E-02
         0.26927E-02
         0.26927E-02
         0.26927E-02
         0.26927E-02
         0.26927E-02
         0.26927E-02
         0.26927E-02
         0.26927E-02
         0.26927E-02
         0.26927E-02
         0.26927E-02
         0.26927E-02
         0.26927E-02
         0.26927E-02
         0.26927E-02
         0.26927E-02
         0.26927E-02
         0.26927E-02
         0.26927E-02
         0.26927E-02
         0.26927E-02
         0.26927E-02
         0.26927E-02
         0.26927E-02
         0.26927E-02
         0.26927E-02
         0.26927E-02
         0.26927E-02
         0.26927E-02
         0.26927E-02
         0.26927E-02
         0.26927E-02
         0.26927E-02
         0.26927E-02
         0.26927E-02
         0.26927E-02
         0.26927E-02
         0.26927E-02
         0.26927E-02
         0.26927E-02
         0.26927E-02
         0.26927E-02
         0.26927E-02
         0.26927E-02
         0.26927E-02
         0.26927E-02
         0.26927E-02
         0.26927E-02
         0.26927E-02
         0.26927E-02
         0.26927E-02
         0.26927E-02
         0.26927E-02
         0.26927E-02
         0.26927E-02
         0.26927E-02
         0.26927E-02
         0.26927E-02
         0.26927E-02
         0.26927E-02
         0.26927E-02
         0.26927E-02
         0.26927E-02
         0.26927E-02
         0.26927E-02
         0.26927E-02
         0.26927E-02
         0.26927E-02
         0.26927E-02
         0.26927E-02
         0.26927E-02
         0.26927E-02
         0.26927E-02
         0.26927E-02
         0.26927E-02
         0.26927E-02
         0.26927E-02
         0.26927E-02
         0.26927E-02
         0.26927E-02
         0.26927E-02
         0.26927E-02
         0.26927E-02
         0.26927E-02
         0.26927E-02
         0.26927E-02
         0.26927E-02
         0.26927E-02
         0.26927E-02
         0.26927E-02
         0.26927E-02
         0.26927E-02
         0.26927E-02
         0.26927E-02
         0.26927E-02
         0.26927E-02
         0.26927E-02
         0.26927E-02
         0.26927E-02
         0.26927E-02
         0.26927E-02
         0.26927E-02
         0.26927E-02
         0.26927E-02
         0.26927E-02
         0.26927E-02
         0.26927E-02
         0.26927E-02
         0.26927E-02
         0.26927E-02
         0.26927E-02
         0.26927E-02
         0.26927E-02
         0.26927E-02
         0.26927E-02
         0.26927E-02
         0.26927E-02
         0.26927E-02
         0.26927E-02
         0.26927E-02
         0.26927E-02
         0.26927E-02
         0.26927E-02
         0.26927E-02
         0.26927E-02
         0.26927E-02
         0.26927E-02
         0.26927E-02
         0.26927E-02
         0.26927E-02
         0.26927E-02
         0.26927E-02
         0.26927E-02
         0.26927E-02
         0.26927E-02
         0.26927E-02
         0.26927E-02
         0.26927E-02
         0.26927E-02
         0.26927E-02
         0.26927E-02
         0.26927E-02
         0.26927E-02
         0.26927E-02
         0.26927E-02
         0.26927E-02
         0.26927E-02
         0.26927E-02
         0.26927E-02
         0.26927E-02
         0.26927E-02
         0.26927E-02
         0.26927E-02
         0.26927E-02
         0.26927E-02
         0.26927E-02
         0.26927E-02
         0.26927E-02
         0.26927E-02
         0.26927E-02
         0.26927E-02
         0.26927E-02
         0.26927E-02
         0.26927E-02
         0.26927E-02
         0.26927E-02
         0.26927E-02
         0.26927E-02
         0.26927E-02
         0.26927E-02
         0.26927E-02
         0.26927E-02
         0.26927E-02
         0.26927E-02
         0.26927E-02
         0.26927E-02
         0.26927E-02
         0.26927E-02
         0.26927E-02
         0.26927E-02
         0.26927E-02
         0.26927E-02
         0.26927E-02
         0.26927E-02
         0.26927E-02
         0.26927E-02
         0.26927E-02
         0.26927E-02
         0.26927E-02
         0.26927E-02
         0.26927E-02
         0.26927E-02
         0.26927E-02
         0.26927E-02
         0.26927E-02
         0.26927E-02
         0.26927E-02
         0.26927E-02
         0.26927E-02
         0.26927E-02
         0.26927E-02
         0.26927E-02
         0.26927E-02
         0.26927E-02
         0.26927E-02
         0.26927E-02
         0.26927E-02
         0.26927E-02
         0.26927E-02
         0.26927E-02
         0.26927E-02
         0.26927E-02
         0.26927E-02
         0.26927E-02
         0.26927E-02
         0.26927E-02
         0.26927E-02
         0.26927E-02
         0.26927E-02
         0.26927E-02
         0.26927E-02
         0.26927E-02
         0.26927E-02
         0.26927E-02
         0.26927E-02
         0.26927E-02
         0.26927E-02
         0.26927E-02
         0.26927E-02
         0.26927E-02
         0.26927E-02
         0.26927E-02
         0.26927E-02
         0.26927E-02
         0.26927E-02
         0.26927E-02
         0.26927E-02
         0.26927E-02
         0.26927E-02
         0.26927E-02
         0.26927E-02
         0.26927E-02
         0.26927E-02
         0.26927E-02
         0.26927E-02
         0.26927E-02
         0.26927E-02
         0.26927E-02
         0.26927E-02
         0.26927E-02
         0.26927E-02
         0.26927E-02
         0.26927E-02
         0.26927E-02
         0.26927E-02
         0.26927E-02
         0.26927E-02
         0.26927E-02
         0.26927E-02
         0.26927E-02
         0.26927E-02
         0.26927E-02
         0.26927E-02
         0.26927E-02
         0.26927E-02
         0.26927E-02
         0.26927E-02
         0.26927E-02
         0.26927E-02
         0.26927E-02
         0.26927E-02
         0.26927E-02
         0.26927E-02
         0.26927E-02
         0.26927E-02
         0.26927E-02
         0.26927E-02
         0.26927E-02
         0.26927E-02
         0.26927E-02
         0.26927E-02
         0.26927E-02
         0.26927E-02
         0.26927E-02
         0.26927E-02
         0.26927E-02
         0.26927E-02
         0.26927E-02
         0.26927E-02
         0.26927E-02
         0.26927E-02
         0.26927E-02
         0.26927E-02
         0.26927E-02
         0.26927E-02
         0.26927E-02
         0.26927E-02
         0.26927E-02
         0.26927E-02
         0.26927E-02
         0.26927E-02
         0.26927E-02
         0.26927E-02
         0.26927E-02
         0.26927E-02
         0.26927E-02
         0.26927E-02
         0.26927E-02
         0.26927E-02
         0.26927E-02
         0.26927E-02
         0.26927E-02
         0.26927E-02
         0.26927E-02
         0.26927E-02
         0.26927E-02
         0.26927E-02
         0.26927E-02
         0.26927E-02
         0.26927E-02
         0.26927E-02
         0.26927E-02
         0.26927E-02
         0.26927E-02
         0.26927E-02
         0.26927E-02
         0.26927E-02
         0.26927E-02
         0.26927E-02
         0.26927E-02
         0.26927E-02
         0.26927E-02
         0.26927E-02
         0.26927E-02
         0.26927E-02
         0.26927E-02
         0.26927E-02
         0.26927E-02
         0.26927E-02
         0.26927E-02
         0.26927E-02
         0.26927E-02
         0.26927E-02
         0.26927E-02
         0.26927E-02
         0.26927E-02
         0.26927E-02
         0.26927E-02
         0.26927E-02
         0.26927E-02
         0.26927E-02
         0.26927E-02
         0.26927E-02
         0.26927E-02
         0.26927E-02
         0.26927E-02
         0.26927E-02
         0.26927E-02
         0.26927E-02
         0.26927E-02
         0.26927E-02
         0.26927E-02
         0.26927E-02
         0.26927E-02
         0.26927E-02
         0.26927E-02
         0.26927E-02
         0.26927E-02
         0.26927E-02
         0.26927E-02
         0.26927E-02
         0.26927E-02
         0.26927E-02
         0.26927E-02
         0.26927E-02
         0.26927E-02
         0.26927E-02
         0.26927E-02
         0.26927E-02
         0.26927E-02
         0.26927E-02
         0.26927E-02
         0.26927E-02
         0.26927E-02
         0.26927E-02
         0.26927E-02
         0.26927E-02
         0.26927E-02
         0.26927E-02
         0.26927E-02
         0.26927E-02
         0.26927E-02
         0.26927E-02
         0.26927E-02
         0.26927E-02
         0.26927E-02
         0.26927E-02
         0.26927E-02
         0.26927E-02
         0.26927E-02
         0.26927E-02
         0.26927E-02
         0.26927E-02
         0.26927E-02
         0.26927E-02
         0.26927E-02
         0.26927E-02
         0.26927E-02
         0.26927E-02
         0.26927E-02
         0.26927E-02
         0.26927E-02
         0.26927E-02
         0.26927E-02
         0.26927E-02
         0.26927E-02
         0.26927E-02
         0.26927E-02
         0.26927E-02
         0.26927E-02
         0.26927E-02
         0.26927E-02
         0.26927E-02
         0.26927E-02
         0.26927E-02
         0.26927E-02
         0.26927E-02
         0.26927E-02
         0.26927E-02
         0.26927E-02
         0.26927E-02
         0.26927E-02
         0.26927E-02
         0.26927E-02
         0.26927E-02
         0.26927E-02
         0.26927E-02
         0.26927E-02
         0.26927E-02
         0.26927E-02
         0.26927E-02
         0.26927E-02
         0.26927E-02
         0.26927E-02
         0.26927E-02
         0.26927E-02
         0.26927E-02
         0.26927E-02
         0.26927E-02
         0.26927E-02
         0.26927E-02
         0.26927E-02
         0.26927E-02
         0.26927E-02
         0.26927E-02
         0.26927E-02
         0.26927E-02
         0.26927E-02
         0.26927E-02
         0.26927E-02
         0.26927E-02
         0.26927E-02
         0.26927E-02
         0.26927E-02
         0.26927E-02
         0.26927E-02
         0.26927E-02
         0.26927E-02
         0.26927E-02
         0.26927E-02
         0.26927E-02
         0.26927E-02
         0.26927E-02
         0.26927E-02
         0.26927E-02
         0.26927E-02
         0.26927E-02
         0.26927E-02
         0.26927E-02
         0.26927E-02
         0.26927E-02
         0.26927E-02
         0.26927E-02
         0.26927E-02
         0.26927E-02
         0.26927E-02
         0.26927E-02
         0.26927E-02
         0.26927E-02
         0.26927E-02
         0.26927E-02
         0.26927E-02
         0.26927E-02
         0.26927E-02
         0.26927E-02
         0.26927E-02
         0.26927E-02
         0.26927E-02
         0.26927E-02
         0.26927E-02
         0.26927E-02
         0.26927E-02
         0.26927E-02
         0.26927E-02
         0.26927E-02
         0.26927E-02
         0.26927E-02
         0.26927E-02
         0.26927E-02
         0.26927E-02
         0.26927E-02
         0.26927E-02
         0.26927E-02
         0.26927E-02
         0.26927E-02
         0.26927E-02
         0.26927E-02
         0.26927E-02
         0.26927E-02
         0.26927E-02
         0.26927E-02
         0.26927E-02
         0.26927E-02
         0.26927E-02
         0.26927E-02
         0.26927E-02
         0.26927E-02
         0.26927E-02
         0.26927E-02
         0.26927E-02
         0.26927E-02
         0.26927E-02
         0.26927E-02
         0.26927E-02
         0.26927E-02
         0.26927E-02
         0.26927E-02
         0.26927E-02
         0.26927E-02
         0.26927E-02
         0.26927E-02
         0.26927E-02
         0.26927E-02
         0.26927E-02
         0.26927E-02
         0.26927E-02
         0.26927E-02
         0.26927E-02
         0.26927E-02
         0.26927E-02
         0.26927E-02
         0.26927E-02
         0.26927E-02
         0.26927E-02
         0.26927E-02
         0.26927E-02
         0.26927E-02
         0.26927E-02
         0.26927E-02
         0.26927E-02
         0.26927E-02
         0.26927E-02
         0.26927E-02
         0.26927E-02
         0.26927E-02
         0.26927E-02
         0.26927E-02
         0.26927E-02
         0.26927E-02
         0.26927E-02
         0.26927E-02
         0.26927E-02
         0.26927E-02
         0.26927E-02
         0.26927E-02
         0.26927E-02
         0.26927E-02
         0.26927E-02
         0.26927E-02
         0.26927E-02
         0.26927E-02
         0.26927E-02
         0.26927E-02
         0.26927E-02
         0.26927E-02
         0.26927E-02
         0.26927E-02
         0.26927E-02
         0.26927E-02
         0.26927E-02
         0.26927E-02
         0.26927E-02
         0.26927E-02
         0.26927E-02
         0.26927E-02
         0.26927E-02
         0.26927E-02
         0.26927E-02
         0.26927E-02
         0.26927E-02
         0.26927E-02
         0.26927E-02
         0.26927E-02
         0.26927E-02
         0.26927E-02
         0.26927E-02
         0.26927E-02
         0.26927E-02
         0.26927E-02
         0.26927E-02
         0.26927E-02
         0.26927E-02
         0.26927E-02
         0.26927E-02
         0.26927E-02
         0.26927E-02
         0.26927E-02
         0.26927E-02
         0.26927E-02
         0.26927E-02
         0.26927E-02
         0.26927E-02
         0.26927E-02
         0.26927E-02
         0.26927E-02
         0.26927E-02
         0.26927E-02
         0.26927E-02
         0.26927E-02
         0.26927E-02
         0.26927E-02
         0.26927E-02
         0.26927E-02
         0.26927E-02
         0.26927E-02
         0.26927E-02
         0.26927E-02
         0.26927E-02
         0.26927E-02
         0.26927E-02
         0.26927E-02
         0.26927E-02
         0.26927E-02
         0.26927E-02
         0.26927E-02
         0.26927E-02
         0.26927E-02
         0.26927E-02
         0.26927E-02
         0.26927E-02
         0.26927E-02
         0.26927E-02
         0.26927E-02
         0.26927E-02
         0.26927E-02
         0.26927E-02
         0.26927E-02
         0.26927E-02
         0.26927E-02
         0.26927E-02
         0.26927E-02
         0.26927E-02
         0.26927E-02
         0.26927E-02
         0.26927E-02
         0.26927E-02
         0.26927E-02
         0.26927E-02
         0.26927E-02
         0.26927E-02
         0.26927E-02
         0.26927E-02
         0.26927E-02
         0.26927E-02
         0.26927E-02
         0.26927E-02
         0.26927E-02
         0.26927E-02
         0.26927E-02
         0.26927E-02
         0.26927E-02
         0.26927E-02
         0.26927E-02
         0.26927E-02
         0.26927E-02
         0.26927E-02
         0.26927E-02
         0.26927E-02
         0.26927E-02
         0.26927E-02
         0.26927E-02
         0.26927E-02
         0.26927E-02
         0.26927E-02
         0.26927E-02
         0.26927E-02
         0.26927E-02
         0.26927E-02
         0.26927E-02
         0.26927E-02
         0.26927E-02
         0.26927E-02
         0.26927E-02
         0.26927E-02
         0.26927E-02
         0.26927E-02
         0.26927E-02
         0.26927E-02
         0.26927E-02
         0.26927E-02
         0.26927E-02
         0.26927E-02
         0.26927E-02
         0.26927E-02
         0.26927E-02
         0.26927E-02
         0.26927E-02
         0.26927E-02
         0.26927E-02
         0.26927E-02
         0.26927E-02
         0.26927E-02
         0.26927E-02
         0.26927E-02
         0.26927E-02
         0.26927E-02
         0.26927E-02
         0.26927E-02
         0.26927E-02
         0.26927E-02
         0.26927E-02
         0.26927E-02
         0.26927E-02
         0.26927E-02
         0.26927E-02
         0.26927E-02
         0.26927E-02
         0.26927E-02
         0.26927E-02
         0.26927E-02
         0.26927E-02
         0.26927E-02
         0.26927E-02
         0.26927E-02
         0.26927E-02
         0.26927E-02
         0.26927E-02
         0.26927E-02
         0.26927E-02
         0.26927E-02
         0.26927E-02
         0.26927E-02
         0.26927E-02
         0.26927E-02
         0.26927E-02
         0.26927E-02
         0.26927E-02
         0.26927E-02
         0.26927E-02
         0.26927E-02
         0.26927E-02
         0.26927E-02
         0.26927E-02
         0.26927E-02
         0.26927E-02
         0.26927E-02
         0.26927E-02
         0.26927E-02
         0.26927E-02
         0.26927E-02
         0.26927E-02
         0.26927E-02
         0.26927E-02
         0.26927E-02
         0.26927E-02
         0.26927E-02
         0.26927E-02
         0.26927E-02
         0.26927E-02
         0.26927E-02
         0.26927E-02
         0.26927E-02
         0.26927E-02
         0.26927E-02
         0.26927E-02
         0.26927E-02
         0.26927E-02
         0.26927E-02
         0.26927E-02
         0.26927E-02
         0.26927E-02
         0.26927E-02
         0.26927E-02
         0.26927E-02
         0.26927E-02
         0.26927E-02
         0.26927E-02
         0.26927E-02
         0.26927E-02
         0.26927E-02
         0.26927E-02
         0.26927E-02
         0.26927E-02
         0.26927E-02
         0.26927E-02
         0.26927E-02
         0.26927E-02
         0.26927E-02
         0.26927E-02
         0.26927E-02
         0.26927E-02
         0.26927E-02
         0.26927E-02
         0.26927E-02
         0.26927E-02
         0.26927E-02
         0.26927E-02
         0.26927E-02
         0.26927E-02
         0.26927E-02
         0.26927E-02
         0.26927E-02
         0.26927E-02
         0.26927E-02
         0.26927E-02
         0.26927E-02
         0.26927E-02
         0.26927E-02
         0.26927E-02
         0.26927E-02
         0.26927E-02
         0.26927E-02
         0.26927E-02
         0.26927E-02
         0.26927E-02
         0.26927E-02
         0.26927E-02
         0.26927E-02
         0.26927E-02
         0.26927E-02
         0.26927E-02
         0.26927E-02
         0.26927E-02
         0.26927E-02
         0.26927E-02
         0.26927E-02
         0.26927E-02
         0.26927E-02
         0.26927E-02
         0.26927E-02
         0.26927E-02
         0.26927E-02
         0.26927E-02
         0.26927E-02
         0.26927E-02
         0.26927E-02
         0.26927E-02
         0.26927E-02
         0.26927E-02
         0.26927E-02
         0.26927E-02
         0.26927E-02
         0.26927E-02
         0.26927E-02
         0.26927E-02
         0.26927E-02
         0.26927E-02
         0.26927E-02
         0.26927E-02
         0.26927E-02
         0.26927E-02
         0.26927E-02
         0.26927E-02
         0.26927E-02
         0.26927E-02
         0.26927E-02
         0.26927E-02
         0.26927E-02
         0.26927E-02
         0.26927E-02
         0.26927E-02
         0.26927E-02
         0.26927E-02
         0.26927E-02
         0.26927E-02
         0.26927E-02
         0.26927E-02
         0.26927E-02
         0.26927E-02
         0.26927E-02
         0.26927E-02
         0.26927E-02
         0.26927E-02
         0.26927E-02
         0.26927E-02
         0.26927E-02
         0.26927E-02
         0.26927E-02
         0.26927E-02
         0.26927E-02
         0.26927E-02
         0.26927E-02
         0.26927E-02
         0.26927E-02
         0.26927E-02
         0.26927E-02
         0.26927E-02
         0.26927E-02
         0.26927E-02
         0.26927E-02
         0.26927E-02
         0.26927E-02
         0.26927E-02
         0.26927E-02
         0.26927E-02
         0.26927E-02
         0.26927E-02
         0.26927E-02
         0.26927E-02
         0.26927E-02
         0.26927E-02
         0.26927E-02
         0.26927E-02
         0.26927E-02
         0.26927E-02
         0.26927E-02
         0.26927E-02
         0.26927E-02
         0.26927E-02
         0.26927E-02
         0.26927E-02
         0.26927E-02
         0.26927E-02
         0.26927E-02
         0.26927E-02
         0.26927E-02
         0.26927E-02
         0.26927E-02
         0.26927E-02
         0.26927E-02
         0.26927E-02
         0.26927E-02
         0.26927E-02
         0.26927E-02
         0.26927E-02
         0.26927E-02
         0.26927E-02
         0.26927E-02
         0.26927E-02
         0.26927E-02
         0.26927E-02
         0.26927E-02
         0.26927E-02
         0.26927E-02
         0.26927E-02
         0.26927E-02
         0.26927E-02
         0.26927E-02
         0.26927E-02
         0.26927E-02
         0.26927E-02
         0.26927E-02
         0.26927E-02
         0.26927E-02
         0.26927E-02
         0.26927E-02
         0.26927E-02
         0.26927E-02
         0.26927E-02
         0.26927E-02
         0.26927E-02
         0.26927E-02
         0.26927E-02
         0.26927E-02
         0.26927E-02
         0.26927E-02
         0.26927E-02
         0.26927E-02
         0.26927E-02
         0.26927E-02
         0.26927E-02
         0.26927E-02
         0.26927E-02
         0.26927E-02
         0.26927E-02
         0.26927E-02
         0.26927E-02
         0.26927E-02
         0.26927E-02
         0.26927E-02
         0.26927E-02
         0.26927E-02
         0.26927E-02
         0.26927E-02
         0.26927E-02
         0.26927E-02
         0.26927E-02
         0.26927E-02
         0.26927E-02
         0.26927E-02
         0.26927E-02
         0.26927E-02
         0.26927E-02
         0.26927E-02
         0.26927E-02
         0.26927E-02
         0.26927E-02
         0.26927E-02
         0.26927E-02
         0.26927E-02
         0.26927E-02
         0.26927E-02
         0.26927E-02
         0.26927E-02
         0.26927E-02
         0.26927E-02
         0.26927E-02
         0.26927E-02
         0.26927E-02
         0.26927E-02
         0.26927E-02
         0.26927E-02
         0.26927E-02
         0.26927E-02
         0.26927E-02
         0.26927E-02
         0.26927E-02
         0.26927E-02
         0.26927E-02
         0.26927E-02
         0.26927E-02
         0.26927E-02
         0.26927E-02
         0.26927E-02
         0.26927E-02
         0.26927E-02
         0.26927E-02
         0.26927E-02
         0.26927E-02
         0.26927E-02
         0.26927E-02
         0.26927E-02
         0.26927E-02
         0.26927E-02
         0.26927E-02
         0.26927E-02
         0.26927E-02
         0.26927E-02
         0.26927E-02
         0.26927E-02
         0.26927E-02
         0.26927E-02
         0.26927E-02
         0.26927E-02
         0.26927E-02
         0.26927E-02
         0.26927E-02
         0.26927E-02
         0.26927E-02
         0.26927E-02
         0.26927E-02
         0.26927E-02
         0.26927E-02
         0.26927E-02
         0.26927E-02
         0.26927E-02
         0.26927E-02
         0.26927E-02
         0.26927E-02
         0.26927E-02
         0.26927E-02
         0.26927E-02
         0.26927E-02
         0.26927E-02
         0.26927E-02
         0.26927E-02
         0.26927E-02
         0.26927E-02
         0.26927E-02
         0.26927E-02
         0.26927E-02
         0.26927E-02
         0.26927E-02
         0.26927E-02
         0.26927E-02
         0.26927E-02
         0.26927E-02
         0.26927E-02
         0.26927E-02
         0.26927E-02
         0.26927E-02
         0.26927E-02
         0.26927E-02
         0.26927E-02
         0.26927E-02
         0.26927E-02
         0.26927E-02
         0.26927E-02
         0.26927E-02
         0.26927E-02
         0.26927E-02
         0.26927E-02
         0.26927E-02
         0.26927E-02
         0.26927E-02
         0.26927E-02
         0.26927E-02
         0.26927E-02
         0.26927E-02
         0.26927E-02
         0.26927E-02
         0.26927E-02
         0.26927E-02
         0.26927E-02
         0.26927E-02
         0.26927E-02
         0.26927E-02
         0.26927E-02
         0.26927E-02
         0.26927E-02
         0.26927E-02
         0.26927E-02
         0.26927E-02
         0.26927E-02
         0.26927E-02
         0.26927E-02
         0.26927E-02
         0.26927E-02
         0.26927E-02
         0.26927E-02
         0.26927E-02
         0.26927E-02
         0.26927E-02
         0.26927E-02
         0.26927E-02
         0.26927E-02
         0.26927E-02
         0.26927E-02
         0.26927E-02
         0.26927E-02
         0.26927E-02
         0.26927E-02
         0.26927E-02
         0.26927E-02
         0.26927E-02
         0.26927E-02
         0.26927E-02
         0.26927E-02
         0.26927E-02
         0.26927E-02
         0.26927E-02
         0.26927E-02
         0.26927E-02
         0.26927E-02
         0.26927E-02
         0.26927E-02
         0.26927E-02
         0.26927E-02
         0.26927E-02
         0.26927E-02
         0.26927E-02
         0.26927E-02
         0.26927E-02
         0.26927E-02
         0.26927E-02
         0.26927E-02
         0.26927E-02
         0.26927E-02
         0.26928E-02
         0.26928E-02
         0.26928E-02
         0.26928E-02
         0.26928E-02
         0.26928E-02
         0.26928E-02
         0.26928E-02
         0.26928E-02
         0.26928E-02
         0.26928E-02
         0.26928E-02
         0.26928E-02
         0.26928E-02
         0.26928E-02
         0.26928E-02
         0.26928E-02
         0.26928E-02
         0.26928E-02
         0.26928E-02
         0.26928E-02
         0.26928E-02
         0.26928E-02
         0.26928E-02
         0.26928E-02
         0.26928E-02
         0.26928E-02
         0.26928E-02
         0.26928E-02
         0.26928E-02
         0.26928E-02
         0.26928E-02
         0.26928E-02
         0.26928E-02
         0.26928E-02
         0.26928E-02
         0.26928E-02
         0.26928E-02
         0.26928E-02
         0.26928E-02
         0.26928E-02
         0.26928E-02
         0.26928E-02
         0.26928E-02
         0.26928E-02
         0.26928E-02
         0.26928E-02
         0.26928E-02
         0.26928E-02
         0.26928E-02
         0.26928E-02
         0.26928E-02
         0.26928E-02
         0.26928E-02
         0.26928E-02
         0.26928E-02
         0.26928E-02
         0.26928E-02
         0.26928E-02
         0.26928E-02
         0.26928E-02
         0.26928E-02
         0.26928E-02
         0.26928E-02
         0.26928E-02
         0.26928E-02
         0.26928E-02
         0.26928E-02
         0.26928E-02
         0.26928E-02
         0.26928E-02
         0.26928E-02
         0.26928E-02
         0.26928E-02
         0.26928E-02
         0.26928E-02
         0.26928E-02
         0.26928E-02
         0.26928E-02
         0.26928E-02
         0.26928E-02
         0.26928E-02
         0.26928E-02
         0.26928E-02
         0.26928E-02
         0.26928E-02
         0.26928E-02
         0.26928E-02
         0.26928E-02
         0.26928E-02
         0.26928E-02
         0.26928E-02
         0.26928E-02
         0.26928E-02
         0.26928E-02
         0.26928E-02
         0.26928E-02
         0.26928E-02
         0.26928E-02
         0.26928E-02
         0.26928E-02
         0.26928E-02
         0.26928E-02
         0.26928E-02
         0.26928E-02
         0.26928E-02
         0.26928E-02
         0.26928E-02
         0.26928E-02
         0.26928E-02
         0.26928E-02
         0.26928E-02
         0.26928E-02
         0.26928E-02
         0.26928E-02
         0.26928E-02
         0.26928E-02
         0.26928E-02
         0.26928E-02
         0.26928E-02
         0.26928E-02
         0.26928E-02
         0.26928E-02
         0.26928E-02
         0.26928E-02
         0.26928E-02
         0.26928E-02
         0.26928E-02
         0.26928E-02
         0.26928E-02
         0.26928E-02
         0.26928E-02
         0.26928E-02
         0.26928E-02
         0.26928E-02
         0.26928E-02
         0.26928E-02
         0.26928E-02
         0.26928E-02
         0.26928E-02
         0.26928E-02
         0.26928E-02
         0.26928E-02
         0.26928E-02
         0.26928E-02
         0.26928E-02
         0.26928E-02
         0.26928E-02
         0.26928E-02
         0.26928E-02
         0.26928E-02
         0.26928E-02
         0.26928E-02
         0.26928E-02
         0.26928E-02
         0.26928E-02
  
SCALARS                   nodal_volume  double 1
LOOKUP_TABLE default
         0.91140E-09
         0.72412E-09
         0.77574E-09
         0.13316E-08
         0.45570E-09
         0.36211E-09
         0.38787E-09
         0.66566E-09
         0.71537E-09
         0.91211E-09
         0.35767E-09
         0.45600E-09
         0.51195E-09
         0.61532E-09
         0.25605E-09
         0.30776E-09
         0.10101E-08
         0.74536E-09
         0.50500E-09
         0.37281E-09
         0.30273E-09
         0.57012E-09
         0.62699E-09
         0.15144E-09
         0.28509E-09
         0.31352E-09
         0.51329E-09
         0.64933E-09
         0.25683E-09
         0.32471E-09
         0.12026E-08
         0.93909E-09
         0.11935E-08
         0.60122E-09
         0.46945E-09
         0.59663E-09
         0.70296E-09
         0.80270E-09
         0.35149E-09
         0.40134E-09
         0.75859E-09
         0.84013E-09
         0.37932E-09
         0.42007E-09
         0.64542E-09
         0.40086E-09
         0.32274E-09
         0.20045E-09
         0.76288E-09
         0.38153E-09
         0.63346E-09
         0.31675E-09
         0.66583E-09
         0.33318E-09
         0.68008E-09
         0.34022E-09
         0.58930E-09
         0.71738E-09
         0.29472E-09
         0.35874E-09
         0.90938E-09
         0.64302E-09
         0.45469E-09
         0.32154E-09
         0.10152E-08
         0.50747E-09
         0.88120E-09
         0.44042E-09
         0.40077E-09
         0.61872E-09
         0.20039E-09
         0.30940E-09
         0.70206E-09
         0.35106E-09
         0.74172E-09
         0.37089E-09
         0.71539E-09
         0.35770E-09
         0.56226E-09
         0.28113E-09
         0.35349E-09
         0.58452E-09
         0.17675E-09
         0.29229E-09
         0.77354E-09
         0.38679E-09
         0.62469E-09
         0.31238E-09
         0.54957E-09
         0.27483E-09
         0.36009E-09
         0.61365E-09
         0.18007E-09
         0.30685E-09
         0.83268E-09
         0.41635E-09
         0.87287E-09
         0.43642E-09
         0.70438E-09
         0.35217E-09
         0.43365E-09
         0.74413E-09
         0.21683E-09
         0.37198E-09
         0.27660E-09
         0.35144E-09
         0.13833E-09
         0.17573E-09
         0.32921E-09
         0.16465E-09
         0.38764E-09
         0.19382E-09
         0.37797E-09
         0.18897E-09
         0.36707E-09
         0.18352E-09
         0.39112E-09
         0.19552E-09
         0.41268E-09
         0.20627E-09
         0.38876E-09
         0.19433E-09
         0.30402E-09
         0.15200E-09
         0.24796E-09
         0.12398E-09
         0.31999E-09
         0.16000E-09
         0.42608E-09
         0.21303E-09
         0.46805E-09
         0.23401E-09
         0.44933E-09
         0.22466E-09
         0.40550E-09
         0.20276E-09
         0.36826E-09
         0.18414E-09
         0.29911E-09
         0.14956E-09
         0.25178E-09
         0.12591E-09
         0.32888E-09
         0.16445E-09
         0.43529E-09
         0.21765E-09
         0.44963E-09
         0.22482E-09
         0.36384E-09
         0.18194E-09
         0.29543E-09
         0.14774E-09
         0.36126E-09
         0.18063E-09
         0.42771E-09
         0.21386E-09
         0.91143E-09
         0.72396E-09
         0.77579E-09
         0.13322E-08
         0.71547E-09
         0.91237E-09
         0.51167E-09
         0.61494E-09
         0.10105E-08
         0.74486E-09
         0.30244E-09
         0.57001E-09
         0.62694E-09
         0.51257E-09
         0.64918E-09
         0.12029E-08
         0.93950E-09
         0.11941E-08
         0.70298E-09
         0.80279E-09
         0.75855E-09
         0.84015E-09
         0.64535E-09
         0.40081E-09
         0.76254E-09
         0.63339E-09
         0.66483E-09
         0.67941E-09
         0.58904E-09
         0.71721E-09
         0.90946E-09
         0.64293E-09
         0.10157E-08
         0.88199E-09
         0.40076E-09
         0.61859E-09
         0.70195E-09
         0.74166E-09
         0.71543E-09
         0.56228E-09
         0.35349E-09
         0.58443E-09
         0.77349E-09
         0.62459E-09
         0.54943E-09
         0.35999E-09
         0.61359E-09
         0.83268E-09
         0.87299E-09
         0.70451E-09
         0.43366E-09
         0.74449E-09
         0.27651E-09
         0.35143E-09
         0.32904E-09
         0.38765E-09
         0.37805E-09
         0.36714E-09
         0.39129E-09
         0.41297E-09
         0.38899E-09
         0.30408E-09
         0.24798E-09
         0.31999E-09
         0.42613E-09
         0.46815E-09
         0.44938E-09
         0.40548E-09
         0.36823E-09
         0.29908E-09
         0.25174E-09
         0.32885E-09
         0.43527E-09
         0.44962E-09
         0.36376E-09
         0.29536E-09
         0.36130E-09
         0.42769E-09
         0.91151E-09
         0.72383E-09
         0.77587E-09
         0.13329E-08
         0.71560E-09
         0.91267E-09
         0.51142E-09
         0.61459E-09
         0.10109E-08
         0.74439E-09
         0.30216E-09
         0.56992E-09
         0.62691E-09
         0.51187E-09
         0.64906E-09
         0.12033E-08
         0.93995E-09
         0.11947E-08
         0.70302E-09
         0.80291E-09
         0.75853E-09
         0.84020E-09
         0.64530E-09
         0.40078E-09
         0.76223E-09
         0.63335E-09
         0.66385E-09
         0.67875E-09
         0.58880E-09
         0.71706E-09
         0.90957E-09
         0.64286E-09
         0.10162E-08
         0.88281E-09
         0.40076E-09
         0.61849E-09
         0.70188E-09
         0.74162E-09
         0.71550E-09
         0.56232E-09
         0.35350E-09
         0.58436E-09
         0.77347E-09
         0.62452E-09
         0.54931E-09
         0.35990E-09
         0.61355E-09
         0.83270E-09
         0.87315E-09
         0.70467E-09
         0.43368E-09
         0.74487E-09
         0.27643E-09
         0.35143E-09
         0.32889E-09
         0.38767E-09
         0.37814E-09
         0.36723E-09
         0.39147E-09
         0.41328E-09
         0.38923E-09
         0.30416E-09
         0.24800E-09
         0.32001E-09
         0.42620E-09
         0.46826E-09
         0.44944E-09
         0.40548E-09
         0.36821E-09
         0.29906E-09
         0.25171E-09
         0.32883E-09
         0.43527E-09
         0.44963E-09
         0.36369E-09
         0.29530E-09
         0.36135E-09
         0.42769E-09
         0.91156E-09
         0.72368E-09
         0.77594E-09
         0.13335E-08
         0.71571E-09
         0.91295E-09
         0.51115E-09
         0.61422E-09
         0.10112E-08
         0.74389E-09
         0.30187E-09
         0.56982E-09
         0.62686E-09
         0.51116E-09
         0.64892E-09
         0.12036E-08
         0.94038E-09
         0.11953E-08
         0.70304E-09
         0.80300E-09
         0.75850E-09
         0.84023E-09
         0.64523E-09
         0.40073E-09
         0.76190E-09
         0.63330E-09
         0.66285E-09
         0.67809E-09
         0.58855E-09
         0.71689E-09
         0.90966E-09
         0.64278E-09
         0.10168E-08
         0.88361E-09
         0.40076E-09
         0.61837E-09
         0.70178E-09
         0.74156E-09
         0.71554E-09
         0.56234E-09
         0.35350E-09
         0.58428E-09
         0.77343E-09
         0.62442E-09
         0.54918E-09
         0.35981E-09
         0.61349E-09
         0.83271E-09
         0.87328E-09
         0.70481E-09
         0.43369E-09
         0.74524E-09
         0.27634E-09
         0.35142E-09
         0.32873E-09
         0.38768E-09
         0.37823E-09
         0.36731E-09
         0.39163E-09
         0.41358E-09
         0.38945E-09
         0.30422E-09
         0.24802E-09
         0.32001E-09
         0.42625E-09
         0.46837E-09
         0.44949E-09
         0.40546E-09
         0.36819E-09
         0.29904E-09
         0.25167E-09
         0.32881E-09
         0.43526E-09
         0.44963E-09
         0.36362E-09
         0.29523E-09
         0.36139E-09
         0.42768E-09
         0.91161E-09
         0.72353E-09
         0.77600E-09
         0.13341E-08
         0.71583E-09
         0.91323E-09
         0.51088E-09
         0.61386E-09
         0.10116E-08
         0.74341E-09
         0.30158E-09
         0.56972E-09
         0.62682E-09
         0.51045E-09
         0.64879E-09
         0.12040E-08
         0.94081E-09
         0.11959E-08
         0.70307E-09
         0.80310E-09
         0.75847E-09
         0.84027E-09
         0.64517E-09
         0.40069E-09
         0.76158E-09
         0.63325E-09
         0.66186E-09
         0.67742E-09
         0.58831E-09
         0.71673E-09
         0.90975E-09
         0.64270E-09
         0.10173E-08
         0.88441E-09
         0.40075E-09
         0.61825E-09
         0.70169E-09
         0.74151E-09
         0.71559E-09
         0.56237E-09
         0.35350E-09
         0.58420E-09
         0.77339E-09
         0.62433E-09
         0.54905E-09
         0.35972E-09
         0.61344E-09
         0.83272E-09
         0.87341E-09
         0.70496E-09
         0.43370E-09
         0.74562E-09
         0.27626E-09
         0.35142E-09
         0.32857E-09
         0.38770E-09
         0.37832E-09
         0.36739E-09
         0.39181E-09
         0.41387E-09
         0.38968E-09
         0.30429E-09
         0.24804E-09
         0.32002E-09
         0.42631E-09
         0.46847E-09
         0.44954E-09
         0.40545E-09
         0.36816E-09
         0.29901E-09
         0.25163E-09
         0.32878E-09
         0.43525E-09
         0.44963E-09
         0.36354E-09
         0.29517E-09
         0.36144E-09
         0.42766E-09
         0.91167E-09
         0.72338E-09
         0.77607E-09
         0.13348E-08
         0.71594E-09
         0.91351E-09
         0.51062E-09
         0.61349E-09
         0.10119E-08
         0.74292E-09
         0.30129E-09
         0.56962E-09
         0.62678E-09
         0.50974E-09
         0.64865E-09
         0.12044E-08
         0.94125E-09
         0.11965E-08
         0.70310E-09
         0.80321E-09
         0.75844E-09
         0.84031E-09
         0.64511E-09
         0.40065E-09
         0.76125E-09
         0.63320E-09
         0.66087E-09
         0.67676E-09
         0.58806E-09
         0.71657E-09
         0.90984E-09
         0.64263E-09
         0.10179E-08
         0.88522E-09
         0.40075E-09
         0.61813E-09
         0.70160E-09
         0.74146E-09
         0.71564E-09
         0.56240E-09
         0.35350E-09
         0.58412E-09
         0.77336E-09
         0.62425E-09
         0.54892E-09
         0.35963E-09
         0.61339E-09
         0.83274E-09
         0.87355E-09
         0.70511E-09
         0.43371E-09
         0.74599E-09
         0.27618E-09
         0.35141E-09
         0.32841E-09
         0.38771E-09
         0.37841E-09
         0.36747E-09
         0.39198E-09
         0.41417E-09
         0.38992E-09
         0.30436E-09
         0.24806E-09
         0.32003E-09
         0.42637E-09
         0.46858E-09
         0.44960E-09
         0.40544E-09
         0.36814E-09
         0.29899E-09
         0.25159E-09
         0.32876E-09
         0.43525E-09
         0.44963E-09
         0.36347E-09
         0.29511E-09
         0.36148E-09
         0.42766E-09
         0.91171E-09
         0.72323E-09
         0.77613E-09
         0.13354E-08
         0.71606E-09
         0.91379E-09
         0.51035E-09
         0.61313E-09
         0.10123E-08
         0.74243E-09
         0.30101E-09
         0.56952E-09
         0.62674E-09
         0.50903E-09
         0.64851E-09
         0.12047E-08
         0.94167E-09
         0.11971E-08
         0.70312E-09
         0.80331E-09
         0.75840E-09
         0.84034E-09
         0.64504E-09
         0.40061E-09
         0.76092E-09
         0.63314E-09
         0.65988E-09
         0.67609E-09
         0.58781E-09
         0.71641E-09
         0.90993E-09
         0.64255E-09
         0.10184E-08
         0.88601E-09
         0.40075E-09
         0.61801E-09
         0.70151E-09
         0.74140E-09
         0.71569E-09
         0.56243E-09
         0.35350E-09
         0.58404E-09
         0.77332E-09
         0.62416E-09
         0.54879E-09
         0.35953E-09
         0.61334E-09
         0.83274E-09
         0.87368E-09
         0.70525E-09
         0.43372E-09
         0.74636E-09
         0.27609E-09
         0.35141E-09
         0.32825E-09
         0.38772E-09
         0.37849E-09
         0.36754E-09
         0.39215E-09
         0.41447E-09
         0.39014E-09
         0.30443E-09
         0.24808E-09
         0.32004E-09
         0.42642E-09
         0.46868E-09
         0.44965E-09
         0.40543E-09
         0.36812E-09
         0.29897E-09
         0.25155E-09
         0.32874E-09
         0.43524E-09
         0.44963E-09
         0.36340E-09
         0.29504E-09
         0.36153E-09
         0.42764E-09
         0.91176E-09
         0.72308E-09
         0.77620E-09
         0.13360E-08
         0.71617E-09
         0.91407E-09
         0.51008E-09
         0.61276E-09
         0.10126E-08
         0.74195E-09
         0.30072E-09
         0.56942E-09
         0.62670E-09
         0.50832E-09
         0.64838E-09
         0.12051E-08
         0.94210E-09
         0.11977E-08
         0.70314E-09
         0.80341E-09
         0.75837E-09
         0.84038E-09
         0.64498E-09
         0.40056E-09
         0.76060E-09
         0.63309E-09
         0.65888E-09
         0.67542E-09
         0.58756E-09
         0.71624E-09
         0.91002E-09
         0.64247E-09
         0.10189E-08
         0.88682E-09
         0.40074E-09
         0.61790E-09
         0.70142E-09
         0.74135E-09
         0.71574E-09
         0.56245E-09
         0.35351E-09
         0.58396E-09
         0.77328E-09
         0.62407E-09
         0.54866E-09
         0.35944E-09
         0.61329E-09
         0.83275E-09
         0.87382E-09
         0.70539E-09
         0.43373E-09
         0.74673E-09
         0.27601E-09
         0.35140E-09
         0.32809E-09
         0.38774E-09
         0.37858E-09
         0.36762E-09
         0.39232E-09
         0.41477E-09
         0.39037E-09
         0.30450E-09
         0.24810E-09
         0.32005E-09
         0.42648E-09
         0.46879E-09
         0.44970E-09
         0.40541E-09
         0.36809E-09
         0.29894E-09
         0.25151E-09
         0.32871E-09
         0.43523E-09
         0.44963E-09
         0.36333E-09
         0.29497E-09
         0.36157E-09
         0.42763E-09
         0.91182E-09
         0.72293E-09
         0.77627E-09
         0.13367E-08
         0.71629E-09
         0.91436E-09
         0.50982E-09
         0.61240E-09
         0.10130E-08
         0.74146E-09
         0.30043E-09
         0.56932E-09
         0.62666E-09
         0.50762E-09
         0.64825E-09
         0.12054E-08
         0.94253E-09
         0.11983E-08
         0.70317E-09
         0.80351E-09
         0.75834E-09
         0.84041E-09
         0.64491E-09
         0.40053E-09
         0.76028E-09
         0.63304E-09
         0.65790E-09
         0.67476E-09
         0.58731E-09
         0.71609E-09
         0.91012E-09
         0.64239E-09
         0.10195E-08
         0.88762E-09
         0.40074E-09
         0.61778E-09
         0.70133E-09
         0.74130E-09
         0.71579E-09
         0.56249E-09
         0.35351E-09
         0.58388E-09
         0.77324E-09
         0.62398E-09
         0.54853E-09
         0.35935E-09
         0.61324E-09
         0.83277E-09
         0.87396E-09
         0.70554E-09
         0.43375E-09
         0.74711E-09
         0.27592E-09
         0.35140E-09
         0.32793E-09
         0.38775E-09
         0.37867E-09
         0.36770E-09
         0.39249E-09
         0.41507E-09
         0.39061E-09
         0.30457E-09
         0.24812E-09
         0.32006E-09
         0.42654E-09
         0.46890E-09
         0.44975E-09
         0.40540E-09
         0.36807E-09
         0.29892E-09
         0.25148E-09
         0.32869E-09
         0.43522E-09
         0.44963E-09
         0.36325E-09
         0.29491E-09
         0.36162E-09
         0.42762E-09
         0.91187E-09
         0.72278E-09
         0.77633E-09
         0.13373E-08
         0.71640E-09
         0.91463E-09
         0.50955E-09
         0.61204E-09
         0.10134E-08
         0.74098E-09
         0.30015E-09
         0.56922E-09
         0.62662E-09
         0.50691E-09
         0.64811E-09
         0.12058E-08
         0.94296E-09
         0.11989E-08
         0.70320E-09
         0.80361E-09
         0.75831E-09
         0.84045E-09
         0.64485E-09
         0.40048E-09
         0.75995E-09
         0.63298E-09
         0.65690E-09
         0.67409E-09
         0.58706E-09
         0.71592E-09
         0.91020E-09
         0.64231E-09
         0.10200E-08
         0.88843E-09
         0.40074E-09
         0.61766E-09
         0.70124E-09
         0.74124E-09
         0.71584E-09
         0.56251E-09
         0.35351E-09
         0.58380E-09
         0.77320E-09
         0.62389E-09
         0.54840E-09
         0.35926E-09
         0.61318E-09
         0.83277E-09
         0.87409E-09
         0.70568E-09
         0.43376E-09
         0.74748E-09
         0.27584E-09
         0.35139E-09
         0.32777E-09
         0.38777E-09
         0.37876E-09
         0.36778E-09
         0.39266E-09
         0.41536E-09
         0.39084E-09
         0.30464E-09
         0.24814E-09
         0.32006E-09
         0.42659E-09
         0.46900E-09
         0.44980E-09
         0.40539E-09
         0.36805E-09
         0.29890E-09
         0.25144E-09
         0.32867E-09
         0.43521E-09
         0.44963E-09
         0.36318E-09
         0.29485E-09
         0.36166E-09
         0.42761E-09
         0.91192E-09
         0.72263E-09
         0.77640E-09
         0.13380E-08
         0.71652E-09
         0.91491E-09
         0.50928E-09
         0.61167E-09
         0.10137E-08
         0.74049E-09
         0.29986E-09
         0.56912E-09
         0.62657E-09
         0.50620E-09
         0.64797E-09
         0.12061E-08
         0.94339E-09
         0.11995E-08
         0.70322E-09
         0.80371E-09
         0.75827E-09
         0.84048E-09
         0.64478E-09
         0.40044E-09
         0.75962E-09
         0.63293E-09
         0.65591E-09
         0.67343E-09
         0.58681E-09
         0.71576E-09
         0.91029E-09
         0.64223E-09
         0.10205E-08
         0.88923E-09
         0.40073E-09
         0.61754E-09
         0.70114E-09
         0.74119E-09
         0.71588E-09
         0.56254E-09
         0.35351E-09
         0.58372E-09
         0.77316E-09
         0.62380E-09
         0.54827E-09
         0.35917E-09
         0.61313E-09
         0.83278E-09
         0.87422E-09
         0.70582E-09
         0.43377E-09
         0.74785E-09
         0.27575E-09
         0.35138E-09
         0.32761E-09
         0.38778E-09
         0.37885E-09
         0.36786E-09
         0.39283E-09
         0.41566E-09
         0.39107E-09
         0.30470E-09
         0.24816E-09
         0.32007E-09
         0.42665E-09
         0.46911E-09
         0.44985E-09
         0.40538E-09
         0.36802E-09
         0.29887E-09
         0.25140E-09
         0.32864E-09
         0.43520E-09
         0.44963E-09
         0.36310E-09
         0.29478E-09
         0.36170E-09
         0.42760E-09
         0.91198E-09
         0.72248E-09
         0.77646E-09
         0.13386E-08
         0.71663E-09
         0.91520E-09
         0.50901E-09
         0.61131E-09
         0.10141E-08
         0.74000E-09
         0.29957E-09
         0.56902E-09
         0.62653E-09
         0.50549E-09
         0.64784E-09
         0.12065E-08
         0.94382E-09
         0.12002E-08
         0.70325E-09
         0.80381E-09
         0.75824E-09
         0.84052E-09
         0.64472E-09
         0.40040E-09
         0.75929E-09
         0.63288E-09
         0.65492E-09
         0.67276E-09
         0.58657E-09
         0.71560E-09
         0.91038E-09
         0.64216E-09
         0.10211E-08
         0.89003E-09
         0.40073E-09
         0.61742E-09
         0.70105E-09
         0.74114E-09
         0.71593E-09
         0.56257E-09
         0.35351E-09
         0.58364E-09
         0.77313E-09
         0.62371E-09
         0.54814E-09
         0.35908E-09
         0.61308E-09
         0.83280E-09
         0.87436E-09
         0.70597E-09
         0.43378E-09
         0.74823E-09
         0.27567E-09
         0.35138E-09
         0.32745E-09
         0.38779E-09
         0.37893E-09
         0.36794E-09
         0.39300E-09
         0.41596E-09
         0.39130E-09
         0.30477E-09
         0.24818E-09
         0.32008E-09
         0.42671E-09
         0.46921E-09
         0.44991E-09
         0.40537E-09
         0.36800E-09
         0.29885E-09
         0.25136E-09
         0.32862E-09
         0.43520E-09
         0.44963E-09
         0.36303E-09
         0.29472E-09
         0.36175E-09
         0.42759E-09
         0.91203E-09
         0.72233E-09
         0.77653E-09
         0.13392E-08
         0.71675E-09
         0.91547E-09
         0.50875E-09
         0.61094E-09
         0.10144E-08
         0.73952E-09
         0.29928E-09
         0.56892E-09
         0.62649E-09
         0.50478E-09
         0.64770E-09
         0.12068E-08
         0.94424E-09
         0.12008E-08
         0.70327E-09
         0.80391E-09
         0.75821E-09
         0.84055E-09
         0.64465E-09
         0.40035E-09
         0.75896E-09
         0.63282E-09
         0.65393E-09
         0.67210E-09
         0.58632E-09
         0.71543E-09
         0.91047E-09
         0.64208E-09
         0.10216E-08
         0.89084E-09
         0.40073E-09
         0.61730E-09
         0.70096E-09
         0.74108E-09
         0.71598E-09
         0.56259E-09
         0.35351E-09
         0.58356E-09
         0.77309E-09
         0.62362E-09
         0.54801E-09
         0.35898E-09
         0.61303E-09
         0.83281E-09
         0.87449E-09
         0.70611E-09
         0.43379E-09
         0.74860E-09
         0.27558E-09
         0.35137E-09
         0.32729E-09
         0.38781E-09
         0.37902E-09
         0.36802E-09
         0.39317E-09
         0.41625E-09
         0.39153E-09
         0.30484E-09
         0.24820E-09
         0.32009E-09
         0.42677E-09
         0.46932E-09
         0.44996E-09
         0.40536E-09
         0.36798E-09
         0.29883E-09
         0.25132E-09
         0.32859E-09
         0.43519E-09
         0.44963E-09
         0.36296E-09
         0.29465E-09
         0.36179E-09
         0.42758E-09
         0.91208E-09
         0.72218E-09
         0.77659E-09
         0.13399E-08
         0.71686E-09
         0.91576E-09
         0.50848E-09
         0.61058E-09
         0.10148E-08
         0.73903E-09
         0.29900E-09
         0.56882E-09
         0.62645E-09
         0.50408E-09
         0.64757E-09
         0.12072E-08
         0.94467E-09
         0.12014E-08
         0.70330E-09
         0.80401E-09
         0.75818E-09
         0.84059E-09
         0.64459E-09
         0.40031E-09
         0.75864E-09
         0.63277E-09
         0.65294E-09
         0.67143E-09
         0.58607E-09
         0.71527E-09
         0.91057E-09
         0.64200E-09
         0.10221E-08
         0.89164E-09
         0.40072E-09
         0.61719E-09
         0.70087E-09
         0.74103E-09
         0.71603E-09
         0.56262E-09
         0.35352E-09
         0.58348E-09
         0.77305E-09
         0.62354E-09
         0.54788E-09
         0.35889E-09
         0.61298E-09
         0.83282E-09
         0.87463E-09
         0.70626E-09
         0.43380E-09
         0.74897E-09
         0.27550E-09
         0.35137E-09
         0.32713E-09
         0.38782E-09
         0.37911E-09
         0.36810E-09
         0.39334E-09
         0.41655E-09
         0.39176E-09
         0.30491E-09
         0.24822E-09
         0.32010E-09
         0.42682E-09
         0.46942E-09
         0.45001E-09
         0.40534E-09
         0.36796E-09
         0.29881E-09
         0.25128E-09
         0.32857E-09
         0.43518E-09
         0.44963E-09
         0.36288E-09
         0.29459E-09
         0.36184E-09
         0.42757E-09
         0.91214E-09
         0.72204E-09
         0.77666E-09
         0.13405E-08
         0.71698E-09
         0.91604E-09
         0.50822E-09
         0.61022E-09
         0.10151E-08
         0.73855E-09
         0.29871E-09
         0.56872E-09
         0.62641E-09
         0.50337E-09
         0.64743E-09
         0.12075E-08
         0.94510E-09
         0.12020E-08
         0.70333E-09
         0.80411E-09
         0.75815E-09
         0.84063E-09
         0.64453E-09
         0.40027E-09
         0.75831E-09
         0.63272E-09
         0.65196E-09
         0.67077E-09
         0.58582E-09
         0.71511E-09
         0.91066E-09
         0.64192E-09
         0.10227E-08
         0.89245E-09
         0.40072E-09
         0.61707E-09
         0.70078E-09
         0.74098E-09
         0.71608E-09
         0.56265E-09
         0.35352E-09
         0.58340E-09
         0.77301E-09
         0.62345E-09
         0.54775E-09
         0.35880E-09
         0.61293E-09
         0.83283E-09
         0.87476E-09
         0.70641E-09
         0.43382E-09
         0.74935E-09
         0.27541E-09
         0.35136E-09
         0.32697E-09
         0.38784E-09
         0.37920E-09
         0.36818E-09
         0.39352E-09
         0.41685E-09
         0.39199E-09
         0.30498E-09
         0.24824E-09
         0.32011E-09
         0.42688E-09
         0.46953E-09
         0.45007E-09
         0.40533E-09
         0.36793E-09
         0.29878E-09
         0.25124E-09
         0.32855E-09
         0.43517E-09
         0.44963E-09
         0.36281E-09
         0.29452E-09
         0.36188E-09
         0.42756E-09
         0.91219E-09
         0.72188E-09
         0.77672E-09
         0.13412E-08
         0.71709E-09
         0.91632E-09
         0.50795E-09
         0.60986E-09
         0.10155E-08
         0.73806E-09
         0.29842E-09
         0.56862E-09
         0.62636E-09
         0.50266E-09
         0.64730E-09
         0.12079E-08
         0.94552E-09
         0.12026E-08
         0.70335E-09
         0.80421E-09
         0.75811E-09
         0.84066E-09
         0.64446E-09
         0.40023E-09
         0.75798E-09
         0.63267E-09
         0.65096E-09
         0.67010E-09
         0.58557E-09
         0.71494E-09
         0.91074E-09
         0.64184E-09
         0.10232E-08
         0.89325E-09
         0.40072E-09
         0.61695E-09
         0.70069E-09
         0.74092E-09
         0.71612E-09
         0.56268E-09
         0.35352E-09
         0.58332E-09
         0.77297E-09
         0.62336E-09
         0.54762E-09
         0.35871E-09
         0.61287E-09
         0.83284E-09
         0.87489E-09
         0.70655E-09
         0.43383E-09
         0.74972E-09
         0.27533E-09
         0.35136E-09
         0.32681E-09
         0.38785E-09
         0.37929E-09
         0.36825E-09
         0.39369E-09
         0.41715E-09
         0.39222E-09
         0.30505E-09
         0.24826E-09
         0.32011E-09
         0.42694E-09
         0.46963E-09
         0.45011E-09
         0.40532E-09
         0.36791E-09
         0.29876E-09
         0.25120E-09
         0.32853E-09
         0.43516E-09
         0.44962E-09
         0.36274E-09
         0.29445E-09
         0.36192E-09
         0.42755E-09
         0.91224E-09
         0.72173E-09
         0.77679E-09
         0.13418E-08
         0.71720E-09
         0.91660E-09
         0.50768E-09
         0.60949E-09
         0.10158E-08
         0.73758E-09
         0.29814E-09
         0.56852E-09
         0.62632E-09
         0.50195E-09
         0.64716E-09
         0.12082E-08
         0.94595E-09
         0.12032E-08
         0.70337E-09
         0.80431E-09
         0.75808E-09
         0.84069E-09
         0.64440E-09
         0.40018E-09
         0.75766E-09
         0.63262E-09
         0.64998E-09
         0.66943E-09
         0.58532E-09
         0.71478E-09
         0.91083E-09
         0.64176E-09
         0.10238E-08
         0.89406E-09
         0.40071E-09
         0.61683E-09
         0.70059E-09
         0.74087E-09
         0.71617E-09
         0.56270E-09
         0.35352E-09
         0.58324E-09
         0.77294E-09
         0.62327E-09
         0.54749E-09
         0.35861E-09
         0.61282E-09
         0.83284E-09
         0.87503E-09
         0.70669E-09
         0.43384E-09
         0.75009E-09
         0.27524E-09
         0.35135E-09
         0.32665E-09
         0.38786E-09
         0.37937E-09
         0.36833E-09
         0.39386E-09
         0.41745E-09
         0.39245E-09
         0.30512E-09
         0.24828E-09
         0.32012E-09
         0.42699E-09
         0.46974E-09
         0.45017E-09
         0.40531E-09
         0.36788E-09
         0.29873E-09
         0.25117E-09
         0.32850E-09
         0.43515E-09
         0.44962E-09
         0.36266E-09
         0.29439E-09
         0.36197E-09
         0.42754E-09
         0.91230E-09
         0.72159E-09
         0.77686E-09
         0.13425E-08
         0.71732E-09
         0.91688E-09
         0.50742E-09
         0.60913E-09
         0.10162E-08
         0.73710E-09
         0.29785E-09
         0.56842E-09
         0.62628E-09
         0.50125E-09
         0.64703E-09
         0.12086E-08
         0.94638E-09
         0.12038E-08
         0.70340E-09
         0.80441E-09
         0.75805E-09
         0.84073E-09
         0.64433E-09
         0.40014E-09
         0.75733E-09
         0.63257E-09
         0.64899E-09
         0.66877E-09
         0.58508E-09
         0.71462E-09
         0.91093E-09
         0.64169E-09
         0.10243E-08
         0.89487E-09
         0.40071E-09
         0.61671E-09
         0.70051E-09
         0.74082E-09
         0.71622E-09
         0.56273E-09
         0.35352E-09
         0.58316E-09
         0.77290E-09
         0.62318E-09
         0.54737E-09
         0.35852E-09
         0.61277E-09
         0.83286E-09
         0.87517E-09
         0.70684E-09
         0.43385E-09
         0.75047E-09
         0.27516E-09
         0.35135E-09
         0.32649E-09
         0.38788E-09
         0.37946E-09
         0.36841E-09
         0.39403E-09
         0.41775E-09
         0.39268E-09
         0.30519E-09
         0.24830E-09
         0.32013E-09
         0.42705E-09
         0.46985E-09
         0.45022E-09
         0.40530E-09
         0.36786E-09
         0.29871E-09
         0.25113E-09
         0.32848E-09
         0.43515E-09
         0.44962E-09
         0.36259E-09
         0.29433E-09
         0.36201E-09
         0.42753E-09
         0.91235E-09
         0.72143E-09
         0.77692E-09
         0.13431E-08
         0.71743E-09
         0.91716E-09
         0.50715E-09
         0.60877E-09
         0.10165E-08
         0.73661E-09
         0.29757E-09
         0.56832E-09
         0.62624E-09
         0.50054E-09
         0.64689E-09
         0.12089E-08
         0.94680E-09
         0.12044E-08
         0.70342E-09
         0.80450E-09
         0.75802E-09
         0.84076E-09
         0.64427E-09
         0.40010E-09
         0.75700E-09
         0.63251E-09
         0.64800E-09
         0.66810E-09
         0.58482E-09
         0.71445E-09
         0.91101E-09
         0.64161E-09
         0.10248E-08
         0.89567E-09
         0.40071E-09
         0.61659E-09
         0.70041E-09
         0.74077E-09
         0.71627E-09
         0.56276E-09
         0.35352E-09
         0.58308E-09
         0.77286E-09
         0.62309E-09
         0.54723E-09
         0.35843E-09
         0.61272E-09
         0.83287E-09
         0.87530E-09
         0.70698E-09
         0.43386E-09
         0.75084E-09
         0.27507E-09
         0.35134E-09
         0.32633E-09
         0.38789E-09
         0.37955E-09
         0.36849E-09
         0.39420E-09
         0.41804E-09
         0.39291E-09
         0.30525E-09
         0.24832E-09
         0.32014E-09
         0.42711E-09
         0.46995E-09
         0.45027E-09
         0.40528E-09
         0.36784E-09
         0.29869E-09
         0.25109E-09
         0.32845E-09
         0.43514E-09
         0.44962E-09
         0.36252E-09
         0.29426E-09
         0.36206E-09
         0.42751E-09
         0.91240E-09
         0.72128E-09
         0.77698E-09
         0.13437E-08
         0.71755E-09
         0.91744E-09
         0.50688E-09
         0.60841E-09
         0.10169E-08
         0.73612E-09
         0.29728E-09
         0.56822E-09
         0.62619E-09
         0.49984E-09
         0.64676E-09
         0.12093E-08
         0.94723E-09
         0.12050E-08
         0.70345E-09
         0.80460E-09
         0.75798E-09
         0.84080E-09
         0.64420E-09
         0.40006E-09
         0.75667E-09
         0.63246E-09
         0.64701E-09
         0.66744E-09
         0.58457E-09
         0.71429E-09
         0.91110E-09
         0.64153E-09
         0.10254E-08
         0.89648E-09
         0.40070E-09
         0.61647E-09
         0.70032E-09
         0.74071E-09
         0.71632E-09
         0.56279E-09
         0.35353E-09
         0.58300E-09
         0.77282E-09
         0.62300E-09
         0.54710E-09
         0.35834E-09
         0.61266E-09
         0.83288E-09
         0.87543E-09
         0.70713E-09
         0.43387E-09
         0.75122E-09
         0.27499E-09
         0.35133E-09
         0.32617E-09
         0.38790E-09
         0.37964E-09
         0.36857E-09
         0.39437E-09
         0.41834E-09
         0.39314E-09
         0.30532E-09
         0.24834E-09
         0.32014E-09
         0.42716E-09
         0.47005E-09
         0.45032E-09
         0.40527E-09
         0.36781E-09
         0.29866E-09
         0.25105E-09
         0.32843E-09
         0.43513E-09
         0.44962E-09
         0.36244E-09
         0.29419E-09
         0.36210E-09
         0.42750E-09
         0.91246E-09
         0.72114E-09
         0.77705E-09
         0.13444E-08
         0.71767E-09
         0.91773E-09
         0.50662E-09
         0.60805E-09
         0.10173E-08
         0.73564E-09
         0.29700E-09
         0.56812E-09
         0.62616E-09
         0.49914E-09
         0.64663E-09
         0.12097E-08
         0.94766E-09
         0.12056E-08
         0.70348E-09
         0.80471E-09
         0.75796E-09
         0.84084E-09
         0.64414E-09
         0.40002E-09
         0.75635E-09
         0.63241E-09
         0.64603E-09
         0.66678E-09
         0.58433E-09
         0.71413E-09
         0.91120E-09
         0.64146E-09
         0.10259E-08
         0.89729E-09
         0.40070E-09
         0.61636E-09
         0.70023E-09
         0.74067E-09
         0.71637E-09
         0.56282E-09
         0.35353E-09
         0.58293E-09
         0.77279E-09
         0.62291E-09
         0.54698E-09
         0.35825E-09
         0.61261E-09
         0.83289E-09
         0.87557E-09
         0.70728E-09
         0.43389E-09
         0.75160E-09
         0.27491E-09
         0.35133E-09
         0.32601E-09
         0.38792E-09
         0.37972E-09
         0.36865E-09
         0.39454E-09
         0.41864E-09
         0.39337E-09
         0.30539E-09
         0.24836E-09
         0.32015E-09
         0.42722E-09
         0.47016E-09
         0.45038E-09
         0.40526E-09
         0.36779E-09
         0.29864E-09
         0.25101E-09
         0.32841E-09
         0.43512E-09
         0.44962E-09
         0.36237E-09
         0.29413E-09
         0.36215E-09
         0.42750E-09
         0.91249E-09
         0.72097E-09
         0.77710E-09
         0.13450E-08
         0.71777E-09
         0.91799E-09
         0.50634E-09
         0.60767E-09
         0.10176E-08
         0.73514E-09
         0.29670E-09
         0.56801E-09
         0.62610E-09
         0.49842E-09
         0.64648E-09
         0.12100E-08
         0.94806E-09
         0.12062E-08
         0.70349E-09
         0.80479E-09
         0.75791E-09
         0.84086E-09
         0.64406E-09
         0.39997E-09
         0.75600E-09
         0.63234E-09
         0.64503E-09
         0.66610E-09
         0.58407E-09
         0.71395E-09
         0.91127E-09
         0.64136E-09
         0.10264E-08
         0.89808E-09
         0.40069E-09
         0.61622E-09
         0.70012E-09
         0.74060E-09
         0.71641E-09
         0.56283E-09
         0.35352E-09
         0.58283E-09
         0.77273E-09
         0.62281E-09
         0.54684E-09
         0.35815E-09
         0.61255E-09
         0.83288E-09
         0.87569E-09
         0.70741E-09
         0.43389E-09
         0.75195E-09
         0.27482E-09
         0.35132E-09
         0.32584E-09
         0.38793E-09
         0.37980E-09
         0.36872E-09
         0.39470E-09
         0.41893E-09
         0.39360E-09
         0.30545E-09
         0.24837E-09
         0.32016E-09
         0.42727E-09
         0.47026E-09
         0.45042E-09
         0.40524E-09
         0.36776E-09
         0.29861E-09
         0.25097E-09
         0.32838E-09
         0.43510E-09
         0.44961E-09
         0.36229E-09
         0.29406E-09
         0.36218E-09
         0.42748E-09
         0.91256E-09
         0.72083E-09
         0.77718E-09
         0.13457E-08
         0.71789E-09
         0.91829E-09
         0.50608E-09
         0.60732E-09
         0.10180E-08
         0.73467E-09
         0.29642E-09
         0.56792E-09
         0.62607E-09
         0.49772E-09
         0.64636E-09
         0.12103E-08
         0.94850E-09
         0.12068E-08
         0.70352E-09
         0.80490E-09
         0.75789E-09
         0.84091E-09
         0.64401E-09
         0.39993E-09
         0.75569E-09
         0.63230E-09
         0.64405E-09
         0.66544E-09
         0.58382E-09
         0.71379E-09
         0.91137E-09
         0.64129E-09
         0.10270E-08
         0.89890E-09
         0.40069E-09
         0.61611E-09
         0.70004E-09
         0.74056E-09
         0.71646E-09
         0.56287E-09
         0.35353E-09
         0.58276E-09
         0.77271E-09
         0.62273E-09
         0.54672E-09
         0.35806E-09
         0.61251E-09
         0.83291E-09
         0.87583E-09
         0.70756E-09
         0.43391E-09
         0.75234E-09
         0.27474E-09
         0.35132E-09
         0.32569E-09
         0.38794E-09
         0.37990E-09
         0.36881E-09
         0.39488E-09
         0.41923E-09
         0.39383E-09
         0.30553E-09
         0.24840E-09
         0.32017E-09
         0.42734E-09
         0.47037E-09
         0.45048E-09
         0.40524E-09
         0.36774E-09
         0.29859E-09
         0.25093E-09
         0.32836E-09
         0.43510E-09
         0.44962E-09
         0.36222E-09
         0.29400E-09
         0.36223E-09
         0.42747E-09
         0.45631E-09
         0.36039E-09
         0.38862E-09
         0.67302E-09
         0.35899E-09
         0.45923E-09
         0.25298E-09
         0.30358E-09
         0.50909E-09
         0.36723E-09
         0.14815E-09
         0.28394E-09
         0.31303E-09
         0.24869E-09
         0.32316E-09
         0.60528E-09
         0.47437E-09
         0.60357E-09
         0.35178E-09
         0.40249E-09
         0.37895E-09
         0.42048E-09
         0.32200E-09
         0.19996E-09
         0.37777E-09
         0.31615E-09
         0.32179E-09
         0.33257E-09
         0.29186E-09
         0.35687E-09
         0.45572E-09
         0.32064E-09
         0.51365E-09
         0.44967E-09
         0.20035E-09
         0.30804E-09
         0.35001E-09
         0.37028E-09
         0.35826E-09
         0.28145E-09
         0.17677E-09
         0.29137E-09
         0.38636E-09
         0.31135E-09
         0.27333E-09
         0.17901E-09
         0.30625E-09
         0.41647E-09
         0.43797E-09
         0.35383E-09
         0.21697E-09
         0.37628E-09
         0.13735E-09
         0.17566E-09
         0.16281E-09
         0.19398E-09
         0.18998E-09
         0.18443E-09
         0.19749E-09
         0.20970E-09
         0.19698E-09
         0.15279E-09
         0.12421E-09
         0.16009E-09
         0.21369E-09
         0.23522E-09
         0.22526E-09
         0.20262E-09
         0.18387E-09
         0.14930E-09
         0.12546E-09
         0.16418E-09
         0.21756E-09
         0.22482E-09
         0.18110E-09
         0.14699E-09
         0.18113E-09
         0.21374E-09
  
SCALARS               pre_disp_force_x  double 1
LOOKUP_TABLE default
         0.00000E+00
         0.00000E+00
         0.00000E+00
         0.00000E+00
         0.00000E+00
         0.00000E+00
         0.00000E+00
         0.00000E+00
         0.00000E+00
         0.00000E+00
         0.00000E+00
         0.00000E+00
         0.00000E+00
         0.00000E+00
         0.00000E+00
         0.00000E+00
         0.00000E+00
         0.00000E+00
         0.00000E+00
         0.00000E+00
         0.00000E+00
         0.00000E+00
         0.00000E+00
         0.00000E+00
         0.00000E+00
         0.00000E+00
         0.00000E+00
         0.00000E+00
         0.00000E+00
         0.00000E+00
         0.00000E+00
         0.00000E+00
         0.00000E+00
         0.00000E+00
         0.00000E+00
         0.00000E+00
         0.00000E+00
         0.00000E+00
         0.00000E+00
         0.00000E+00
         0.00000E+00
         0.00000E+00
         0.00000E+00
         0.00000E+00
         0.00000E+00
         0.00000E+00
         0.00000E+00
         0.00000E+00
         0.00000E+00
         0.00000E+00
         0.00000E+00
         0.00000E+00
         0.00000E+00
         0.00000E+00
         0.00000E+00
         0.00000E+00
         0.00000E+00
         0.00000E+00
         0.00000E+00
         0.00000E+00
         0.00000E+00
         0.00000E+00
         0.00000E+00
         0.00000E+00
         0.00000E+00
         0.00000E+00
         0.00000E+00
         0.00000E+00
         0.00000E+00
         0.00000E+00
         0.00000E+00
         0.00000E+00
         0.00000E+00
         0.00000E+00
         0.00000E+00
         0.00000E+00
         0.00000E+00
         0.00000E+00
         0.00000E+00
         0.00000E+00
         0.00000E+00
         0.00000E+00
         0.00000E+00
         0.00000E+00
         0.00000E+00
         0.00000E+00
         0.00000E+00
         0.00000E+00
         0.00000E+00
         0.00000E+00
         0.00000E+00
         0.00000E+00
         0.00000E+00
         0.00000E+00
         0.00000E+00
         0.00000E+00
         0.00000E+00
         0.00000E+00
         0.00000E+00
         0.00000E+00
         0.00000E+00
         0.00000E+00
         0.00000E+00
         0.00000E+00
         0.00000E+00
         0.00000E+00
         0.00000E+00
         0.00000E+00
         0.00000E+00
         0.00000E+00
         0.00000E+00
         0.00000E+00
         0.00000E+00
         0.00000E+00
         0.00000E+00
         0.00000E+00
         0.00000E+00
         0.00000E+00
         0.00000E+00
         0.00000E+00
         0.00000E+00
         0.00000E+00
         0.00000E+00
         0.00000E+00
         0.00000E+00
         0.00000E+00
         0.00000E+00
         0.00000E+00
         0.00000E+00
         0.00000E+00
         0.00000E+00
         0.00000E+00
         0.00000E+00
         0.00000E+00
         0.00000E+00
         0.00000E+00
         0.00000E+00
         0.00000E+00
         0.00000E+00
         0.00000E+00
         0.00000E+00
         0.00000E+00
         0.00000E+00
         0.00000E+00
         0.00000E+00
         0.00000E+00
         0.00000E+00
         0.00000E+00
         0.00000E+00
         0.00000E+00
         0.00000E+00
         0.00000E+00
         0.00000E+00
         0.00000E+00
         0.00000E+00
         0.00000E+00
         0.00000E+00
         0.00000E+00
         0.00000E+00
         0.00000E+00
         0.00000E+00
         0.00000E+00
         0.00000E+00
         0.00000E+00
         0.00000E+00
         0.00000E+00
         0.00000E+00
         0.00000E+00
         0.00000E+00
         0.00000E+00
         0.00000E+00
         0.00000E+00
         0.00000E+00
         0.00000E+00
         0.00000E+00
         0.00000E+00
         0.00000E+00
         0.00000E+00
         0.00000E+00
         0.00000E+00
         0.00000E+00
         0.00000E+00
         0.00000E+00
         0.00000E+00
         0.00000E+00
         0.00000E+00
         0.00000E+00
         0.00000E+00
         0.00000E+00
         0.00000E+00
         0.00000E+00
         0.00000E+00
         0.00000E+00
         0.00000E+00
         0.00000E+00
         0.00000E+00
         0.00000E+00
         0.00000E+00
         0.00000E+00
         0.00000E+00
         0.00000E+00
         0.00000E+00
         0.00000E+00
         0.00000E+00
         0.00000E+00
         0.00000E+00
         0.00000E+00
         0.00000E+00
         0.00000E+00
         0.00000E+00
         0.00000E+00
         0.00000E+00
         0.00000E+00
         0.00000E+00
         0.00000E+00
         0.00000E+00
         0.00000E+00
         0.00000E+00
         0.00000E+00
         0.00000E+00
         0.00000E+00
         0.00000E+00
         0.00000E+00
         0.00000E+00
         0.00000E+00
         0.00000E+00
         0.00000E+00
         0.00000E+00
         0.00000E+00
         0.00000E+00
         0.00000E+00
         0.00000E+00
         0.00000E+00
         0.00000E+00
         0.00000E+00
         0.00000E+00
         0.00000E+00
         0.00000E+00
         0.00000E+00
         0.00000E+00
         0.00000E+00
         0.00000E+00
         0.00000E+00
         0.00000E+00
         0.00000E+00
         0.00000E+00
         0.00000E+00
         0.00000E+00
         0.00000E+00
         0.00000E+00
         0.00000E+00
         0.00000E+00
         0.00000E+00
         0.00000E+00
         0.00000E+00
         0.00000E+00
         0.00000E+00
         0.00000E+00
         0.00000E+00
         0.00000E+00
         0.00000E+00
         0.00000E+00
         0.00000E+00
         0.00000E+00
         0.00000E+00
         0.00000E+00
         0.00000E+00
         0.00000E+00
         0.00000E+00
         0.00000E+00
         0.00000E+00
         0.00000E+00
         0.00000E+00
         0.00000E+00
         0.00000E+00
         0.00000E+00
         0.00000E+00
         0.00000E+00
         0.00000E+00
         0.00000E+00
         0.00000E+00
         0.00000E+00
         0.00000E+00
         0.00000E+00
         0.00000E+00
         0.00000E+00
         0.00000E+00
         0.00000E+00
         0.00000E+00
         0.00000E+00
         0.00000E+00
         0.00000E+00
         0.00000E+00
         0.00000E+00
         0.00000E+00
         0.00000E+00
         0.00000E+00
         0.00000E+00
         0.00000E+00
         0.00000E+00
         0.00000E+00
         0.00000E+00
         0.00000E+00
         0.00000E+00
         0.00000E+00
         0.00000E+00
         0.00000E+00
         0.00000E+00
         0.00000E+00
         0.00000E+00
         0.00000E+00
         0.00000E+00
         0.00000E+00
         0.00000E+00
         0.00000E+00
         0.00000E+00
         0.00000E+00
         0.00000E+00
         0.00000E+00
         0.00000E+00
         0.00000E+00
         0.00000E+00
         0.00000E+00
         0.00000E+00
         0.00000E+00
         0.00000E+00
         0.00000E+00
         0.00000E+00
         0.00000E+00
         0.00000E+00
         0.00000E+00
         0.00000E+00
         0.00000E+00
         0.00000E+00
         0.00000E+00
         0.00000E+00
         0.00000E+00
         0.00000E+00
         0.00000E+00
         0.00000E+00
         0.00000E+00
         0.00000E+00
         0.00000E+00
         0.00000E+00
         0.00000E+00
         0.00000E+00
         0.00000E+00
         0.00000E+00
         0.00000E+00
         0.00000E+00
         0.00000E+00
         0.00000E+00
         0.00000E+00
         0.00000E+00
         0.00000E+00
         0.00000E+00
         0.00000E+00
         0.00000E+00
         0.00000E+00
         0.00000E+00
         0.00000E+00
         0.00000E+00
         0.00000E+00
         0.00000E+00
         0.00000E+00
         0.00000E+00
         0.00000E+00
         0.00000E+00
         0.00000E+00
         0.00000E+00
         0.00000E+00
         0.00000E+00
         0.00000E+00
         0.00000E+00
         0.00000E+00
         0.00000E+00
         0.00000E+00
         0.00000E+00
         0.00000E+00
         0.00000E+00
         0.00000E+00
         0.00000E+00
         0.00000E+00
         0.00000E+00
         0.00000E+00
         0.00000E+00
         0.00000E+00
         0.00000E+00
         0.00000E+00
         0.00000E+00
         0.00000E+00
         0.00000E+00
         0.00000E+00
         0.00000E+00
         0.00000E+00
         0.00000E+00
         0.00000E+00
         0.00000E+00
         0.00000E+00
         0.00000E+00
         0.00000E+00
         0.00000E+00
         0.00000E+00
         0.00000E+00
         0.00000E+00
         0.00000E+00
         0.00000E+00
         0.00000E+00
         0.00000E+00
         0.00000E+00
         0.00000E+00
         0.00000E+00
         0.00000E+00
         0.00000E+00
         0.00000E+00
         0.00000E+00
         0.00000E+00
         0.00000E+00
         0.00000E+00
         0.00000E+00
         0.00000E+00
         0.00000E+00
         0.00000E+00
         0.00000E+00
         0.00000E+00
         0.00000E+00
         0.00000E+00
         0.00000E+00
         0.00000E+00
         0.00000E+00
         0.00000E+00
         0.00000E+00
         0.00000E+00
         0.00000E+00
         0.00000E+00
         0.00000E+00
         0.00000E+00
         0.00000E+00
         0.00000E+00
         0.00000E+00
         0.00000E+00
         0.00000E+00
         0.00000E+00
         0.00000E+00
         0.00000E+00
         0.00000E+00
         0.00000E+00
         0.00000E+00
         0.00000E+00
         0.00000E+00
         0.00000E+00
         0.00000E+00
         0.00000E+00
         0.00000E+00
         0.00000E+00
         0.00000E+00
         0.00000E+00
         0.00000E+00
         0.00000E+00
         0.00000E+00
         0.00000E+00
         0.00000E+00
         0.00000E+00
         0.00000E+00
         0.00000E+00
         0.00000E+00
         0.00000E+00
         0.00000E+00
         0.00000E+00
         0.00000E+00
         0.00000E+00
         0.00000E+00
         0.00000E+00
         0.00000E+00
         0.00000E+00
         0.00000E+00
         0.00000E+00
         0.00000E+00
         0.00000E+00
         0.00000E+00
         0.00000E+00
         0.00000E+00
         0.00000E+00
         0.00000E+00
         0.00000E+00
         0.00000E+00
         0.00000E+00
         0.00000E+00
         0.00000E+00
         0.00000E+00
         0.00000E+00
         0.00000E+00
         0.00000E+00
         0.00000E+00
         0.00000E+00
         0.00000E+00
         0.00000E+00
         0.00000E+00
         0.00000E+00
         0.00000E+00
         0.00000E+00
         0.00000E+00
         0.00000E+00
         0.00000E+00
         0.00000E+00
         0.00000E+00
         0.00000E+00
         0.00000E+00
         0.00000E+00
         0.00000E+00
         0.00000E+00
         0.00000E+00
         0.00000E+00
         0.00000E+00
         0.00000E+00
         0.00000E+00
         0.00000E+00
         0.00000E+00
         0.00000E+00
         0.00000E+00
         0.00000E+00
         0.00000E+00
         0.00000E+00
         0.00000E+00
         0.00000E+00
         0.00000E+00
         0.00000E+00
         0.00000E+00
         0.00000E+00
         0.00000E+00
         0.00000E+00
         0.00000E+00
         0.00000E+00
         0.00000E+00
         0.00000E+00
         0.00000E+00
         0.00000E+00
         0.00000E+00
         0.00000E+00
         0.00000E+00
         0.00000E+00
         0.00000E+00
         0.00000E+00
         0.00000E+00
         0.00000E+00
         0.00000E+00
         0.00000E+00
         0.00000E+00
         0.00000E+00
         0.00000E+00
         0.00000E+00
         0.00000E+00
         0.00000E+00
         0.00000E+00
         0.00000E+00
         0.00000E+00
         0.00000E+00
         0.00000E+00
         0.00000E+00
         0.00000E+00
         0.00000E+00
         0.00000E+00
         0.00000E+00
         0.00000E+00
         0.00000E+00
         0.00000E+00
         0.00000E+00
         0.00000E+00
         0.00000E+00
         0.00000E+00
         0.00000E+00
         0.00000E+00
         0.00000E+00
         0.00000E+00
         0.00000E+00
         0.00000E+00
         0.00000E+00
         0.00000E+00
         0.00000E+00
         0.00000E+00
         0.00000E+00
         0.00000E+00
         0.00000E+00
         0.00000E+00
         0.00000E+00
         0.00000E+00
         0.00000E+00
         0.00000E+00
         0.00000E+00
         0.00000E+00
         0.00000E+00
         0.00000E+00
         0.00000E+00
         0.00000E+00
         0.00000E+00
         0.00000E+00
         0.00000E+00
         0.00000E+00
         0.00000E+00
         0.00000E+00
         0.00000E+00
         0.00000E+00
         0.00000E+00
         0.00000E+00
         0.00000E+00
         0.00000E+00
         0.00000E+00
         0.00000E+00
         0.00000E+00
         0.00000E+00
         0.00000E+00
         0.00000E+00
         0.00000E+00
         0.00000E+00
         0.00000E+00
         0.00000E+00
         0.00000E+00
         0.00000E+00
         0.00000E+00
         0.00000E+00
         0.00000E+00
         0.00000E+00
         0.00000E+00
         0.00000E+00
         0.00000E+00
         0.00000E+00
         0.00000E+00
         0.00000E+00
         0.00000E+00
         0.00000E+00
         0.00000E+00
         0.00000E+00
         0.00000E+00
         0.00000E+00
         0.00000E+00
         0.00000E+00
         0.00000E+00
         0.00000E+00
         0.00000E+00
         0.00000E+00
         0.00000E+00
         0.00000E+00
         0.00000E+00
         0.00000E+00
         0.00000E+00
         0.00000E+00
         0.00000E+00
         0.00000E+00
         0.00000E+00
         0.00000E+00
         0.00000E+00
         0.00000E+00
         0.00000E+00
         0.00000E+00
         0.00000E+00
         0.00000E+00
         0.00000E+00
         0.00000E+00
         0.00000E+00
         0.00000E+00
         0.00000E+00
         0.00000E+00
         0.00000E+00
         0.00000E+00
         0.00000E+00
         0.00000E+00
         0.00000E+00
         0.00000E+00
         0.00000E+00
         0.00000E+00
         0.00000E+00
         0.00000E+00
         0.00000E+00
         0.00000E+00
         0.00000E+00
         0.00000E+00
         0.00000E+00
         0.00000E+00
         0.00000E+00
         0.00000E+00
         0.00000E+00
         0.00000E+00
         0.00000E+00
         0.00000E+00
         0.00000E+00
         0.00000E+00
         0.00000E+00
         0.00000E+00
         0.00000E+00
         0.00000E+00
         0.00000E+00
         0.00000E+00
         0.00000E+00
         0.00000E+00
         0.00000E+00
         0.00000E+00
         0.00000E+00
         0.00000E+00
         0.00000E+00
         0.00000E+00
         0.00000E+00
         0.00000E+00
         0.00000E+00
         0.00000E+00
         0.00000E+00
         0.00000E+00
         0.00000E+00
         0.00000E+00
         0.00000E+00
         0.00000E+00
         0.00000E+00
         0.00000E+00
         0.00000E+00
         0.00000E+00
         0.00000E+00
         0.00000E+00
         0.00000E+00
         0.00000E+00
         0.00000E+00
         0.00000E+00
         0.00000E+00
         0.00000E+00
         0.00000E+00
         0.00000E+00
         0.00000E+00
         0.00000E+00
         0.00000E+00
         0.00000E+00
         0.00000E+00
         0.00000E+00
         0.00000E+00
         0.00000E+00
         0.00000E+00
         0.00000E+00
         0.00000E+00
         0.00000E+00
         0.00000E+00
         0.00000E+00
         0.00000E+00
         0.00000E+00
         0.00000E+00
         0.00000E+00
         0.00000E+00
         0.00000E+00
         0.00000E+00
         0.00000E+00
         0.00000E+00
         0.00000E+00
         0.00000E+00
         0.00000E+00
         0.00000E+00
         0.00000E+00
         0.00000E+00
         0.00000E+00
         0.00000E+00
         0.00000E+00
         0.00000E+00
         0.00000E+00
         0.00000E+00
         0.00000E+00
         0.00000E+00
         0.00000E+00
         0.00000E+00
         0.00000E+00
         0.00000E+00
         0.00000E+00
         0.00000E+00
         0.00000E+00
         0.00000E+00
         0.00000E+00
         0.00000E+00
         0.00000E+00
         0.00000E+00
         0.00000E+00
         0.00000E+00
         0.00000E+00
         0.00000E+00
         0.00000E+00
         0.00000E+00
         0.00000E+00
         0.00000E+00
         0.00000E+00
         0.00000E+00
         0.00000E+00
         0.00000E+00
         0.00000E+00
         0.00000E+00
         0.00000E+00
         0.00000E+00
         0.00000E+00
         0.00000E+00
         0.00000E+00
         0.00000E+00
         0.00000E+00
         0.00000E+00
         0.00000E+00
         0.00000E+00
         0.00000E+00
         0.00000E+00
         0.00000E+00
         0.00000E+00
         0.00000E+00
         0.00000E+00
         0.00000E+00
         0.00000E+00
         0.00000E+00
         0.00000E+00
         0.00000E+00
         0.00000E+00
         0.00000E+00
         0.00000E+00
         0.00000E+00
         0.00000E+00
         0.00000E+00
         0.00000E+00
         0.00000E+00
         0.00000E+00
         0.00000E+00
         0.00000E+00
         0.00000E+00
         0.00000E+00
         0.00000E+00
         0.00000E+00
         0.00000E+00
         0.00000E+00
         0.00000E+00
         0.00000E+00
         0.00000E+00
         0.00000E+00
         0.00000E+00
         0.00000E+00
         0.00000E+00
         0.00000E+00
         0.00000E+00
         0.00000E+00
         0.00000E+00
         0.00000E+00
         0.00000E+00
         0.00000E+00
         0.00000E+00
         0.00000E+00
         0.00000E+00
         0.00000E+00
         0.00000E+00
         0.00000E+00
         0.00000E+00
         0.00000E+00
         0.00000E+00
         0.00000E+00
         0.00000E+00
         0.00000E+00
         0.00000E+00
         0.00000E+00
         0.00000E+00
         0.00000E+00
         0.00000E+00
         0.00000E+00
         0.00000E+00
         0.00000E+00
         0.00000E+00
         0.00000E+00
         0.00000E+00
         0.00000E+00
         0.00000E+00
         0.00000E+00
         0.00000E+00
         0.00000E+00
         0.00000E+00
         0.00000E+00
         0.00000E+00
         0.00000E+00
         0.00000E+00
         0.00000E+00
         0.00000E+00
         0.00000E+00
         0.00000E+00
         0.00000E+00
         0.00000E+00
         0.00000E+00
         0.00000E+00
         0.00000E+00
         0.00000E+00
         0.00000E+00
         0.00000E+00
         0.00000E+00
         0.00000E+00
         0.00000E+00
         0.00000E+00
         0.00000E+00
         0.00000E+00
         0.00000E+00
         0.00000E+00
         0.00000E+00
         0.00000E+00
         0.00000E+00
         0.00000E+00
         0.00000E+00
         0.00000E+00
         0.00000E+00
         0.00000E+00
         0.00000E+00
         0.00000E+00
         0.00000E+00
         0.00000E+00
         0.00000E+00
         0.00000E+00
         0.00000E+00
         0.00000E+00
         0.00000E+00
         0.00000E+00
         0.00000E+00
         0.00000E+00
         0.00000E+00
         0.00000E+00
         0.00000E+00
         0.00000E+00
         0.00000E+00
         0.00000E+00
         0.00000E+00
         0.00000E+00
         0.00000E+00
         0.00000E+00
         0.00000E+00
         0.00000E+00
         0.00000E+00
         0.00000E+00
         0.00000E+00
         0.00000E+00
         0.00000E+00
         0.00000E+00
         0.00000E+00
         0.00000E+00
         0.00000E+00
         0.00000E+00
         0.00000E+00
         0.00000E+00
         0.00000E+00
         0.00000E+00
         0.00000E+00
         0.00000E+00
         0.00000E+00
         0.00000E+00
         0.00000E+00
         0.00000E+00
         0.00000E+00
         0.00000E+00
         0.00000E+00
         0.00000E+00
         0.00000E+00
         0.00000E+00
         0.00000E+00
         0.00000E+00
         0.00000E+00
         0.00000E+00
         0.00000E+00
         0.00000E+00
         0.00000E+00
         0.00000E+00
         0.00000E+00
         0.00000E+00
         0.00000E+00
         0.00000E+00
         0.00000E+00
         0.00000E+00
         0.00000E+00
         0.00000E+00
         0.00000E+00
         0.00000E+00
         0.00000E+00
         0.00000E+00
         0.00000E+00
         0.00000E+00
         0.00000E+00
         0.00000E+00
         0.00000E+00
         0.00000E+00
         0.00000E+00
         0.00000E+00
         0.00000E+00
         0.00000E+00
         0.00000E+00
         0.00000E+00
         0.00000E+00
         0.00000E+00
         0.00000E+00
         0.00000E+00
         0.00000E+00
         0.00000E+00
         0.00000E+00
         0.00000E+00
         0.00000E+00
         0.00000E+00
         0.00000E+00
         0.00000E+00
         0.00000E+00
         0.00000E+00
         0.00000E+00
         0.00000E+00
         0.00000E+00
         0.00000E+00
         0.00000E+00
         0.00000E+00
         0.00000E+00
         0.00000E+00
         0.00000E+00
         0.00000E+00
         0.00000E+00
         0.00000E+00
         0.00000E+00
         0.00000E+00
         0.00000E+00
         0.00000E+00
         0.00000E+00
         0.00000E+00
         0.00000E+00
         0.00000E+00
         0.00000E+00
         0.00000E+00
         0.00000E+00
         0.00000E+00
         0.00000E+00
         0.00000E+00
         0.00000E+00
         0.00000E+00
         0.00000E+00
         0.00000E+00
         0.00000E+00
         0.00000E+00
         0.00000E+00
         0.00000E+00
         0.00000E+00
         0.00000E+00
         0.00000E+00
         0.00000E+00
         0.00000E+00
         0.00000E+00
         0.00000E+00
         0.00000E+00
         0.00000E+00
         0.00000E+00
         0.00000E+00
         0.00000E+00
         0.00000E+00
         0.00000E+00
         0.00000E+00
         0.00000E+00
         0.00000E+00
         0.00000E+00
         0.00000E+00
         0.00000E+00
         0.00000E+00
         0.00000E+00
         0.00000E+00
         0.00000E+00
         0.00000E+00
         0.00000E+00
         0.00000E+00
         0.00000E+00
         0.00000E+00
         0.00000E+00
         0.00000E+00
         0.00000E+00
         0.00000E+00
         0.00000E+00
         0.00000E+00
         0.00000E+00
         0.00000E+00
         0.00000E+00
         0.00000E+00
         0.00000E+00
         0.00000E+00
         0.00000E+00
         0.00000E+00
         0.00000E+00
         0.00000E+00
         0.00000E+00
         0.00000E+00
         0.00000E+00
         0.00000E+00
         0.00000E+00
         0.00000E+00
         0.00000E+00
         0.00000E+00
         0.00000E+00
         0.00000E+00
         0.00000E+00
         0.00000E+00
         0.00000E+00
         0.00000E+00
         0.00000E+00
         0.00000E+00
         0.00000E+00
         0.00000E+00
         0.00000E+00
         0.00000E+00
         0.00000E+00
         0.00000E+00
         0.00000E+00
         0.00000E+00
         0.00000E+00
         0.00000E+00
         0.00000E+00
         0.00000E+00
         0.00000E+00
         0.00000E+00
         0.00000E+00
         0.00000E+00
         0.00000E+00
         0.00000E+00
         0.00000E+00
         0.00000E+00
         0.00000E+00
         0.00000E+00
         0.00000E+00
         0.00000E+00
         0.00000E+00
         0.00000E+00
         0.00000E+00
         0.00000E+00
         0.00000E+00
         0.00000E+00
         0.00000E+00
         0.00000E+00
         0.00000E+00
         0.00000E+00
         0.00000E+00
         0.00000E+00
         0.00000E+00
         0.00000E+00
         0.00000E+00
         0.00000E+00
         0.00000E+00
         0.00000E+00
         0.00000E+00
         0.00000E+00
         0.00000E+00
         0.00000E+00
         0.00000E+00
         0.00000E+00
         0.00000E+00
         0.00000E+00
         0.00000E+00
         0.00000E+00
         0.00000E+00
         0.00000E+00
         0.00000E+00
         0.00000E+00
         0.00000E+00
         0.00000E+00
         0.00000E+00
         0.00000E+00
         0.00000E+00
         0.00000E+00
         0.00000E+00
         0.00000E+00
         0.00000E+00
         0.00000E+00
         0.00000E+00
         0.00000E+00
         0.00000E+00
         0.00000E+00
         0.00000E+00
         0.00000E+00
         0.00000E+00
         0.00000E+00
         0.00000E+00
         0.00000E+00
         0.00000E+00
         0.00000E+00
         0.00000E+00
         0.00000E+00
         0.00000E+00
         0.00000E+00
         0.00000E+00
         0.00000E+00
         0.00000E+00
         0.00000E+00
         0.00000E+00
         0.00000E+00
         0.00000E+00
         0.00000E+00
         0.00000E+00
         0.00000E+00
         0.00000E+00
         0.00000E+00
         0.00000E+00
         0.00000E+00
         0.00000E+00
         0.00000E+00
         0.00000E+00
         0.00000E+00
         0.00000E+00
         0.00000E+00
         0.00000E+00
         0.00000E+00
         0.00000E+00
         0.00000E+00
         0.00000E+00
         0.00000E+00
         0.00000E+00
         0.00000E+00
         0.00000E+00
         0.00000E+00
         0.00000E+00
         0.00000E+00
         0.00000E+00
         0.00000E+00
         0.00000E+00
         0.00000E+00
         0.00000E+00
         0.00000E+00
         0.00000E+00
         0.00000E+00
         0.00000E+00
         0.00000E+00
         0.00000E+00
         0.00000E+00
         0.00000E+00
         0.00000E+00
         0.00000E+00
         0.00000E+00
         0.00000E+00
         0.00000E+00
         0.00000E+00
         0.00000E+00
         0.00000E+00
         0.00000E+00
         0.00000E+00
         0.00000E+00
         0.00000E+00
         0.00000E+00
         0.00000E+00
         0.00000E+00
         0.00000E+00
         0.00000E+00
         0.00000E+00
         0.00000E+00
         0.00000E+00
         0.00000E+00
         0.00000E+00
         0.00000E+00
         0.00000E+00
         0.00000E+00
         0.00000E+00
         0.00000E+00
         0.00000E+00
         0.00000E+00
         0.00000E+00
         0.00000E+00
         0.00000E+00
         0.00000E+00
         0.00000E+00
         0.00000E+00
         0.00000E+00
         0.00000E+00
         0.00000E+00
         0.00000E+00
         0.00000E+00
         0.00000E+00
         0.00000E+00
         0.00000E+00
         0.00000E+00
         0.00000E+00
         0.00000E+00
         0.00000E+00
         0.00000E+00
         0.00000E+00
         0.00000E+00
         0.00000E+00
         0.00000E+00
         0.00000E+00
         0.00000E+00
         0.00000E+00
         0.00000E+00
         0.00000E+00
         0.00000E+00
         0.00000E+00
         0.00000E+00
         0.00000E+00
         0.00000E+00
         0.00000E+00
         0.00000E+00
         0.00000E+00
         0.00000E+00
         0.00000E+00
         0.00000E+00
         0.00000E+00
         0.00000E+00
         0.00000E+00
         0.00000E+00
         0.00000E+00
         0.00000E+00
         0.00000E+00
         0.00000E+00
         0.00000E+00
         0.00000E+00
         0.00000E+00
         0.00000E+00
         0.00000E+00
         0.00000E+00
         0.00000E+00
         0.00000E+00
         0.00000E+00
         0.00000E+00
         0.00000E+00
         0.00000E+00
         0.00000E+00
         0.00000E+00
         0.00000E+00
         0.00000E+00
         0.00000E+00
         0.00000E+00
         0.00000E+00
         0.00000E+00
         0.00000E+00
         0.00000E+00
         0.00000E+00
         0.00000E+00
         0.00000E+00
         0.00000E+00
         0.00000E+00
         0.00000E+00
         0.00000E+00
         0.00000E+00
         0.00000E+00
         0.00000E+00
         0.00000E+00
         0.00000E+00
         0.00000E+00
         0.00000E+00
         0.00000E+00
         0.00000E+00
         0.00000E+00
         0.00000E+00
         0.00000E+00
         0.00000E+00
         0.00000E+00
         0.00000E+00
         0.00000E+00
         0.00000E+00
         0.00000E+00
         0.00000E+00
         0.00000E+00
         0.00000E+00
         0.00000E+00
         0.00000E+00
         0.00000E+00
         0.00000E+00
         0.00000E+00
         0.00000E+00
         0.00000E+00
         0.00000E+00
         0.00000E+00
         0.00000E+00
         0.00000E+00
         0.00000E+00
         0.00000E+00
         0.00000E+00
         0.00000E+00
         0.00000E+00
         0.00000E+00
         0.00000E+00
         0.00000E+00
         0.00000E+00
         0.00000E+00
         0.00000E+00
         0.00000E+00
         0.00000E+00
         0.00000E+00
         0.00000E+00
         0.00000E+00
         0.00000E+00
         0.00000E+00
         0.00000E+00
         0.00000E+00
         0.00000E+00
         0.00000E+00
         0.00000E+00
         0.00000E+00
         0.00000E+00
         0.00000E+00
         0.00000E+00
         0.00000E+00
         0.00000E+00
         0.00000E+00
         0.00000E+00
         0.00000E+00
         0.00000E+00
         0.00000E+00
         0.00000E+00
         0.00000E+00
         0.00000E+00
         0.00000E+00
         0.00000E+00
         0.00000E+00
         0.00000E+00
         0.00000E+00
         0.00000E+00
         0.00000E+00
         0.00000E+00
         0.00000E+00
         0.00000E+00
         0.00000E+00
         0.00000E+00
         0.00000E+00
         0.00000E+00
         0.00000E+00
         0.00000E+00
         0.00000E+00
         0.00000E+00
         0.00000E+00
         0.00000E+00
         0.00000E+00
         0.00000E+00
         0.00000E+00
         0.00000E+00
         0.00000E+00
         0.00000E+00
         0.00000E+00
         0.00000E+00
         0.00000E+00
         0.00000E+00
         0.00000E+00
         0.00000E+00
         0.00000E+00
         0.00000E+00
         0.00000E+00
         0.00000E+00
         0.00000E+00
         0.00000E+00
         0.00000E+00
         0.00000E+00
         0.00000E+00
         0.00000E+00
         0.00000E+00
         0.00000E+00
         0.00000E+00
         0.00000E+00
         0.00000E+00
         0.00000E+00
         0.00000E+00
         0.00000E+00
         0.00000E+00
         0.00000E+00
         0.00000E+00
         0.00000E+00
         0.00000E+00
         0.00000E+00
         0.00000E+00
         0.00000E+00
         0.00000E+00
         0.00000E+00
         0.00000E+00
         0.00000E+00
         0.00000E+00
         0.00000E+00
         0.00000E+00
         0.00000E+00
         0.00000E+00
         0.00000E+00
         0.00000E+00
         0.00000E+00
         0.00000E+00
         0.00000E+00
         0.00000E+00
         0.00000E+00
         0.00000E+00
         0.00000E+00
         0.00000E+00
         0.00000E+00
         0.00000E+00
         0.00000E+00
         0.00000E+00
         0.00000E+00
         0.00000E+00
         0.00000E+00
         0.00000E+00
         0.00000E+00
         0.00000E+00
         0.00000E+00
         0.00000E+00
         0.00000E+00
         0.00000E+00
         0.00000E+00
         0.00000E+00
         0.00000E+00
         0.00000E+00
         0.00000E+00
         0.00000E+00
         0.00000E+00
         0.00000E+00
         0.00000E+00
         0.00000E+00
         0.00000E+00
         0.00000E+00
         0.00000E+00
         0.00000E+00
         0.00000E+00
         0.00000E+00
         0.00000E+00
         0.00000E+00
         0.00000E+00
         0.00000E+00
         0.00000E+00
         0.00000E+00
         0.00000E+00
         0.00000E+00
         0.00000E+00
         0.00000E+00
         0.00000E+00
         0.00000E+00
         0.00000E+00
         0.00000E+00
         0.00000E+00
         0.00000E+00
         0.00000E+00
         0.00000E+00
         0.00000E+00
         0.00000E+00
         0.00000E+00
         0.00000E+00
         0.00000E+00
         0.00000E+00
         0.00000E+00
         0.00000E+00
         0.00000E+00
         0.00000E+00
         0.00000E+00
         0.00000E+00
         0.00000E+00
         0.00000E+00
         0.00000E+00
         0.00000E+00
         0.00000E+00
         0.00000E+00
         0.00000E+00
         0.00000E+00
         0.00000E+00
         0.00000E+00
         0.00000E+00
         0.00000E+00
         0.00000E+00
         0.00000E+00
         0.00000E+00
         0.00000E+00
         0.00000E+00
         0.00000E+00
         0.00000E+00
         0.00000E+00
         0.00000E+00
         0.00000E+00
         0.00000E+00
         0.00000E+00
         0.00000E+00
         0.00000E+00
         0.00000E+00
         0.00000E+00
         0.00000E+00
         0.00000E+00
         0.00000E+00
         0.00000E+00
         0.00000E+00
         0.00000E+00
         0.00000E+00
         0.00000E+00
         0.00000E+00
         0.00000E+00
         0.00000E+00
         0.00000E+00
         0.00000E+00
         0.00000E+00
         0.00000E+00
         0.00000E+00
         0.00000E+00
         0.00000E+00
         0.00000E+00
         0.00000E+00
         0.00000E+00
         0.00000E+00
         0.00000E+00
         0.00000E+00
         0.00000E+00
         0.00000E+00
         0.00000E+00
         0.00000E+00
         0.00000E+00
         0.00000E+00
         0.00000E+00
         0.00000E+00
         0.00000E+00
         0.00000E+00
         0.00000E+00
         0.00000E+00
         0.00000E+00
         0.00000E+00
         0.00000E+00
         0.00000E+00
         0.00000E+00
         0.00000E+00
         0.00000E+00
         0.00000E+00
         0.00000E+00
         0.00000E+00
         0.00000E+00
         0.00000E+00
         0.00000E+00
         0.00000E+00
         0.00000E+00
         0.00000E+00
         0.00000E+00
         0.00000E+00
         0.00000E+00
         0.00000E+00
         0.00000E+00
         0.00000E+00
         0.00000E+00
         0.00000E+00
         0.00000E+00
         0.00000E+00
         0.00000E+00
         0.00000E+00
         0.00000E+00
         0.00000E+00
         0.00000E+00
         0.00000E+00
         0.00000E+00
         0.00000E+00
         0.00000E+00
         0.00000E+00
         0.00000E+00
         0.00000E+00
         0.00000E+00
         0.00000E+00
         0.00000E+00
         0.00000E+00
         0.00000E+00
         0.00000E+00
         0.00000E+00
         0.00000E+00
         0.00000E+00
         0.00000E+00
         0.00000E+00
         0.00000E+00
         0.00000E+00
         0.00000E+00
         0.00000E+00
         0.00000E+00
         0.00000E+00
         0.00000E+00
         0.00000E+00
         0.00000E+00
         0.00000E+00
         0.00000E+00
         0.00000E+00
         0.00000E+00
         0.00000E+00
         0.00000E+00
         0.00000E+00
         0.00000E+00
         0.00000E+00
         0.00000E+00
         0.00000E+00
         0.00000E+00
         0.00000E+00
         0.00000E+00
         0.00000E+00
         0.00000E+00
         0.00000E+00
         0.00000E+00
         0.00000E+00
         0.00000E+00
         0.00000E+00
         0.00000E+00
         0.00000E+00
         0.00000E+00
         0.00000E+00
         0.00000E+00
         0.00000E+00
         0.00000E+00
         0.00000E+00
         0.00000E+00
         0.00000E+00
         0.00000E+00
         0.00000E+00
         0.00000E+00
         0.00000E+00
         0.00000E+00
         0.00000E+00
         0.00000E+00
         0.00000E+00
         0.00000E+00
         0.00000E+00
         0.00000E+00
         0.00000E+00
         0.00000E+00
         0.00000E+00
         0.00000E+00
         0.00000E+00
         0.00000E+00
         0.00000E+00
         0.00000E+00
         0.00000E+00
         0.00000E+00
         0.00000E+00
         0.00000E+00
         0.00000E+00
         0.00000E+00
         0.00000E+00
         0.00000E+00
         0.00000E+00
         0.00000E+00
         0.00000E+00
         0.00000E+00
         0.00000E+00
         0.00000E+00
         0.00000E+00
         0.00000E+00
         0.00000E+00
         0.00000E+00
         0.00000E+00
         0.00000E+00
         0.00000E+00
         0.00000E+00
         0.00000E+00
         0.00000E+00
         0.00000E+00
         0.00000E+00
         0.00000E+00
         0.00000E+00
         0.00000E+00
         0.00000E+00
         0.00000E+00
         0.00000E+00
         0.00000E+00
         0.00000E+00
         0.00000E+00
         0.00000E+00
         0.00000E+00
         0.00000E+00
         0.00000E+00
         0.00000E+00
         0.00000E+00
         0.00000E+00
         0.00000E+00
         0.00000E+00
         0.00000E+00
         0.00000E+00
         0.00000E+00
         0.00000E+00
         0.00000E+00
         0.00000E+00
         0.00000E+00
         0.00000E+00
         0.00000E+00
         0.00000E+00
         0.00000E+00
         0.00000E+00
         0.00000E+00
         0.00000E+00
         0.00000E+00
         0.00000E+00
         0.00000E+00
         0.00000E+00
         0.00000E+00
         0.00000E+00
         0.00000E+00
         0.00000E+00
         0.00000E+00
         0.00000E+00
         0.00000E+00
         0.00000E+00
         0.00000E+00
         0.00000E+00
         0.00000E+00
         0.00000E+00
         0.00000E+00
         0.00000E+00
         0.00000E+00
         0.00000E+00
         0.00000E+00
         0.00000E+00
         0.00000E+00
         0.00000E+00
         0.00000E+00
         0.00000E+00
         0.00000E+00
         0.00000E+00
         0.00000E+00
         0.00000E+00
         0.00000E+00
         0.00000E+00
         0.00000E+00
         0.00000E+00
         0.00000E+00
         0.00000E+00
         0.00000E+00
         0.00000E+00
         0.00000E+00
         0.00000E+00
         0.00000E+00
         0.00000E+00
         0.00000E+00
         0.00000E+00
         0.00000E+00
         0.00000E+00
         0.00000E+00
         0.00000E+00
         0.00000E+00
         0.00000E+00
         0.00000E+00
         0.00000E+00
         0.00000E+00
         0.00000E+00
         0.00000E+00
         0.00000E+00
         0.00000E+00
         0.00000E+00
         0.00000E+00
         0.00000E+00
         0.00000E+00
         0.00000E+00
         0.00000E+00
         0.00000E+00
         0.00000E+00
         0.00000E+00
         0.00000E+00
         0.00000E+00
         0.00000E+00
         0.00000E+00
         0.00000E+00
         0.00000E+00
         0.00000E+00
         0.00000E+00
         0.00000E+00
         0.00000E+00
         0.00000E+00
         0.00000E+00
         0.00000E+00
         0.00000E+00
         0.00000E+00
         0.00000E+00
         0.00000E+00
         0.00000E+00
         0.00000E+00
         0.00000E+00
         0.00000E+00
         0.00000E+00
         0.00000E+00
         0.00000E+00
         0.00000E+00
         0.00000E+00
         0.00000E+00
         0.00000E+00
         0.00000E+00
         0.00000E+00
         0.00000E+00
         0.00000E+00
         0.00000E+00
         0.00000E+00
         0.00000E+00
         0.00000E+00
         0.00000E+00
         0.00000E+00
         0.00000E+00
         0.00000E+00
         0.00000E+00
         0.00000E+00
         0.00000E+00
         0.00000E+00
         0.00000E+00
         0.00000E+00
         0.00000E+00
         0.00000E+00
         0.00000E+00
         0.00000E+00
         0.00000E+00
         0.00000E+00
         0.00000E+00
         0.00000E+00
         0.00000E+00
         0.00000E+00
         0.00000E+00
         0.00000E+00
         0.00000E+00
         0.00000E+00
         0.00000E+00
         0.00000E+00
         0.00000E+00
         0.00000E+00
         0.00000E+00
         0.00000E+00
         0.00000E+00
         0.00000E+00
         0.00000E+00
         0.00000E+00
         0.00000E+00
         0.00000E+00
         0.00000E+00
         0.00000E+00
         0.00000E+00
         0.00000E+00
         0.00000E+00
         0.00000E+00
         0.00000E+00
         0.00000E+00
         0.00000E+00
         0.00000E+00
         0.00000E+00
         0.00000E+00
         0.00000E+00
         0.00000E+00
         0.00000E+00
         0.00000E+00
         0.00000E+00
         0.00000E+00
         0.00000E+00
         0.00000E+00
         0.00000E+00
         0.00000E+00
         0.00000E+00
         0.00000E+00
         0.00000E+00
         0.00000E+00
         0.00000E+00
         0.00000E+00
         0.00000E+00
         0.00000E+00
         0.00000E+00
         0.00000E+00
         0.00000E+00
         0.00000E+00
         0.00000E+00
         0.00000E+00
         0.00000E+00
         0.00000E+00
         0.00000E+00
         0.00000E+00
         0.00000E+00
         0.00000E+00
         0.00000E+00
         0.00000E+00
         0.00000E+00
         0.00000E+00
         0.00000E+00
         0.00000E+00
         0.00000E+00
         0.00000E+00
         0.00000E+00
         0.00000E+00
         0.00000E+00
  
SCALARS               pre_disp_force_y  double 1
LOOKUP_TABLE default
         0.00000E+00
         0.00000E+00
         0.00000E+00
         0.00000E+00
         0.00000E+00
         0.00000E+00
         0.00000E+00
         0.00000E+00
         0.00000E+00
         0.00000E+00
         0.00000E+00
         0.00000E+00
         0.00000E+00
         0.00000E+00
         0.00000E+00
         0.00000E+00
         0.00000E+00
         0.00000E+00
         0.00000E+00
         0.00000E+00
         0.00000E+00
         0.00000E+00
         0.00000E+00
         0.00000E+00
         0.00000E+00
         0.00000E+00
         0.00000E+00
         0.00000E+00
         0.00000E+00
         0.00000E+00
         0.00000E+00
         0.00000E+00
         0.00000E+00
         0.00000E+00
         0.00000E+00
         0.00000E+00
         0.00000E+00
         0.00000E+00
         0.00000E+00
         0.00000E+00
         0.00000E+00
         0.00000E+00
         0.00000E+00
         0.00000E+00
         0.00000E+00
         0.00000E+00
         0.00000E+00
         0.00000E+00
         0.00000E+00
         0.00000E+00
         0.00000E+00
         0.00000E+00
         0.00000E+00
         0.00000E+00
         0.00000E+00
         0.00000E+00
         0.00000E+00
         0.00000E+00
         0.00000E+00
         0.00000E+00
         0.00000E+00
         0.00000E+00
         0.00000E+00
         0.00000E+00
         0.00000E+00
         0.00000E+00
         0.00000E+00
         0.00000E+00
         0.00000E+00
         0.00000E+00
         0.00000E+00
         0.00000E+00
         0.00000E+00
         0.00000E+00
         0.00000E+00
         0.00000E+00
         0.00000E+00
         0.00000E+00
         0.00000E+00
         0.00000E+00
         0.00000E+00
         0.00000E+00
         0.00000E+00
         0.00000E+00
         0.00000E+00
         0.00000E+00
         0.00000E+00
         0.00000E+00
         0.00000E+00
         0.00000E+00
         0.00000E+00
         0.00000E+00
         0.00000E+00
         0.00000E+00
         0.00000E+00
         0.00000E+00
         0.00000E+00
         0.00000E+00
         0.00000E+00
         0.00000E+00
         0.00000E+00
         0.00000E+00
         0.00000E+00
         0.00000E+00
         0.00000E+00
         0.00000E+00
         0.00000E+00
         0.00000E+00
         0.00000E+00
         0.00000E+00
         0.00000E+00
         0.00000E+00
         0.00000E+00
         0.00000E+00
         0.00000E+00
         0.00000E+00
         0.00000E+00
         0.00000E+00
         0.00000E+00
         0.00000E+00
         0.00000E+00
         0.00000E+00
         0.00000E+00
         0.00000E+00
         0.00000E+00
         0.00000E+00
         0.00000E+00
         0.00000E+00
         0.00000E+00
         0.00000E+00
         0.00000E+00
         0.00000E+00
         0.00000E+00
         0.00000E+00
         0.00000E+00
         0.00000E+00
         0.00000E+00
         0.00000E+00
         0.00000E+00
         0.00000E+00
         0.00000E+00
         0.00000E+00
         0.00000E+00
         0.00000E+00
         0.00000E+00
         0.00000E+00
         0.00000E+00
         0.00000E+00
         0.00000E+00
         0.00000E+00
         0.00000E+00
         0.00000E+00
         0.00000E+00
         0.00000E+00
         0.00000E+00
         0.00000E+00
         0.00000E+00
         0.00000E+00
         0.00000E+00
         0.00000E+00
         0.00000E+00
         0.00000E+00
         0.00000E+00
         0.00000E+00
         0.00000E+00
         0.00000E+00
         0.00000E+00
         0.00000E+00
         0.00000E+00
         0.00000E+00
         0.00000E+00
         0.00000E+00
         0.00000E+00
         0.00000E+00
         0.00000E+00
         0.00000E+00
         0.00000E+00
         0.00000E+00
         0.00000E+00
         0.00000E+00
         0.00000E+00
         0.00000E+00
         0.00000E+00
         0.00000E+00
         0.00000E+00
         0.00000E+00
         0.00000E+00
         0.00000E+00
         0.00000E+00
         0.00000E+00
         0.00000E+00
         0.00000E+00
         0.00000E+00
         0.00000E+00
         0.00000E+00
         0.00000E+00
         0.00000E+00
         0.00000E+00
         0.00000E+00
         0.00000E+00
         0.00000E+00
         0.00000E+00
         0.00000E+00
         0.00000E+00
         0.00000E+00
         0.00000E+00
         0.00000E+00
         0.00000E+00
         0.00000E+00
         0.00000E+00
         0.00000E+00
         0.00000E+00
         0.00000E+00
         0.00000E+00
         0.00000E+00
         0.00000E+00
         0.00000E+00
         0.00000E+00
         0.00000E+00
         0.00000E+00
         0.00000E+00
         0.00000E+00
         0.00000E+00
         0.00000E+00
         0.00000E+00
         0.00000E+00
         0.00000E+00
         0.00000E+00
         0.00000E+00
         0.00000E+00
         0.00000E+00
         0.00000E+00
         0.00000E+00
         0.00000E+00
         0.00000E+00
         0.00000E+00
         0.00000E+00
         0.00000E+00
         0.00000E+00
         0.00000E+00
         0.00000E+00
         0.00000E+00
         0.00000E+00
         0.00000E+00
         0.00000E+00
         0.00000E+00
         0.00000E+00
         0.00000E+00
         0.00000E+00
         0.00000E+00
         0.00000E+00
         0.00000E+00
         0.00000E+00
         0.00000E+00
         0.00000E+00
         0.00000E+00
         0.00000E+00
         0.00000E+00
         0.00000E+00
         0.00000E+00
         0.00000E+00
         0.00000E+00
         0.00000E+00
         0.00000E+00
         0.00000E+00
         0.00000E+00
         0.00000E+00
         0.00000E+00
         0.00000E+00
         0.00000E+00
         0.00000E+00
         0.00000E+00
         0.00000E+00
         0.00000E+00
         0.00000E+00
         0.00000E+00
         0.00000E+00
         0.00000E+00
         0.00000E+00
         0.00000E+00
         0.00000E+00
         0.00000E+00
         0.00000E+00
         0.00000E+00
         0.00000E+00
         0.00000E+00
         0.00000E+00
         0.00000E+00
         0.00000E+00
         0.00000E+00
         0.00000E+00
         0.00000E+00
         0.00000E+00
         0.00000E+00
         0.00000E+00
         0.00000E+00
         0.00000E+00
         0.00000E+00
         0.00000E+00
         0.00000E+00
         0.00000E+00
         0.00000E+00
         0.00000E+00
         0.00000E+00
         0.00000E+00
         0.00000E+00
         0.00000E+00
         0.00000E+00
         0.00000E+00
         0.00000E+00
         0.00000E+00
         0.00000E+00
         0.00000E+00
         0.00000E+00
         0.00000E+00
         0.00000E+00
         0.00000E+00
         0.00000E+00
         0.00000E+00
         0.00000E+00
         0.00000E+00
         0.00000E+00
         0.00000E+00
         0.00000E+00
         0.00000E+00
         0.00000E+00
         0.00000E+00
         0.00000E+00
         0.00000E+00
         0.00000E+00
         0.00000E+00
         0.00000E+00
         0.00000E+00
         0.00000E+00
         0.00000E+00
         0.00000E+00
         0.00000E+00
         0.00000E+00
         0.00000E+00
         0.00000E+00
         0.00000E+00
         0.00000E+00
         0.00000E+00
         0.00000E+00
         0.00000E+00
         0.00000E+00
         0.00000E+00
         0.00000E+00
         0.00000E+00
         0.00000E+00
         0.00000E+00
         0.00000E+00
         0.00000E+00
         0.00000E+00
         0.00000E+00
         0.00000E+00
         0.00000E+00
         0.00000E+00
         0.00000E+00
         0.00000E+00
         0.00000E+00
         0.00000E+00
         0.00000E+00
         0.00000E+00
         0.00000E+00
         0.00000E+00
         0.00000E+00
         0.00000E+00
         0.00000E+00
         0.00000E+00
         0.00000E+00
         0.00000E+00
         0.00000E+00
         0.00000E+00
         0.00000E+00
         0.00000E+00
         0.00000E+00
         0.00000E+00
         0.00000E+00
         0.00000E+00
         0.00000E+00
         0.00000E+00
         0.00000E+00
         0.00000E+00
         0.00000E+00
         0.00000E+00
         0.00000E+00
         0.00000E+00
         0.00000E+00
         0.00000E+00
         0.00000E+00
         0.00000E+00
         0.00000E+00
         0.00000E+00
         0.00000E+00
         0.00000E+00
         0.00000E+00
         0.00000E+00
         0.00000E+00
         0.00000E+00
         0.00000E+00
         0.00000E+00
         0.00000E+00
         0.00000E+00
         0.00000E+00
         0.00000E+00
         0.00000E+00
         0.00000E+00
         0.00000E+00
         0.00000E+00
         0.00000E+00
         0.00000E+00
         0.00000E+00
         0.00000E+00
         0.00000E+00
         0.00000E+00
         0.00000E+00
         0.00000E+00
         0.00000E+00
         0.00000E+00
         0.00000E+00
         0.00000E+00
         0.00000E+00
         0.00000E+00
         0.00000E+00
         0.00000E+00
         0.00000E+00
         0.00000E+00
         0.00000E+00
         0.00000E+00
         0.00000E+00
         0.00000E+00
         0.00000E+00
         0.00000E+00
         0.00000E+00
         0.00000E+00
         0.00000E+00
         0.00000E+00
         0.00000E+00
         0.00000E+00
         0.00000E+00
         0.00000E+00
         0.00000E+00
         0.00000E+00
         0.00000E+00
         0.00000E+00
         0.00000E+00
         0.00000E+00
         0.00000E+00
         0.00000E+00
         0.00000E+00
         0.00000E+00
         0.00000E+00
         0.00000E+00
         0.00000E+00
         0.00000E+00
         0.00000E+00
         0.00000E+00
         0.00000E+00
         0.00000E+00
         0.00000E+00
         0.00000E+00
         0.00000E+00
         0.00000E+00
         0.00000E+00
         0.00000E+00
         0.00000E+00
         0.00000E+00
         0.00000E+00
         0.00000E+00
         0.00000E+00
         0.00000E+00
         0.00000E+00
         0.00000E+00
         0.00000E+00
         0.00000E+00
         0.00000E+00
         0.00000E+00
         0.00000E+00
         0.00000E+00
         0.00000E+00
         0.00000E+00
         0.00000E+00
         0.00000E+00
         0.00000E+00
         0.00000E+00
         0.00000E+00
         0.00000E+00
         0.00000E+00
         0.00000E+00
         0.00000E+00
         0.00000E+00
         0.00000E+00
         0.00000E+00
         0.00000E+00
         0.00000E+00
         0.00000E+00
         0.00000E+00
         0.00000E+00
         0.00000E+00
         0.00000E+00
         0.00000E+00
         0.00000E+00
         0.00000E+00
         0.00000E+00
         0.00000E+00
         0.00000E+00
         0.00000E+00
         0.00000E+00
         0.00000E+00
         0.00000E+00
         0.00000E+00
         0.00000E+00
         0.00000E+00
         0.00000E+00
         0.00000E+00
         0.00000E+00
         0.00000E+00
         0.00000E+00
         0.00000E+00
         0.00000E+00
         0.00000E+00
         0.00000E+00
         0.00000E+00
         0.00000E+00
         0.00000E+00
         0.00000E+00
         0.00000E+00
         0.00000E+00
         0.00000E+00
         0.00000E+00
         0.00000E+00
         0.00000E+00
         0.00000E+00
         0.00000E+00
         0.00000E+00
         0.00000E+00
         0.00000E+00
         0.00000E+00
         0.00000E+00
         0.00000E+00
         0.00000E+00
         0.00000E+00
         0.00000E+00
         0.00000E+00
         0.00000E+00
         0.00000E+00
         0.00000E+00
         0.00000E+00
         0.00000E+00
         0.00000E+00
         0.00000E+00
         0.00000E+00
         0.00000E+00
         0.00000E+00
         0.00000E+00
         0.00000E+00
         0.00000E+00
         0.00000E+00
         0.00000E+00
         0.00000E+00
         0.00000E+00
         0.00000E+00
         0.00000E+00
         0.00000E+00
         0.00000E+00
         0.00000E+00
         0.00000E+00
         0.00000E+00
         0.00000E+00
         0.00000E+00
         0.00000E+00
         0.00000E+00
         0.00000E+00
         0.00000E+00
         0.00000E+00
         0.00000E+00
         0.00000E+00
         0.00000E+00
         0.00000E+00
         0.00000E+00
         0.00000E+00
         0.00000E+00
         0.00000E+00
         0.00000E+00
         0.00000E+00
         0.00000E+00
         0.00000E+00
         0.00000E+00
         0.00000E+00
         0.00000E+00
         0.00000E+00
         0.00000E+00
         0.00000E+00
         0.00000E+00
         0.00000E+00
         0.00000E+00
         0.00000E+00
         0.00000E+00
         0.00000E+00
         0.00000E+00
         0.00000E+00
         0.00000E+00
         0.00000E+00
         0.00000E+00
         0.00000E+00
         0.00000E+00
         0.00000E+00
         0.00000E+00
         0.00000E+00
         0.00000E+00
         0.00000E+00
         0.00000E+00
         0.00000E+00
         0.00000E+00
         0.00000E+00
         0.00000E+00
         0.00000E+00
         0.00000E+00
         0.00000E+00
         0.00000E+00
         0.00000E+00
         0.00000E+00
         0.00000E+00
         0.00000E+00
         0.00000E+00
         0.00000E+00
         0.00000E+00
         0.00000E+00
         0.00000E+00
         0.00000E+00
         0.00000E+00
         0.00000E+00
         0.00000E+00
         0.00000E+00
         0.00000E+00
         0.00000E+00
         0.00000E+00
         0.00000E+00
         0.00000E+00
         0.00000E+00
         0.00000E+00
         0.00000E+00
         0.00000E+00
         0.00000E+00
         0.00000E+00
         0.00000E+00
         0.00000E+00
         0.00000E+00
         0.00000E+00
         0.00000E+00
         0.00000E+00
         0.00000E+00
         0.00000E+00
         0.00000E+00
         0.00000E+00
         0.00000E+00
         0.00000E+00
         0.00000E+00
         0.00000E+00
         0.00000E+00
         0.00000E+00
         0.00000E+00
         0.00000E+00
         0.00000E+00
         0.00000E+00
         0.00000E+00
         0.00000E+00
         0.00000E+00
         0.00000E+00
         0.00000E+00
         0.00000E+00
         0.00000E+00
         0.00000E+00
         0.00000E+00
         0.00000E+00
         0.00000E+00
         0.00000E+00
         0.00000E+00
         0.00000E+00
         0.00000E+00
         0.00000E+00
         0.00000E+00
         0.00000E+00
         0.00000E+00
         0.00000E+00
         0.00000E+00
         0.00000E+00
         0.00000E+00
         0.00000E+00
         0.00000E+00
         0.00000E+00
         0.00000E+00
         0.00000E+00
         0.00000E+00
         0.00000E+00
         0.00000E+00
         0.00000E+00
         0.00000E+00
         0.00000E+00
         0.00000E+00
         0.00000E+00
         0.00000E+00
         0.00000E+00
         0.00000E+00
         0.00000E+00
         0.00000E+00
         0.00000E+00
         0.00000E+00
         0.00000E+00
         0.00000E+00
         0.00000E+00
         0.00000E+00
         0.00000E+00
         0.00000E+00
         0.00000E+00
         0.00000E+00
         0.00000E+00
         0.00000E+00
         0.00000E+00
         0.00000E+00
         0.00000E+00
         0.00000E+00
         0.00000E+00
         0.00000E+00
         0.00000E+00
         0.00000E+00
         0.00000E+00
         0.00000E+00
         0.00000E+00
         0.00000E+00
         0.00000E+00
         0.00000E+00
         0.00000E+00
         0.00000E+00
         0.00000E+00
         0.00000E+00
         0.00000E+00
         0.00000E+00
         0.00000E+00
         0.00000E+00
         0.00000E+00
         0.00000E+00
         0.00000E+00
         0.00000E+00
         0.00000E+00
         0.00000E+00
         0.00000E+00
         0.00000E+00
         0.00000E+00
         0.00000E+00
         0.00000E+00
         0.00000E+00
         0.00000E+00
         0.00000E+00
         0.00000E+00
         0.00000E+00
         0.00000E+00
         0.00000E+00
         0.00000E+00
         0.00000E+00
         0.00000E+00
         0.00000E+00
         0.00000E+00
         0.00000E+00
         0.00000E+00
         0.00000E+00
         0.00000E+00
         0.00000E+00
         0.00000E+00
         0.00000E+00
         0.00000E+00
         0.00000E+00
         0.00000E+00
         0.00000E+00
         0.00000E+00
         0.00000E+00
         0.00000E+00
         0.00000E+00
         0.00000E+00
         0.00000E+00
         0.00000E+00
         0.00000E+00
         0.00000E+00
         0.00000E+00
         0.00000E+00
         0.00000E+00
         0.00000E+00
         0.00000E+00
         0.00000E+00
         0.00000E+00
         0.00000E+00
         0.00000E+00
         0.00000E+00
         0.00000E+00
         0.00000E+00
         0.00000E+00
         0.00000E+00
         0.00000E+00
         0.00000E+00
         0.00000E+00
         0.00000E+00
         0.00000E+00
         0.00000E+00
         0.00000E+00
         0.00000E+00
         0.00000E+00
         0.00000E+00
         0.00000E+00
         0.00000E+00
         0.00000E+00
         0.00000E+00
         0.00000E+00
         0.00000E+00
         0.00000E+00
         0.00000E+00
         0.00000E+00
         0.00000E+00
         0.00000E+00
         0.00000E+00
         0.00000E+00
         0.00000E+00
         0.00000E+00
         0.00000E+00
         0.00000E+00
         0.00000E+00
         0.00000E+00
         0.00000E+00
         0.00000E+00
         0.00000E+00
         0.00000E+00
         0.00000E+00
         0.00000E+00
         0.00000E+00
         0.00000E+00
         0.00000E+00
         0.00000E+00
         0.00000E+00
         0.00000E+00
         0.00000E+00
         0.00000E+00
         0.00000E+00
         0.00000E+00
         0.00000E+00
         0.00000E+00
         0.00000E+00
         0.00000E+00
         0.00000E+00
         0.00000E+00
         0.00000E+00
         0.00000E+00
         0.00000E+00
         0.00000E+00
         0.00000E+00
         0.00000E+00
         0.00000E+00
         0.00000E+00
         0.00000E+00
         0.00000E+00
         0.00000E+00
         0.00000E+00
         0.00000E+00
         0.00000E+00
         0.00000E+00
         0.00000E+00
         0.00000E+00
         0.00000E+00
         0.00000E+00
         0.00000E+00
         0.00000E+00
         0.00000E+00
         0.00000E+00
         0.00000E+00
         0.00000E+00
         0.00000E+00
         0.00000E+00
         0.00000E+00
         0.00000E+00
         0.00000E+00
         0.00000E+00
         0.00000E+00
         0.00000E+00
         0.00000E+00
         0.00000E+00
         0.00000E+00
         0.00000E+00
         0.00000E+00
         0.00000E+00
         0.00000E+00
         0.00000E+00
         0.00000E+00
         0.00000E+00
         0.00000E+00
         0.00000E+00
         0.00000E+00
         0.00000E+00
         0.00000E+00
         0.00000E+00
         0.00000E+00
         0.00000E+00
         0.00000E+00
         0.00000E+00
         0.00000E+00
         0.00000E+00
         0.00000E+00
         0.00000E+00
         0.00000E+00
         0.00000E+00
         0.00000E+00
         0.00000E+00
         0.00000E+00
         0.00000E+00
         0.00000E+00
         0.00000E+00
         0.00000E+00
         0.00000E+00
         0.00000E+00
         0.00000E+00
         0.00000E+00
         0.00000E+00
         0.00000E+00
         0.00000E+00
         0.00000E+00
         0.00000E+00
         0.00000E+00
         0.00000E+00
         0.00000E+00
         0.00000E+00
         0.00000E+00
         0.00000E+00
         0.00000E+00
         0.00000E+00
         0.00000E+00
         0.00000E+00
         0.00000E+00
         0.00000E+00
         0.00000E+00
         0.00000E+00
         0.00000E+00
         0.00000E+00
         0.00000E+00
         0.00000E+00
         0.00000E+00
         0.00000E+00
         0.00000E+00
         0.00000E+00
         0.00000E+00
         0.00000E+00
         0.00000E+00
         0.00000E+00
         0.00000E+00
         0.00000E+00
         0.00000E+00
         0.00000E+00
         0.00000E+00
         0.00000E+00
         0.00000E+00
         0.00000E+00
         0.00000E+00
         0.00000E+00
         0.00000E+00
         0.00000E+00
         0.00000E+00
         0.00000E+00
         0.00000E+00
         0.00000E+00
         0.00000E+00
         0.00000E+00
         0.00000E+00
         0.00000E+00
         0.00000E+00
         0.00000E+00
         0.00000E+00
         0.00000E+00
         0.00000E+00
         0.00000E+00
         0.00000E+00
         0.00000E+00
         0.00000E+00
         0.00000E+00
         0.00000E+00
         0.00000E+00
         0.00000E+00
         0.00000E+00
         0.00000E+00
         0.00000E+00
         0.00000E+00
         0.00000E+00
         0.00000E+00
         0.00000E+00
         0.00000E+00
         0.00000E+00
         0.00000E+00
         0.00000E+00
         0.00000E+00
         0.00000E+00
         0.00000E+00
         0.00000E+00
         0.00000E+00
         0.00000E+00
         0.00000E+00
         0.00000E+00
         0.00000E+00
         0.00000E+00
         0.00000E+00
         0.00000E+00
         0.00000E+00
         0.00000E+00
         0.00000E+00
         0.00000E+00
         0.00000E+00
         0.00000E+00
         0.00000E+00
         0.00000E+00
         0.00000E+00
         0.00000E+00
         0.00000E+00
         0.00000E+00
         0.00000E+00
         0.00000E+00
         0.00000E+00
         0.00000E+00
         0.00000E+00
         0.00000E+00
         0.00000E+00
         0.00000E+00
         0.00000E+00
         0.00000E+00
         0.00000E+00
         0.00000E+00
         0.00000E+00
         0.00000E+00
         0.00000E+00
         0.00000E+00
         0.00000E+00
         0.00000E+00
         0.00000E+00
         0.00000E+00
         0.00000E+00
         0.00000E+00
         0.00000E+00
         0.00000E+00
         0.00000E+00
         0.00000E+00
         0.00000E+00
         0.00000E+00
         0.00000E+00
         0.00000E+00
         0.00000E+00
         0.00000E+00
         0.00000E+00
         0.00000E+00
         0.00000E+00
         0.00000E+00
         0.00000E+00
         0.00000E+00
         0.00000E+00
         0.00000E+00
         0.00000E+00
         0.00000E+00
         0.00000E+00
         0.00000E+00
         0.00000E+00
         0.00000E+00
         0.00000E+00
         0.00000E+00
         0.00000E+00
         0.00000E+00
         0.00000E+00
         0.00000E+00
         0.00000E+00
         0.00000E+00
         0.00000E+00
         0.00000E+00
         0.00000E+00
         0.00000E+00
         0.00000E+00
         0.00000E+00
         0.00000E+00
         0.00000E+00
         0.00000E+00
         0.00000E+00
         0.00000E+00
         0.00000E+00
         0.00000E+00
         0.00000E+00
         0.00000E+00
         0.00000E+00
         0.00000E+00
         0.00000E+00
         0.00000E+00
         0.00000E+00
         0.00000E+00
         0.00000E+00
         0.00000E+00
         0.00000E+00
         0.00000E+00
         0.00000E+00
         0.00000E+00
         0.00000E+00
         0.00000E+00
         0.00000E+00
         0.00000E+00
         0.00000E+00
         0.00000E+00
         0.00000E+00
         0.00000E+00
         0.00000E+00
         0.00000E+00
         0.00000E+00
         0.00000E+00
         0.00000E+00
         0.00000E+00
         0.00000E+00
         0.00000E+00
         0.00000E+00
         0.00000E+00
         0.00000E+00
         0.00000E+00
         0.00000E+00
         0.00000E+00
         0.00000E+00
         0.00000E+00
         0.00000E+00
         0.00000E+00
         0.00000E+00
         0.00000E+00
         0.00000E+00
         0.00000E+00
         0.00000E+00
         0.00000E+00
         0.00000E+00
         0.00000E+00
         0.00000E+00
         0.00000E+00
         0.00000E+00
         0.00000E+00
         0.00000E+00
         0.00000E+00
         0.00000E+00
         0.00000E+00
         0.00000E+00
         0.00000E+00
         0.00000E+00
         0.00000E+00
         0.00000E+00
         0.00000E+00
         0.00000E+00
         0.00000E+00
         0.00000E+00
         0.00000E+00
         0.00000E+00
         0.00000E+00
         0.00000E+00
         0.00000E+00
         0.00000E+00
         0.00000E+00
         0.00000E+00
         0.00000E+00
         0.00000E+00
         0.00000E+00
         0.00000E+00
         0.00000E+00
         0.00000E+00
         0.00000E+00
         0.00000E+00
         0.00000E+00
         0.00000E+00
         0.00000E+00
         0.00000E+00
         0.00000E+00
         0.00000E+00
         0.00000E+00
         0.00000E+00
         0.00000E+00
         0.00000E+00
         0.00000E+00
         0.00000E+00
         0.00000E+00
         0.00000E+00
         0.00000E+00
         0.00000E+00
         0.00000E+00
         0.00000E+00
         0.00000E+00
         0.00000E+00
         0.00000E+00
         0.00000E+00
         0.00000E+00
         0.00000E+00
         0.00000E+00
         0.00000E+00
         0.00000E+00
         0.00000E+00
         0.00000E+00
         0.00000E+00
         0.00000E+00
         0.00000E+00
         0.00000E+00
         0.00000E+00
         0.00000E+00
         0.00000E+00
         0.00000E+00
         0.00000E+00
         0.00000E+00
         0.00000E+00
         0.00000E+00
         0.00000E+00
         0.00000E+00
         0.00000E+00
         0.00000E+00
         0.00000E+00
         0.00000E+00
         0.00000E+00
         0.00000E+00
         0.00000E+00
         0.00000E+00
         0.00000E+00
         0.00000E+00
         0.00000E+00
         0.00000E+00
         0.00000E+00
         0.00000E+00
         0.00000E+00
         0.00000E+00
         0.00000E+00
         0.00000E+00
         0.00000E+00
         0.00000E+00
         0.00000E+00
         0.00000E+00
         0.00000E+00
         0.00000E+00
         0.00000E+00
         0.00000E+00
         0.00000E+00
         0.00000E+00
         0.00000E+00
         0.00000E+00
         0.00000E+00
         0.00000E+00
         0.00000E+00
         0.00000E+00
         0.00000E+00
         0.00000E+00
         0.00000E+00
         0.00000E+00
         0.00000E+00
         0.00000E+00
         0.00000E+00
         0.00000E+00
         0.00000E+00
         0.00000E+00
         0.00000E+00
         0.00000E+00
         0.00000E+00
         0.00000E+00
         0.00000E+00
         0.00000E+00
         0.00000E+00
         0.00000E+00
         0.00000E+00
         0.00000E+00
         0.00000E+00
         0.00000E+00
         0.00000E+00
         0.00000E+00
         0.00000E+00
         0.00000E+00
         0.00000E+00
         0.00000E+00
         0.00000E+00
         0.00000E+00
         0.00000E+00
         0.00000E+00
         0.00000E+00
         0.00000E+00
         0.00000E+00
         0.00000E+00
         0.00000E+00
         0.00000E+00
         0.00000E+00
         0.00000E+00
         0.00000E+00
         0.00000E+00
         0.00000E+00
         0.00000E+00
         0.00000E+00
         0.00000E+00
         0.00000E+00
         0.00000E+00
         0.00000E+00
         0.00000E+00
         0.00000E+00
         0.00000E+00
         0.00000E+00
         0.00000E+00
         0.00000E+00
         0.00000E+00
         0.00000E+00
         0.00000E+00
         0.00000E+00
         0.00000E+00
         0.00000E+00
         0.00000E+00
         0.00000E+00
         0.00000E+00
         0.00000E+00
         0.00000E+00
         0.00000E+00
         0.00000E+00
         0.00000E+00
         0.00000E+00
         0.00000E+00
         0.00000E+00
         0.00000E+00
         0.00000E+00
         0.00000E+00
         0.00000E+00
         0.00000E+00
         0.00000E+00
         0.00000E+00
         0.00000E+00
         0.00000E+00
         0.00000E+00
         0.00000E+00
         0.00000E+00
         0.00000E+00
         0.00000E+00
         0.00000E+00
         0.00000E+00
         0.00000E+00
         0.00000E+00
         0.00000E+00
         0.00000E+00
         0.00000E+00
         0.00000E+00
         0.00000E+00
         0.00000E+00
         0.00000E+00
         0.00000E+00
         0.00000E+00
         0.00000E+00
         0.00000E+00
         0.00000E+00
         0.00000E+00
         0.00000E+00
         0.00000E+00
         0.00000E+00
         0.00000E+00
         0.00000E+00
         0.00000E+00
         0.00000E+00
         0.00000E+00
         0.00000E+00
         0.00000E+00
         0.00000E+00
         0.00000E+00
         0.00000E+00
         0.00000E+00
         0.00000E+00
         0.00000E+00
         0.00000E+00
         0.00000E+00
         0.00000E+00
         0.00000E+00
         0.00000E+00
         0.00000E+00
         0.00000E+00
         0.00000E+00
         0.00000E+00
         0.00000E+00
         0.00000E+00
         0.00000E+00
         0.00000E+00
         0.00000E+00
         0.00000E+00
         0.00000E+00
         0.00000E+00
         0.00000E+00
         0.00000E+00
         0.00000E+00
         0.00000E+00
         0.00000E+00
         0.00000E+00
         0.00000E+00
         0.00000E+00
         0.00000E+00
         0.00000E+00
         0.00000E+00
         0.00000E+00
         0.00000E+00
         0.00000E+00
         0.00000E+00
         0.00000E+00
         0.00000E+00
         0.00000E+00
         0.00000E+00
         0.00000E+00
         0.00000E+00
         0.00000E+00
         0.00000E+00
         0.00000E+00
         0.00000E+00
         0.00000E+00
         0.00000E+00
         0.00000E+00
         0.00000E+00
         0.00000E+00
         0.00000E+00
         0.00000E+00
         0.00000E+00
         0.00000E+00
         0.00000E+00
         0.00000E+00
         0.00000E+00
         0.00000E+00
         0.00000E+00
         0.00000E+00
         0.00000E+00
         0.00000E+00
         0.00000E+00
         0.00000E+00
         0.00000E+00
         0.00000E+00
         0.00000E+00
         0.00000E+00
         0.00000E+00
         0.00000E+00
         0.00000E+00
         0.00000E+00
         0.00000E+00
         0.00000E+00
         0.00000E+00
         0.00000E+00
         0.00000E+00
         0.00000E+00
         0.00000E+00
         0.00000E+00
         0.00000E+00
         0.00000E+00
         0.00000E+00
         0.00000E+00
         0.00000E+00
         0.00000E+00
         0.00000E+00
         0.00000E+00
         0.00000E+00
         0.00000E+00
         0.00000E+00
         0.00000E+00
         0.00000E+00
         0.00000E+00
         0.00000E+00
         0.00000E+00
         0.00000E+00
         0.00000E+00
         0.00000E+00
         0.00000E+00
         0.00000E+00
         0.00000E+00
         0.00000E+00
         0.00000E+00
         0.00000E+00
         0.00000E+00
         0.00000E+00
         0.00000E+00
         0.00000E+00
         0.00000E+00
         0.00000E+00
         0.00000E+00
         0.00000E+00
         0.00000E+00
         0.00000E+00
         0.00000E+00
         0.00000E+00
         0.00000E+00
         0.00000E+00
         0.00000E+00
         0.00000E+00
         0.00000E+00
         0.00000E+00
         0.00000E+00
         0.00000E+00
         0.00000E+00
         0.00000E+00
         0.00000E+00
         0.00000E+00
         0.00000E+00
         0.00000E+00
         0.00000E+00
         0.00000E+00
         0.00000E+00
         0.00000E+00
         0.00000E+00
         0.00000E+00
         0.00000E+00
         0.00000E+00
         0.00000E+00
         0.00000E+00
         0.00000E+00
         0.00000E+00
         0.00000E+00
         0.00000E+00
         0.00000E+00
         0.00000E+00
         0.00000E+00
         0.00000E+00
         0.00000E+00
         0.00000E+00
         0.00000E+00
         0.00000E+00
         0.00000E+00
         0.00000E+00
         0.00000E+00
         0.00000E+00
         0.00000E+00
         0.00000E+00
         0.00000E+00
         0.00000E+00
         0.00000E+00
         0.00000E+00
         0.00000E+00
         0.00000E+00
         0.00000E+00
         0.00000E+00
         0.00000E+00
         0.00000E+00
         0.00000E+00
         0.00000E+00
         0.00000E+00
         0.00000E+00
         0.00000E+00
         0.00000E+00
         0.00000E+00
         0.00000E+00
         0.00000E+00
         0.00000E+00
         0.00000E+00
         0.00000E+00
         0.00000E+00
         0.00000E+00
         0.00000E+00
         0.00000E+00
         0.00000E+00
         0.00000E+00
         0.00000E+00
         0.00000E+00
         0.00000E+00
         0.00000E+00
         0.00000E+00
         0.00000E+00
         0.00000E+00
         0.00000E+00
         0.00000E+00
         0.00000E+00
         0.00000E+00
         0.00000E+00
         0.00000E+00
         0.00000E+00
         0.00000E+00
         0.00000E+00
         0.00000E+00
         0.00000E+00
         0.00000E+00
         0.00000E+00
         0.00000E+00
         0.00000E+00
         0.00000E+00
         0.00000E+00
         0.00000E+00
         0.00000E+00
         0.00000E+00
         0.00000E+00
         0.00000E+00
         0.00000E+00
         0.00000E+00
         0.00000E+00
         0.00000E+00
         0.00000E+00
         0.00000E+00
         0.00000E+00
         0.00000E+00
         0.00000E+00
         0.00000E+00
         0.00000E+00
         0.00000E+00
         0.00000E+00
         0.00000E+00
         0.00000E+00
         0.00000E+00
         0.00000E+00
         0.00000E+00
         0.00000E+00
         0.00000E+00
         0.00000E+00
         0.00000E+00
         0.00000E+00
         0.00000E+00
         0.00000E+00
         0.00000E+00
         0.00000E+00
         0.00000E+00
         0.00000E+00
         0.00000E+00
         0.00000E+00
         0.00000E+00
         0.00000E+00
         0.00000E+00
         0.00000E+00
         0.00000E+00
         0.00000E+00
         0.00000E+00
         0.00000E+00
         0.00000E+00
         0.00000E+00
         0.00000E+00
         0.00000E+00
         0.00000E+00
         0.00000E+00
         0.00000E+00
         0.00000E+00
         0.00000E+00
         0.00000E+00
         0.00000E+00
         0.00000E+00
         0.00000E+00
         0.00000E+00
         0.00000E+00
         0.00000E+00
         0.00000E+00
         0.00000E+00
         0.00000E+00
         0.00000E+00
         0.00000E+00
         0.00000E+00
         0.00000E+00
         0.00000E+00
         0.00000E+00
         0.00000E+00
         0.00000E+00
         0.00000E+00
         0.00000E+00
         0.00000E+00
         0.00000E+00
         0.00000E+00
         0.00000E+00
         0.00000E+00
         0.00000E+00
         0.00000E+00
         0.00000E+00
         0.00000E+00
         0.00000E+00
         0.00000E+00
         0.00000E+00
         0.00000E+00
         0.00000E+00
         0.00000E+00
         0.00000E+00
         0.00000E+00
         0.00000E+00
         0.00000E+00
         0.00000E+00
         0.00000E+00
         0.00000E+00
         0.00000E+00
         0.00000E+00
         0.00000E+00
         0.00000E+00
         0.00000E+00
         0.00000E+00
         0.00000E+00
         0.00000E+00
         0.00000E+00
         0.00000E+00
         0.00000E+00
         0.00000E+00
         0.00000E+00
         0.00000E+00
         0.00000E+00
         0.00000E+00
         0.00000E+00
         0.00000E+00
         0.00000E+00
         0.00000E+00
         0.00000E+00
         0.00000E+00
         0.00000E+00
         0.00000E+00
         0.00000E+00
         0.00000E+00
         0.00000E+00
         0.00000E+00
         0.00000E+00
         0.00000E+00
         0.00000E+00
         0.00000E+00
         0.00000E+00
         0.00000E+00
         0.00000E+00
         0.00000E+00
         0.00000E+00
         0.00000E+00
         0.00000E+00
         0.00000E+00
         0.00000E+00
         0.00000E+00
         0.00000E+00
         0.00000E+00
         0.00000E+00
         0.00000E+00
         0.00000E+00
         0.00000E+00
         0.00000E+00
         0.00000E+00
         0.00000E+00
         0.00000E+00
         0.00000E+00
         0.00000E+00
         0.00000E+00
         0.00000E+00
         0.00000E+00
         0.00000E+00
         0.00000E+00
         0.00000E+00
         0.00000E+00
         0.00000E+00
         0.00000E+00
         0.00000E+00
         0.00000E+00
         0.00000E+00
         0.00000E+00
         0.00000E+00
         0.00000E+00
         0.00000E+00
         0.00000E+00
         0.00000E+00
         0.00000E+00
         0.00000E+00
         0.00000E+00
         0.00000E+00
         0.00000E+00
         0.00000E+00
         0.00000E+00
         0.00000E+00
         0.00000E+00
         0.00000E+00
         0.00000E+00
         0.00000E+00
         0.00000E+00
         0.00000E+00
         0.00000E+00
         0.00000E+00
         0.00000E+00
         0.00000E+00
         0.00000E+00
         0.00000E+00
         0.00000E+00
         0.00000E+00
         0.00000E+00
         0.00000E+00
         0.00000E+00
         0.00000E+00
         0.00000E+00
         0.00000E+00
         0.00000E+00
         0.00000E+00
         0.00000E+00
         0.00000E+00
         0.00000E+00
         0.00000E+00
         0.00000E+00
         0.00000E+00
         0.00000E+00
         0.00000E+00
         0.00000E+00
         0.00000E+00
         0.00000E+00
         0.00000E+00
         0.00000E+00
         0.00000E+00
         0.00000E+00
         0.00000E+00
         0.00000E+00
         0.00000E+00
         0.00000E+00
         0.00000E+00
         0.00000E+00
         0.00000E+00
         0.00000E+00
         0.00000E+00
         0.00000E+00
         0.00000E+00
         0.00000E+00
         0.00000E+00
         0.00000E+00
         0.00000E+00
         0.00000E+00
         0.00000E+00
         0.00000E+00
         0.00000E+00
         0.00000E+00
         0.00000E+00
         0.00000E+00
         0.00000E+00
         0.00000E+00
         0.00000E+00
         0.00000E+00
         0.00000E+00
         0.00000E+00
         0.00000E+00
         0.00000E+00
         0.00000E+00
         0.00000E+00
         0.00000E+00
         0.00000E+00
         0.00000E+00
         0.00000E+00
         0.00000E+00
         0.00000E+00
         0.00000E+00
         0.00000E+00
         0.00000E+00
         0.00000E+00
         0.00000E+00
         0.00000E+00
         0.00000E+00
         0.00000E+00
         0.00000E+00
         0.00000E+00
         0.00000E+00
         0.00000E+00
         0.00000E+00
         0.00000E+00
         0.00000E+00
         0.00000E+00
         0.00000E+00
         0.00000E+00
         0.00000E+00
         0.00000E+00
         0.00000E+00
         0.00000E+00
         0.00000E+00
         0.00000E+00
         0.00000E+00
         0.00000E+00
         0.00000E+00
         0.00000E+00
         0.00000E+00
         0.00000E+00
         0.00000E+00
         0.00000E+00
         0.00000E+00
         0.00000E+00
         0.00000E+00
         0.00000E+00
         0.00000E+00
         0.00000E+00
         0.00000E+00
         0.00000E+00
         0.00000E+00
         0.00000E+00
         0.00000E+00
         0.00000E+00
         0.00000E+00
         0.00000E+00
         0.00000E+00
         0.00000E+00
         0.00000E+00
         0.00000E+00
         0.00000E+00
         0.00000E+00
         0.00000E+00
         0.00000E+00
         0.00000E+00
         0.00000E+00
         0.00000E+00
         0.00000E+00
         0.00000E+00
         0.00000E+00
         0.00000E+00
         0.00000E+00
         0.00000E+00
         0.00000E+00
         0.00000E+00
         0.00000E+00
         0.00000E+00
         0.00000E+00
         0.00000E+00
         0.00000E+00
         0.00000E+00
         0.00000E+00
         0.00000E+00
         0.00000E+00
         0.00000E+00
         0.00000E+00
         0.00000E+00
         0.00000E+00
         0.00000E+00
         0.00000E+00
         0.00000E+00
         0.00000E+00
         0.00000E+00
         0.00000E+00
         0.00000E+00
         0.00000E+00
         0.00000E+00
         0.00000E+00
         0.00000E+00
         0.00000E+00
         0.00000E+00
         0.00000E+00
         0.00000E+00
         0.00000E+00
         0.00000E+00
         0.00000E+00
         0.00000E+00
         0.00000E+00
         0.00000E+00
         0.00000E+00
         0.00000E+00
         0.00000E+00
         0.00000E+00
         0.00000E+00
         0.00000E+00
         0.00000E+00
         0.00000E+00
         0.00000E+00
         0.00000E+00
         0.00000E+00
         0.00000E+00
         0.00000E+00
         0.00000E+00
         0.00000E+00
         0.00000E+00
         0.00000E+00
         0.00000E+00
         0.00000E+00
         0.00000E+00
         0.00000E+00
         0.00000E+00
         0.00000E+00
         0.00000E+00
         0.00000E+00
         0.00000E+00
         0.00000E+00
         0.00000E+00
         0.00000E+00
         0.00000E+00
         0.00000E+00
  
SCALARS               pre_disp_force_z  double 1
LOOKUP_TABLE default
         0.00000E+00
         0.00000E+00
         0.00000E+00
         0.00000E+00
        -0.00000E+00
        -0.00000E+00
        -0.00000E+00
        -0.00000E+00
         0.00000E+00
         0.00000E+00
        -0.00000E+00
        -0.00000E+00
         0.00000E+00
         0.00000E+00
        -0.00000E+00
        -0.00000E+00
         0.00000E+00
         0.00000E+00
        -0.00000E+00
        -0.00000E+00
         0.00000E+00
         0.00000E+00
         0.00000E+00
        -0.00000E+00
        -0.00000E+00
        -0.00000E+00
         0.00000E+00
         0.00000E+00
        -0.00000E+00
        -0.00000E+00
         0.00000E+00
         0.00000E+00
         0.00000E+00
        -0.00000E+00
        -0.00000E+00
        -0.00000E+00
         0.00000E+00
         0.00000E+00
        -0.00000E+00
        -0.00000E+00
         0.00000E+00
         0.00000E+00
        -0.00000E+00
        -0.00000E+00
         0.00000E+00
         0.00000E+00
        -0.00000E+00
        -0.00000E+00
         0.00000E+00
        -0.00000E+00
         0.00000E+00
        -0.00000E+00
         0.00000E+00
        -0.00000E+00
         0.00000E+00
        -0.00000E+00
         0.00000E+00
         0.00000E+00
        -0.00000E+00
        -0.00000E+00
         0.00000E+00
         0.00000E+00
        -0.00000E+00
        -0.00000E+00
         0.00000E+00
        -0.00000E+00
         0.00000E+00
        -0.00000E+00
         0.00000E+00
         0.00000E+00
        -0.00000E+00
        -0.00000E+00
         0.00000E+00
        -0.00000E+00
         0.00000E+00
        -0.00000E+00
         0.00000E+00
        -0.00000E+00
         0.00000E+00
        -0.00000E+00
         0.00000E+00
         0.00000E+00
        -0.00000E+00
        -0.00000E+00
         0.00000E+00
        -0.00000E+00
         0.00000E+00
        -0.00000E+00
         0.00000E+00
        -0.00000E+00
         0.00000E+00
         0.00000E+00
        -0.00000E+00
        -0.00000E+00
         0.00000E+00
        -0.00000E+00
         0.00000E+00
        -0.00000E+00
         0.00000E+00
        -0.00000E+00
         0.00000E+00
         0.00000E+00
        -0.00000E+00
        -0.00000E+00
         0.00000E+00
         0.00000E+00
        -0.00000E+00
        -0.00000E+00
         0.00000E+00
        -0.00000E+00
         0.00000E+00
        -0.00000E+00
         0.00000E+00
        -0.00000E+00
         0.00000E+00
        -0.00000E+00
         0.00000E+00
        -0.00000E+00
         0.00000E+00
        -0.00000E+00
         0.00000E+00
        -0.00000E+00
         0.00000E+00
        -0.00000E+00
         0.00000E+00
        -0.00000E+00
         0.00000E+00
        -0.00000E+00
         0.00000E+00
        -0.00000E+00
         0.00000E+00
        -0.00000E+00
         0.00000E+00
        -0.00000E+00
         0.00000E+00
        -0.00000E+00
         0.00000E+00
        -0.00000E+00
         0.00000E+00
        -0.00000E+00
         0.00000E+00
        -0.00000E+00
         0.00000E+00
        -0.00000E+00
         0.00000E+00
        -0.00000E+00
         0.00000E+00
        -0.00000E+00
         0.00000E+00
        -0.00000E+00
         0.00000E+00
        -0.00000E+00
         0.00000E+00
        -0.00000E+00
         0.00000E+00
        -0.00000E+00
         0.00000E+00
         0.00000E+00
         0.00000E+00
         0.00000E+00
         0.00000E+00
         0.00000E+00
         0.00000E+00
         0.00000E+00
         0.00000E+00
         0.00000E+00
         0.00000E+00
         0.00000E+00
         0.00000E+00
         0.00000E+00
         0.00000E+00
         0.00000E+00
         0.00000E+00
         0.00000E+00
         0.00000E+00
         0.00000E+00
         0.00000E+00
         0.00000E+00
         0.00000E+00
         0.00000E+00
         0.00000E+00
         0.00000E+00
         0.00000E+00
         0.00000E+00
         0.00000E+00
         0.00000E+00
         0.00000E+00
         0.00000E+00
         0.00000E+00
         0.00000E+00
         0.00000E+00
         0.00000E+00
         0.00000E+00
         0.00000E+00
         0.00000E+00
         0.00000E+00
         0.00000E+00
         0.00000E+00
         0.00000E+00
         0.00000E+00
         0.00000E+00
         0.00000E+00
         0.00000E+00
         0.00000E+00
         0.00000E+00
         0.00000E+00
         0.00000E+00
         0.00000E+00
         0.00000E+00
         0.00000E+00
         0.00000E+00
         0.00000E+00
         0.00000E+00
         0.00000E+00
         0.00000E+00
         0.00000E+00
         0.00000E+00
         0.00000E+00
         0.00000E+00
         0.00000E+00
         0.00000E+00
         0.00000E+00
         0.00000E+00
         0.00000E+00
         0.00000E+00
         0.00000E+00
         0.00000E+00
         0.00000E+00
         0.00000E+00
         0.00000E+00
         0.00000E+00
         0.00000E+00
         0.00000E+00
         0.00000E+00
         0.00000E+00
         0.00000E+00
         0.00000E+00
         0.00000E+00
         0.00000E+00
         0.00000E+00
         0.00000E+00
         0.00000E+00
         0.00000E+00
         0.00000E+00
         0.00000E+00
         0.00000E+00
         0.00000E+00
         0.00000E+00
         0.00000E+00
         0.00000E+00
         0.00000E+00
         0.00000E+00
         0.00000E+00
         0.00000E+00
         0.00000E+00
         0.00000E+00
         0.00000E+00
         0.00000E+00
         0.00000E+00
         0.00000E+00
         0.00000E+00
         0.00000E+00
         0.00000E+00
         0.00000E+00
         0.00000E+00
         0.00000E+00
         0.00000E+00
         0.00000E+00
         0.00000E+00
         0.00000E+00
         0.00000E+00
         0.00000E+00
         0.00000E+00
         0.00000E+00
         0.00000E+00
         0.00000E+00
         0.00000E+00
         0.00000E+00
         0.00000E+00
         0.00000E+00
         0.00000E+00
         0.00000E+00
         0.00000E+00
         0.00000E+00
         0.00000E+00
         0.00000E+00
         0.00000E+00
         0.00000E+00
         0.00000E+00
         0.00000E+00
         0.00000E+00
         0.00000E+00
         0.00000E+00
         0.00000E+00
         0.00000E+00
         0.00000E+00
         0.00000E+00
         0.00000E+00
         0.00000E+00
         0.00000E+00
         0.00000E+00
         0.00000E+00
         0.00000E+00
         0.00000E+00
         0.00000E+00
         0.00000E+00
         0.00000E+00
         0.00000E+00
         0.00000E+00
         0.00000E+00
         0.00000E+00
         0.00000E+00
         0.00000E+00
         0.00000E+00
         0.00000E+00
         0.00000E+00
         0.00000E+00
         0.00000E+00
         0.00000E+00
         0.00000E+00
         0.00000E+00
         0.00000E+00
         0.00000E+00
         0.00000E+00
         0.00000E+00
         0.00000E+00
         0.00000E+00
         0.00000E+00
         0.00000E+00
         0.00000E+00
         0.00000E+00
         0.00000E+00
         0.00000E+00
         0.00000E+00
         0.00000E+00
         0.00000E+00
         0.00000E+00
         0.00000E+00
         0.00000E+00
         0.00000E+00
         0.00000E+00
         0.00000E+00
         0.00000E+00
         0.00000E+00
         0.00000E+00
         0.00000E+00
         0.00000E+00
         0.00000E+00
         0.00000E+00
         0.00000E+00
         0.00000E+00
         0.00000E+00
         0.00000E+00
         0.00000E+00
         0.00000E+00
         0.00000E+00
         0.00000E+00
         0.00000E+00
         0.00000E+00
         0.00000E+00
         0.00000E+00
         0.00000E+00
         0.00000E+00
         0.00000E+00
         0.00000E+00
         0.00000E+00
         0.00000E+00
         0.00000E+00
         0.00000E+00
         0.00000E+00
         0.00000E+00
         0.00000E+00
         0.00000E+00
         0.00000E+00
         0.00000E+00
         0.00000E+00
         0.00000E+00
         0.00000E+00
         0.00000E+00
         0.00000E+00
         0.00000E+00
         0.00000E+00
         0.00000E+00
         0.00000E+00
         0.00000E+00
         0.00000E+00
         0.00000E+00
         0.00000E+00
         0.00000E+00
         0.00000E+00
         0.00000E+00
         0.00000E+00
         0.00000E+00
         0.00000E+00
         0.00000E+00
         0.00000E+00
         0.00000E+00
         0.00000E+00
         0.00000E+00
         0.00000E+00
         0.00000E+00
         0.00000E+00
         0.00000E+00
         0.00000E+00
         0.00000E+00
         0.00000E+00
         0.00000E+00
         0.00000E+00
         0.00000E+00
         0.00000E+00
         0.00000E+00
         0.00000E+00
         0.00000E+00
         0.00000E+00
         0.00000E+00
         0.00000E+00
         0.00000E+00
         0.00000E+00
         0.00000E+00
         0.00000E+00
         0.00000E+00
         0.00000E+00
         0.00000E+00
         0.00000E+00
         0.00000E+00
         0.00000E+00
         0.00000E+00
         0.00000E+00
         0.00000E+00
         0.00000E+00
         0.00000E+00
         0.00000E+00
         0.00000E+00
         0.00000E+00
         0.00000E+00
         0.00000E+00
         0.00000E+00
         0.00000E+00
         0.00000E+00
         0.00000E+00
         0.00000E+00
         0.00000E+00
         0.00000E+00
         0.00000E+00
         0.00000E+00
         0.00000E+00
         0.00000E+00
         0.00000E+00
         0.00000E+00
         0.00000E+00
         0.00000E+00
         0.00000E+00
         0.00000E+00
         0.00000E+00
         0.00000E+00
         0.00000E+00
         0.00000E+00
         0.00000E+00
         0.00000E+00
         0.00000E+00
         0.00000E+00
         0.00000E+00
         0.00000E+00
         0.00000E+00
         0.00000E+00
         0.00000E+00
         0.00000E+00
         0.00000E+00
         0.00000E+00
         0.00000E+00
         0.00000E+00
         0.00000E+00
         0.00000E+00
         0.00000E+00
         0.00000E+00
         0.00000E+00
         0.00000E+00
         0.00000E+00
         0.00000E+00
         0.00000E+00
         0.00000E+00
         0.00000E+00
         0.00000E+00
         0.00000E+00
         0.00000E+00
         0.00000E+00
         0.00000E+00
         0.00000E+00
         0.00000E+00
         0.00000E+00
         0.00000E+00
         0.00000E+00
         0.00000E+00
         0.00000E+00
         0.00000E+00
         0.00000E+00
         0.00000E+00
         0.00000E+00
         0.00000E+00
         0.00000E+00
         0.00000E+00
         0.00000E+00
         0.00000E+00
         0.00000E+00
         0.00000E+00
         0.00000E+00
         0.00000E+00
         0.00000E+00
         0.00000E+00
         0.00000E+00
         0.00000E+00
         0.00000E+00
         0.00000E+00
         0.00000E+00
         0.00000E+00
         0.00000E+00
         0.00000E+00
         0.00000E+00
         0.00000E+00
         0.00000E+00
         0.00000E+00
         0.00000E+00
         0.00000E+00
         0.00000E+00
         0.00000E+00
         0.00000E+00
         0.00000E+00
         0.00000E+00
         0.00000E+00
         0.00000E+00
         0.00000E+00
         0.00000E+00
         0.00000E+00
         0.00000E+00
         0.00000E+00
         0.00000E+00
         0.00000E+00
         0.00000E+00
         0.00000E+00
         0.00000E+00
         0.00000E+00
         0.00000E+00
         0.00000E+00
         0.00000E+00
         0.00000E+00
         0.00000E+00
         0.00000E+00
         0.00000E+00
         0.00000E+00
         0.00000E+00
         0.00000E+00
         0.00000E+00
         0.00000E+00
         0.00000E+00
         0.00000E+00
         0.00000E+00
         0.00000E+00
         0.00000E+00
         0.00000E+00
         0.00000E+00
         0.00000E+00
         0.00000E+00
         0.00000E+00
         0.00000E+00
         0.00000E+00
         0.00000E+00
         0.00000E+00
         0.00000E+00
         0.00000E+00
         0.00000E+00
         0.00000E+00
         0.00000E+00
         0.00000E+00
         0.00000E+00
         0.00000E+00
         0.00000E+00
         0.00000E+00
         0.00000E+00
         0.00000E+00
         0.00000E+00
         0.00000E+00
         0.00000E+00
         0.00000E+00
         0.00000E+00
         0.00000E+00
         0.00000E+00
         0.00000E+00
         0.00000E+00
         0.00000E+00
         0.00000E+00
         0.00000E+00
         0.00000E+00
         0.00000E+00
         0.00000E+00
         0.00000E+00
         0.00000E+00
         0.00000E+00
         0.00000E+00
         0.00000E+00
         0.00000E+00
         0.00000E+00
         0.00000E+00
         0.00000E+00
         0.00000E+00
         0.00000E+00
         0.00000E+00
         0.00000E+00
         0.00000E+00
         0.00000E+00
         0.00000E+00
         0.00000E+00
         0.00000E+00
         0.00000E+00
         0.00000E+00
         0.00000E+00
         0.00000E+00
         0.00000E+00
         0.00000E+00
         0.00000E+00
         0.00000E+00
         0.00000E+00
         0.00000E+00
         0.00000E+00
         0.00000E+00
         0.00000E+00
         0.00000E+00
         0.00000E+00
         0.00000E+00
         0.00000E+00
         0.00000E+00
         0.00000E+00
         0.00000E+00
         0.00000E+00
         0.00000E+00
         0.00000E+00
         0.00000E+00
         0.00000E+00
         0.00000E+00
         0.00000E+00
         0.00000E+00
         0.00000E+00
         0.00000E+00
         0.00000E+00
         0.00000E+00
         0.00000E+00
         0.00000E+00
         0.00000E+00
         0.00000E+00
         0.00000E+00
         0.00000E+00
         0.00000E+00
         0.00000E+00
         0.00000E+00
         0.00000E+00
         0.00000E+00
         0.00000E+00
         0.00000E+00
         0.00000E+00
         0.00000E+00
         0.00000E+00
         0.00000E+00
         0.00000E+00
         0.00000E+00
         0.00000E+00
         0.00000E+00
         0.00000E+00
         0.00000E+00
         0.00000E+00
         0.00000E+00
         0.00000E+00
         0.00000E+00
         0.00000E+00
         0.00000E+00
         0.00000E+00
         0.00000E+00
         0.00000E+00
         0.00000E+00
         0.00000E+00
         0.00000E+00
         0.00000E+00
         0.00000E+00
         0.00000E+00
         0.00000E+00
         0.00000E+00
         0.00000E+00
         0.00000E+00
         0.00000E+00
         0.00000E+00
         0.00000E+00
         0.00000E+00
         0.00000E+00
         0.00000E+00
         0.00000E+00
         0.00000E+00
         0.00000E+00
         0.00000E+00
         0.00000E+00
         0.00000E+00
         0.00000E+00
         0.00000E+00
         0.00000E+00
         0.00000E+00
         0.00000E+00
         0.00000E+00
         0.00000E+00
         0.00000E+00
         0.00000E+00
         0.00000E+00
         0.00000E+00
         0.00000E+00
         0.00000E+00
         0.00000E+00
         0.00000E+00
         0.00000E+00
         0.00000E+00
         0.00000E+00
         0.00000E+00
         0.00000E+00
         0.00000E+00
         0.00000E+00
         0.00000E+00
         0.00000E+00
         0.00000E+00
         0.00000E+00
         0.00000E+00
         0.00000E+00
         0.00000E+00
         0.00000E+00
         0.00000E+00
         0.00000E+00
         0.00000E+00
         0.00000E+00
         0.00000E+00
         0.00000E+00
         0.00000E+00
         0.00000E+00
         0.00000E+00
         0.00000E+00
         0.00000E+00
         0.00000E+00
         0.00000E+00
         0.00000E+00
         0.00000E+00
         0.00000E+00
         0.00000E+00
         0.00000E+00
         0.00000E+00
         0.00000E+00
         0.00000E+00
         0.00000E+00
         0.00000E+00
         0.00000E+00
         0.00000E+00
         0.00000E+00
         0.00000E+00
         0.00000E+00
         0.00000E+00
         0.00000E+00
         0.00000E+00
         0.00000E+00
         0.00000E+00
         0.00000E+00
         0.00000E+00
         0.00000E+00
         0.00000E+00
         0.00000E+00
         0.00000E+00
         0.00000E+00
         0.00000E+00
         0.00000E+00
         0.00000E+00
         0.00000E+00
         0.00000E+00
         0.00000E+00
         0.00000E+00
         0.00000E+00
         0.00000E+00
         0.00000E+00
         0.00000E+00
         0.00000E+00
         0.00000E+00
         0.00000E+00
         0.00000E+00
         0.00000E+00
         0.00000E+00
         0.00000E+00
         0.00000E+00
         0.00000E+00
         0.00000E+00
         0.00000E+00
         0.00000E+00
         0.00000E+00
         0.00000E+00
         0.00000E+00
         0.00000E+00
         0.00000E+00
         0.00000E+00
         0.00000E+00
         0.00000E+00
         0.00000E+00
         0.00000E+00
         0.00000E+00
         0.00000E+00
         0.00000E+00
         0.00000E+00
         0.00000E+00
         0.00000E+00
         0.00000E+00
         0.00000E+00
         0.00000E+00
         0.00000E+00
         0.00000E+00
         0.00000E+00
         0.00000E+00
         0.00000E+00
         0.00000E+00
         0.00000E+00
         0.00000E+00
         0.00000E+00
         0.00000E+00
         0.00000E+00
         0.00000E+00
         0.00000E+00
         0.00000E+00
         0.00000E+00
         0.00000E+00
         0.00000E+00
         0.00000E+00
         0.00000E+00
         0.00000E+00
         0.00000E+00
         0.00000E+00
         0.00000E+00
         0.00000E+00
         0.00000E+00
         0.00000E+00
         0.00000E+00
         0.00000E+00
         0.00000E+00
         0.00000E+00
         0.00000E+00
         0.00000E+00
         0.00000E+00
         0.00000E+00
         0.00000E+00
         0.00000E+00
         0.00000E+00
         0.00000E+00
         0.00000E+00
         0.00000E+00
         0.00000E+00
         0.00000E+00
         0.00000E+00
         0.00000E+00
         0.00000E+00
         0.00000E+00
         0.00000E+00
         0.00000E+00
         0.00000E+00
         0.00000E+00
         0.00000E+00
         0.00000E+00
         0.00000E+00
         0.00000E+00
         0.00000E+00
         0.00000E+00
         0.00000E+00
         0.00000E+00
         0.00000E+00
         0.00000E+00
         0.00000E+00
         0.00000E+00
         0.00000E+00
         0.00000E+00
         0.00000E+00
         0.00000E+00
         0.00000E+00
         0.00000E+00
         0.00000E+00
         0.00000E+00
         0.00000E+00
         0.00000E+00
         0.00000E+00
         0.00000E+00
         0.00000E+00
         0.00000E+00
         0.00000E+00
         0.00000E+00
         0.00000E+00
         0.00000E+00
         0.00000E+00
         0.00000E+00
         0.00000E+00
         0.00000E+00
         0.00000E+00
         0.00000E+00
         0.00000E+00
         0.00000E+00
         0.00000E+00
         0.00000E+00
         0.00000E+00
         0.00000E+00
         0.00000E+00
         0.00000E+00
         0.00000E+00
         0.00000E+00
         0.00000E+00
         0.00000E+00
         0.00000E+00
         0.00000E+00
         0.00000E+00
         0.00000E+00
         0.00000E+00
         0.00000E+00
         0.00000E+00
         0.00000E+00
         0.00000E+00
         0.00000E+00
         0.00000E+00
         0.00000E+00
         0.00000E+00
         0.00000E+00
         0.00000E+00
         0.00000E+00
         0.00000E+00
         0.00000E+00
         0.00000E+00
         0.00000E+00
         0.00000E+00
         0.00000E+00
         0.00000E+00
         0.00000E+00
         0.00000E+00
         0.00000E+00
         0.00000E+00
         0.00000E+00
         0.00000E+00
         0.00000E+00
         0.00000E+00
         0.00000E+00
         0.00000E+00
         0.00000E+00
         0.00000E+00
         0.00000E+00
         0.00000E+00
         0.00000E+00
         0.00000E+00
         0.00000E+00
         0.00000E+00
         0.00000E+00
         0.00000E+00
         0.00000E+00
         0.00000E+00
         0.00000E+00
         0.00000E+00
         0.00000E+00
         0.00000E+00
         0.00000E+00
         0.00000E+00
         0.00000E+00
         0.00000E+00
         0.00000E+00
         0.00000E+00
         0.00000E+00
         0.00000E+00
         0.00000E+00
         0.00000E+00
         0.00000E+00
         0.00000E+00
         0.00000E+00
         0.00000E+00
         0.00000E+00
         0.00000E+00
         0.00000E+00
         0.00000E+00
         0.00000E+00
         0.00000E+00
         0.00000E+00
         0.00000E+00
         0.00000E+00
         0.00000E+00
         0.00000E+00
         0.00000E+00
         0.00000E+00
         0.00000E+00
         0.00000E+00
         0.00000E+00
         0.00000E+00
         0.00000E+00
         0.00000E+00
         0.00000E+00
         0.00000E+00
         0.00000E+00
         0.00000E+00
         0.00000E+00
         0.00000E+00
         0.00000E+00
         0.00000E+00
         0.00000E+00
         0.00000E+00
         0.00000E+00
         0.00000E+00
         0.00000E+00
         0.00000E+00
         0.00000E+00
         0.00000E+00
         0.00000E+00
         0.00000E+00
         0.00000E+00
         0.00000E+00
         0.00000E+00
         0.00000E+00
         0.00000E+00
         0.00000E+00
         0.00000E+00
         0.00000E+00
         0.00000E+00
         0.00000E+00
         0.00000E+00
         0.00000E+00
         0.00000E+00
         0.00000E+00
         0.00000E+00
         0.00000E+00
         0.00000E+00
         0.00000E+00
         0.00000E+00
         0.00000E+00
         0.00000E+00
         0.00000E+00
         0.00000E+00
         0.00000E+00
         0.00000E+00
         0.00000E+00
         0.00000E+00
         0.00000E+00
         0.00000E+00
         0.00000E+00
         0.00000E+00
         0.00000E+00
         0.00000E+00
         0.00000E+00
         0.00000E+00
         0.00000E+00
         0.00000E+00
         0.00000E+00
         0.00000E+00
         0.00000E+00
         0.00000E+00
         0.00000E+00
         0.00000E+00
         0.00000E+00
         0.00000E+00
         0.00000E+00
         0.00000E+00
         0.00000E+00
         0.00000E+00
         0.00000E+00
         0.00000E+00
         0.00000E+00
         0.00000E+00
         0.00000E+00
         0.00000E+00
         0.00000E+00
         0.00000E+00
         0.00000E+00
         0.00000E+00
         0.00000E+00
         0.00000E+00
         0.00000E+00
         0.00000E+00
         0.00000E+00
         0.00000E+00
         0.00000E+00
         0.00000E+00
         0.00000E+00
         0.00000E+00
         0.00000E+00
         0.00000E+00
         0.00000E+00
         0.00000E+00
         0.00000E+00
         0.00000E+00
         0.00000E+00
         0.00000E+00
         0.00000E+00
         0.00000E+00
         0.00000E+00
         0.00000E+00
         0.00000E+00
         0.00000E+00
         0.00000E+00
         0.00000E+00
         0.00000E+00
         0.00000E+00
         0.00000E+00
         0.00000E+00
         0.00000E+00
         0.00000E+00
         0.00000E+00
         0.00000E+00
         0.00000E+00
         0.00000E+00
         0.00000E+00
         0.00000E+00
         0.00000E+00
         0.00000E+00
         0.00000E+00
         0.00000E+00
         0.00000E+00
         0.00000E+00
         0.00000E+00
         0.00000E+00
         0.00000E+00
         0.00000E+00
         0.00000E+00
         0.00000E+00
         0.00000E+00
         0.00000E+00
         0.00000E+00
         0.00000E+00
         0.00000E+00
         0.00000E+00
         0.00000E+00
         0.00000E+00
         0.00000E+00
         0.00000E+00
         0.00000E+00
         0.00000E+00
         0.00000E+00
         0.00000E+00
         0.00000E+00
         0.00000E+00
         0.00000E+00
         0.00000E+00
         0.00000E+00
         0.00000E+00
         0.00000E+00
         0.00000E+00
         0.00000E+00
         0.00000E+00
         0.00000E+00
         0.00000E+00
         0.00000E+00
         0.00000E+00
         0.00000E+00
         0.00000E+00
         0.00000E+00
         0.00000E+00
         0.00000E+00
         0.00000E+00
         0.00000E+00
         0.00000E+00
         0.00000E+00
         0.00000E+00
         0.00000E+00
         0.00000E+00
         0.00000E+00
         0.00000E+00
         0.00000E+00
         0.00000E+00
         0.00000E+00
         0.00000E+00
         0.00000E+00
         0.00000E+00
         0.00000E+00
         0.00000E+00
         0.00000E+00
         0.00000E+00
         0.00000E+00
         0.00000E+00
         0.00000E+00
         0.00000E+00
         0.00000E+00
         0.00000E+00
         0.00000E+00
         0.00000E+00
         0.00000E+00
         0.00000E+00
         0.00000E+00
         0.00000E+00
         0.00000E+00
         0.00000E+00
         0.00000E+00
         0.00000E+00
         0.00000E+00
         0.00000E+00
         0.00000E+00
         0.00000E+00
         0.00000E+00
         0.00000E+00
         0.00000E+00
         0.00000E+00
         0.00000E+00
         0.00000E+00
         0.00000E+00
         0.00000E+00
         0.00000E+00
         0.00000E+00
         0.00000E+00
         0.00000E+00
         0.00000E+00
         0.00000E+00
         0.00000E+00
         0.00000E+00
         0.00000E+00
         0.00000E+00
         0.00000E+00
         0.00000E+00
         0.00000E+00
         0.00000E+00
         0.00000E+00
         0.00000E+00
         0.00000E+00
         0.00000E+00
         0.00000E+00
         0.00000E+00
         0.00000E+00
         0.00000E+00
         0.00000E+00
         0.00000E+00
         0.00000E+00
         0.00000E+00
         0.00000E+00
         0.00000E+00
         0.00000E+00
         0.00000E+00
         0.00000E+00
         0.00000E+00
         0.00000E+00
         0.00000E+00
         0.00000E+00
         0.00000E+00
         0.00000E+00
         0.00000E+00
         0.00000E+00
         0.00000E+00
         0.00000E+00
         0.00000E+00
         0.00000E+00
         0.00000E+00
         0.00000E+00
         0.00000E+00
         0.00000E+00
         0.00000E+00
         0.00000E+00
         0.00000E+00
         0.00000E+00
         0.00000E+00
         0.00000E+00
         0.00000E+00
         0.00000E+00
         0.00000E+00
         0.00000E+00
         0.00000E+00
         0.00000E+00
         0.00000E+00
         0.00000E+00
         0.00000E+00
         0.00000E+00
         0.00000E+00
         0.00000E+00
         0.00000E+00
         0.00000E+00
         0.00000E+00
         0.00000E+00
         0.00000E+00
         0.00000E+00
         0.00000E+00
         0.00000E+00
         0.00000E+00
         0.00000E+00
         0.00000E+00
         0.00000E+00
         0.00000E+00
         0.00000E+00
         0.00000E+00
         0.00000E+00
         0.00000E+00
         0.00000E+00
         0.00000E+00
         0.00000E+00
         0.00000E+00
         0.00000E+00
         0.00000E+00
         0.00000E+00
         0.00000E+00
         0.00000E+00
         0.00000E+00
         0.00000E+00
         0.00000E+00
         0.00000E+00
         0.00000E+00
         0.00000E+00
         0.00000E+00
         0.00000E+00
         0.00000E+00
         0.00000E+00
         0.00000E+00
         0.00000E+00
         0.00000E+00
         0.00000E+00
         0.00000E+00
         0.00000E+00
         0.00000E+00
         0.00000E+00
         0.00000E+00
         0.00000E+00
         0.00000E+00
         0.00000E+00
         0.00000E+00
         0.00000E+00
         0.00000E+00
         0.00000E+00
         0.00000E+00
         0.00000E+00
         0.00000E+00
         0.00000E+00
         0.00000E+00
         0.00000E+00
         0.00000E+00
         0.00000E+00
         0.00000E+00
         0.00000E+00
         0.00000E+00
         0.00000E+00
         0.00000E+00
         0.00000E+00
         0.00000E+00
         0.00000E+00
         0.00000E+00
         0.00000E+00
         0.00000E+00
         0.00000E+00
         0.00000E+00
         0.00000E+00
         0.00000E+00
         0.00000E+00
         0.00000E+00
         0.00000E+00
         0.00000E+00
         0.00000E+00
         0.00000E+00
         0.00000E+00
         0.00000E+00
         0.00000E+00
         0.00000E+00
         0.00000E+00
         0.00000E+00
         0.00000E+00
         0.00000E+00
         0.00000E+00
         0.00000E+00
         0.00000E+00
         0.00000E+00
         0.00000E+00
         0.00000E+00
         0.00000E+00
         0.00000E+00
         0.00000E+00
         0.00000E+00
         0.00000E+00
         0.00000E+00
         0.00000E+00
         0.00000E+00
         0.00000E+00
         0.00000E+00
         0.00000E+00
         0.00000E+00
         0.00000E+00
         0.00000E+00
         0.00000E+00
         0.00000E+00
         0.00000E+00
         0.00000E+00
         0.00000E+00
         0.00000E+00
         0.00000E+00
         0.00000E+00
         0.00000E+00
         0.00000E+00
         0.00000E+00
         0.00000E+00
         0.00000E+00
         0.00000E+00
         0.00000E+00
         0.00000E+00
         0.00000E+00
         0.00000E+00
         0.00000E+00
         0.00000E+00
         0.00000E+00
         0.00000E+00
         0.00000E+00
         0.00000E+00
         0.00000E+00
         0.00000E+00
         0.00000E+00
         0.00000E+00
         0.00000E+00
         0.00000E+00
         0.00000E+00
         0.00000E+00
         0.00000E+00
         0.00000E+00
         0.00000E+00
         0.00000E+00
         0.00000E+00
         0.00000E+00
         0.00000E+00
         0.00000E+00
         0.00000E+00
         0.00000E+00
         0.00000E+00
         0.00000E+00
         0.00000E+00
         0.00000E+00
         0.00000E+00
         0.00000E+00
         0.00000E+00
         0.00000E+00
         0.00000E+00
         0.00000E+00
         0.00000E+00
         0.00000E+00
         0.00000E+00
         0.00000E+00
         0.00000E+00
         0.00000E+00
         0.00000E+00
         0.00000E+00
         0.00000E+00
         0.00000E+00
         0.00000E+00
         0.00000E+00
         0.00000E+00
         0.00000E+00
         0.00000E+00
         0.00000E+00
         0.00000E+00
         0.00000E+00
         0.00000E+00
         0.00000E+00
         0.00000E+00
         0.00000E+00
         0.00000E+00
         0.00000E+00
         0.00000E+00
         0.00000E+00
         0.00000E+00
         0.00000E+00
         0.00000E+00
         0.00000E+00
         0.00000E+00
         0.00000E+00
         0.00000E+00
         0.00000E+00
         0.00000E+00
         0.00000E+00
         0.00000E+00
         0.00000E+00
         0.00000E+00
         0.00000E+00
         0.00000E+00
         0.00000E+00
         0.00000E+00
         0.00000E+00
         0.00000E+00
         0.00000E+00
         0.00000E+00
         0.00000E+00
         0.00000E+00
         0.00000E+00
         0.00000E+00
         0.00000E+00
         0.00000E+00
         0.00000E+00
         0.00000E+00
         0.00000E+00
         0.00000E+00
         0.00000E+00
         0.00000E+00
         0.00000E+00
         0.00000E+00
         0.00000E+00
         0.00000E+00
         0.00000E+00
         0.00000E+00
         0.00000E+00
         0.00000E+00
         0.00000E+00
         0.00000E+00
         0.00000E+00
         0.00000E+00
         0.00000E+00
         0.00000E+00
         0.00000E+00
         0.00000E+00
         0.00000E+00
         0.00000E+00
         0.00000E+00
         0.00000E+00
         0.00000E+00
         0.00000E+00
         0.00000E+00
         0.00000E+00
         0.00000E+00
         0.00000E+00
         0.00000E+00
         0.00000E+00
         0.00000E+00
         0.00000E+00
         0.00000E+00
         0.00000E+00
         0.00000E+00
         0.00000E+00
         0.00000E+00
         0.00000E+00
         0.00000E+00
         0.00000E+00
         0.00000E+00
         0.00000E+00
         0.00000E+00
         0.00000E+00
         0.00000E+00
         0.00000E+00
         0.00000E+00
         0.00000E+00
         0.00000E+00
         0.00000E+00
         0.00000E+00
         0.00000E+00
         0.00000E+00
         0.00000E+00
         0.00000E+00
         0.00000E+00
         0.00000E+00
         0.00000E+00
         0.00000E+00
         0.00000E+00
         0.00000E+00
         0.00000E+00
         0.00000E+00
         0.00000E+00
         0.00000E+00
         0.00000E+00
         0.00000E+00
         0.00000E+00
         0.00000E+00
         0.00000E+00
         0.00000E+00
         0.00000E+00
         0.00000E+00
         0.00000E+00
         0.00000E+00
         0.00000E+00
         0.00000E+00
         0.00000E+00
         0.00000E+00
         0.00000E+00
         0.00000E+00
         0.00000E+00
         0.00000E+00
         0.00000E+00
         0.00000E+00
         0.00000E+00
         0.00000E+00
         0.00000E+00
         0.00000E+00
         0.00000E+00
         0.00000E+00
         0.00000E+00
         0.00000E+00
         0.00000E+00
         0.00000E+00
         0.00000E+00
         0.00000E+00
         0.00000E+00
         0.00000E+00
         0.00000E+00
         0.00000E+00
         0.00000E+00
         0.00000E+00
         0.00000E+00
         0.00000E+00
         0.00000E+00
         0.00000E+00
         0.00000E+00
         0.00000E+00
         0.00000E+00
         0.00000E+00
         0.00000E+00
         0.00000E+00
         0.00000E+00
         0.00000E+00
         0.00000E+00
         0.00000E+00
         0.00000E+00
         0.00000E+00
         0.00000E+00
         0.00000E+00
         0.00000E+00
         0.00000E+00
         0.00000E+00
         0.00000E+00
         0.00000E+00
         0.00000E+00
         0.00000E+00
         0.00000E+00
         0.00000E+00
         0.00000E+00
         0.00000E+00
         0.00000E+00
         0.00000E+00
         0.00000E+00
         0.00000E+00
         0.00000E+00
         0.00000E+00
         0.00000E+00
         0.00000E+00
         0.00000E+00
         0.00000E+00
         0.00000E+00
         0.00000E+00
         0.00000E+00
         0.00000E+00
         0.00000E+00
         0.00000E+00
         0.00000E+00
         0.00000E+00
         0.00000E+00
         0.00000E+00
         0.00000E+00
         0.00000E+00
         0.00000E+00
         0.00000E+00
         0.00000E+00
         0.00000E+00
         0.00000E+00
         0.00000E+00
         0.00000E+00
         0.00000E+00
         0.00000E+00
         0.00000E+00
         0.00000E+00
         0.00000E+00
         0.00000E+00
         0.00000E+00
         0.00000E+00
         0.00000E+00
         0.00000E+00
         0.00000E+00
         0.00000E+00
         0.00000E+00
         0.00000E+00
         0.00000E+00
         0.00000E+00
         0.00000E+00
         0.00000E+00
         0.00000E+00
         0.00000E+00
         0.00000E+00
         0.00000E+00
         0.00000E+00
         0.00000E+00
         0.00000E+00
         0.00000E+00
         0.00000E+00
         0.00000E+00
         0.00000E+00
         0.00000E+00
         0.00000E+00
         0.00000E+00
         0.00000E+00
         0.00000E+00
         0.00000E+00
         0.00000E+00
         0.00000E+00
         0.00000E+00
         0.00000E+00
         0.00000E+00
         0.00000E+00
         0.00000E+00
         0.00000E+00
         0.00000E+00
         0.00000E+00
         0.00000E+00
         0.00000E+00
         0.00000E+00
         0.00000E+00
         0.00000E+00
         0.00000E+00
         0.00000E+00
         0.00000E+00
         0.00000E+00
         0.00000E+00
         0.00000E+00
         0.00000E+00
         0.00000E+00
         0.00000E+00
         0.00000E+00
         0.00000E+00
         0.00000E+00
         0.00000E+00
         0.00000E+00
         0.00000E+00
         0.00000E+00
         0.00000E+00
         0.00000E+00
         0.00000E+00
         0.00000E+00
         0.00000E+00
         0.00000E+00
         0.00000E+00
         0.00000E+00
         0.00000E+00
         0.00000E+00
         0.00000E+00
         0.00000E+00
         0.00000E+00
         0.00000E+00
         0.00000E+00
         0.00000E+00
         0.00000E+00
         0.00000E+00
         0.00000E+00
         0.00000E+00
         0.00000E+00
         0.00000E+00
         0.00000E+00
         0.00000E+00
         0.00000E+00
         0.00000E+00
         0.00000E+00
         0.00000E+00
         0.00000E+00
         0.00000E+00
         0.00000E+00
         0.00000E+00
         0.00000E+00
         0.00000E+00
         0.00000E+00
         0.00000E+00
         0.00000E+00
         0.00000E+00
         0.00000E+00
         0.00000E+00
         0.00000E+00
         0.00000E+00
         0.00000E+00
         0.00000E+00
         0.00000E+00
         0.00000E+00
         0.00000E+00
         0.00000E+00
         0.00000E+00
         0.00000E+00
         0.00000E+00
         0.00000E+00
         0.00000E+00
         0.00000E+00
         0.00000E+00
         0.00000E+00
         0.00000E+00
         0.00000E+00
         0.00000E+00
         0.00000E+00
         0.00000E+00
         0.00000E+00
         0.00000E+00
         0.00000E+00
         0.00000E+00
         0.00000E+00
         0.00000E+00
         0.00000E+00
         0.00000E+00
         0.00000E+00
         0.00000E+00
         0.00000E+00
         0.00000E+00
         0.00000E+00
         0.00000E+00
         0.00000E+00
         0.00000E+00
         0.00000E+00
         0.00000E+00
         0.00000E+00
         0.00000E+00
         0.00000E+00
         0.00000E+00
         0.00000E+00
         0.00000E+00
         0.00000E+00
         0.00000E+00
         0.00000E+00
         0.00000E+00
         0.00000E+00
         0.00000E+00
         0.00000E+00
         0.00000E+00
         0.00000E+00
         0.00000E+00
         0.00000E+00
         0.00000E+00
         0.00000E+00
         0.00000E+00
         0.00000E+00
         0.00000E+00
         0.00000E+00
         0.00000E+00
         0.00000E+00
         0.00000E+00
         0.00000E+00
         0.00000E+00
         0.00000E+00
         0.00000E+00
         0.00000E+00
         0.00000E+00
         0.00000E+00
         0.00000E+00
         0.00000E+00
         0.00000E+00
         0.00000E+00
         0.00000E+00
         0.00000E+00
         0.00000E+00
         0.00000E+00
         0.00000E+00
         0.00000E+00
         0.00000E+00
         0.00000E+00
         0.00000E+00
         0.00000E+00
         0.00000E+00
         0.00000E+00
         0.00000E+00
         0.00000E+00
         0.00000E+00
         0.00000E+00
         0.00000E+00
         0.00000E+00
         0.00000E+00
         0.00000E+00
         0.00000E+00
         0.00000E+00
         0.00000E+00
         0.00000E+00
         0.00000E+00
         0.00000E+00
         0.00000E+00
         0.00000E+00
         0.00000E+00
         0.00000E+00
         0.00000E+00
         0.00000E+00
         0.00000E+00
         0.00000E+00
         0.00000E+00
         0.00000E+00
         0.00000E+00
         0.00000E+00
         0.00000E+00
         0.00000E+00
         0.00000E+00
         0.00000E+00
         0.00000E+00
         0.00000E+00
         0.00000E+00
         0.00000E+00
         0.00000E+00
         0.00000E+00
         0.00000E+00
         0.00000E+00
         0.00000E+00
         0.00000E+00
         0.00000E+00
         0.00000E+00
         0.00000E+00
         0.00000E+00
         0.00000E+00
         0.00000E+00
         0.00000E+00
         0.00000E+00
         0.00000E+00
         0.00000E+00
         0.00000E+00
         0.00000E+00
         0.00000E+00
         0.00000E+00
         0.00000E+00
         0.00000E+00
         0.00000E+00
         0.00000E+00
         0.00000E+00
         0.00000E+00
         0.00000E+00
         0.00000E+00
         0.00000E+00
         0.00000E+00
         0.00000E+00
         0.00000E+00
         0.00000E+00
         0.00000E+00
         0.00000E+00
         0.00000E+00
         0.00000E+00
         0.00000E+00
         0.00000E+00
         0.00000E+00
         0.00000E+00
         0.00000E+00
         0.00000E+00
         0.00000E+00
         0.00000E+00
         0.00000E+00
         0.00000E+00
         0.00000E+00
         0.00000E+00
         0.00000E+00
         0.00000E+00
         0.00000E+00
         0.00000E+00
         0.00000E+00
         0.00000E+00
         0.00000E+00
         0.00000E+00
         0.00000E+00
         0.00000E+00
         0.00000E+00
         0.00000E+00
         0.00000E+00
         0.00000E+00
         0.00000E+00
         0.00000E+00
         0.00000E+00
         0.00000E+00
         0.00000E+00
         0.00000E+00
         0.00000E+00
         0.00000E+00
         0.00000E+00
         0.00000E+00
         0.00000E+00
         0.00000E+00
         0.00000E+00
         0.00000E+00
         0.00000E+00
         0.00000E+00
         0.00000E+00
         0.00000E+00
  
SCALARS                      stress_xx  double 1
LOOKUP_TABLE default
         0.53279E+11
         0.51825E+11
         0.52747E+11
         0.54402E+11
        -0.67490E+02
        -0.75679E+02
        -0.72465E+02
        -0.65832E+02
         0.51774E+11
         0.52266E+11
        -0.68055E+02
        -0.65860E+02
         0.49722E+11
         0.49644E+11
        -0.80863E+02
        -0.76032E+02
         0.54159E+11
         0.49758E+11
        -0.59749E+02
        -0.66271E+02
         0.48145E+11
         0.46894E+11
         0.48885E+11
        -0.80144E+02
        -0.69991E+02
        -0.72274E+02
         0.46942E+11
         0.45119E+11
        -0.76887E+02
        -0.64841E+02
         0.54079E+11
         0.52163E+11
         0.55940E+11
        -0.65612E+02
        -0.60996E+02
        -0.59304E+02
         0.52970E+11
         0.50531E+11
        -0.69415E+02
        -0.63341E+02
         0.52004E+11
         0.50123E+11
        -0.59994E+02
        -0.53112E+02
         0.53598E+11
         0.54306E+11
        -0.65745E+02
        -0.73461E+02
         0.48616E+11
        -0.64227E+02
         0.54168E+11
        -0.75470E+02
         0.46416E+11
        -0.67826E+02
         0.45843E+11
        -0.65060E+02
         0.45852E+11
         0.47891E+11
        -0.66288E+02
        -0.64557E+02
         0.54040E+11
         0.53303E+11
        -0.66470E+02
        -0.75143E+02
         0.54501E+11
        -0.64139E+02
         0.53625E+11
        -0.69999E+02
         0.51321E+11
         0.51091E+11
        -0.67382E+02
        -0.70604E+02
         0.50571E+11
        -0.71196E+02
         0.44471E+11
        -0.56250E+02
         0.44152E+11
        -0.54599E+02
         0.44311E+11
        -0.57570E+02
         0.45192E+11
         0.46108E+11
        -0.54850E+02
        -0.57185E+02
         0.47957E+11
        -0.53260E+02
         0.53561E+11
        -0.69843E+02
         0.52685E+11
        -0.71483E+02
         0.51967E+11
         0.51573E+11
        -0.68647E+02
        -0.69448E+02
         0.52059E+11
        -0.63079E+02
         0.52404E+11
        -0.62179E+02
         0.52092E+11
        -0.66564E+02
         0.51981E+11
         0.52297E+11
        -0.65275E+02
        -0.67190E+02
         0.50250E+11
         0.51080E+11
        -0.50680E+02
        -0.47667E+02
         0.50092E+11
        -0.48393E+02
         0.51050E+11
        -0.46400E+02
         0.50105E+11
        -0.45754E+02
         0.48015E+11
        -0.43238E+02
         0.45992E+11
        -0.38412E+02
         0.44783E+11
        -0.34588E+02
         0.44659E+11
        -0.34348E+02
         0.44698E+11
        -0.37248E+02
         0.46009E+11
        -0.39147E+02
         0.48465E+11
        -0.35745E+02
         0.51168E+11
        -0.32221E+02
         0.52754E+11
        -0.32184E+02
         0.54323E+11
        -0.35973E+02
         0.55360E+11
        -0.41018E+02
         0.55322E+11
        -0.44066E+02
         0.52803E+11
        -0.47591E+02
         0.51051E+11
        -0.50987E+02
         0.50449E+11
        -0.46707E+02
         0.51388E+11
        -0.40975E+02
         0.51878E+11
        -0.40848E+02
         0.51056E+11
        -0.44693E+02
         0.51069E+11
        -0.47646E+02
         0.51689E+11
        -0.45216E+02
         0.52496E+11
        -0.43713E+02
        -0.23934E+11
        -0.24250E+11
        -0.24208E+11
        -0.23796E+11
        -0.24547E+11
        -0.24172E+11
        -0.24634E+11
        -0.24395E+11
        -0.23862E+11
        -0.24197E+11
        -0.24884E+11
        -0.24959E+11
        -0.24758E+11
        -0.24744E+11
        -0.24874E+11
        -0.23816E+11
        -0.23894E+11
        -0.23674E+11
        -0.24284E+11
        -0.24175E+11
        -0.24330E+11
        -0.24228E+11
        -0.24416E+11
        -0.24367E+11
        -0.24184E+11
        -0.24197E+11
        -0.24508E+11
        -0.24480E+11
        -0.24706E+11
        -0.24363E+11
        -0.23854E+11
        -0.24255E+11
        -0.23857E+11
        -0.24121E+11
        -0.25011E+11
        -0.24734E+11
        -0.24599E+11
        -0.24757E+11
        -0.24777E+11
        -0.25030E+11
        -0.25209E+11
        -0.24766E+11
        -0.24324E+11
        -0.24385E+11
        -0.24613E+11
        -0.25000E+11
        -0.24671E+11
        -0.24304E+11
        -0.24330E+11
        -0.24614E+11
        -0.24896E+11
        -0.24514E+11
        -0.25631E+11
        -0.25316E+11
        -0.25369E+11
        -0.25294E+11
        -0.25313E+11
        -0.25485E+11
        -0.25658E+11
        -0.25713E+11
        -0.25689E+11
        -0.25706E+11
        -0.25778E+11
        -0.25330E+11
        -0.25156E+11
        -0.25088E+11
        -0.24972E+11
        -0.24882E+11
        -0.24886E+11
        -0.25038E+11
        -0.25527E+11
        -0.25413E+11
        -0.25246E+11
        -0.25247E+11
        -0.25277E+11
        -0.25437E+11
        -0.25200E+11
        -0.25111E+11
         0.40603E+06
         0.18572E+06
         0.23772E+06
         0.34540E+06
         0.95323E+04
         0.15091E+06
        -0.14817E+06
        -0.38081E+06
         0.51904E+06
        -0.40840E+06
        -0.43296E+06
        -0.26998E+05
        -0.17559E+06
        -0.13566E+07
        -0.49429E+06
        -0.20205E+06
         0.18913E+06
         0.34887E+06
        -0.28225E+04
         0.62026E+04
        -0.82251E+06
        -0.56380E+06
        -0.10139E+07
        -0.18336E+06
        -0.40505E+06
        -0.53966E+05
        -0.16640E+07
        -0.10078E+07
        -0.55726E+06
        -0.40593E+06
        -0.76496E+05
        -0.94523E+05
         0.30465E+06
         0.53847E+06
        -0.72257E+06
        -0.40055E+06
        -0.29089E+06
        -0.63855E+06
        -0.34718E+06
        -0.24720E+06
        -0.61471E+06
        -0.90295E+06
        -0.80196E+06
        -0.77979E+06
        -0.55763E+06
        -0.22146E+06
        -0.14617E+06
        -0.19229E+06
         0.21822E+06
         0.36296E+06
        -0.42506E+05
        -0.18551E+05
        -0.17835E+07
        -0.79253E+06
        -0.11174E+07
        -0.11047E+06
         0.78202E+06
         0.14327E+07
         0.12034E+07
         0.12849E+07
         0.99703E+06
         0.43143E+06
        -0.26115E+06
        -0.75737E+06
        -0.10519E+07
        -0.65939E+06
        -0.13420E+07
        -0.17402E+07
        -0.14238E+07
        -0.12025E+07
        -0.56116E+06
         0.25100E+06
         0.21993E+06
        -0.15507E+05
        -0.49696E+06
        -0.96006E+06
        -0.92876E+06
        -0.55493E+06
         0.37945E+06
         0.16103E+06
         0.21329E+06
         0.32334E+06
        -0.21912E+05
         0.12516E+06
        -0.17551E+06
        -0.41061E+06
         0.49366E+06
        -0.44077E+06
        -0.46301E+06
        -0.71986E+05
        -0.21353E+06
        -0.13847E+07
        -0.53884E+06
        -0.22857E+06
         0.16034E+06
         0.32728E+06
        -0.31679E+05
        -0.23840E+05
        -0.85994E+06
        -0.60009E+06
        -0.10522E+07
        -0.21281E+06
        -0.43798E+06
        -0.82077E+05
        -0.16933E+07
        -0.10379E+07
        -0.59039E+06
        -0.43985E+06
        -0.10205E+06
        -0.12108E+06
         0.28278E+06
         0.51609E+06
        -0.76065E+06
        -0.42919E+06
        -0.32216E+06
        -0.68313E+06
        -0.38730E+06
        -0.28632E+06
        -0.65862E+06
        -0.94551E+06
        -0.84211E+06
        -0.81554E+06
        -0.59064E+06
        -0.25995E+06
        -0.17863E+06
        -0.22170E+06
         0.19266E+06
         0.33632E+06
        -0.77018E+05
        -0.47182E+05
        -0.18596E+07
        -0.86677E+06
        -0.11905E+07
        -0.18059E+06
         0.70781E+06
         0.13499E+07
         0.11207E+07
         0.12014E+07
         0.91287E+06
         0.34523E+06
        -0.34695E+06
        -0.83664E+06
        -0.11178E+07
        -0.72080E+06
        -0.14066E+07
        -0.18093E+07
        -0.14944E+07
        -0.12765E+07
        -0.63528E+06
         0.17249E+06
         0.14610E+06
        -0.82124E+05
        -0.56367E+06
        -0.10285E+07
        -0.99799E+06
        -0.62546E+06
         0.38559E+06
         0.16585E+06
         0.21843E+06
         0.32909E+06
        -0.13112E+05
         0.13294E+06
        -0.17036E+06
        -0.40322E+06
         0.49780E+06
        -0.43931E+06
        -0.45666E+06
        -0.63496E+05
        -0.20655E+06
        -0.13751E+07
        -0.52760E+06
        -0.23452E+06
         0.15837E+06
         0.33337E+06
        -0.38777E+05
        -0.29398E+05
        -0.86594E+06
        -0.60235E+06
        -0.10772E+07
        -0.23406E+06
        -0.45223E+06
        -0.10179E+06
        -0.16878E+07
        -0.10416E+07
        -0.60410E+06
        -0.46358E+06
        -0.10265E+06
        -0.12709E+06
         0.28957E+06
         0.52339E+06
        -0.75110E+06
        -0.42164E+06
        -0.31504E+06
        -0.67584E+06
        -0.38129E+06
        -0.28463E+06
        -0.65989E+06
        -0.96120E+06
        -0.86374E+06
        -0.83943E+06
        -0.59612E+06
        -0.25456E+06
        -0.17266E+06
        -0.21533E+06
         0.19979E+06
         0.34438E+06
        -0.66967E+05
        -0.38506E+05
        -0.18368E+07
        -0.84632E+06
        -0.11678E+07
        -0.16321E+06
         0.72080E+06
         0.13627E+07
         0.11371E+07
         0.12177E+07
         0.92957E+06
         0.36254E+06
        -0.33680E+06
        -0.83699E+06
        -0.11167E+07
        -0.70945E+06
        -0.13992E+07
        -0.18233E+07
        -0.15095E+07
        -0.12725E+07
        -0.61483E+06
         0.19610E+06
         0.16724E+06
        -0.60825E+05
        -0.53960E+06
        -0.10083E+07
        -0.98165E+06
        -0.60975E+06
         0.38173E+06
         0.16374E+06
         0.21634E+06
         0.32550E+06
        -0.15669E+05
         0.13137E+06
        -0.17306E+06
        -0.40665E+06
         0.49043E+06
        -0.45313E+06
        -0.45958E+06
        -0.68236E+05
        -0.20977E+06
        -0.13765E+07
        -0.53292E+06
        -0.25586E+06
         0.14118E+06
         0.32967E+06
        -0.63995E+05
        -0.54652E+05
        -0.89430E+06
        -0.62741E+06
        -0.11356E+07
        -0.28158E+06
        -0.49132E+06
        -0.14664E+06
        -0.16959E+07
        -0.10660E+07
        -0.64470E+06
        -0.52031E+06
        -0.11544E+06
        -0.15105E+06
         0.28681E+06
         0.51972E+06
        -0.75627E+06
        -0.42428E+06
        -0.31740E+06
        -0.68437E+06
        -0.39145E+06
        -0.30265E+06
        -0.68482E+06
        -0.10094E+07
        -0.92248E+06
        -0.89590E+06
        -0.62335E+06
        -0.27001E+06
        -0.18306E+06
        -0.22096E+06
         0.19553E+06
         0.33927E+06
        -0.71992E+05
        -0.41226E+05
        -0.18474E+07
        -0.85356E+06
        -0.11792E+07
        -0.17333E+06
         0.71406E+06
         0.13549E+07
         0.11239E+07
         0.12034E+07
         0.91590E+06
         0.34589E+06
        -0.36323E+06
        -0.87961E+06
        -0.11566E+07
        -0.72833E+06
        -0.14205E+07
        -0.18820E+07
        -0.15717E+07
        -0.13017E+07
        -0.62864E+06
         0.18286E+06
         0.15726E+06
        -0.72647E+05
        -0.55184E+06
        -0.10167E+07
        -0.98806E+06
        -0.61618E+06
         0.37479E+06
         0.15947E+06
         0.21275E+06
         0.32179E+06
        -0.18693E+05
         0.12891E+06
        -0.17706E+06
        -0.41269E+06
         0.48163E+06
        -0.46753E+06
        -0.46271E+06
        -0.71223E+05
        -0.21335E+06
        -0.13782E+07
        -0.53534E+06
        -0.27063E+06
         0.12744E+06
         0.32626E+06
        -0.80587E+05
        -0.72787E+05
        -0.91249E+06
        -0.64541E+06
        -0.11715E+07
        -0.31101E+06
        -0.51956E+06
        -0.17537E+06
        -0.17029E+07
        -0.10834E+07
        -0.67289E+06
        -0.55803E+06
        -0.12882E+06
        -0.16848E+06
         0.28072E+06
         0.51461E+06
        -0.76161E+06
        -0.42772E+06
        -0.32102E+06
        -0.69081E+06
        -0.39994E+06
        -0.31645E+06
        -0.70243E+06
        -0.10420E+07
        -0.96107E+06
        -0.93171E+06
        -0.64116E+06
        -0.28016E+06
        -0.19228E+06
        -0.22988E+06
         0.18803E+06
         0.33175E+06
        -0.79959E+05
        -0.45923E+05
        -0.18569E+07
        -0.85987E+06
        -0.11889E+07
        -0.18120E+06
         0.71095E+06
         0.13526E+07
         0.11183E+07
         0.11939E+07
         0.90432E+06
         0.33560E+06
        -0.37931E+06
        -0.90909E+06
        -0.11838E+07
        -0.74291E+06
        -0.14356E+07
        -0.19201E+07
        -0.16153E+07
        -0.13226E+07
        -0.63487E+06
         0.17083E+06
         0.14401E+06
        -0.86216E+05
        -0.56764E+06
        -0.10303E+07
        -0.99654E+06
        -0.62259E+06
         0.35809E+06
         0.15131E+06
         0.20920E+06
         0.32471E+06
        -0.13933E+05
         0.13455E+06
        -0.17996E+06
        -0.42366E+06
         0.46930E+06
        -0.48705E+06
        -0.45993E+06
        -0.61286E+05
        -0.20978E+06
        -0.13748E+07
        -0.52248E+06
        -0.26902E+06
         0.12382E+06
         0.33249E+06
        -0.77177E+05
        -0.69932E+05
        -0.90697E+06
        -0.63901E+06
        -0.11707E+07
        -0.31160E+06
        -0.53174E+06
        -0.17943E+06
        -0.17047E+07
        -0.10851E+07
        -0.67198E+06
        -0.55949E+06
        -0.14466E+06
        -0.17766E+06
         0.27004E+06
         0.51334E+06
        -0.75758E+06
        -0.42708E+06
        -0.32156E+06
        -0.68339E+06
        -0.39382E+06
        -0.30974E+06
        -0.69405E+06
        -0.10374E+07
        -0.95704E+06
        -0.93380E+06
        -0.64320E+06
        -0.28177E+06
        -0.20024E+06
        -0.24761E+06
         0.16950E+06
         0.32158E+06
        -0.82446E+05
        -0.43035E+05
        -0.18382E+07
        -0.84051E+06
        -0.11731E+07
        -0.17067E+06
         0.72209E+06
         0.13676E+07
         0.11353E+07
         0.12102E+07
         0.92312E+06
         0.36046E+06
        -0.35761E+06
        -0.89598E+06
        -0.11694E+07
        -0.72793E+06
        -0.14212E+07
        -0.19085E+07
        -0.16068E+07
        -0.13142E+07
        -0.62473E+06
         0.17778E+06
         0.14257E+06
        -0.95644E+05
        -0.57373E+06
        -0.10271E+07
        -0.98720E+06
        -0.60925E+06
         0.33271E+06
         0.13689E+06
         0.20077E+06
         0.32243E+06
        -0.16919E+05
         0.13493E+06
        -0.19125E+06
        -0.44556E+06
         0.44852E+06
        -0.51596E+06
        -0.46700E+06
        -0.65220E+05
        -0.21608E+06
        -0.13821E+07
        -0.52496E+06
        -0.27410E+06
         0.11246E+06
         0.33161E+06
        -0.80080E+05
        -0.73996E+05
        -0.90936E+06
        -0.64074E+06
        -0.11736E+07
        -0.31518E+06
        -0.54886E+06
        -0.18670E+06
        -0.17166E+07
        -0.10939E+07
        -0.67560E+06
        -0.56413E+06
        -0.16648E+06
        -0.19268E+06
         0.25337E+06
         0.50654E+06
        -0.76379E+06
        -0.43288E+06
        -0.32882E+06
        -0.69012E+06
        -0.40009E+06
        -0.31335E+06
        -0.69569E+06
        -0.10385E+07
        -0.95751E+06
        -0.93911E+06
        -0.65295E+06
        -0.29619E+06
        -0.21864E+06
        -0.27411E+06
         0.14302E+06
         0.30389E+06
        -0.93188E+05
        -0.46082E+05
        -0.18460E+07
        -0.84649E+06
        -0.11776E+07
        -0.17598E+06
         0.71447E+06
         0.13584E+07
         0.11276E+07
         0.12036E+07
         0.91665E+06
         0.35559E+06
        -0.36151E+06
        -0.90070E+06
        -0.11702E+07
        -0.72908E+06
        -0.14245E+07
        -0.19104E+07
        -0.16104E+07
        -0.13274E+07
        -0.64430E+06
         0.15611E+06
         0.11835E+06
        -0.12557E+06
        -0.59992E+06
        -0.10410E+07
        -0.99472E+06
        -0.61521E+06
         0.32524E+06
         0.13151E+06
         0.19728E+06
         0.31938E+06
        -0.20177E+05
         0.13257E+06
        -0.19721E+06
        -0.45276E+06
         0.44238E+06
        -0.52460E+06
        -0.47198E+06
        -0.70714E+05
        -0.22229E+06
        -0.13852E+07
        -0.52935E+06
        -0.27876E+06
         0.10756E+06
         0.32900E+06
        -0.82740E+05
        -0.77146E+05
        -0.91321E+06
        -0.64486E+06
        -0.11773E+07
        -0.31791E+06
        -0.55508E+06
        -0.19085E+06
        -0.17218E+07
        -0.10984E+07
        -0.68136E+06
        -0.56857E+06
        -0.17405E+06
        -0.19860E+06
         0.24852E+06
         0.50273E+06
        -0.76909E+06
        -0.43592E+06
        -0.33320E+06
        -0.69851E+06
        -0.40728E+06
        -0.32053E+06
        -0.70317E+06
        -0.10447E+07
        -0.96129E+06
        -0.94386E+06
        -0.65868E+06
        -0.30291E+06
        -0.22463E+06
        -0.28080E+06
         0.13654E+06
         0.29770E+06
        -0.99770E+05
        -0.50007E+05
        -0.18566E+07
        -0.85693E+06
        -0.11847E+07
        -0.18332E+06
         0.70563E+06
         0.13505E+07
         0.11196E+07
         0.11924E+07
         0.90209E+06
         0.34023E+06
        -0.37544E+06
        -0.90698E+06
        -0.11752E+07
        -0.73968E+06
        -0.14357E+07
        -0.19211E+07
        -0.16242E+07
        -0.13407E+07
        -0.65541E+06
         0.14704E+06
         0.11103E+06
        -0.13552E+06
        -0.61301E+06
        -0.10533E+07
        -0.10051E+07
        -0.62556E+06
         0.32984E+06
         0.13509E+06
         0.19990E+06
         0.32022E+06
        -0.15756E+05
         0.13419E+06
        -0.19390E+06
        -0.44653E+06
         0.44628E+06
        -0.51902E+06
        -0.46817E+06
        -0.65371E+05
        -0.21862E+06
        -0.13775E+07
        -0.52047E+06
        -0.27464E+06
         0.11120E+06
         0.33198E+06
        -0.77733E+05
        -0.72622E+05
        -0.90757E+06
        -0.63973E+06
        -0.11719E+07
        -0.31306E+06
        -0.55097E+06
        -0.18631E+06
        -0.17147E+07
        -0.10924E+07
        -0.67792E+06
        -0.56464E+06
        -0.17069E+06
        -0.19514E+06
         0.25207E+06
         0.50403E+06
        -0.76378E+06
        -0.43193E+06
        -0.32956E+06
        -0.69307E+06
        -0.40323E+06
        -0.31707E+06
        -0.69828E+06
        -0.10398E+07
        -0.95586E+06
        -0.93891E+06
        -0.65453E+06
        -0.29851E+06
        -0.22053E+06
        -0.27639E+06
         0.14099E+06
         0.30104E+06
        -0.96752E+05
        -0.48491E+05
        -0.18407E+07
        -0.84118E+06
        -0.11752E+07
        -0.17947E+06
         0.71353E+06
         0.13627E+07
         0.11332E+07
         0.12020E+07
         0.90589E+06
         0.34599E+06
        -0.36513E+06
        -0.89234E+06
        -0.11625E+07
        -0.73143E+06
        -0.14280E+07
        -0.19121E+07
        -0.16149E+07
        -0.13294E+07
        -0.64459E+06
         0.15965E+06
         0.12410E+06
        -0.12390E+06
        -0.60315E+06
        -0.10446E+07
        -0.99650E+06
        -0.61629E+06
         0.32855E+06
         0.13474E+06
         0.19917E+06
         0.31816E+06
        -0.16091E+05
         0.13323E+06
        -0.19503E+06
        -0.44804E+06
         0.44320E+06
        -0.52233E+06
        -0.47020E+06
        -0.68737E+05
        -0.21974E+06
        -0.13779E+07
        -0.52510E+06
        -0.27750E+06
         0.10785E+06
         0.32917E+06
        -0.79928E+05
        -0.75034E+05
        -0.90948E+06
        -0.64234E+06
        -0.11738E+07
        -0.31487E+06
        -0.55294E+06
        -0.18804E+06
        -0.17165E+07
        -0.10927E+07
        -0.67996E+06
        -0.56679E+06
        -0.17351E+06
        -0.19691E+06
         0.24977E+06
         0.50122E+06
        -0.76592E+06
        -0.43318E+06
        -0.33048E+06
        -0.70037E+06
        -0.40744E+06
        -0.32093E+06
        -0.70199E+06
        -0.10424E+07
        -0.95910E+06
        -0.94014E+06
        -0.65567E+06
        -0.30060E+06
        -0.22325E+06
        -0.27953E+06
         0.13850E+06
         0.29856E+06
        -0.99239E+05
        -0.50554E+05
        -0.18452E+07
        -0.84475E+06
        -0.11825E+07
        -0.18583E+06
         0.71272E+06
         0.13582E+07
         0.11227E+07
         0.11903E+07
         0.89916E+06
         0.33578E+06
        -0.37630E+06
        -0.89788E+06
        -0.11690E+07
        -0.73499E+06
        -0.14315E+07
        -0.19153E+07
        -0.16154E+07
        -0.13316E+07
        -0.64772E+06
         0.15110E+06
         0.11363E+06
        -0.13198E+06
        -0.60712E+06
        -0.10466E+07
        -0.10012E+07
        -0.62293E+06
         0.32507E+06
         0.13198E+06
         0.19716E+06
         0.31695E+06
        -0.18255E+05
         0.13285E+06
        -0.19774E+06
        -0.45056E+06
         0.44040E+06
        -0.52563E+06
        -0.47251E+06
        -0.73176E+05
        -0.22267E+06
        -0.13777E+07
        -0.52984E+06
        -0.28127E+06
         0.10508E+06
         0.32765E+06
        -0.82628E+05
        -0.76806E+05
        -0.91198E+06
        -0.64499E+06
        -0.11768E+07
        -0.31768E+06
        -0.55488E+06
        -0.19128E+06
        -0.17178E+07
        -0.10936E+07
        -0.68220E+06
        -0.56840E+06
        -0.17727E+06
        -0.19986E+06
         0.24879E+06
         0.50073E+06
        -0.77064E+06
        -0.43552E+06
        -0.33277E+06
        -0.70745E+06
        -0.41211E+06
        -0.32436E+06
        -0.70418E+06
        -0.10448E+07
        -0.96207E+06
        -0.94260E+06
        -0.65791E+06
        -0.30345E+06
        -0.22579E+06
        -0.28226E+06
         0.13613E+06
         0.29638E+06
        -0.10160E+06
        -0.51223E+05
        -0.18544E+07
        -0.85237E+06
        -0.11881E+07
        -0.18776E+06
         0.71028E+06
         0.13491E+07
         0.11095E+07
         0.11797E+07
         0.89219E+06
         0.32845E+06
        -0.38086E+06
        -0.90335E+06
        -0.11769E+07
        -0.74031E+06
        -0.14371E+07
        -0.19219E+07
        -0.16196E+07
        -0.13367E+07
        -0.65396E+06
         0.14406E+06
         0.10570E+06
        -0.14024E+06
        -0.61293E+06
        -0.10522E+07
        -0.10083E+07
        -0.63048E+06
         0.32721E+06
         0.13307E+06
         0.19811E+06
         0.31855E+06
        -0.15129E+05
         0.13583E+06
        -0.19578E+06
        -0.44605E+06
         0.44217E+06
        -0.52324E+06
        -0.46891E+06
        -0.69551E+05
        -0.22168E+06
        -0.13705E+07
        -0.52160E+06
        -0.27909E+06
         0.10621E+06
         0.33061E+06
        -0.79612E+05
        -0.73153E+05
        -0.90743E+06
        -0.64040E+06
        -0.11731E+07
        -0.31470E+06
        -0.55307E+06
        -0.18841E+06
        -0.17134E+07
        -0.10896E+07
        -0.67825E+06
        -0.56409E+06
        -0.17476E+06
        -0.19749E+06
         0.25292E+06
         0.50393E+06
        -0.76749E+06
        -0.43288E+06
        -0.33117E+06
        -0.70314E+06
        -0.40808E+06
        -0.31908E+06
        -0.69871E+06
        -0.10411E+07
        -0.95772E+06
        -0.93951E+06
        -0.65529E+06
        -0.30097E+06
        -0.22325E+06
        -0.27965E+06
         0.13910E+06
         0.29921E+06
        -0.98435E+05
        -0.47813E+05
        -0.18427E+07
        -0.83966E+06
        -0.11761E+07
        -0.18193E+06
         0.70845E+06
         0.13497E+07
         0.11189E+07
         0.11900E+07
         0.89929E+06
         0.33914E+06
        -0.37073E+06
        -0.89852E+06
        -0.11684E+07
        -0.73166E+06
        -0.14293E+07
        -0.19159E+07
        -0.16154E+07
        -0.13315E+07
        -0.64901E+06
         0.15165E+06
         0.11474E+06
        -0.13160E+06
        -0.60530E+06
        -0.10458E+07
        -0.99892E+06
        -0.61959E+06
         0.32555E+06
         0.13085E+06
         0.19616E+06
         0.31625E+06
        -0.17335E+05
         0.13418E+06
        -0.19908E+06
        -0.44828E+06
         0.43992E+06
        -0.52731E+06
        -0.47232E+06
        -0.75050E+05
        -0.22740E+06
        -0.13717E+07
        -0.52490E+06
        -0.28224E+06
         0.10280E+06
         0.32760E+06
        -0.82921E+05
        -0.76024E+05
        -0.91212E+06
        -0.64523E+06
        -0.11782E+07
        -0.31795E+06
        -0.55683E+06
        -0.19125E+06
        -0.17178E+07
        -0.10940E+07
        -0.68277E+06
        -0.56685E+06
        -0.17832E+06
        -0.20027E+06
         0.24997E+06
         0.50139E+06
        -0.77200E+06
        -0.43566E+06
        -0.33504E+06
        -0.71081E+06
        -0.41533E+06
        -0.32535E+06
        -0.70572E+06
        -0.10478E+07
        -0.96271E+06
        -0.94473E+06
        -0.65961E+06
        -0.30514E+06
        -0.22691E+06
        -0.28386E+06
         0.13601E+06
         0.29677E+06
        -0.10162E+06
        -0.50219E+05
        -0.18518E+07
        -0.84747E+06
        -0.11850E+07
        -0.19232E+06
         0.69639E+06
         0.13381E+07
         0.11118E+07
         0.11808E+07
         0.88743E+06
         0.32733E+06
        -0.38515E+06
        -0.91273E+06
        -0.11778E+07
        -0.74138E+06
        -0.14378E+07
        -0.19256E+07
        -0.16302E+07
        -0.13449E+07
        -0.65564E+06
         0.14234E+06
         0.10527E+06
        -0.13646E+06
        -0.60848E+06
        -0.10528E+07
        -0.10085E+07
        -0.62918E+06
         0.32519E+06
         0.13009E+06
         0.19555E+06
         0.31548E+06
        -0.17225E+05
         0.13420E+06
        -0.20003E+06
        -0.44792E+06
         0.44001E+06
        -0.52737E+06
        -0.47272E+06
        -0.75880E+05
        -0.22849E+06
        -0.13691E+07
        -0.52439E+06
        -0.28328E+06
         0.10239E+06
         0.32714E+06
        -0.83235E+05
        -0.76099E+05
        -0.91296E+06
        -0.64593E+06
        -0.11793E+07
        -0.31856E+06
        -0.55738E+06
        -0.19208E+06
        -0.17171E+07
        -0.10943E+07
        -0.68449E+06
        -0.56756E+06
        -0.18051E+06
        -0.20134E+06
         0.24922E+06
         0.50088E+06
        -0.77331E+06
        -0.43638E+06
        -0.33610E+06
        -0.71467E+06
        -0.41965E+06
        -0.32815E+06
        -0.70661E+06
        -0.10488E+07
        -0.96347E+06
        -0.94547E+06
        -0.66018E+06
        -0.30608E+06
        -0.22801E+06
        -0.28559E+06
         0.13487E+06
         0.29619E+06
        -0.10209E+06
        -0.50454E+05
        -0.18520E+07
        -0.84722E+06
        -0.11873E+07
        -0.19632E+06
         0.69622E+06
         0.13379E+07
         0.11089E+07
         0.11731E+07
         0.87890E+06
         0.32262E+06
        -0.38560E+06
        -0.91410E+06
        -0.11801E+07
        -0.74514E+06
        -0.14423E+07
        -0.19287E+07
        -0.16322E+07
        -0.13466E+07
        -0.65746E+06
         0.13898E+06
         0.10113E+06
        -0.13911E+06
        -0.60860E+06
        -0.10536E+07
        -0.10128E+07
        -0.63312E+06
         0.33209E+06
         0.13693E+06
         0.20128E+06
         0.31979E+06
        -0.88924E+04
         0.14017E+06
        -0.19246E+06
        -0.43907E+06
         0.44468E+06
        -0.52094E+06
        -0.46434E+06
        -0.64215E+05
        -0.21876E+06
        -0.13584E+07
        -0.51221E+06
        -0.27792E+06
         0.10756E+06
         0.33249E+06
        -0.76640E+05
        -0.68762E+05
        -0.90313E+06
        -0.63689E+06
        -0.11703E+07
        -0.31211E+06
        -0.55048E+06
        -0.18568E+06
        -0.17082E+07
        -0.10844E+07
        -0.67608E+06
        -0.55947E+06
        -0.17478E+06
        -0.19475E+06
         0.25519E+06
         0.50514E+06
        -0.76429E+06
        -0.42919E+06
        -0.32827E+06
        -0.70766E+06
        -0.41128E+06
        -0.31925E+06
        -0.69737E+06
        -0.10399E+07
        -0.95529E+06
        -0.93623E+06
        -0.65108E+06
        -0.29648E+06
        -0.22013E+06
        -0.27874E+06
         0.14075E+06
         0.30134E+06
        -0.95673E+05
        -0.44859E+05
        -0.18308E+07
        -0.82604E+06
        -0.11694E+07
        -0.18344E+06
         0.71204E+06
         0.13579E+07
         0.11256E+07
         0.11857E+07
         0.89322E+06
         0.33826E+06
        -0.37152E+06
        -0.89759E+06
        -0.11671E+07
        -0.73069E+06
        -0.14258E+07
        -0.19116E+07
        -0.16126E+07
        -0.13257E+07
        -0.63941E+06
         0.15775E+06
         0.11718E+06
        -0.12721E+06
        -0.59532E+06
        -0.10380E+07
        -0.99587E+06
        -0.61608E+06
         0.32909E+06
         0.13493E+06
         0.19946E+06
         0.31696E+06
        -0.11774E+05
         0.13843E+06
        -0.19546E+06
        -0.44213E+06
         0.44148E+06
        -0.52604E+06
        -0.46770E+06
        -0.68460E+05
        -0.22139E+06
        -0.13598E+07
        -0.51707E+06
        -0.28182E+06
         0.10339E+06
         0.33006E+06
        -0.81011E+05
        -0.72336E+05
        -0.90619E+06
        -0.64129E+06
        -0.11734E+07
        -0.31603E+06
        -0.55487E+06
        -0.18970E+06
        -0.17121E+07
        -0.10872E+07
        -0.67759E+06
        -0.56145E+06
        -0.17755E+06
        -0.19791E+06
         0.25338E+06
         0.50205E+06
        -0.77001E+06
        -0.43168E+06
        -0.33008E+06
        -0.71630E+06
        -0.41727E+06
        -0.32226E+06
        -0.70183E+06
        -0.10453E+07
        -0.96102E+06
        -0.94007E+06
        -0.65480E+06
        -0.30040E+06
        -0.22316E+06
        -0.28116E+06
         0.13817E+06
         0.29772E+06
        -0.99531E+05
        -0.47340E+05
        -0.18442E+07
        -0.83733E+06
        -0.11797E+07
        -0.18892E+06
         0.71024E+06
         0.13527E+07
         0.11142E+07
         0.11719E+07
         0.88007E+06
         0.32650E+06
        -0.38541E+06
        -0.91348E+06
        -0.11783E+07
        -0.73622E+06
        -0.14285E+07
        -0.19133E+07
        -0.16180E+07
        -0.13351E+07
        -0.64636E+06
         0.14938E+06
         0.10961E+06
        -0.13576E+06
        -0.60438E+06
        -0.10437E+07
        -0.10013E+07
        -0.62517E+06
         0.32412E+06
         0.12987E+06
         0.19455E+06
         0.31320E+06
        -0.16654E+05
         0.13456E+06
        -0.20015E+06
        -0.44589E+06
         0.43691E+06
        -0.53516E+06
        -0.47181E+06
        -0.75281E+05
        -0.22700E+06
        -0.13614E+07
        -0.52330E+06
        -0.28649E+06
         0.97328E+05
         0.32723E+06
        -0.84594E+05
        -0.73947E+05
        -0.91004E+06
        -0.64645E+06
        -0.11772E+07
        -0.31940E+06
        -0.56253E+06
        -0.19364E+06
        -0.17212E+07
        -0.10921E+07
        -0.66758E+06
        -0.55573E+06
        -0.18203E+06
        -0.20238E+06
         0.25159E+06
         0.49992E+06
        -0.77641E+06
        -0.43595E+06
        -0.33463E+06
        -0.72892E+06
        -0.42318E+06
        -0.31408E+06
        -0.70233E+06
        -0.10510E+07
        -0.96865E+06
        -0.94425E+06
        -0.65960E+06
        -0.30673E+06
        -0.22854E+06
        -0.28538E+06
         0.13517E+06
         0.29480E+06
        -0.10292E+06
        -0.50492E+05
        -0.18531E+07
        -0.84553E+06
        -0.11866E+07
        -0.19510E+06
         0.70168E+06
         0.13386E+07
         0.10981E+07
         0.11566E+07
         0.86683E+06
         0.32345E+06
        -0.40967E+06
        -0.95161E+06
        -0.11941E+07
        -0.74493E+06
        -0.14364E+07
        -0.19203E+07
        -0.16266E+07
        -0.13450E+07
        -0.65783E+06
         0.13629E+06
         0.10091E+06
        -0.14393E+06
        -0.61361E+06
        -0.10506E+07
        -0.10120E+07
        -0.63724E+06
         0.33070E+06
         0.13615E+06
         0.20077E+06
         0.31846E+06
        -0.78326E+04
         0.14095E+06
        -0.19356E+06
        -0.43716E+06
         0.44011E+06
        -0.53659E+06
        -0.46428E+06
        -0.66588E+05
        -0.21983E+06
        -0.13511E+07
        -0.51238E+06
        -0.28106E+06
         0.10070E+06
         0.33225E+06
        -0.76985E+05
        -0.62026E+05
        -0.90181E+06
        -0.63854E+06
        -0.11700E+07
        -0.31243E+06
        -0.56096E+06
        -0.18668E+06
        -0.17227E+07
        -0.10858E+07
        -0.63497E+06
        -0.53045E+06
        -0.17724E+06
        -0.19568E+06
         0.25743E+06
         0.50557E+06
        -0.76671E+06
        -0.42796E+06
        -0.32723E+06
        -0.72858E+06
        -0.41351E+06
        -0.28198E+06
        -0.68441E+06
        -0.10419E+07
        -0.96390E+06
        -0.93631E+06
        -0.65069E+06
        -0.29606E+06
        -0.22032E+06
        -0.27912E+06
         0.14162E+06
         0.30183E+06
        -0.94431E+05
        -0.43948E+05
        -0.18313E+07
        -0.82401E+06
        -0.11646E+07
        -0.17975E+06
         0.71158E+06
         0.13499E+07
         0.11138E+07
         0.11723E+07
         0.88431E+06
         0.35746E+06
        -0.41752E+06
        -0.98228E+06
        -0.11929E+07
        -0.73294E+06
        -0.14264E+07
        -0.19119E+07
        -0.16160E+07
        -0.13274E+07
        -0.63628E+06
         0.15637E+06
         0.11831E+06
        -0.12607E+06
        -0.59332E+06
        -0.10319E+07
        -0.99694E+06
        -0.62147E+06
         0.30580E+06
         0.11291E+06
         0.17821E+06
         0.29680E+06
        -0.37252E+05
         0.11646E+06
        -0.21949E+06
        -0.46555E+06
         0.41564E+06
        -0.57215E+06
        -0.49273E+06
        -0.10842E+06
        -0.25774E+06
        -0.13786E+07
        -0.55488E+06
        -0.30409E+06
         0.74055E+05
         0.31074E+06
        -0.10252E+06
        -0.85992E+05
        -0.93700E+06
        -0.67289E+06
        -0.12038E+07
        -0.33705E+06
        -0.59183E+06
        -0.21003E+06
        -0.17579E+07
        -0.11148E+07
        -0.64890E+06
        -0.54783E+06
        -0.20022E+06
        -0.21985E+06
         0.23540E+06
         0.48158E+06
        -0.80386E+06
        -0.45621E+06
        -0.35926E+06
        -0.77715E+06
        -0.45061E+06
        -0.30370E+06
        -0.71981E+06
        -0.10799E+07
        -0.10017E+07
        -0.96822E+06
        -0.68317E+06
        -0.33577E+06
        -0.25170E+06
        -0.30636E+06
         0.11619E+06
         0.27352E+06
        -0.13155E+06
        -0.73106E+05
        -0.19072E+07
        -0.89770E+06
        -0.12413E+07
        -0.25794E+06
         0.63360E+06
         0.12746E+07
         0.10373E+07
         0.10904E+07
         0.80764E+06
         0.28749E+06
        -0.51498E+06
        -0.10883E+07
        -0.12677E+07
        -0.79483E+06
        -0.14915E+07
        -0.19797E+07
        -0.16860E+07
        -0.14060E+07
        -0.71684E+06
         0.79017E+05
         0.46839E+05
        -0.19444E+06
        -0.66330E+06
        -0.11039E+07
        -0.10662E+07
        -0.69027E+06
         0.31992E+06
         0.11448E+06
         0.18239E+06
         0.30491E+06
        -0.26824E+05
         0.12532E+06
        -0.21630E+06
        -0.44737E+06
         0.43152E+06
        -0.54638E+06
        -0.48478E+06
        -0.10772E+06
        -0.26756E+06
        -0.13572E+07
        -0.53531E+06
        -0.28712E+06
         0.90511E+05
         0.32273E+06
        -0.88727E+05
        -0.71477E+05
        -0.92078E+06
        -0.66103E+06
        -0.11795E+07
        -0.31862E+06
        -0.56518E+06
        -0.19288E+06
        -0.17279E+07
        -0.10809E+07
        -0.62179E+06
        -0.52228E+06
        -0.18714E+06
        -0.20913E+06
         0.24254E+06
         0.47809E+06
        -0.79861E+06
        -0.45815E+06
        -0.36825E+06
        -0.75511E+06
        -0.42486E+06
        -0.28157E+06
        -0.70394E+06
        -0.10589E+07
        -0.97919E+06
        -0.94624E+06
        -0.67101E+06
        -0.32960E+06
        -0.24685E+06
        -0.29493E+06
         0.12485E+06
         0.27393E+06
        -0.12899E+06
        -0.72072E+05
        -0.18779E+07
        -0.85960E+06
        -0.12315E+07
        -0.27481E+06
         0.59862E+06
         0.12532E+07
         0.10722E+07
         0.11262E+07
         0.83625E+06
         0.30450E+06
        -0.51020E+06
        -0.10738E+07
        -0.12394E+07
        -0.78084E+06
        -0.14621E+07
        -0.19375E+07
        -0.16498E+07
        -0.13782E+07
        -0.70479E+06
         0.77617E+05
         0.62819E+05
        -0.17168E+06
        -0.62703E+06
        -0.10600E+07
        -0.10316E+07
        -0.65457E+06
         0.98328E+08
         0.90406E+08
         0.89780E+08
         0.82067E+08
         0.11826E+09
         0.99651E+08
         0.97516E+08
         0.11152E+09
         0.85512E+08
         0.11112E+09
         0.10835E+09
         0.15995E+09
         0.13804E+09
         0.11520E+09
         0.16548E+09
         0.85720E+08
         0.89579E+08
         0.78520E+08
         0.93199E+08
         0.97514E+08
         0.12676E+09
         0.12667E+09
         0.11951E+09
         0.88944E+08
         0.99015E+08
         0.85319E+08
         0.11334E+09
         0.10681E+09
         0.10736E+09
         0.10370E+09
         0.83870E+08
         0.88235E+08
         0.82549E+08
         0.86396E+08
         0.13839E+09
         0.11016E+09
         0.11790E+09
         0.15308E+09
         0.14210E+09
         0.13780E+09
         0.14938E+09
         0.13868E+09
         0.13142E+09
         0.11287E+09
         0.11527E+09
         0.14145E+09
         0.11764E+09
         0.10460E+09
         0.95582E+08
         0.10508E+09
         0.13114E+09
         0.10908E+09
         0.27601E+09
         0.27061E+09
         0.27611E+09
         0.26754E+09
         0.27669E+09
         0.29092E+09
         0.29191E+09
         0.28792E+09
         0.28994E+09
         0.29827E+09
         0.28858E+09
         0.27164E+09
         0.23962E+09
         0.22584E+09
         0.22980E+09
         0.23567E+09
         0.23920E+09
         0.26140E+09
         0.28013E+09
         0.28175E+09
         0.25772E+09
         0.24821E+09
         0.25732E+09
         0.25398E+09
         0.25213E+09
         0.25260E+09
         0.12451E+10
         0.13023E+10
         0.12828E+10
         0.11664E+10
         0.14476E+10
         0.13560E+10
         0.14103E+10
         0.14253E+10
         0.12137E+10
         0.14244E+10
         0.15522E+10
         0.17507E+10
         0.15832E+10
         0.15991E+10
         0.18130E+10
         0.11894E+10
         0.12786E+10
         0.11103E+10
         0.13222E+10
         0.13920E+10
         0.14489E+10
         0.14803E+10
         0.13891E+10
         0.12697E+10
         0.14392E+10
         0.12232E+10
         0.15932E+10
         0.15640E+10
         0.15715E+10
         0.14912E+10
         0.12017E+10
         0.12638E+10
         0.11760E+10
         0.12314E+10
         0.15890E+10
         0.14529E+10
         0.14594E+10
         0.17532E+10
         0.17057E+10
         0.16843E+10
         0.17174E+10
         0.16292E+10
         0.15400E+10
         0.13541E+10
         0.14099E+10
         0.15892E+10
         0.14650E+10
         0.13751E+10
         0.13463E+10
         0.13977E+10
         0.15229E+10
         0.14023E+10
         0.25406E+10
         0.24766E+10
         0.25288E+10
         0.24507E+10
         0.25240E+10
         0.26531E+10
         0.26947E+10
         0.26870E+10
         0.27052E+10
         0.27672E+10
         0.26877E+10
         0.25285E+10
         0.22662E+10
         0.21421E+10
         0.21495E+10
         0.21779E+10
         0.21996E+10
         0.23848E+10
         0.25527E+10
         0.25635E+10
         0.23731E+10
         0.22996E+10
         0.23758E+10
         0.23583E+10
         0.23321E+10
         0.23254E+10
  
SCALARS                      stress_yy  double 1
LOOKUP_TABLE default
         0.53279E+11
         0.51825E+11
         0.52747E+11
         0.54402E+11
        -0.67490E+02
        -0.75679E+02
        -0.72465E+02
        -0.65832E+02
         0.51774E+11
         0.52266E+11
        -0.68055E+02
        -0.65860E+02
         0.49722E+11
         0.49644E+11
        -0.80863E+02
        -0.76032E+02
         0.54159E+11
         0.49758E+11
        -0.59749E+02
        -0.66271E+02
         0.48145E+11
         0.46894E+11
         0.48885E+11
        -0.80144E+02
        -0.69991E+02
        -0.72274E+02
         0.46942E+11
         0.45119E+11
        -0.76887E+02
        -0.64841E+02
         0.54079E+11
         0.52163E+11
         0.55940E+11
        -0.65612E+02
        -0.60996E+02
        -0.59304E+02
         0.52970E+11
         0.50531E+11
        -0.69415E+02
        -0.63341E+02
         0.52004E+11
         0.50123E+11
        -0.59994E+02
        -0.53112E+02
         0.53598E+11
         0.54306E+11
        -0.65745E+02
        -0.73461E+02
         0.48616E+11
        -0.64227E+02
         0.54168E+11
        -0.75470E+02
         0.46416E+11
        -0.67826E+02
         0.45843E+11
        -0.65060E+02
         0.45852E+11
         0.47891E+11
        -0.66288E+02
        -0.64557E+02
         0.54040E+11
         0.53303E+11
        -0.66470E+02
        -0.75143E+02
         0.54501E+11
        -0.64139E+02
         0.53625E+11
        -0.69999E+02
         0.51321E+11
         0.51091E+11
        -0.67382E+02
        -0.70604E+02
         0.50571E+11
        -0.71196E+02
         0.44471E+11
        -0.56250E+02
         0.44152E+11
        -0.54599E+02
         0.44311E+11
        -0.57570E+02
         0.45192E+11
         0.46108E+11
        -0.54850E+02
        -0.57185E+02
         0.47957E+11
        -0.53260E+02
         0.53561E+11
        -0.69843E+02
         0.52685E+11
        -0.71483E+02
         0.51967E+11
         0.51573E+11
        -0.68647E+02
        -0.69448E+02
         0.52059E+11
        -0.63079E+02
         0.52404E+11
        -0.62179E+02
         0.52092E+11
        -0.66564E+02
         0.51981E+11
         0.52297E+11
        -0.65275E+02
        -0.67190E+02
         0.50250E+11
         0.51080E+11
        -0.50680E+02
        -0.47667E+02
         0.50092E+11
        -0.48393E+02
         0.51050E+11
        -0.46400E+02
         0.50105E+11
        -0.45754E+02
         0.48015E+11
        -0.43238E+02
         0.45992E+11
        -0.38412E+02
         0.44783E+11
        -0.34588E+02
         0.44659E+11
        -0.34348E+02
         0.44698E+11
        -0.37248E+02
         0.46009E+11
        -0.39147E+02
         0.48465E+11
        -0.35745E+02
         0.51168E+11
        -0.32221E+02
         0.52754E+11
        -0.32184E+02
         0.54323E+11
        -0.35973E+02
         0.55360E+11
        -0.41018E+02
         0.55322E+11
        -0.44066E+02
         0.52803E+11
        -0.47591E+02
         0.51051E+11
        -0.50987E+02
         0.50449E+11
        -0.46707E+02
         0.51388E+11
        -0.40975E+02
         0.51878E+11
        -0.40848E+02
         0.51056E+11
        -0.44693E+02
         0.51069E+11
        -0.47646E+02
         0.51689E+11
        -0.45216E+02
         0.52496E+11
        -0.43713E+02
        -0.23934E+11
        -0.24250E+11
        -0.24208E+11
        -0.23796E+11
        -0.24547E+11
        -0.24172E+11
        -0.24634E+11
        -0.24395E+11
        -0.23862E+11
        -0.24197E+11
        -0.24884E+11
        -0.24959E+11
        -0.24758E+11
        -0.24744E+11
        -0.24874E+11
        -0.23816E+11
        -0.23894E+11
        -0.23674E+11
        -0.24284E+11
        -0.24175E+11
        -0.24330E+11
        -0.24228E+11
        -0.24416E+11
        -0.24367E+11
        -0.24184E+11
        -0.24197E+11
        -0.24508E+11
        -0.24480E+11
        -0.24706E+11
        -0.24363E+11
        -0.23854E+11
        -0.24255E+11
        -0.23857E+11
        -0.24121E+11
        -0.25011E+11
        -0.24734E+11
        -0.24599E+11
        -0.24757E+11
        -0.24777E+11
        -0.25030E+11
        -0.25209E+11
        -0.24766E+11
        -0.24324E+11
        -0.24385E+11
        -0.24613E+11
        -0.25000E+11
        -0.24671E+11
        -0.24304E+11
        -0.24330E+11
        -0.24614E+11
        -0.24896E+11
        -0.24514E+11
        -0.25631E+11
        -0.25316E+11
        -0.25369E+11
        -0.25294E+11
        -0.25313E+11
        -0.25485E+11
        -0.25658E+11
        -0.25713E+11
        -0.25689E+11
        -0.25706E+11
        -0.25778E+11
        -0.25330E+11
        -0.25156E+11
        -0.25088E+11
        -0.24972E+11
        -0.24882E+11
        -0.24886E+11
        -0.25038E+11
        -0.25527E+11
        -0.25413E+11
        -0.25246E+11
        -0.25247E+11
        -0.25277E+11
        -0.25437E+11
        -0.25200E+11
        -0.25111E+11
        -0.82169E+05
        -0.11922E+06
        -0.12961E+05
         0.44639E+06
         0.37740E+05
         0.41671E+06
        -0.17467E+06
        -0.77925E+06
         0.25134E+06
        -0.78430E+06
        -0.59905E+06
        -0.89405E+06
        -0.32775E+06
        -0.93419E+06
        -0.11694E+07
         0.31698E+05
         0.28591E+06
         0.37792E+06
        -0.17523E+06
         0.52739E+05
        -0.12402E+06
         0.15762E+06
        -0.26355E+06
        -0.10268E+06
        -0.65160E+06
        -0.56690E+05
        -0.12448E+07
        -0.10041E+07
        -0.51964E+06
        -0.59510E+06
        -0.22742E+04
        -0.18162E+05
         0.33624E+06
         0.56152E+06
         0.22254E+05
        -0.48968E+05
        -0.82798E+05
        -0.10646E+07
        -0.10619E+07
        -0.78660E+06
        -0.16657E+06
        -0.11981E+06
        -0.10754E+06
        -0.34838E+06
        -0.42720E+06
        -0.83832E+06
        -0.38524E+06
        -0.11416E+06
        -0.15979E+06
        -0.12351E+06
         0.11179E+06
         0.53452E+06
        -0.66935E+06
         0.25397E+06
        -0.65554E+06
        -0.16489E+06
         0.13386E+06
         0.30492E+06
        -0.14152E+05
         0.17833E+06
        -0.28715E+05
        -0.28085E+06
         0.15669E+06
         0.35523E+06
         0.86392E+05
         0.47153E+06
        -0.17743E+06
        -0.73889E+06
        -0.91355E+06
        -0.11157E+07
        -0.14016E+07
        -0.93356E+06
        -0.82692E+06
        -0.10333E+07
        -0.12477E+07
        -0.77896E+06
         0.32972E+04
         0.39822E+06
        -0.10875E+06
        -0.14399E+06
        -0.37604E+05
         0.42426E+06
         0.56044E+04
         0.39016E+06
        -0.20176E+06
        -0.81081E+06
         0.22495E+06
        -0.81911E+06
        -0.62952E+06
        -0.93884E+06
        -0.36546E+06
        -0.96347E+06
        -0.12150E+07
         0.58761E+04
         0.25740E+06
         0.35615E+06
        -0.20436E+06
         0.22587E+05
        -0.16195E+06
         0.12118E+06
        -0.30180E+06
        -0.13210E+06
        -0.68692E+06
        -0.84690E+05
        -0.12739E+07
        -0.10345E+07
        -0.55198E+06
        -0.63008E+06
        -0.27284E+05
        -0.44699E+05
         0.31343E+06
         0.53905E+06
        -0.15445E+05
        -0.78002E+05
        -0.11427E+06
        -0.11094E+07
        -0.11028E+07
        -0.82566E+06
        -0.21042E+06
        -0.16196E+06
        -0.14788E+06
        -0.38442E+06
        -0.46047E+06
        -0.87696E+06
        -0.41785E+06
        -0.14310E+06
        -0.18441E+06
        -0.14957E+06
         0.77073E+05
         0.50528E+06
        -0.74545E+06
         0.17961E+06
        -0.72894E+06
        -0.23502E+06
         0.59515E+05
         0.22215E+06
        -0.96723E+05
         0.95080E+05
        -0.11302E+06
        -0.36710E+06
         0.70946E+05
         0.27589E+06
         0.20516E+05
         0.41004E+06
        -0.24196E+06
        -0.80803E+06
        -0.98436E+06
        -0.11897E+07
        -0.14759E+07
        -0.10120E+07
        -0.90089E+06
        -0.11001E+07
        -0.13147E+07
        -0.84726E+06
        -0.65758E+05
         0.32797E+06
        -0.10262E+06
        -0.13925E+06
        -0.32682E+05
         0.42994E+06
         0.13696E+05
         0.39715E+06
        -0.19637E+06
        -0.80518E+06
         0.22808E+06
        -0.82008E+06
        -0.62359E+06
        -0.93014E+06
        -0.35824E+06
        -0.95513E+06
        -0.12048E+07
         0.65231E+03
         0.25572E+06
         0.36206E+06
        -0.21174E+06
         0.16927E+05
        -0.16846E+06
         0.11876E+06
        -0.32690E+06
        -0.15333E+06
        -0.70352E+06
        -0.10428E+06
        -0.12682E+07
        -0.10386E+07
        -0.56489E+06
        -0.65484E+06
        -0.27305E+05
        -0.50680E+05
         0.31926E+06
         0.54628E+06
        -0.55281E+04
        -0.70830E+05
        -0.10733E+06
        -0.11024E+07
        -0.10975E+07
        -0.82390E+06
        -0.21165E+06
        -0.17724E+06
        -0.16965E+06
        -0.40863E+06
        -0.46626E+06
        -0.87172E+06
        -0.41202E+06
        -0.13626E+06
        -0.17635E+06
        -0.14092E+06
         0.86925E+05
         0.51336E+06
        -0.72270E+06
         0.19991E+06
        -0.70651E+06
        -0.21764E+06
         0.72359E+05
         0.23508E+06
        -0.80224E+05
         0.11163E+06
        -0.96464E+05
        -0.34985E+06
         0.81138E+05
         0.27547E+06
         0.21584E+05
         0.42132E+06
        -0.23441E+06
        -0.82209E+06
        -0.99974E+06
        -0.11858E+07
        -0.14556E+07
        -0.98839E+06
        -0.87990E+06
        -0.10788E+07
        -0.12910E+07
        -0.82703E+06
        -0.49241E+05
         0.34395E+06
        -0.10647E+06
        -0.14145E+06
        -0.34984E+05
         0.42627E+06
         0.10433E+05
         0.39478E+06
        -0.19883E+06
        -0.81037E+06
         0.21968E+06
        -0.83634E+06
        -0.62691E+06
        -0.93468E+06
        -0.36124E+06
        -0.95776E+06
        -0.12112E+07
        -0.19904E+05
         0.23884E+06
         0.35817E+06
        -0.23725E+06
        -0.84328E+04
        -0.19732E+06
         0.93575E+05
        -0.38530E+06
        -0.20080E+06
        -0.74486E+06
        -0.14897E+06
        -0.12761E+07
        -0.10632E+07
        -0.60464E+06
        -0.71249E+06
        -0.39458E+05
        -0.74559E+05
         0.31555E+06
         0.54254E+06
        -0.10332E+05
        -0.73853E+05
        -0.10987E+06
        -0.11112E+07
        -0.11085E+07
        -0.84192E+06
        -0.23661E+06
        -0.22498E+06
        -0.22847E+06
        -0.46555E+06
        -0.49392E+06
        -0.88734E+06
        -0.42259E+06
        -0.14142E+06
        -0.17968E+06
        -0.14545E+06
         0.81700E+05
         0.51002E+06
        -0.73327E+06
         0.19254E+06
        -0.71824E+06
        -0.22776E+06
         0.65472E+05
         0.22729E+06
        -0.93303E+05
         0.97522E+05
        -0.11028E+06
        -0.36655E+06
         0.54733E+05
         0.23276E+06
        -0.18346E+05
         0.40237E+06
        -0.25570E+06
        -0.88089E+06
        -0.10622E+07
        -0.12151E+07
        -0.14695E+07
        -0.10016E+07
        -0.89003E+06
        -0.10908E+07
        -0.13035E+07
        -0.83532E+06
        -0.55476E+05
         0.33779E+06
        -0.11341E+06
        -0.14580E+06
        -0.38792E+05
         0.42249E+06
         0.67164E+04
         0.39152E+06
        -0.20258E+06
        -0.81816E+06
         0.20983E+06
        -0.85319E+06
        -0.63045E+06
        -0.93746E+06
        -0.36457E+06
        -0.96075E+06
        -0.12147E+07
        -0.33827E+05
         0.22543E+06
         0.35457E+06
        -0.25416E+06
        -0.26670E+05
        -0.21602E+06
         0.75475E+05
        -0.42121E+06
        -0.23018E+06
        -0.77524E+06
        -0.17752E+06
        -0.12830E+07
        -0.10810E+07
        -0.63196E+06
        -0.75103E+06
        -0.52130E+05
        -0.91859E+05
         0.30850E+06
         0.53735E+06
        -0.15298E+05
        -0.77690E+05
        -0.11368E+06
        -0.11180E+07
        -0.11177E+07
        -0.85573E+06
        -0.25430E+06
        -0.25703E+06
        -0.26707E+06
        -0.50190E+06
        -0.51230E+06
        -0.89772E+06
        -0.43200E+06
        -0.14988E+06
        -0.18626E+06
        -0.15237E+06
         0.73540E+05
         0.50471E+06
        -0.74278E+06
         0.18610E+06
        -0.72825E+06
        -0.23563E+06
         0.62221E+05
         0.22504E+06
        -0.98834E+05
         0.88248E+05
        -0.12202E+06
        -0.37689E+06
         0.38652E+05
         0.20319E+06
        -0.45570E+05
         0.38771E+06
        -0.27073E+06
        -0.91903E+06
        -0.11062E+07
        -0.12361E+07
        -0.14759E+07
        -0.10136E+07
        -0.90343E+06
        -0.11044E+07
        -0.13196E+07
        -0.84887E+06
        -0.63779E+05
         0.33164E+06
        -0.13011E+06
        -0.15400E+06
        -0.42555E+05
         0.42533E+06
         0.10776E+05
         0.39637E+06
        -0.20521E+06
        -0.83083E+06
         0.19645E+06
        -0.87510E+06
        -0.62810E+06
        -0.92732E+06
        -0.36078E+06
        -0.95902E+06
        -0.12028E+07
        -0.31366E+05
         0.22213E+06
         0.36062E+06
        -0.25106E+06
        -0.23908E+05
        -0.21098E+06
         0.81776E+05
        -0.42046E+06
        -0.23069E+06
        -0.78952E+06
        -0.18138E+06
        -0.12846E+07
        -0.10830E+07
        -0.63015E+06
        -0.75326E+06
        -0.67251E+05
        -0.10091E+06
         0.29685E+06
         0.53599E+06
        -0.10897E+05
        -0.77419E+05
        -0.11442E+06
        -0.11109E+07
        -0.11124E+07
        -0.84909E+06
        -0.24600E+06
        -0.25186E+06
        -0.26302E+06
        -0.50457E+06
        -0.51494E+06
        -0.89957E+06
        -0.44019E+06
        -0.16720E+06
        -0.20394E+06
        -0.16196E+06
         0.70867E+05
         0.50701E+06
        -0.72406E+06
         0.20533E+06
        -0.71268E+06
        -0.22511E+06
         0.73220E+05
         0.24018E+06
        -0.81692E+05
         0.10471E+06
        -0.10336E+06
        -0.35209E+06
         0.60329E+05
         0.21619E+06
        -0.31199E+05
         0.40262E+06
        -0.25622E+06
        -0.90753E+06
        -0.10981E+07
        -0.12278E+07
        -0.14659E+07
        -0.10066E+07
        -0.90503E+06
        -0.11139E+07
        -0.13260E+07
        -0.84555E+06
        -0.54263E+05
         0.34526E+06
        -0.15549E+06
        -0.16837E+06
        -0.51212E+05
         0.42296E+06
         0.70985E+04
         0.39596E+06
        -0.21619E+06
        -0.85437E+06
         0.17461E+06
        -0.90629E+06
        -0.63564E+06
        -0.93106E+06
        -0.36689E+06
        -0.96863E+06
        -0.12064E+07
        -0.35602E+05
         0.21106E+06
         0.35955E+06
        -0.25427E+06
        -0.28061E+05
        -0.21386E+06
         0.79957E+05
        -0.42334E+06
        -0.23420E+06
        -0.80872E+06
        -0.18846E+06
        -0.12964E+07
        -0.10921E+07
        -0.63287E+06
        -0.75862E+06
        -0.88387E+05
        -0.11583E+06
         0.27920E+06
         0.52908E+06
        -0.16727E+05
        -0.83587E+05
        -0.12187E+06
        -0.11179E+07
        -0.11195E+07
        -0.85272E+06
        -0.24774E+06
        -0.25245E+06
        -0.26346E+06
        -0.51046E+06
        -0.52529E+06
        -0.91424E+06
        -0.45895E+06
        -0.19344E+06
        -0.22972E+06
        -0.17907E+06
         0.59996E+05
         0.50336E+06
        -0.73180E+06
         0.19921E+06
        -0.71750E+06
        -0.23042E+06
         0.65453E+05
         0.23102E+06
        -0.89232E+05
         0.98324E+05
        -0.10998E+06
        -0.35701E+06
         0.56415E+05
         0.21136E+06
        -0.32037E+05
         0.40141E+06
        -0.25939E+06
        -0.90942E+06
        -0.11020E+07
        -0.12412E+07
        -0.14857E+07
        -0.10282E+07
        -0.92942E+06
        -0.11440E+07
        -0.13524E+07
        -0.85934E+06
        -0.61608E+05
         0.33957E+06
        -0.16295E+06
        -0.17367E+06
        -0.54921E+05
         0.41980E+06
         0.31668E+04
         0.39279E+06
        -0.22181E+06
        -0.86316E+06
         0.16738E+06
        -0.91714E+06
        -0.64112E+06
        -0.93636E+06
        -0.37291E+06
        -0.97390E+06
        -0.12118E+07
        -0.39427E+05
         0.20644E+06
         0.35676E+06
        -0.25725E+06
        -0.31290E+05
        -0.21821E+06
         0.75747E+05
        -0.42711E+06
        -0.23686E+06
        -0.81701E+06
        -0.19242E+06
        -0.13014E+07
        -0.10969E+07
        -0.63770E+06
        -0.76376E+06
        -0.95281E+05
        -0.12166E+06
         0.27335E+06
         0.52514E+06
        -0.21645E+05
        -0.86993E+05
        -0.12645E+06
        -0.11267E+07
        -0.11274E+07
        -0.85994E+06
        -0.25533E+06
        -0.25809E+06
        -0.26720E+06
        -0.51577E+06
        -0.53163E+06
        -0.92119E+06
        -0.46535E+06
        -0.19992E+06
        -0.23557E+06
        -0.18469E+06
         0.53283E+05
         0.49885E+06
        -0.74244E+06
         0.18863E+06
        -0.72481E+06
        -0.23777E+06
         0.56473E+05
         0.22326E+06
        -0.97171E+05
         0.87365E+05
        -0.12469E+06
        -0.37242E+06
         0.42466E+05
         0.20498E+06
        -0.37027E+05
         0.39074E+06
        -0.27056E+06
        -0.92019E+06
        -0.11162E+07
        -0.12546E+07
        -0.14969E+07
        -0.10373E+07
        -0.93691E+06
        -0.11540E+07
        -0.13658E+07
        -0.87151E+06
        -0.71827E+05
         0.32949E+06
        -0.15834E+06
        -0.17001E+06
        -0.52531E+05
         0.42055E+06
         0.69031E+04
         0.39362E+06
        -0.21816E+06
        -0.85852E+06
         0.17019E+06
        -0.91375E+06
        -0.63778E+06
        -0.93083E+06
        -0.36905E+06
        -0.96841E+06
        -0.12040E+07
        -0.34581E+05
         0.21036E+06
         0.35955E+06
        -0.25255E+06
        -0.26851E+05
        -0.21307E+06
         0.80783E+05
        -0.42170E+06
        -0.23194E+06
        -0.81498E+06
        -0.18770E+06
        -0.12943E+07
        -0.10913E+07
        -0.63334E+06
        -0.76053E+06
        -0.91243E+05
        -0.11810E+06
         0.27592E+06
         0.52633E+06
        -0.15943E+05
        -0.83360E+05
        -0.12300E+06
        -0.11216E+07
        -0.11242E+07
        -0.85652E+06
        -0.25054E+06
        -0.25258E+06
        -0.26173E+06
        -0.51137E+06
        -0.52808E+06
        -0.91703E+06
        -0.46164E+06
        -0.19532E+06
        -0.23050E+06
        -0.18079E+06
         0.56179E+05
         0.49977E+06
        -0.72645E+06
         0.20426E+06
        -0.71561E+06
        -0.23393E+06
         0.64221E+05
         0.23554E+06
        -0.83486E+05
         0.97180E+05
        -0.12104E+06
        -0.36670E+06
         0.52762E+05
         0.21952E+06
        -0.24325E+05
         0.39892E+06
        -0.26277E+06
        -0.91128E+06
        -0.11073E+07
        -0.12434E+07
        -0.14863E+07
        -0.10246E+07
        -0.92402E+06
        -0.11425E+07
        -0.13562E+07
        -0.86275E+06
        -0.63034E+05
         0.33904E+06
        -0.15962E+06
        -0.17027E+06
        -0.53477E+05
         0.41838E+06
         0.58883E+04
         0.39187E+06
        -0.21895E+06
        -0.86162E+06
         0.16603E+06
        -0.91925E+06
        -0.64031E+06
        -0.93400E+06
        -0.36998E+06
        -0.97104E+06
        -0.12096E+07
        -0.36838E+05
         0.20728E+06
         0.35656E+06
        -0.25506E+06
        -0.29343E+05
        -0.21546E+06
         0.78081E+05
        -0.42366E+06
        -0.23367E+06
        -0.81903E+06
        -0.18924E+06
        -0.12959E+07
        -0.10918E+07
        -0.63446E+06
        -0.76339E+06
        -0.93383E+05
        -0.11979E+06
         0.27263E+06
         0.52340E+06
        -0.17708E+05
        -0.84966E+05
        -0.12411E+06
        -0.11292E+07
        -0.11292E+07
        -0.86041E+06
        -0.25435E+06
        -0.25470E+06
        -0.26493E+06
        -0.51316E+06
        -0.52982E+06
        -0.91937E+06
        -0.46477E+06
        -0.19826E+06
        -0.23235E+06
        -0.18269E+06
         0.53567E+05
         0.49711E+06
        -0.73101E+06
         0.20055E+06
        -0.72324E+06
        -0.24029E+06
         0.63265E+05
         0.23110E+06
        -0.93839E+05
         0.85682E+05
        -0.12791E+06
        -0.37696E+06
         0.41583E+05
         0.21388E+06
        -0.30885E+05
         0.39528E+06
        -0.26614E+06
        -0.91455E+06
        -0.11081E+07
        -0.12458E+07
        -0.14895E+07
        -0.10331E+07
        -0.93466E+06
        -0.11507E+07
        -0.13604E+07
        -0.86459E+06
        -0.67530E+05
         0.33267E+06
        -0.16309E+06
        -0.17294E+06
        -0.55710E+05
         0.41706E+06
         0.30569E+04
         0.39071E+06
        -0.22133E+06
        -0.86571E+06
         0.16214E+06
        -0.92473E+06
        -0.64310E+06
        -0.93824E+06
        -0.37272E+06
        -0.97307E+06
        -0.12154E+07
        -0.40011E+05
         0.20478E+06
         0.35486E+06
        -0.25807E+06
        -0.31200E+05
        -0.21847E+06
         0.75340E+05
        -0.42664E+06
        -0.23640E+06
        -0.82305E+06
        -0.19230E+06
        -0.12971E+07
        -0.10930E+07
        -0.63578E+06
        -0.76572E+06
        -0.96469E+05
        -0.12266E+06
         0.27067E+06
         0.52279E+06
        -0.22041E+05
        -0.87664E+05
        -0.12660E+06
        -0.11366E+07
        -0.11346E+07
        -0.86387E+06
        -0.25663E+06
        -0.25648E+06
        -0.26786E+06
        -0.51619E+06
        -0.53265E+06
        -0.92246E+06
        -0.46772E+06
        -0.20079E+06
        -0.23410E+06
        -0.18429E+06
         0.51086E+05
         0.49585E+06
        -0.74018E+06
         0.19280E+06
        -0.72909E+06
        -0.24223E+06
         0.60679E+05
         0.22207E+06
        -0.10687E+06
         0.75311E+05
        -0.13503E+06
        -0.38433E+06
         0.37015E+05
         0.20831E+06
        -0.38762E+05
         0.38990E+06
        -0.27175E+06
        -0.92118E+06
        -0.11127E+07
        -0.12511E+07
        -0.14959E+07
        -0.10402E+07
        -0.94276E+06
        -0.11590E+07
        -0.13665E+07
        -0.87009E+06
        -0.74466E+05
         0.32540E+06
        -0.16094E+06
        -0.17176E+06
        -0.54994E+05
         0.41855E+06
         0.55003E+04
         0.39289E+06
        -0.21902E+06
        -0.86278E+06
         0.16281E+06
        -0.92450E+06
        -0.63999E+06
        -0.93442E+06
        -0.37155E+06
        -0.96802E+06
        -0.12082E+07
        -0.37228E+05
         0.20619E+06
         0.35764E+06
        -0.25536E+06
        -0.27628E+05
        -0.21442E+06
         0.79838E+05
        -0.42299E+06
        -0.23335E+06
        -0.82333E+06
        -0.18925E+06
        -0.12925E+07
        -0.10894E+07
        -0.63091E+06
        -0.76211E+06
        -0.93275E+05
        -0.12019E+06
         0.27382E+06
         0.52586E+06
        -0.18501E+05
        -0.85387E+05
        -0.12519E+06
        -0.11327E+07
        -0.11314E+07
        -0.85862E+06
        -0.25127E+06
        -0.25227E+06
        -0.26347E+06
        -0.51365E+06
        -0.53063E+06
        -0.92022E+06
        -0.46557E+06
        -0.19799E+06
        -0.23051E+06
        -0.18090E+06
         0.54116E+05
         0.49865E+06
        -0.72847E+06
         0.20538E+06
        -0.71735E+06
        -0.23641E+06
         0.58705E+05
         0.22277E+06
        -0.97354E+05
         0.85833E+05
        -0.12808E+06
        -0.37368E+06
         0.47134E+05
         0.21304E+06
        -0.30270E+05
         0.39847E+06
        -0.26387E+06
        -0.91520E+06
        -0.11089E+07
        -0.12460E+07
        -0.14911E+07
        -0.10325E+07
        -0.93389E+06
        -0.11505E+07
        -0.13592E+07
        -0.86360E+06
        -0.64938E+05
         0.33656E+06
        -0.16259E+06
        -0.17389E+06
        -0.57167E+05
         0.41613E+06
         0.26135E+04
         0.39045E+06
        -0.22198E+06
        -0.86657E+06
         0.15945E+06
        -0.93073E+06
        -0.64387E+06
        -0.93973E+06
        -0.37709E+06
        -0.97141E+06
        -0.12126E+07
        -0.39779E+05
         0.20304E+06
         0.35445E+06
        -0.25898E+06
        -0.30585E+05
        -0.21961E+06
         0.74921E+05
        -0.42806E+06
        -0.23652E+06
        -0.82918E+06
        -0.19191E+06
        -0.12968E+07
        -0.10940E+07
        -0.63451E+06
        -0.76557E+06
        -0.96147E+05
        -0.12289E+06
         0.26989E+06
         0.52320E+06
        -0.22639E+05
        -0.88519E+05
        -0.12925E+06
        -0.11407E+07
        -0.11394E+07
        -0.86491E+06
        -0.25837E+06
        -0.25846E+06
        -0.26842E+06
        -0.51943E+06
        -0.53555E+06
        -0.92463E+06
        -0.46965E+06
        -0.20200E+06
        -0.23299E+06
        -0.18277E+06
         0.50802E+05
         0.49564E+06
        -0.73753E+06
         0.19745E+06
        -0.72652E+06
        -0.24681E+06
         0.46506E+05
         0.21122E+06
        -0.10436E+06
         0.76868E+05
        -0.14009E+06
        -0.38553E+06
         0.32709E+05
         0.19872E+06
        -0.39686E+05
         0.38869E+06
        -0.27226E+06
        -0.92494E+06
        -0.11240E+07
        -0.12596E+07
        -0.14979E+07
        -0.10418E+07
        -0.94354E+06
        -0.11554E+07
        -0.13626E+07
        -0.87045E+06
        -0.74353E+05
         0.32724E+06
        -0.16293E+06
        -0.17456E+06
        -0.58005E+05
         0.41525E+06
         0.20575E+04
         0.38967E+06
        -0.22260E+06
        -0.86777E+06
         0.15845E+06
        -0.93295E+06
        -0.64474E+06
        -0.94036E+06
        -0.37798E+06
        -0.97103E+06
        -0.12131E+07
        -0.40221E+05
         0.20290E+06
         0.35381E+06
        -0.25960E+06
        -0.30740E+05
        -0.22095E+06
         0.74126E+05
        -0.42921E+06
        -0.23706E+06
        -0.83185E+06
        -0.19256E+06
        -0.12959E+07
        -0.10946E+07
        -0.63531E+06
        -0.76700E+06
        -0.97662E+05
        -0.12387E+06
         0.26816E+06
         0.52256E+06
        -0.23572E+05
        -0.89598E+05
        -0.13051E+06
        -0.11450E+07
        -0.11445E+07
        -0.86772E+06
        -0.25937E+06
        -0.25891E+06
        -0.26915E+06
        -0.52072E+06
        -0.53673E+06
        -0.92581E+06
        -0.47117E+06
        -0.20353E+06
        -0.23349E+06
        -0.18277E+06
         0.50204E+05
         0.49480E+06
        -0.73771E+06
         0.19757E+06
        -0.72911E+06
        -0.25082E+06
         0.46196E+05
         0.21108E+06
        -0.10714E+06
         0.69396E+05
        -0.14877E+06
        -0.39029E+06
         0.32243E+05
         0.19724E+06
        -0.42054E+05
         0.38486E+06
        -0.27664E+06
        -0.92814E+06
        -0.11263E+07
        -0.12615E+07
        -0.14999E+07
        -0.10451E+07
        -0.94784E+06
        -0.11582E+07
        -0.13630E+07
        -0.87118E+06
        -0.78460E+05
         0.32358E+06
        -0.15601E+06
        -0.16764E+06
        -0.52500E+05
         0.41944E+06
         0.97116E+04
         0.39485E+06
        -0.21467E+06
        -0.86048E+06
         0.16201E+06
        -0.92865E+06
        -0.63683E+06
        -0.92850E+06
        -0.36806E+06
        -0.96246E+06
        -0.12020E+07
        -0.34263E+05
         0.20833E+06
         0.35897E+06
        -0.25332E+06
        -0.23490E+05
        -0.21162E+06
         0.83075E+05
        -0.42021E+06
        -0.23053E+06
        -0.82706E+06
        -0.18598E+06
        -0.12868E+07
        -0.10850E+07
        -0.62597E+06
        -0.75962E+06
        -0.91243E+05
        -0.11720E+06
         0.27315E+06
         0.52670E+06
        -0.14172E+05
        -0.82757E+05
        -0.12286E+06
        -0.11383E+07
        -0.11369E+07
        -0.85883E+06
        -0.25023E+06
        -0.24950E+06
        -0.26093E+06
        -0.51205E+06
        -0.52823E+06
        -0.91645E+06
        -0.46368E+06
        -0.19649E+06
        -0.22698E+06
        -0.17704E+06
         0.56487E+05
         0.49978E+06
        -0.71648E+06
         0.21862E+06
        -0.71146E+06
        -0.23795E+06
         0.61867E+05
         0.23114E+06
        -0.90318E+05
         0.82192E+05
        -0.13460E+06
        -0.37468E+06
         0.46312E+05
         0.21365E+06
        -0.29076E+05
         0.39923E+06
        -0.26015E+06
        -0.91103E+06
        -0.11072E+07
        -0.12406E+07
        -0.14820E+07
        -0.10264E+07
        -0.93197E+06
        -0.11464E+07
        -0.13500E+07
        -0.85542E+06
        -0.61372E+05
         0.34088E+06
        -0.15899E+06
        -0.16954E+06
        -0.54534E+05
         0.41649E+06
         0.61508E+04
         0.39234E+06
        -0.21733E+06
        -0.86510E+06
         0.15769E+06
        -0.93589E+06
        -0.64065E+06
        -0.93255E+06
        -0.37052E+06
        -0.96607E+06
        -0.12079E+07
        -0.37567E+05
         0.20443E+06
         0.35637E+06
        -0.25800E+06
        -0.27146E+05
        -0.21519E+06
         0.78587E+05
        -0.42334E+06
        -0.23438E+06
        -0.83358E+06
        -0.18982E+06
        -0.12907E+07
        -0.10882E+07
        -0.62655E+06
        -0.76232E+06
        -0.93335E+05
        -0.12028E+06
         0.27038E+06
         0.52348E+06
        -0.19517E+05
        -0.85601E+05
        -0.12486E+06
        -0.11474E+07
        -0.11436E+07
        -0.86184E+06
        -0.25479E+06
        -0.25428E+06
        -0.26663E+06
        -0.51645E+06
        -0.53256E+06
        -0.92061E+06
        -0.46712E+06
        -0.19871E+06
        -0.22895E+06
        -0.18009E+06
         0.52514E+05
         0.49668E+06
        -0.72989E+06
         0.20720E+06
        -0.72203E+06
        -0.24344E+06
         0.59921E+05
         0.22604E+06
        -0.10162E+06
         0.68646E+05
        -0.14789E+06
        -0.38648E+06
         0.32407E+05
         0.19766E+06
        -0.40285E+05
         0.39363E+06
        -0.26274E+06
        -0.91280E+06
        -0.11129E+07
        -0.12502E+07
        -0.14891E+07
        -0.10347E+07
        -0.93971E+06
        -0.11550E+07
        -0.13593E+07
        -0.86109E+06
        -0.66660E+05
         0.33207E+06
        -0.16393E+06
        -0.17451E+06
        -0.59678E+05
         0.41261E+06
         0.60531E+03
         0.38768E+06
        -0.22167E+06
        -0.87039E+06
         0.15199E+06
        -0.94715E+06
        -0.64522E+06
        -0.93917E+06
        -0.37593E+06
        -0.96975E+06
        -0.12151E+07
        -0.41639E+05
         0.19863E+06
         0.35336E+06
        -0.26189E+06
        -0.28846E+05
        -0.21953E+06
         0.73346E+05
        -0.42712E+06
        -0.23767E+06
        -0.84338E+06
        -0.19358E+06
        -0.12996E+07
        -0.10933E+07
        -0.61562E+06
        -0.75729E+06
        -0.97123E+05
        -0.12466E+06
         0.26762E+06
         0.52123E+06
        -0.25541E+05
        -0.90226E+05
        -0.12961E+06
        -0.11604E+07
        -0.11503E+07
        -0.85365E+06
        -0.25541E+06
        -0.25947E+06
        -0.27423E+06
        -0.52118E+06
        -0.53797E+06
        -0.92718E+06
        -0.47291E+06
        -0.20274E+06
        -0.23133E+06
        -0.18244E+06
         0.48988E+05
         0.49292E+06
        -0.73880E+06
         0.19887E+06
        -0.72926E+06
        -0.24963E+06
         0.51213E+05
         0.21202E+06
        -0.11758E+06
         0.53505E+05
        -0.16129E+06
        -0.38957E+06
         0.81338E+04
         0.15944E+06
        -0.56038E+05
         0.38486E+06
        -0.27055E+06
        -0.91991E+06
        -0.11218E+07
        -0.12603E+07
        -0.15007E+07
        -0.10477E+07
        -0.94858E+06
        -0.11633E+07
        -0.13688E+07
        -0.86787E+06
        -0.77216E+05
         0.32027E+06
        -0.15734E+06
        -0.16814E+06
        -0.53681E+05
         0.41774E+06
         0.87501E+04
         0.39329E+06
        -0.21473E+06
        -0.86320E+06
         0.15406E+06
        -0.95074E+06
        -0.63815E+06
        -0.93028E+06
        -0.36858E+06
        -0.96165E+06
        -0.12053E+07
        -0.35611E+05
         0.20225E+06
         0.35821E+06
        -0.25459E+06
        -0.17009E+05
        -0.21181E+06
         0.81163E+05
        -0.41989E+06
        -0.23063E+06
        -0.84396E+06
        -0.18643E+06
        -0.13011E+07
        -0.10873E+07
        -0.58208E+06
        -0.73264E+06
        -0.91642E+05
        -0.11788E+06
         0.27249E+06
         0.52675E+06
        -0.15471E+05
        -0.82590E+05
        -0.12239E+06
        -0.11605E+07
        -0.11413E+07
        -0.82152E+06
        -0.23763E+06
        -0.24993E+06
        -0.26947E+06
        -0.51379E+06
        -0.52966E+06
        -0.91676E+06
        -0.46509E+06
        -0.19628E+06
        -0.22425E+06
        -0.17483E+06
         0.57351E+05
         0.49884E+06
        -0.71696E+06
         0.22026E+06
        -0.70747E+06
        -0.23429E+06
         0.60970E+05
         0.22344E+06
        -0.10181E+06
         0.69483E+05
        -0.14394E+06
        -0.35558E+06
         0.24667E+03
         0.12866E+06
        -0.54896E+05
         0.39677E+06
        -0.26049E+06
        -0.91156E+06
        -0.11116E+07
        -0.12429E+07
        -0.14793E+07
        -0.10276E+07
        -0.93135E+06
        -0.11455E+07
        -0.13488E+07
        -0.84908E+06
        -0.61953E+05
         0.33632E+06
        -0.18222E+06
        -0.19129E+06
        -0.76462E+05
         0.39595E+06
        -0.21346E+05
         0.36800E+06
        -0.24031E+06
        -0.89312E+06
         0.12843E+06
        -0.98847E+06
        -0.66705E+06
        -0.97191E+06
        -0.40631E+06
        -0.99130E+06
        -0.12488E+07
        -0.58039E+05
         0.17585E+06
         0.33652E+06
        -0.28043E+06
        -0.41069E+05
        -0.24751E+06
         0.46724E+05
        -0.45378E+06
        -0.25517E+06
        -0.87701E+06
        -0.20961E+06
        -0.13363E+07
        -0.11165E+07
        -0.59508E+06
        -0.75062E+06
        -0.11393E+06
        -0.14197E+06
         0.24951E+06
         0.50264E+06
        -0.52243E+05
        -0.11120E+06
        -0.15461E+06
        -0.12095E+07
        -0.11791E+07
        -0.84317E+06
        -0.27320E+06
        -0.28745E+06
        -0.30732E+06
        -0.54626E+06
        -0.56275E+06
        -0.95671E+06
        -0.49688E+06
        -0.22332E+06
        -0.24906E+06
        -0.20255E+06
         0.20106E+05
         0.46905E+06
        -0.79287E+06
         0.14645E+06
        -0.78444E+06
        -0.31249E+06
        -0.17150E+05
         0.14822E+06
        -0.17820E+06
        -0.12259E+05
        -0.22076E+06
        -0.42558E+06
        -0.97278E+05
         0.22541E+05
        -0.12962E+06
         0.33482E+06
        -0.32555E+06
        -0.97943E+06
        -0.11820E+07
        -0.13215E+07
        -0.15600E+07
        -0.11050E+07
        -0.10030E+07
        -0.12140E+07
        -0.14190E+07
        -0.92096E+06
        -0.13103E+06
         0.26779E+06
        -0.16807E+06
        -0.18963E+06
        -0.72528E+05
         0.40393E+06
        -0.11596E+05
         0.37610E+06
        -0.23677E+06
        -0.87646E+06
         0.14314E+06
        -0.96489E+06
        -0.65954E+06
        -0.97102E+06
        -0.41595E+06
        -0.97211E+06
        -0.12303E+07
        -0.40476E+05
         0.19254E+06
         0.34834E+06
        -0.26696E+06
        -0.26644E+05
        -0.23179E+06
         0.58498E+05
        -0.42951E+06
        -0.23667E+06
        -0.85255E+06
        -0.19228E+06
        -0.13063E+07
        -0.10829E+07
        -0.56705E+06
        -0.72566E+06
        -0.10017E+06
        -0.13118E+06
         0.25569E+06
         0.49902E+06
        -0.46612E+05
        -0.11348E+06
        -0.16377E+06
        -0.11879E+07
        -0.11541E+07
        -0.82097E+06
        -0.25751E+06
        -0.26599E+06
        -0.28480E+06
        -0.52482E+06
        -0.55119E+06
        -0.95078E+06
        -0.49243E+06
        -0.21169E+06
        -0.23979E+06
        -0.20157E+06
         0.22531E+05
         0.46947E+06
        -0.76359E+06
         0.18442E+06
        -0.77496E+06
        -0.32936E+06
        -0.52280E+05
         0.12688E+06
        -0.14312E+06
         0.23748E+05
        -0.19228E+06
        -0.40860E+06
        -0.92570E+05
         0.37005E+05
        -0.10136E+06
         0.34874E+06
        -0.29600E+06
        -0.93719E+06
        -0.11461E+07
        -0.12940E+07
        -0.15481E+07
        -0.11063E+07
        -0.98718E+06
        -0.11913E+07
        -0.13830E+07
        -0.87697E+06
        -0.96327E+05
         0.30376E+06
         0.97862E+08
         0.90099E+08
         0.89523E+08
         0.82166E+08
         0.11827E+09
         0.99886E+08
         0.97495E+08
         0.11112E+09
         0.85221E+08
         0.11073E+09
         0.10818E+09
         0.15912E+09
         0.13789E+09
         0.11555E+09
         0.16481E+09
         0.85952E+08
         0.89682E+08
         0.78546E+08
         0.93019E+08
         0.97559E+08
         0.12742E+09
         0.12736E+09
         0.12023E+09
         0.89027E+08
         0.98724E+08
         0.85320E+08
         0.11373E+09
         0.10681E+09
         0.10741E+09
         0.10350E+09
         0.83959E+08
         0.88314E+08
         0.82561E+08
         0.86417E+08
         0.13910E+09
         0.11047E+09
         0.11809E+09
         0.15267E+09
         0.14141E+09
         0.13729E+09
         0.14981E+09
         0.13944E+09
         0.13209E+09
         0.11327E+09
         0.11538E+09
         0.14086E+09
         0.11741E+09
         0.10468E+09
         0.95216E+08
         0.10464E+09
         0.13128E+09
         0.10958E+09
         0.27711E+09
         0.27164E+09
         0.27656E+09
         0.26749E+09
         0.27605E+09
         0.28980E+09
         0.29071E+09
         0.28683E+09
         0.28893E+09
         0.29757E+09
         0.28899E+09
         0.27274E+09
         0.24075E+09
         0.22696E+09
         0.23095E+09
         0.23666E+09
         0.23970E+09
         0.26148E+09
         0.27930E+09
         0.28058E+09
         0.25668E+09
         0.24721E+09
         0.25657E+09
         0.25417E+09
         0.25306E+09
         0.25355E+09
         0.12449E+10
         0.13022E+10
         0.12828E+10
         0.11665E+10
         0.14476E+10
         0.13560E+10
         0.14103E+10
         0.14252E+10
         0.12137E+10
         0.14243E+10
         0.15522E+10
         0.17504E+10
         0.15831E+10
         0.15991E+10
         0.18127E+10
         0.11895E+10
         0.12786E+10
         0.11103E+10
         0.13221E+10
         0.13920E+10
         0.14492E+10
         0.14805E+10
         0.13894E+10
         0.12697E+10
         0.14391E+10
         0.12232E+10
         0.15933E+10
         0.15640E+10
         0.15715E+10
         0.14911E+10
         0.12018E+10
         0.12639E+10
         0.11760E+10
         0.12314E+10
         0.15892E+10
         0.14530E+10
         0.14594E+10
         0.17531E+10
         0.17055E+10
         0.16842E+10
         0.17175E+10
         0.16295E+10
         0.15403E+10
         0.13543E+10
         0.14099E+10
         0.15890E+10
         0.14649E+10
         0.13751E+10
         0.13462E+10
         0.13976E+10
         0.15229E+10
         0.14025E+10
         0.25413E+10
         0.24773E+10
         0.25291E+10
         0.24506E+10
         0.25235E+10
         0.26523E+10
         0.26939E+10
         0.26863E+10
         0.27046E+10
         0.27668E+10
         0.26879E+10
         0.25292E+10
         0.22669E+10
         0.21428E+10
         0.21502E+10
         0.21786E+10
         0.21999E+10
         0.23848E+10
         0.25521E+10
         0.25627E+10
         0.23724E+10
         0.22990E+10
         0.23753E+10
         0.23584E+10
         0.23327E+10
         0.23260E+10
  
SCALARS                      stress_zz  double 1
LOOKUP_TABLE default
         0.53757E+11
         0.52303E+11
         0.53225E+11
         0.54881E+11
        -0.15748E+03
        -0.17658E+03
        -0.16909E+03
        -0.15361E+03
         0.52252E+11
         0.52744E+11
        -0.15879E+03
        -0.15367E+03
         0.50199E+11
         0.50121E+11
        -0.18868E+03
        -0.17741E+03
         0.54638E+11
         0.50235E+11
        -0.13941E+03
        -0.15463E+03
         0.48621E+11
         0.47370E+11
         0.49362E+11
        -0.18700E+03
        -0.16331E+03
        -0.16864E+03
         0.47418E+11
         0.45594E+11
        -0.17940E+03
        -0.15130E+03
         0.54558E+11
         0.52641E+11
         0.56420E+11
        -0.15310E+03
        -0.14233E+03
        -0.13838E+03
         0.53449E+11
         0.51008E+11
        -0.16197E+03
        -0.14780E+03
         0.52482E+11
         0.50600E+11
        -0.13999E+03
        -0.12393E+03
         0.54077E+11
         0.54785E+11
        -0.15341E+03
        -0.17141E+03
         0.49093E+11
        -0.14986E+03
         0.54647E+11
        -0.17610E+03
         0.46892E+11
        -0.15826E+03
         0.46318E+11
        -0.15181E+03
         0.46327E+11
         0.48368E+11
        -0.15467E+03
        -0.15063E+03
         0.54519E+11
         0.53782E+11
        -0.15510E+03
        -0.17533E+03
         0.54980E+11
        -0.14966E+03
         0.54103E+11
        -0.16333E+03
         0.51799E+11
         0.51569E+11
        -0.15722E+03
        -0.16474E+03
         0.51049E+11
        -0.16612E+03
         0.44946E+11
        -0.13125E+03
         0.44627E+11
        -0.12740E+03
         0.44785E+11
        -0.13433E+03
         0.45667E+11
         0.46584E+11
        -0.12798E+03
        -0.13343E+03
         0.48433E+11
        -0.12427E+03
         0.54039E+11
        -0.16297E+03
         0.53163E+11
        -0.16679E+03
         0.52444E+11
         0.52050E+11
        -0.16018E+03
        -0.16205E+03
         0.52536E+11
        -0.14718E+03
         0.52882E+11
        -0.14508E+03
         0.52570E+11
        -0.15532E+03
         0.52459E+11
         0.52775E+11
        -0.15231E+03
        -0.15678E+03
         0.50727E+11
         0.51557E+11
        -0.11825E+03
        -0.11122E+03
         0.50569E+11
        -0.11292E+03
         0.51527E+11
        -0.10827E+03
         0.50582E+11
        -0.10676E+03
         0.48491E+11
        -0.10089E+03
         0.46467E+11
        -0.89628E+02
         0.45257E+11
        -0.80705E+02
         0.45134E+11
        -0.80145E+02
         0.45172E+11
        -0.86913E+02
         0.46484E+11
        -0.91343E+02
         0.48941E+11
        -0.83405E+02
         0.51645E+11
        -0.75181E+02
         0.53231E+11
        -0.75096E+02
         0.54801E+11
        -0.83938E+02
         0.55839E+11
        -0.95709E+02
         0.55801E+11
        -0.10282E+03
         0.53281E+11
        -0.11105E+03
         0.51528E+11
        -0.11897E+03
         0.50926E+11
        -0.10898E+03
         0.51865E+11
        -0.95608E+02
         0.52356E+11
        -0.95313E+02
         0.51534E+11
        -0.10428E+03
         0.51546E+11
        -0.11117E+03
         0.52166E+11
        -0.10550E+03
         0.52974E+11
        -0.10200E+03
        -0.24343E+11
        -0.24660E+11
        -0.24618E+11
        -0.24205E+11
        -0.24957E+11
        -0.24582E+11
        -0.25045E+11
        -0.24805E+11
        -0.24271E+11
        -0.24607E+11
        -0.25295E+11
        -0.25370E+11
        -0.25168E+11
        -0.25154E+11
        -0.25285E+11
        -0.24225E+11
        -0.24303E+11
        -0.24083E+11
        -0.24693E+11
        -0.24585E+11
        -0.24740E+11
        -0.24637E+11
        -0.24826E+11
        -0.24777E+11
        -0.24594E+11
        -0.24607E+11
        -0.24918E+11
        -0.24890E+11
        -0.25116E+11
        -0.24773E+11
        -0.24263E+11
        -0.24664E+11
        -0.24266E+11
        -0.24531E+11
        -0.25421E+11
        -0.25144E+11
        -0.25010E+11
        -0.25167E+11
        -0.25188E+11
        -0.25441E+11
        -0.25620E+11
        -0.25176E+11
        -0.24733E+11
        -0.24795E+11
        -0.25023E+11
        -0.25411E+11
        -0.25081E+11
        -0.24714E+11
        -0.24740E+11
        -0.25024E+11
        -0.25306E+11
        -0.24924E+11
        -0.26042E+11
        -0.25726E+11
        -0.25779E+11
        -0.25704E+11
        -0.25723E+11
        -0.25895E+11
        -0.26068E+11
        -0.26124E+11
        -0.26100E+11
        -0.26117E+11
        -0.26189E+11
        -0.25740E+11
        -0.25566E+11
        -0.25498E+11
        -0.25381E+11
        -0.25292E+11
        -0.25296E+11
        -0.25448E+11
        -0.25938E+11
        -0.25823E+11
        -0.25656E+11
        -0.25657E+11
        -0.25687E+11
        -0.25847E+11
        -0.25610E+11
        -0.25520E+11
         0.15016E+07
         0.75461E+06
         0.86457E+06
         0.12070E+07
         0.12624E+07
         0.16290E+07
        -0.18828E+06
         0.80938E+05
         0.16105E+07
        -0.28162E+05
        -0.82112E+06
         0.89553E+06
         0.10249E+07
        -0.16399E+07
         0.40581E+06
         0.79135E+06
         0.80832E+06
         0.95136E+06
         0.24118E+06
         0.20034E+06
         0.70712E+06
         0.10819E+07
         0.36877E+06
        -0.85165E+05
        -0.56200E+06
        -0.61280E+05
        -0.24808E+07
        -0.23231E+07
        -0.11339E+07
        -0.37871E+06
         0.63064E+06
         0.72959E+05
         0.10508E+07
         0.15102E+07
         0.79726E+06
         0.57303E+06
         0.87482E+06
         0.20553E+06
         0.16960E+06
         0.41084E+06
         0.90470E+06
         0.64943E+06
         0.74169E+06
         0.33324E+06
         0.33909E+06
         0.57962E+06
         0.65460E+06
         0.73937E+06
         0.91217E+06
         0.13160E+07
         0.14040E+07
         0.16476E+07
         0.46919E+06
         0.15690E+07
         0.88360E+06
         0.17296E+07
         0.24188E+07
         0.28944E+07
         0.25790E+07
         0.27108E+07
         0.24242E+07
         0.19759E+07
         0.18259E+07
         0.16531E+07
         0.12698E+07
         0.17081E+07
         0.96399E+06
         0.43971E+06
         0.53677E+06
         0.58493E+06
         0.77018E+06
         0.15049E+07
         0.15151E+07
         0.12445E+07
         0.86855E+06
         0.86302E+06
         0.13388E+07
         0.17756E+07
         0.14518E+07
         0.69721E+06
         0.80800E+06
         0.11563E+07
         0.12035E+07
         0.15669E+07
        -0.25064E+06
         0.23727E+05
         0.15526E+07
        -0.90439E+05
        -0.89175E+06
         0.83200E+06
         0.96614E+06
        -0.17126E+07
         0.34373E+06
         0.73185E+06
         0.74290E+06
         0.90025E+06
         0.17404E+06
         0.12953E+06
         0.64919E+06
         0.10245E+07
         0.30767E+06
        -0.15386E+06
        -0.63584E+06
        -0.12677E+06
        -0.25483E+07
        -0.23943E+07
        -0.12091E+07
        -0.45630E+06
         0.57304E+06
         0.10887E+05
         0.99768E+06
         0.14583E+07
         0.73605E+06
         0.51004E+06
         0.81674E+06
         0.14030E+06
         0.10486E+06
         0.34510E+06
         0.84008E+06
         0.58470E+06
         0.68003E+06
         0.27164E+06
         0.27857E+06
         0.51908E+06
         0.59159E+06
         0.67646E+06
         0.85121E+06
         0.12575E+07
         0.13465E+07
         0.15885E+07
         0.38216E+06
         0.14844E+07
         0.80063E+06
         0.16501E+07
         0.23352E+07
         0.28018E+07
         0.24862E+07
         0.26160E+07
         0.23281E+07
         0.18782E+07
         0.17286E+07
         0.15631E+07
         0.11931E+07
         0.16361E+07
         0.88939E+06
         0.36061E+06
         0.45623E+06
         0.50144E+06
         0.68597E+06
         0.14161E+07
         0.14304E+07
         0.11677E+07
         0.79197E+06
         0.78440E+06
         0.12596E+07
         0.16950E+07
         0.14637E+07
         0.70868E+06
         0.82043E+06
         0.11704E+07
         0.12188E+07
         0.15830E+07
        -0.23720E+06
         0.37359E+05
         0.15636E+07
        -0.85931E+05
        -0.87743E+06
         0.84413E+06
         0.97750E+06
        -0.16983E+07
         0.35947E+06
         0.72045E+06
         0.74009E+06
         0.91372E+06
         0.15769E+06
         0.11588E+06
         0.63964E+06
         0.10207E+07
         0.26758E+06
        -0.20344E+06
        -0.66606E+06
        -0.17266E+06
        -0.25346E+07
        -0.24038E+07
        -0.12390E+07
        -0.51019E+06
         0.57373E+06
        -0.32388E+04
         0.10114E+07
         0.14756E+07
         0.75223E+06
         0.52579E+06
         0.82951E+06
         0.15244E+06
         0.11674E+06
         0.34952E+06
         0.83870E+06
         0.56133E+06
         0.64685E+06
         0.23041E+06
         0.26813E+06
         0.52739E+06
         0.60302E+06
         0.69063E+06
         0.86655E+06
         0.12753E+07
         0.13626E+07
         0.16050E+07
         0.40796E+06
         0.15075E+07
         0.82620E+06
         0.16698E+07
         0.23497E+07
         0.28162E+07
         0.25046E+07
         0.26346E+07
         0.23470E+07
         0.18977E+07
         0.17401E+07
         0.15626E+07
         0.11944E+07
         0.16494E+07
         0.89811E+06
         0.34464E+06
         0.43894E+06
         0.50594E+06
         0.70907E+06
         0.14428E+07
         0.14545E+07
         0.11921E+07
         0.81919E+06
         0.80728E+06
         0.12782E+07
         0.17129E+07
         0.14568E+07
         0.70395E+06
         0.81600E+06
         0.11628E+07
         0.12131E+07
         0.15773E+07
        -0.24204E+06
         0.30382E+05
         0.15476E+07
        -0.11156E+06
        -0.88471E+06
         0.83756E+06
         0.97293E+06
        -0.17095E+07
         0.35212E+06
         0.67335E+06
         0.70186E+06
         0.90435E+06
         0.99077E+05
         0.56233E+05
         0.59572E+06
         0.98104E+06
         0.17436E+06
        -0.31431E+06
        -0.75424E+06
        -0.27719E+06
        -0.25528E+07
        -0.24614E+07
        -0.13317E+07
        -0.64119E+06
         0.54610E+06
        -0.59154E+05
         0.10028E+07
         0.14674E+07
         0.74448E+06
         0.51936E+06
         0.82480E+06
         0.14101E+06
         0.10183E+06
         0.32013E+06
         0.80224E+06
         0.48804E+06
         0.55681E+06
         0.13325E+06
         0.21807E+06
         0.50300E+06
         0.58279E+06
         0.67894E+06
         0.85532E+06
         0.12640E+07
         0.13538E+07
         0.15984E+07
         0.39572E+06
         0.14991E+07
         0.81306E+06
         0.16583E+07
         0.23420E+07
         0.28074E+07
         0.24897E+07
         0.26184E+07
         0.23313E+07
         0.18788E+07
         0.17101E+07
         0.15142E+07
         0.11479E+07
         0.16272E+07
         0.87351E+06
         0.27741E+06
         0.36794E+06
         0.47299E+06
         0.69329E+06
         0.14278E+07
         0.14429E+07
         0.11784E+07
         0.80490E+06
         0.79747E+06
         0.12708E+07
         0.17056E+07
         0.14440E+07
         0.69421E+06
         0.80806E+06
         0.11548E+07
         0.12066E+07
         0.15695E+07
        -0.24991E+06
         0.18450E+05
         0.15283E+07
        -0.13833E+06
        -0.89247E+06
         0.83345E+06
         0.96782E+06
        -0.17215E+07
         0.34882E+06
         0.64179E+06
         0.67176E+06
         0.89564E+06
         0.60590E+05
         0.13194E+05
         0.56747E+06
         0.95252E+06
         0.11711E+06
        -0.38300E+06
        -0.81707E+06
        -0.34411E+06
        -0.25686E+07
        -0.25028E+07
        -0.13954E+07
        -0.72794E+06
         0.51724E+06
        -0.99755E+05
         0.98646E+06
         0.14558E+07
         0.73648E+06
         0.51115E+06
         0.81776E+06
         0.13270E+06
         0.89727E+05
         0.29809E+06
         0.77663E+06
         0.43887E+06
         0.49780E+06
         0.71600E+05
         0.18508E+06
         0.48694E+06
         0.56487E+06
         0.66021E+06
         0.83656E+06
         0.12475E+07
         0.13402E+07
         0.15877E+07
         0.38470E+06
         0.14918E+07
         0.80188E+06
         0.16494E+07
         0.23384E+07
         0.28047E+07
         0.24834E+07
         0.26077E+07
         0.23179E+07
         0.18670E+07
         0.16918E+07
         0.14807E+07
         0.11162E+07
         0.16101E+07
         0.85615E+06
         0.23388E+06
         0.31812E+06
         0.44945E+06
         0.68611E+06
         0.14142E+07
         0.14277E+07
         0.11627E+07
         0.78653E+06
         0.78162E+06
         0.12610E+07
         0.16982E+07
         0.14129E+07
         0.67534E+06
         0.80019E+06
         0.11624E+07
         0.12145E+07
         0.15807E+07
        -0.25524E+06
        -0.28782E+04
         0.15008E+07
        -0.17511E+06
        -0.88640E+06
         0.84764E+06
         0.97383E+06
        -0.17211E+07
         0.36681E+06
         0.64851E+06
         0.66528E+06
         0.90945E+06
         0.68774E+05
         0.19160E+05
         0.57574E+06
         0.96255E+06
         0.11843E+06
        -0.38437E+06
        -0.84248E+06
        -0.35345E+06
        -0.25721E+07
        -0.25075E+07
        -0.13912E+07
        -0.73011E+06
         0.48261E+06
        -0.12115E+06
         0.95938E+06
         0.14531E+07
         0.74370E+06
         0.51192E+06
         0.81642E+06
         0.14500E+06
         0.10183E+06
         0.31120E+06
         0.78954E+06
         0.44693E+06
         0.50421E+06
         0.67799E+05
         0.18087E+06
         0.48431E+06
         0.54937E+06
         0.62248E+06
         0.79209E+06
         0.12250E+07
         0.13356E+07
         0.15925E+07
         0.40590E+06
         0.15137E+07
         0.81968E+06
         0.16613E+07
         0.23508E+07
         0.28215E+07
         0.25025E+07
         0.26262E+07
         0.23392E+07
         0.18950E+07
         0.17164E+07
         0.14955E+07
         0.11330E+07
         0.16276E+07
         0.87293E+06
         0.24725E+06
         0.32777E+06
         0.45897E+06
         0.69751E+06
         0.14221E+07
         0.14259E+07
         0.11518E+07
         0.77926E+06
         0.78512E+06
         0.12716E+07
         0.17135E+07
         0.13655E+07
         0.64180E+06
         0.78089E+06
         0.11578E+07
         0.12081E+07
         0.15796E+07
        -0.28013E+06
        -0.45045E+05
         0.14536E+07
        -0.23018E+06
        -0.90324E+06
         0.84222E+06
         0.96447E+06
        -0.17456E+07
         0.36342E+06
         0.63963E+06
         0.64068E+06
         0.90663E+06
         0.62246E+05
         0.89947E+04
         0.57183E+06
         0.95975E+06
         0.11397E+06
        -0.39269E+06
        -0.87955E+06
        -0.37032E+06
        -0.25993E+07
        -0.25287E+07
        -0.13975E+07
        -0.73966E+06
         0.43388E+06
        -0.15628E+06
         0.91831E+06
         0.14375E+07
         0.73431E+06
         0.49870E+06
         0.80270E+06
         0.13625E+06
         0.93466E+05
         0.30666E+06
         0.78761E+06
         0.44612E+06
         0.50373E+06
         0.58499E+05
         0.16266E+06
         0.46161E+06
         0.51361E+06
         0.56576E+06
         0.72920E+06
         0.11859E+07
         0.13175E+07
         0.15853E+07
         0.39690E+06
         0.15067E+07
         0.81437E+06
         0.16553E+07
         0.23421E+07
         0.28112E+07
         0.24938E+07
         0.26188E+07
         0.23317E+07
         0.18894E+07
         0.17119E+07
         0.14901E+07
         0.11320E+07
         0.16262E+07
         0.86928E+06
         0.24526E+06
         0.32361E+06
         0.44408E+06
         0.67519E+06
         0.13976E+07
         0.13980E+07
         0.11172E+07
         0.74902E+06
         0.76898E+06
         0.12629E+07
         0.17067E+07
         0.13517E+07
         0.62935E+06
         0.77312E+06
         0.11514E+07
         0.12012E+07
         0.15720E+07
        -0.29256E+06
        -0.59321E+05
         0.14406E+07
        -0.24554E+06
        -0.91519E+06
         0.83458E+06
         0.95525E+06
        -0.17600E+07
         0.35737E+06
         0.63172E+06
         0.63112E+06
         0.89980E+06
         0.56275E+05
         0.99916E+03
         0.56566E+06
         0.95317E+06
         0.10807E+06
        -0.39905E+06
        -0.89123E+06
        -0.37990E+06
        -0.26107E+07
        -0.25399E+07
        -0.14088E+07
        -0.74869E+06
         0.41836E+06
        -0.17022E+06
         0.90480E+06
         0.14289E+07
         0.72642E+06
         0.49153E+06
         0.79432E+06
         0.12505E+06
         0.83599E+05
         0.29602E+06
         0.77703E+06
         0.43757E+06
         0.49819E+06
         0.50207E+05
         0.15179E+06
         0.45103E+06
         0.50186E+06
         0.55172E+06
         0.71304E+06
         0.11722E+07
         0.13062E+07
         0.15762E+07
         0.38458E+06
         0.14947E+07
         0.80624E+06
         0.16470E+07
         0.23320E+07
         0.28024E+07
         0.24848E+07
         0.26062E+07
         0.23150E+07
         0.18719E+07
         0.16961E+07
         0.14830E+07
         0.11262E+07
         0.16137E+07
         0.85637E+06
         0.23311E+06
         0.30783E+06
         0.42906E+06
         0.66247E+06
         0.13873E+07
         0.13895E+07
         0.11057E+07
         0.73376E+06
         0.75470E+06
         0.12510E+07
         0.16949E+07
         0.13607E+07
         0.63779E+06
         0.77958E+06
         0.11541E+07
         0.12085E+07
         0.15738E+07
        -0.28338E+06
        -0.48085E+05
         0.14510E+07
        -0.23313E+06
        -0.90661E+06
         0.84228E+06
         0.96144E+06
        -0.17492E+07
         0.36980E+06
         0.64367E+06
         0.64151E+06
         0.90601E+06
         0.68189E+05
         0.10891E+05
         0.57410E+06
         0.96120E+06
         0.11685E+06
        -0.38770E+06
        -0.87881E+06
        -0.36924E+06
        -0.25936E+07
        -0.25266E+07
        -0.13986E+07
        -0.73819E+06
         0.42833E+06
        -0.16228E+06
         0.91091E+06
         0.14322E+07
         0.73577E+06
         0.49964E+06
         0.80074E+06
         0.13439E+06
         0.92263E+05
         0.30356E+06
         0.78476E+06
         0.44615E+06
         0.50677E+06
         0.58570E+05
         0.15892E+06
         0.45790E+06
         0.50966E+06
         0.56158E+06
         0.72240E+06
         0.11796E+07
         0.13109E+07
         0.15782E+07
         0.40267E+06
         0.15125E+07
         0.81682E+06
         0.16514E+07
         0.23408E+07
         0.28160E+07
         0.25000E+07
         0.26171E+07
         0.23192E+07
         0.18783E+07
         0.17077E+07
         0.14995E+07
         0.11409E+07
         0.16233E+07
         0.86540E+06
         0.24351E+06
         0.31832E+06
         0.44190E+06
         0.67463E+06
         0.14016E+07
         0.14043E+07
         0.11190E+07
         0.74473E+06
         0.76442E+06
         0.12607E+07
         0.17055E+07
         0.13586E+07
         0.63707E+06
         0.77824E+06
         0.11500E+07
         0.12070E+07
         0.15695E+07
        -0.28455E+06
        -0.51544E+05
         0.14451E+07
        -0.23806E+06
        -0.91164E+06
         0.83766E+06
         0.96017E+06
        -0.17573E+07
         0.36342E+06
         0.63860E+06
         0.63557E+06
         0.89873E+06
         0.63297E+05
         0.46138E+04
         0.57093E+06
         0.95701E+06
         0.11383E+06
        -0.39186E+06
        -0.88057E+06
        -0.37317E+06
        -0.25970E+07
        -0.25278E+07
        -0.14011E+07
        -0.74190E+06
         0.42388E+06
        -0.16657E+06
         0.90337E+06
         0.14259E+07
         0.73299E+06
         0.49639E+06
         0.79876E+06
         0.12481E+06
         0.87326E+05
         0.29861E+06
         0.77977E+06
         0.44302E+06
         0.50206E+06
         0.56316E+05
         0.15642E+06
         0.45456E+06
         0.50424E+06
         0.55520E+06
         0.71557E+06
         0.11741E+07
         0.13064E+07
         0.15729E+07
         0.39730E+06
         0.15082E+07
         0.80832E+06
         0.16441E+07
         0.23398E+07
         0.28109E+07
         0.24882E+07
         0.26039E+07
         0.23114E+07
         0.18666E+07
         0.16950E+07
         0.14932E+07
         0.11333E+07
         0.16191E+07
         0.86152E+06
         0.23994E+06
         0.31781E+06
         0.43941E+06
         0.67097E+06
         0.13919E+07
         0.13922E+07
         0.11096E+07
         0.73990E+06
         0.76198E+06
         0.12553E+07
         0.16979E+07
         0.13524E+07
         0.63070E+06
         0.77390E+06
         0.11479E+07
         0.12021E+07
         0.15667E+07
        -0.28938E+06
        -0.56911E+05
         0.14399E+07
        -0.24296E+06
        -0.91730E+06
         0.83152E+06
         0.95607E+06
        -0.17640E+07
         0.35689E+06
         0.63140E+06
         0.63101E+06
         0.89445E+06
         0.57241E+05
        -0.18787E+03
         0.56684E+06
         0.95275E+06
         0.10920E+06
        -0.39838E+06
        -0.88226E+06
        -0.38065E+06
        -0.25994E+07
        -0.25306E+07
        -0.14042E+07
        -0.74438E+06
         0.41724E+06
        -0.17359E+06
         0.89893E+06
         0.14250E+07
         0.72605E+06
         0.49073E+06
         0.79423E+06
         0.11556E+06
         0.81654E+05
         0.29439E+06
         0.77703E+06
         0.44039E+06
         0.49776E+06
         0.51924E+05
         0.15193E+06
         0.45006E+06
         0.49919E+06
         0.54969E+06
         0.70902E+06
         0.11692E+07
         0.13021E+07
         0.15705E+07
         0.38665E+06
         0.14994E+07
         0.80185E+06
         0.16420E+07
         0.23369E+07
         0.28007E+07
         0.24734E+07
         0.25919E+07
         0.23033E+07
         0.18582E+07
         0.16898E+07
         0.14870E+07
         0.11241E+07
         0.16129E+07
         0.85504E+06
         0.23253E+06
         0.31291E+06
         0.43365E+06
         0.66377E+06
         0.13839E+07
         0.13830E+07
         0.11000E+07
         0.73297E+06
         0.75534E+06
         0.12471E+07
         0.16893E+07
         0.13567E+07
         0.63335E+06
         0.77645E+06
         0.11523E+07
         0.12070E+07
         0.15716E+07
        -0.28332E+06
        -0.48954E+05
         0.14454E+07
        -0.23680E+06
        -0.90916E+06
         0.83679E+06
         0.95806E+06
        -0.17543E+07
         0.36843E+06
         0.63808E+06
         0.63555E+06
         0.90063E+06
         0.64513E+05
         0.76902E+04
         0.57359E+06
         0.95992E+06
         0.11516E+06
        -0.39139E+06
        -0.87518E+06
        -0.37386E+06
        -0.25883E+07
        -0.25220E+07
        -0.13927E+07
        -0.73298E+06
         0.42524E+06
        -0.16818E+06
         0.90642E+06
         0.14327E+07
         0.73190E+06
         0.49592E+06
         0.79689E+06
         0.12321E+06
         0.90253E+05
         0.30503E+06
         0.78561E+06
         0.44698E+06
         0.50468E+06
         0.57092E+05
         0.15626E+06
         0.45391E+06
         0.50397E+06
         0.55569E+06
         0.71493E+06
         0.11754E+07
         0.13069E+07
         0.15764E+07
         0.39986E+06
         0.15137E+07
         0.81530E+06
         0.16486E+07
         0.23347E+07
         0.28014E+07
         0.24839E+07
         0.26037E+07
         0.23112E+07
         0.18702E+07
         0.17012E+07
         0.14924E+07
         0.11340E+07
         0.16229E+07
         0.86416E+06
         0.23957E+06
         0.31765E+06
         0.43953E+06
         0.66928E+06
         0.13925E+07
         0.13932E+07
         0.11099E+07
         0.74140E+06
         0.76247E+06
         0.12577E+07
         0.17017E+07
         0.13540E+07
         0.62826E+06
         0.77226E+06
         0.11476E+07
         0.12020E+07
         0.15657E+07
        -0.28954E+06
        -0.53757E+05
         0.14414E+07
        -0.24319E+06
        -0.91734E+06
         0.82915E+06
         0.94961E+06
        -0.17642E+07
         0.36391E+06
         0.63234E+06
         0.62949E+06
         0.89287E+06
         0.57028E+05
         0.33432E+03
         0.56614E+06
         0.95223E+06
         0.10720E+06
        -0.39892E+06
        -0.88110E+06
        -0.38041E+06
        -0.25980E+07
        -0.25327E+07
        -0.14010E+07
        -0.73812E+06
         0.41909E+06
        -0.17482E+06
         0.89739E+06
         0.14271E+07
         0.72528E+06
         0.48935E+06
         0.78947E+06
         0.11307E+06
         0.80347E+05
         0.29597E+06
         0.77576E+06
         0.43760E+06
         0.49729E+06
         0.48007E+05
         0.14800E+06
         0.44730E+06
         0.49673E+06
         0.54701E+06
         0.70670E+06
         0.11700E+07
         0.13013E+07
         0.15703E+07
         0.38934E+06
         0.15047E+07
         0.80506E+06
         0.16368E+07
         0.23210E+07
         0.27884E+07
         0.24759E+07
         0.25934E+07
         0.22976E+07
         0.18567E+07
         0.16848E+07
         0.14762E+07
         0.11230E+07
         0.16115E+07
         0.85448E+06
         0.22859E+06
         0.30069E+06
         0.42444E+06
         0.66165E+06
         0.13820E+07
         0.13823E+07
         0.11043E+07
         0.73747E+06
         0.75429E+06
         0.12466E+07
         0.16907E+07
         0.13536E+07
         0.62659E+06
         0.77119E+06
         0.11466E+07
         0.12014E+07
         0.15638E+07
        -0.29026E+06
        -0.53659E+05
         0.14429E+07
        -0.24181E+06
        -0.91850E+06
         0.82811E+06
         0.94839E+06
        -0.17653E+07
         0.36468E+06
         0.63151E+06
         0.63045E+06
         0.89107E+06
         0.56542E+05
        -0.47965E+03
         0.56460E+06
         0.95104E+06
         0.10549E+06
        -0.40030E+06
        -0.87954E+06
        -0.38225E+06
        -0.25956E+07
        -0.25341E+07
        -0.14028E+07
        -0.73849E+06
         0.41609E+06
        -0.17745E+06
         0.89352E+06
         0.14261E+07
         0.72387E+06
         0.48722E+06
         0.78721E+06
         0.10859E+06
         0.75268E+05
         0.29283E+06
         0.77493E+06
         0.43702E+06
         0.49637E+06
         0.46599E+05
         0.14652E+06
         0.44579E+06
         0.49446E+06
         0.54365E+06
         0.70301E+06
         0.11687E+07
         0.13001E+07
         0.15688E+07
         0.38897E+06
         0.15048E+07
         0.80228E+06
         0.16322E+07
         0.23207E+07
         0.27881E+07
         0.24726E+07
         0.25847E+07
         0.22877E+07
         0.18513E+07
         0.16842E+07
         0.14747E+07
         0.11203E+07
         0.16071E+07
         0.84944E+06
         0.22511E+06
         0.29843E+06
         0.42249E+06
         0.65947E+06
         0.13782E+07
         0.13774E+07
         0.11011E+07
         0.73704E+06
         0.75313E+06
         0.12416E+07
         0.16862E+07
         0.13669E+07
         0.64263E+06
         0.78491E+06
         0.11573E+07
         0.12159E+07
         0.15757E+07
        -0.27107E+06
        -0.37474E+05
         0.14552E+07
        -0.22788E+06
        -0.89915E+06
         0.84477E+06
         0.96401E+06
        -0.17473E+07
         0.38166E+06
         0.64555E+06
         0.64443E+06
         0.90281E+06
         0.72166E+05
         0.15980E+05
         0.57949E+06
         0.96524E+06
         0.11998E+06
        -0.38519E+06
        -0.86057E+06
        -0.36723E+06
        -0.25741E+07
        -0.25115E+07
        -0.13809E+07
        -0.71829E+06
         0.43162E+06
        -0.16222E+06
         0.90531E+06
         0.14363E+07
         0.73920E+06
         0.50237E+06
         0.80140E+06
         0.12021E+06
         0.90972E+05
         0.30960E+06
         0.78907E+06
         0.45158E+06
         0.50916E+06
         0.62274E+05
         0.16266E+06
         0.46081E+06
         0.50956E+06
         0.55877E+06
         0.71574E+06
         0.11801E+07
         0.13104E+07
         0.15791E+07
         0.41305E+06
         0.15288E+07
         0.82241E+06
         0.16468E+07
         0.23384E+07
         0.28104E+07
         0.24913E+07
         0.25991E+07
         0.23039E+07
         0.18689E+07
         0.17001E+07
         0.14934E+07
         0.11354E+07
         0.16239E+07
         0.86852E+06
         0.24490E+06
         0.32063E+06
         0.44619E+06
         0.67983E+06
         0.13994E+07
         0.13957E+07
         0.11148E+07
         0.75193E+06
         0.77089E+06
         0.12609E+07
         0.17057E+07
         0.13616E+07
         0.63804E+06
         0.78103E+06
         0.11515E+07
         0.12097E+07
         0.15697E+07
        -0.27656E+06
        -0.43845E+05
         0.14490E+07
        -0.23625E+06
        -0.90717E+06
         0.83890E+06
         0.96036E+06
        -0.17577E+07
         0.37497E+06
         0.63807E+06
         0.63663E+06
         0.89645E+06
         0.62204E+05
         0.70031E+04
         0.57453E+06
         0.95822E+06
         0.11510E+06
        -0.39429E+06
        -0.86796E+06
        -0.37652E+06
        -0.25827E+07
        -0.25187E+07
        -0.13821E+07
        -0.72163E+06
         0.42729E+06
        -0.16974E+06
         0.89899E+06
         0.14294E+07
         0.73064E+06
         0.49640E+06
         0.79777E+06
         0.10865E+06
         0.83149E+05
         0.30608E+06
         0.78297E+06
         0.44437E+06
         0.50062E+06
         0.55531E+05
         0.15547E+06
         0.45462E+06
         0.50355E+06
         0.55393E+06
         0.70872E+06
         0.11720E+07
         0.13036E+07
         0.15729E+07
         0.39756E+06
         0.15158E+07
         0.81059E+06
         0.16406E+07
         0.23362E+07
         0.28046E+07
         0.24785E+07
         0.25835E+07
         0.22888E+07
         0.18555E+07
         0.16843E+07
         0.14753E+07
         0.11223E+07
         0.16174E+07
         0.86553E+06
         0.24305E+06
         0.31449E+06
         0.43554E+06
         0.67183E+06
         0.13899E+07
         0.13869E+07
         0.11048E+07
         0.74128E+06
         0.76406E+06
         0.12546E+07
         0.16953E+07
         0.13526E+07
         0.62634E+06
         0.76991E+06
         0.11434E+07
         0.11998E+07
         0.15586E+07
        -0.28598E+06
        -0.51508E+05
         0.14397E+07
        -0.25234E+06
        -0.91695E+06
         0.82940E+06
         0.95211E+06
        -0.17683E+07
         0.36639E+06
         0.62883E+06
         0.62441E+06
         0.88912E+06
         0.54084E+05
         0.25907E+04
         0.56838E+06
         0.95001E+06
         0.10920E+06
        -0.40208E+06
        -0.88298E+06
        -0.38562E+06
        -0.26032E+07
        -0.25306E+07
        -0.13565E+07
        -0.70700E+06
         0.41899E+06
        -0.18029E+06
         0.89272E+06
         0.14247E+07
         0.72099E+06
         0.48655E+06
         0.78905E+06
         0.91206E+05
         0.75477E+05
         0.32159E+06
         0.78269E+06
         0.43653E+06
         0.48916E+06
         0.48238E+05
         0.14631E+06
         0.44466E+06
         0.49302E+06
         0.54524E+06
         0.70073E+06
         0.11655E+07
         0.12976E+07
         0.15654E+07
         0.38721E+06
         0.15063E+07
         0.80254E+06
         0.16336E+07
         0.23265E+07
         0.27888E+07
         0.24604E+07
         0.25661E+07
         0.22735E+07
         0.18519E+07
         0.16568E+07
         0.14320E+07
         0.11040E+07
         0.16072E+07
         0.85652E+06
         0.23509E+06
         0.30466E+06
         0.42437E+06
         0.65870E+06
         0.13751E+07
         0.13768E+07
         0.10954E+07
         0.73043E+06
         0.75595E+06
         0.12422E+07
         0.16815E+07
         0.13653E+07
         0.64109E+06
         0.78478E+06
         0.11564E+07
         0.12152E+07
         0.15716E+07
        -0.26909E+06
        -0.35581E+05
         0.14485E+07
        -0.25366E+06
        -0.89953E+06
         0.84184E+06
         0.96371E+06
        -0.17513E+07
         0.38159E+06
         0.64300E+06
         0.63421E+06
         0.90012E+06
         0.72095E+05
         0.29786E+05
         0.58078E+06
         0.96241E+06
         0.12087E+06
        -0.38579E+06
        -0.87649E+06
        -0.36927E+06
        -0.26064E+07
        -0.25164E+07
        -0.12781E+07
        -0.64674E+06
         0.43233E+06
        -0.16481E+06
         0.90424E+06
         0.14381E+07
         0.73740E+06
         0.50345E+06
         0.80245E+06
         0.92922E+05
         0.93251E+05
         0.37761E+06
         0.80957E+06
         0.45123E+06
         0.49665E+06
         0.61709E+05
         0.16209E+06
         0.46134E+06
         0.50876E+06
         0.55908E+06
         0.71476E+06
         0.11811E+07
         0.13113E+07
         0.15777E+07
         0.41199E+06
         0.15307E+07
         0.82738E+06
         0.16510E+07
         0.23375E+07
         0.28015E+07
         0.24779E+07
         0.25841E+07
         0.22933E+07
         0.18903E+07
         0.16478E+07
         0.13971E+07
         0.11053E+07
         0.16212E+07
         0.86817E+06
         0.24483E+06
         0.31668E+06
         0.44422E+06
         0.68304E+06
         0.13978E+07
         0.13966E+07
         0.11159E+07
         0.75335E+06
         0.77720E+06
         0.12594E+07
         0.16996E+07
         0.13189E+07
         0.58696E+06
         0.73249E+06
         0.11066E+07
         0.11598E+07
         0.15124E+07
        -0.32806E+06
        -0.89803E+05
         0.13927E+07
        -0.32056E+06
        -0.96608E+06
         0.78279E+06
         0.90520E+06
        -0.18225E+07
         0.32268E+06
         0.59127E+06
         0.57396E+06
         0.84920E+06
         0.12762E+05
        -0.26771E+05
         0.52644E+06
         0.90808E+06
         0.66920E+05
        -0.44316E+06
        -0.94571E+06
        -0.42367E+06
        -0.26884E+07
        -0.25846E+07
        -0.13082E+07
        -0.68611E+06
         0.38085E+06
        -0.22135E+06
         0.85077E+06
         0.13824E+07
         0.67796E+06
         0.44133E+06
         0.74297E+06
         0.22361E+05
         0.34748E+05
         0.34230E+06
         0.75768E+06
         0.39380E+06
         0.43885E+06
         0.69221E+04
         0.10263E+06
         0.39907E+06
         0.44796E+06
         0.50084E+06
         0.65446E+06
         0.11179E+07
         0.12494E+07
         0.15164E+07
         0.32510E+06
         0.14466E+07
         0.74033E+06
         0.15624E+07
         0.22496E+07
         0.27173E+07
         0.23920E+07
         0.24909E+07
         0.22057E+07
         0.18110E+07
         0.15372E+07
         0.12767E+07
         0.10184E+07
         0.15486E+07
         0.79298E+06
         0.16729E+06
         0.23683E+06
         0.35556E+06
         0.59152E+06
         0.13103E+07
         0.13146E+07
         0.10370E+07
         0.67299E+06
         0.69436E+06
         0.11801E+07
         0.16208E+07
         0.13457E+07
         0.59072E+06
         0.74260E+06
         0.11262E+07
         0.11783E+07
         0.15311E+07
        -0.31908E+06
        -0.56006E+05
         0.14311E+07
        -0.26969E+06
        -0.94764E+06
         0.78393E+06
         0.89038E+06
        -0.17797E+07
         0.34989E+06
         0.63213E+06
         0.61429E+06
         0.87648E+06
         0.45185E+05
         0.64841E+04
         0.55114E+06
         0.92673E+06
         0.10576E+06
        -0.40011E+06
        -0.88073E+06
        -0.38356E+06
        -0.26181E+07
        -0.25061E+07
        -0.12426E+07
        -0.62532E+06
         0.41353E+06
        -0.19649E+06
         0.86537E+06
         0.13745E+07
         0.68721E+06
         0.43658E+06
         0.72607E+06
         0.56101E+05
         0.78699E+05
         0.38128E+06
         0.78144E+06
         0.42674E+06
         0.47354E+06
         0.44422E+05
         0.12431E+06
         0.40869E+06
         0.45722E+06
         0.52584E+06
         0.67368E+06
         0.11187E+07
         0.12532E+07
         0.15174E+07
         0.35837E+06
         0.14899E+07
         0.75122E+06
         0.15432E+07
         0.22101E+07
         0.26933E+07
         0.24312E+07
         0.25317E+07
         0.22382E+07
         0.18301E+07
         0.15425E+07
         0.12932E+07
         0.10513E+07
         0.15650E+07
         0.82716E+06
         0.21584E+06
         0.27806E+06
         0.38689E+06
         0.60508E+06
         0.13087E+07
         0.13328E+07
         0.10632E+07
         0.71420E+06
         0.74454E+06
         0.12195E+07
         0.16617E+07
         0.18040E+09
         0.21127E+09
         0.20981E+09
         0.19191E+09
         0.21369E+09
         0.22167E+09
         0.22773E+09
         0.20481E+09
         0.19996E+09
         0.20646E+09
         0.25301E+09
         0.22541E+09
         0.21299E+09
         0.25211E+09
         0.22886E+09
         0.18905E+09
         0.20943E+09
         0.18334E+09
         0.21772E+09
         0.22771E+09
         0.19463E+09
         0.19928E+09
         0.19013E+09
         0.20788E+09
         0.23148E+09
         0.19915E+09
         0.24950E+09
         0.24924E+09
         0.25072E+09
         0.23728E+09
         0.19656E+09
         0.20618E+09
         0.19291E+09
         0.20185E+09
         0.22178E+09
         0.22699E+09
         0.21259E+09
         0.22455E+09
         0.22739E+09
         0.22862E+09
         0.21982E+09
         0.21174E+09
         0.20092E+09
         0.19126E+09
         0.20522E+09
         0.21928E+09
         0.21950E+09
         0.21432E+09
         0.22325E+09
         0.22114E+09
         0.21472E+09
         0.21653E+09
         0.31743E+09
         0.31031E+09
         0.31454E+09
         0.30480E+09
         0.31280E+09
         0.32631E+09
         0.32876E+09
         0.32829E+09
         0.33158E+09
         0.33873E+09
         0.32903E+09
         0.31056E+09
         0.28073E+09
         0.26655E+09
         0.26775E+09
         0.27203E+09
         0.27460E+09
         0.29679E+09
         0.31890E+09
         0.31962E+09
         0.29606E+09
         0.28697E+09
         0.29551E+09
         0.29323E+09
         0.29048E+09
         0.29130E+09
         0.15309E+10
         0.16078E+10
         0.15888E+10
         0.14743E+10
         0.17440E+10
         0.16603E+10
         0.17252E+10
         0.17206E+10
         0.15151E+10
         0.17206E+10
         0.18679E+10
         0.20264E+10
         0.18674E+10
         0.19103E+10
         0.20865E+10
         0.14855E+10
         0.15896E+10
         0.14209E+10
         0.16317E+10
         0.17078E+10
         0.17241E+10
         0.17609E+10
         0.16668E+10
         0.15811E+10
         0.17473E+10
         0.15367E+10
         0.19042E+10
         0.18840E+10
         0.18902E+10
         0.18002E+10
         0.15029E+10
         0.15759E+10
         0.14844E+10
         0.15421E+10
         0.18799E+10
         0.17574E+10
         0.17556E+10
         0.20360E+10
         0.19997E+10
         0.19815E+10
         0.19983E+10
         0.19120E+10
         0.18181E+10
         0.16386E+10
         0.17030E+10
         0.18761E+10
         0.17646E+10
         0.16763E+10
         0.16519E+10
         0.17011E+10
         0.18131E+10
         0.17031E+10
         0.27670E+10
         0.26966E+10
         0.27454E+10
         0.26633E+10
         0.27331E+10
         0.28604E+10
         0.29080E+10
         0.29128E+10
         0.29352E+10
         0.29932E+10
         0.29119E+10
         0.27459E+10
         0.24906E+10
         0.23646E+10
         0.23623E+10
         0.23851E+10
         0.24038E+10
         0.25901E+10
         0.27725E+10
         0.27804E+10
         0.25910E+10
         0.25189E+10
         0.25929E+10
         0.25778E+10
         0.25471E+10
         0.25414E+10
  
SCALARS                      stress_yz  double 1
LOOKUP_TABLE default
         0.30105E+06
        -0.10014E+06
        -0.26018E+06
        -0.13381E+06
        -0.34805E+01
        -0.95930E+00
        -0.43134E+01
        -0.32900E+01
        -0.97520E+06
         0.64140E+06
        -0.64192E+01
        -0.56513E+01
        -0.85548E+06
        -0.43500E+05
         0.45940E+01
        -0.29454E+00
         0.29411E+06
         0.10962E+07
         0.67588E-01
         0.69156E+00
        -0.56886E+06
        -0.21413E+07
        -0.22260E+07
         0.10531E+02
         0.18187E+02
         0.15202E+02
        -0.21106E+06
        -0.21709E+07
         0.75751E+01
         0.14696E+02
         0.33613E+06
         0.29299E+06
        -0.24886E+06
         0.39271E+01
         0.40089E+01
        -0.83228E-01
         0.99893E+06
         0.96264E+06
         0.72265E+01
         0.56225E+01
         0.98198E+06
         0.62508E+06
         0.54614E+01
         0.49910E+01
         0.89056E+06
         0.30704E+06
        -0.18117E+00
         0.28022E+01
         0.82693E+06
         0.13194E+01
         0.81495E+05
        -0.10686E+00
         0.48719E+05
         0.51035E+01
        -0.32288E+06
         0.29688E+01
        -0.10530E+07
         0.18699E+06
         0.80541E-01
        -0.16347E+00
         0.40762E+06
         0.14873E+07
        -0.10974E+01
        -0.41047E+01
         0.24614E+06
        -0.22150E+01
         0.10567E+07
        -0.26984E+01
        -0.85825E+06
        -0.45460E+06
        -0.33348E+00
         0.44031E+01
        -0.15895E+07
         0.96685E+01
        -0.27557E+07
         0.93615E+01
        -0.27810E+07
         0.71064E+01
        -0.22909E+07
         0.59564E+01
        -0.33599E+07
        -0.25787E+07
         0.38210E+01
        -0.84718E+00
        -0.36064E+06
        -0.94795E-01
         0.13917E+07
        -0.59383E+01
         0.32894E+07
        -0.10396E+02
         0.45965E+07
         0.28492E+07
        -0.15419E+02
        -0.12480E+02
         0.20039E+07
        -0.96878E+01
         0.17980E+07
        -0.99113E+01
         0.17497E+07
        -0.10657E+02
         0.29116E+07
         0.24197E+07
        -0.99102E+01
        -0.47485E+01
        -0.19532E+07
         0.73933E+06
         0.34846E+01
        -0.43303E+01
        -0.48018E+07
         0.11592E+02
        -0.68740E+07
         0.16957E+02
        -0.84161E+07
         0.20942E+02
        -0.98705E+07
         0.20773E+02
        -0.11620E+08
         0.16439E+02
        -0.11878E+08
         0.12722E+02
        -0.11185E+08
         0.11832E+02
        -0.99525E+07
         0.11258E+02
        -0.72583E+07
         0.71944E+01
        -0.49017E+07
         0.23753E+01
        -0.24590E+07
         0.15348E+01
         0.17689E+06
         0.23070E+01
         0.23463E+07
         0.11915E+01
         0.42092E+07
        -0.36034E+01
         0.65141E+07
        -0.10171E+02
         0.73296E+07
        -0.15882E+02
         0.80175E+07
        -0.20821E+02
         0.10243E+08
        -0.20803E+02
         0.10609E+08
        -0.18161E+02
         0.98040E+07
        -0.17699E+02
         0.79737E+07
        -0.17809E+02
         0.54211E+07
        -0.14083E+02
         0.38397E+07
        -0.83279E+01
         0.27612E+07
        -0.64392E+01
        -0.27975E+07
        -0.14472E+07
        -0.12634E+07
        -0.39227E+06
        -0.12941E+07
        -0.13764E+07
        -0.14507E+06
        -0.22301E+07
        -0.19139E+07
        -0.28076E+07
         0.14654E+07
         0.62507E+07
         0.42718E+07
         0.49548E+06
         0.63153E+07
         0.74103E+06
        -0.65652E+06
         0.42271E+06
         0.55165E+06
        -0.41703E+06
         0.38287E+06
         0.31572E+06
        -0.10606E+07
         0.89403E+05
        -0.19169E+07
         0.28339E+06
         0.14669E+05
         0.25648E+06
         0.31114E+06
        -0.15024E+07
         0.72331E+06
        -0.78443E+06
         0.52601E+06
        -0.12810E+06
         0.21116E+06
         0.11452E+07
         0.25688E+07
         0.55510E+07
         0.50720E+07
         0.42835E+07
         0.40316E+07
         0.10024E+07
        -0.82084E+06
        -0.22512E+07
        -0.37179E+07
        -0.60670E+07
        -0.39843E+07
        -0.28597E+07
        -0.30509E+07
        -0.32392E+07
        -0.37967E+07
        -0.17368E+07
         0.32615E+07
        -0.39235E+07
         0.10624E+08
         0.14681E+08
         0.18713E+08
         0.22210E+08
         0.22323E+08
         0.20208E+08
         0.19231E+08
         0.18174E+08
         0.11739E+08
         0.51594E+07
         0.22713E+07
         0.10015E+07
        -0.15341E+07
        -0.60656E+07
        -0.11147E+08
        -0.14542E+08
        -0.17583E+08
        -0.20165E+08
        -0.19002E+08
        -0.17964E+08
        -0.16712E+08
        -0.11619E+08
        -0.67900E+07
        -0.59627E+07
        -0.16066E+09
        -0.13666E+09
        -0.12646E+09
        -0.29995E+08
        -0.11748E+09
        -0.73870E+08
        -0.58577E+08
        -0.15427E+09
        -0.13429E+09
        -0.15357E+09
         0.10183E+09
         0.17409E+09
         0.13360E+09
         0.37140E+08
         0.16425E+09
         0.82169E+08
        -0.24901E+08
         0.23773E+08
         0.10715E+09
         0.20717E+08
         0.45725E+08
         0.34479E+08
        -0.20496E+08
         0.32087E+08
        -0.12970E+09
         0.32080E+08
         0.80502E+07
         0.14965E+08
        -0.23904E+08
        -0.12938E+09
         0.88555E+08
         0.23327E+08
         0.57238E+08
         0.49698E+08
        -0.13284E+08
         0.66040E+08
         0.98526E+08
         0.15114E+09
         0.17074E+09
         0.16106E+09
         0.84946E+08
        -0.23022E+08
        -0.47125E+08
        -0.74988E+08
        -0.10752E+09
        -0.16320E+09
        -0.14179E+09
        -0.10950E+09
        -0.15237E+09
        -0.16666E+09
        -0.10807E+09
        -0.11598E+08
         0.34043E+08
        -0.47653E+08
         0.10649E+09
         0.13854E+09
         0.16865E+09
         0.18965E+09
         0.19290E+09
         0.18756E+09
         0.18404E+09
         0.17112E+09
         0.10946E+09
         0.36532E+08
         0.17331E+08
         0.15558E+08
        -0.66097E+07
        -0.52648E+08
        -0.10195E+09
        -0.13091E+09
        -0.17653E+09
        -0.19102E+09
        -0.18465E+09
        -0.18306E+09
        -0.17206E+09
        -0.12369E+09
        -0.62593E+08
        -0.59728E+08
        -0.16064E+09
        -0.13668E+09
        -0.12652E+09
        -0.30215E+08
        -0.11754E+09
        -0.73928E+08
        -0.58651E+08
        -0.15439E+09
        -0.13453E+09
        -0.15371E+09
         0.10189E+09
         0.17408E+09
         0.13358E+09
         0.37225E+08
         0.16430E+09
         0.82174E+08
        -0.25127E+08
         0.23738E+08
         0.10723E+09
         0.20601E+08
         0.45834E+08
         0.34514E+08
        -0.20502E+08
         0.32072E+08
        -0.13029E+09
         0.32022E+08
         0.81451E+07
         0.15049E+08
        -0.23747E+08
        -0.12965E+09
         0.88570E+08
         0.23276E+08
         0.57364E+08
         0.49780E+08
        -0.13154E+08
         0.66102E+08
         0.98543E+08
         0.15115E+09
         0.17075E+09
         0.16104E+09
         0.84959E+08
        -0.22949E+08
        -0.47168E+08
        -0.75028E+08
        -0.10755E+09
        -0.16321E+09
        -0.14181E+09
        -0.10944E+09
        -0.15216E+09
        -0.16666E+09
        -0.10808E+09
        -0.11439E+08
         0.34022E+08
        -0.47666E+08
         0.10651E+09
         0.13854E+09
         0.16866E+09
         0.18965E+09
         0.19289E+09
         0.18755E+09
         0.18405E+09
         0.17112E+09
         0.10945E+09
         0.36548E+08
         0.17332E+08
         0.15590E+08
        -0.65551E+07
        -0.52664E+08
        -0.10197E+09
        -0.13091E+09
        -0.17654E+09
        -0.19102E+09
        -0.18465E+09
        -0.18307E+09
        -0.17207E+09
        -0.12368E+09
        -0.62556E+08
        -0.59678E+08
        -0.16063E+09
        -0.13671E+09
        -0.12658E+09
        -0.30437E+08
        -0.11761E+09
        -0.73989E+08
        -0.58724E+08
        -0.15451E+09
        -0.13477E+09
        -0.15385E+09
         0.10195E+09
         0.17407E+09
         0.13356E+09
         0.37305E+08
         0.16435E+09
         0.82179E+08
        -0.25356E+08
         0.23702E+08
         0.10730E+09
         0.20483E+08
         0.45944E+08
         0.34549E+08
        -0.20511E+08
         0.32052E+08
        -0.13087E+09
         0.31956E+08
         0.82465E+07
         0.15138E+08
        -0.23574E+08
        -0.12992E+09
         0.88584E+08
         0.23214E+08
         0.57492E+08
         0.49859E+08
        -0.13023E+08
         0.66163E+08
         0.98559E+08
         0.15117E+09
         0.17075E+09
         0.16101E+09
         0.84974E+08
        -0.22869E+08
        -0.47207E+08
        -0.75075E+08
        -0.10758E+09
        -0.16322E+09
        -0.14182E+09
        -0.10938E+09
        -0.15196E+09
        -0.16665E+09
        -0.10809E+09
        -0.11281E+08
         0.34002E+08
        -0.47679E+08
         0.10653E+09
         0.13854E+09
         0.16866E+09
         0.18964E+09
         0.19289E+09
         0.18753E+09
         0.18405E+09
         0.17112E+09
         0.10945E+09
         0.36564E+08
         0.17332E+08
         0.15623E+08
        -0.65003E+07
        -0.52681E+08
        -0.10200E+09
        -0.13092E+09
        -0.17654E+09
        -0.19102E+09
        -0.18466E+09
        -0.18307E+09
        -0.17208E+09
        -0.12366E+09
        -0.62519E+08
        -0.59629E+08
        -0.16061E+09
        -0.13673E+09
        -0.12665E+09
        -0.30661E+08
        -0.11767E+09
        -0.74048E+08
        -0.58802E+08
        -0.15462E+09
        -0.13502E+09
        -0.15399E+09
         0.10201E+09
         0.17406E+09
         0.13355E+09
         0.37391E+08
         0.16440E+09
         0.82186E+08
        -0.25589E+08
         0.23665E+08
         0.10738E+09
         0.20359E+08
         0.46056E+08
         0.34579E+08
        -0.20528E+08
         0.32021E+08
        -0.13143E+09
         0.31868E+08
         0.83512E+07
         0.15255E+08
        -0.23361E+08
        -0.13016E+09
         0.88591E+08
         0.23131E+08
         0.57618E+08
         0.49940E+08
        -0.12893E+08
         0.66224E+08
         0.98575E+08
         0.15118E+09
         0.17076E+09
         0.16099E+09
         0.84995E+08
        -0.22770E+08
        -0.47236E+08
        -0.75140E+08
        -0.10762E+09
        -0.16323E+09
        -0.14183E+09
        -0.10932E+09
        -0.15176E+09
        -0.16665E+09
        -0.10810E+09
        -0.11122E+08
         0.33981E+08
        -0.47692E+08
         0.10655E+09
         0.13854E+09
         0.16867E+09
         0.18964E+09
         0.19288E+09
         0.18752E+09
         0.18405E+09
         0.17112E+09
         0.10944E+09
         0.36584E+08
         0.17333E+08
         0.15655E+08
        -0.64450E+07
        -0.52698E+08
        -0.10203E+09
        -0.13092E+09
        -0.17655E+09
        -0.19102E+09
        -0.18466E+09
        -0.18307E+09
        -0.17209E+09
        -0.12365E+09
        -0.62483E+08
        -0.59579E+08
        -0.16060E+09
        -0.13676E+09
        -0.12671E+09
        -0.30883E+08
        -0.11774E+09
        -0.74107E+08
        -0.58874E+08
        -0.15474E+09
        -0.13526E+09
        -0.15413E+09
         0.10207E+09
         0.17405E+09
         0.13353E+09
         0.37478E+08
         0.16445E+09
         0.82193E+08
        -0.25826E+08
         0.23628E+08
         0.10746E+09
         0.20228E+08
         0.46167E+08
         0.34606E+08
        -0.20554E+08
         0.31976E+08
        -0.13197E+09
         0.31758E+08
         0.84678E+07
         0.15400E+08
        -0.23105E+08
        -0.13037E+09
         0.88591E+08
         0.23022E+08
         0.57744E+08
         0.50021E+08
        -0.12762E+08
         0.66285E+08
         0.98591E+08
         0.15119E+09
         0.17076E+09
         0.16097E+09
         0.85024E+08
        -0.22651E+08
        -0.47254E+08
        -0.75226E+08
        -0.10768E+09
        -0.16325E+09
        -0.14185E+09
        -0.10926E+09
        -0.15156E+09
        -0.16665E+09
        -0.10811E+09
        -0.10962E+08
         0.33960E+08
        -0.47705E+08
         0.10657E+09
         0.13854E+09
         0.16867E+09
         0.18963E+09
         0.19287E+09
         0.18751E+09
         0.18406E+09
         0.17112E+09
         0.10944E+09
         0.36608E+08
         0.17336E+08
         0.15686E+08
        -0.63895E+07
        -0.52716E+08
        -0.10206E+09
        -0.13094E+09
        -0.17656E+09
        -0.19102E+09
        -0.18467E+09
        -0.18308E+09
        -0.17210E+09
        -0.12364E+09
        -0.62447E+08
        -0.59530E+08
        -0.16058E+09
        -0.13677E+09
        -0.12677E+09
        -0.31108E+08
        -0.11780E+09
        -0.74166E+08
        -0.58939E+08
        -0.15485E+09
        -0.13551E+09
        -0.15427E+09
         0.10214E+09
         0.17404E+09
         0.13352E+09
         0.37527E+08
         0.16450E+09
         0.82204E+08
        -0.26067E+08
         0.23591E+08
         0.10754E+09
         0.20093E+08
         0.46278E+08
         0.34630E+08
        -0.20583E+08
         0.31926E+08
        -0.13250E+09
         0.31641E+08
         0.85931E+07
         0.15559E+08
        -0.22830E+08
        -0.13057E+09
         0.88586E+08
         0.22900E+08
         0.57873E+08
         0.50106E+08
        -0.12630E+08
         0.66348E+08
         0.98609E+08
         0.15121E+09
         0.17077E+09
         0.16095E+09
         0.85055E+08
        -0.22526E+08
        -0.47268E+08
        -0.75317E+08
        -0.10774E+09
        -0.16326E+09
        -0.14186E+09
        -0.10921E+09
        -0.15137E+09
        -0.16664E+09
        -0.10812E+09
        -0.10801E+08
         0.33940E+08
        -0.47719E+08
         0.10659E+09
         0.13854E+09
         0.16868E+09
         0.18962E+09
         0.19286E+09
         0.18750E+09
         0.18406E+09
         0.17112E+09
         0.10944E+09
         0.36633E+08
         0.17339E+08
         0.15717E+08
        -0.63340E+07
        -0.52735E+08
        -0.10209E+09
        -0.13095E+09
        -0.17656E+09
        -0.19101E+09
        -0.18467E+09
        -0.18308E+09
        -0.17211E+09
        -0.12362E+09
        -0.62410E+08
        -0.59480E+08
        -0.16057E+09
        -0.13677E+09
        -0.12684E+09
        -0.31338E+08
        -0.11787E+09
        -0.74227E+08
        -0.58990E+08
        -0.15497E+09
        -0.13575E+09
        -0.15441E+09
         0.10223E+09
         0.17403E+09
         0.13350E+09
         0.37556E+08
         0.16455E+09
         0.82217E+08
        -0.26315E+08
         0.23555E+08
         0.10763E+09
         0.19959E+08
         0.46390E+08
         0.34656E+08
        -0.20612E+08
         0.31878E+08
        -0.13301E+09
         0.31523E+08
         0.87409E+07
         0.15729E+08
        -0.22551E+08
        -0.13077E+09
         0.88578E+08
         0.22770E+08
         0.58006E+08
         0.50195E+08
        -0.12498E+08
         0.66410E+08
         0.98628E+08
         0.15122E+09
         0.17078E+09
         0.16093E+09
         0.85087E+08
        -0.22398E+08
        -0.47280E+08
        -0.75408E+08
        -0.10780E+09
        -0.16327E+09
        -0.14189E+09
        -0.10918E+09
        -0.15122E+09
        -0.16664E+09
        -0.10813E+09
        -0.10638E+08
         0.33919E+08
        -0.47731E+08
         0.10661E+09
         0.13854E+09
         0.16868E+09
         0.18962E+09
         0.19286E+09
         0.18749E+09
         0.18407E+09
         0.17112E+09
         0.10944E+09
         0.36657E+08
         0.17342E+08
         0.15749E+08
        -0.62785E+07
        -0.52753E+08
        -0.10212E+09
        -0.13096E+09
        -0.17657E+09
        -0.19101E+09
        -0.18468E+09
        -0.18308E+09
        -0.17212E+09
        -0.12361E+09
        -0.62374E+08
        -0.59430E+08
        -0.16055E+09
        -0.13676E+09
        -0.12690E+09
        -0.31572E+08
        -0.11793E+09
        -0.74286E+08
        -0.59029E+08
        -0.15508E+09
        -0.13601E+09
        -0.15453E+09
         0.10232E+09
         0.17402E+09
         0.13349E+09
         0.37589E+08
         0.16460E+09
         0.82233E+08
        -0.26565E+08
         0.23517E+08
         0.10771E+09
         0.19825E+08
         0.46501E+08
         0.34682E+08
        -0.20641E+08
         0.31832E+08
        -0.13352E+09
         0.31405E+08
         0.88945E+07
         0.15902E+08
        -0.22271E+08
        -0.13097E+09
         0.88569E+08
         0.22634E+08
         0.58141E+08
         0.50287E+08
        -0.12364E+08
         0.66475E+08
         0.98648E+08
         0.15124E+09
         0.17078E+09
         0.16091E+09
         0.85119E+08
        -0.22270E+08
        -0.47291E+08
        -0.75498E+08
        -0.10787E+09
        -0.16328E+09
        -0.14192E+09
        -0.10916E+09
        -0.15107E+09
        -0.16663E+09
        -0.10813E+09
        -0.10473E+08
         0.33898E+08
        -0.47744E+08
         0.10663E+09
         0.13854E+09
         0.16869E+09
         0.18961E+09
         0.19285E+09
         0.18748E+09
         0.18407E+09
         0.17112E+09
         0.10944E+09
         0.36682E+08
         0.17345E+08
         0.15780E+08
        -0.62229E+07
        -0.52771E+08
        -0.10216E+09
        -0.13097E+09
        -0.17657E+09
        -0.19101E+09
        -0.18469E+09
        -0.18309E+09
        -0.17213E+09
        -0.12359E+09
        -0.62337E+08
        -0.59380E+08
        -0.16054E+09
        -0.13675E+09
        -0.12696E+09
        -0.31806E+08
        -0.11799E+09
        -0.74345E+08
        -0.59069E+08
        -0.15518E+09
        -0.13626E+09
        -0.15466E+09
         0.10241E+09
         0.17401E+09
         0.13348E+09
         0.37628E+08
         0.16465E+09
         0.82213E+08
        -0.26817E+08
         0.23480E+08
         0.10779E+09
         0.19690E+08
         0.46613E+08
         0.34708E+08
        -0.20669E+08
         0.31785E+08
        -0.13403E+09
         0.31289E+08
         0.90519E+07
         0.16074E+08
        -0.21991E+08
        -0.13116E+09
         0.88559E+08
         0.22500E+08
         0.58275E+08
         0.50378E+08
        -0.12230E+08
         0.66537E+08
         0.98666E+08
         0.15125E+09
         0.17079E+09
         0.16089E+09
         0.85151E+08
        -0.22143E+08
        -0.47302E+08
        -0.75588E+08
        -0.10793E+09
        -0.16330E+09
        -0.14195E+09
        -0.10913E+09
        -0.15093E+09
        -0.16662E+09
        -0.10814E+09
        -0.10308E+08
         0.33878E+08
        -0.47757E+08
         0.10665E+09
         0.13854E+09
         0.16869E+09
         0.18961E+09
         0.19284E+09
         0.18747E+09
         0.18408E+09
         0.17112E+09
         0.10944E+09
         0.36707E+08
         0.17348E+08
         0.15813E+08
        -0.61674E+07
        -0.52789E+08
        -0.10219E+09
        -0.13098E+09
        -0.17658E+09
        -0.19101E+09
        -0.18469E+09
        -0.18309E+09
        -0.17214E+09
        -0.12358E+09
        -0.62301E+08
        -0.59330E+08
        -0.16053E+09
        -0.13674E+09
        -0.12702E+09
        -0.32038E+08
        -0.11805E+09
        -0.74404E+08
        -0.59109E+08
        -0.15529E+09
        -0.13651E+09
        -0.15479E+09
         0.10250E+09
         0.17400E+09
         0.13347E+09
         0.37661E+08
         0.16470E+09
         0.82151E+08
        -0.27070E+08
         0.23442E+08
         0.10787E+09
         0.19554E+08
         0.46723E+08
         0.34733E+08
        -0.20697E+08
         0.31739E+08
        -0.13454E+09
         0.31172E+08
         0.92050E+07
         0.16245E+08
        -0.21712E+08
        -0.13136E+09
         0.88549E+08
         0.22365E+08
         0.58409E+08
         0.50470E+08
        -0.12096E+08
         0.66601E+08
         0.98686E+08
         0.15127E+09
         0.17080E+09
         0.16086E+09
         0.85183E+08
        -0.22016E+08
        -0.47315E+08
        -0.75677E+08
        -0.10800E+09
        -0.16331E+09
        -0.14199E+09
        -0.10911E+09
        -0.15078E+09
        -0.16662E+09
        -0.10814E+09
        -0.10143E+08
         0.33857E+08
        -0.47770E+08
         0.10667E+09
         0.13854E+09
         0.16870E+09
         0.18960E+09
         0.19283E+09
         0.18746E+09
         0.18408E+09
         0.17112E+09
         0.10943E+09
         0.36731E+08
         0.17352E+08
         0.15845E+08
        -0.61121E+07
        -0.52807E+08
        -0.10222E+09
        -0.13099E+09
        -0.17659E+09
        -0.19101E+09
        -0.18470E+09
        -0.18309E+09
        -0.17215E+09
        -0.12356E+09
        -0.62264E+08
        -0.59280E+08
        -0.16051E+09
        -0.13673E+09
        -0.12708E+09
        -0.32271E+08
        -0.11812E+09
        -0.74463E+08
        -0.59153E+08
        -0.15540E+09
        -0.13677E+09
        -0.15491E+09
         0.10259E+09
         0.17399E+09
         0.13345E+09
         0.37697E+08
         0.16476E+09
         0.82089E+08
        -0.27323E+08
         0.23405E+08
         0.10796E+09
         0.19417E+08
         0.46835E+08
         0.34758E+08
        -0.20726E+08
         0.31693E+08
        -0.13505E+09
         0.31055E+08
         0.93608E+07
         0.16412E+08
        -0.21434E+08
        -0.13155E+09
         0.88539E+08
         0.22231E+08
         0.58543E+08
         0.50561E+08
        -0.11962E+08
         0.66664E+08
         0.98707E+08
         0.15129E+09
         0.17080E+09
         0.16084E+09
         0.85215E+08
        -0.21890E+08
        -0.47326E+08
        -0.75766E+08
        -0.10806E+09
        -0.16332E+09
        -0.14202E+09
        -0.10909E+09
        -0.15064E+09
        -0.16661E+09
        -0.10815E+09
        -0.99766E+07
         0.33836E+08
        -0.47782E+08
         0.10669E+09
         0.13854E+09
         0.16870E+09
         0.18959E+09
         0.19282E+09
         0.18745E+09
         0.18408E+09
         0.17112E+09
         0.10943E+09
         0.36755E+08
         0.17355E+08
         0.15876E+08
        -0.60566E+07
        -0.52826E+08
        -0.10225E+09
        -0.13100E+09
        -0.17659E+09
        -0.19101E+09
        -0.18471E+09
        -0.18310E+09
        -0.17216E+09
        -0.12355E+09
        -0.62228E+08
        -0.59230E+08
        -0.16050E+09
        -0.13672E+09
        -0.12714E+09
        -0.32505E+08
        -0.11818E+09
        -0.74522E+08
        -0.59193E+08
        -0.15551E+09
        -0.13702E+09
        -0.15503E+09
         0.10268E+09
         0.17398E+09
         0.13344E+09
         0.37734E+08
         0.16481E+09
         0.82028E+08
        -0.27577E+08
         0.23367E+08
         0.10804E+09
         0.19281E+08
         0.46946E+08
         0.34782E+08
        -0.20754E+08
         0.31648E+08
        -0.13555E+09
         0.30940E+08
         0.95132E+07
         0.16579E+08
        -0.21155E+08
        -0.13175E+09
         0.88528E+08
         0.22097E+08
         0.58676E+08
         0.50654E+08
        -0.11827E+08
         0.66728E+08
         0.98725E+08
         0.15130E+09
         0.17081E+09
         0.16082E+09
         0.85246E+08
        -0.21764E+08
        -0.47337E+08
        -0.75855E+08
        -0.10812E+09
        -0.16333E+09
        -0.14205E+09
        -0.10907E+09
        -0.15050E+09
        -0.16660E+09
        -0.10815E+09
        -0.98102E+07
         0.33815E+08
        -0.47795E+08
         0.10671E+09
         0.13854E+09
         0.16871E+09
         0.18959E+09
         0.19282E+09
         0.18744E+09
         0.18409E+09
         0.17112E+09
         0.10943E+09
         0.36780E+08
         0.17358E+08
         0.15908E+08
        -0.60009E+07
        -0.52844E+08
        -0.10229E+09
        -0.13102E+09
        -0.17660E+09
        -0.19100E+09
        -0.18471E+09
        -0.18310E+09
        -0.17217E+09
        -0.12353E+09
        -0.62192E+08
        -0.59180E+08
        -0.16049E+09
        -0.13671E+09
        -0.12720E+09
        -0.32740E+08
        -0.11824E+09
        -0.74581E+08
        -0.59233E+08
        -0.15561E+09
        -0.13727E+09
        -0.15516E+09
         0.10277E+09
         0.17397E+09
         0.13343E+09
         0.37765E+08
         0.16486E+09
         0.81966E+08
        -0.27831E+08
         0.23328E+08
         0.10812E+09
         0.19146E+08
         0.47057E+08
         0.34807E+08
        -0.20782E+08
         0.31603E+08
        -0.13606E+09
         0.30823E+08
         0.96700E+07
         0.16744E+08
        -0.20877E+08
        -0.13194E+09
         0.88518E+08
         0.21961E+08
         0.58809E+08
         0.50745E+08
        -0.11693E+08
         0.66791E+08
         0.98745E+08
         0.15132E+09
         0.17081E+09
         0.16080E+09
         0.85278E+08
        -0.21638E+08
        -0.47348E+08
        -0.75944E+08
        -0.10819E+09
        -0.16334E+09
        -0.14208E+09
        -0.10905E+09
        -0.15035E+09
        -0.16660E+09
        -0.10816E+09
        -0.96438E+07
         0.33794E+08
        -0.47807E+08
         0.10673E+09
         0.13854E+09
         0.16871E+09
         0.18958E+09
         0.19281E+09
         0.18743E+09
         0.18409E+09
         0.17112E+09
         0.10943E+09
         0.36804E+08
         0.17361E+08
         0.15940E+08
        -0.59454E+07
        -0.52862E+08
        -0.10232E+09
        -0.13103E+09
        -0.17660E+09
        -0.19100E+09
        -0.18472E+09
        -0.18310E+09
        -0.17218E+09
        -0.12352E+09
        -0.62157E+08
        -0.59130E+08
        -0.16047E+09
        -0.13670E+09
        -0.12726E+09
        -0.32975E+08
        -0.11830E+09
        -0.74640E+08
        -0.59278E+08
        -0.15572E+09
        -0.13753E+09
        -0.15528E+09
         0.10286E+09
         0.17396E+09
         0.13342E+09
         0.37802E+08
         0.16491E+09
         0.81904E+08
        -0.28086E+08
         0.23290E+08
         0.10820E+09
         0.19011E+08
         0.47169E+08
         0.34832E+08
        -0.20811E+08
         0.31558E+08
        -0.13656E+09
         0.30706E+08
         0.98226E+07
         0.16907E+08
        -0.20600E+08
        -0.13213E+09
         0.88507E+08
         0.21826E+08
         0.58943E+08
         0.50838E+08
        -0.11558E+08
         0.66854E+08
         0.98763E+08
         0.15134E+09
         0.17082E+09
         0.16078E+09
         0.85310E+08
        -0.21512E+08
        -0.47360E+08
        -0.76033E+08
        -0.10825E+09
        -0.16336E+09
        -0.14212E+09
        -0.10902E+09
        -0.15021E+09
        -0.16659E+09
        -0.10816E+09
        -0.94779E+07
         0.33773E+08
        -0.47820E+08
         0.10675E+09
         0.13854E+09
         0.16872E+09
         0.18958E+09
         0.19280E+09
         0.18741E+09
         0.18410E+09
         0.17112E+09
         0.10943E+09
         0.36828E+08
         0.17365E+08
         0.15972E+08
        -0.58902E+07
        -0.52880E+08
        -0.10235E+09
        -0.13104E+09
        -0.17661E+09
        -0.19100E+09
        -0.18472E+09
        -0.18311E+09
        -0.17219E+09
        -0.12350E+09
        -0.62121E+08
        -0.59080E+08
        -0.16046E+09
        -0.13669E+09
        -0.12732E+09
        -0.33210E+08
        -0.11837E+09
        -0.74698E+08
        -0.59318E+08
        -0.15582E+09
        -0.13778E+09
        -0.15540E+09
         0.10296E+09
         0.17395E+09
         0.13340E+09
         0.37832E+08
         0.16496E+09
         0.81843E+08
        -0.28342E+08
         0.23252E+08
         0.10829E+09
         0.18875E+08
         0.47279E+08
         0.34856E+08
        -0.20838E+08
         0.31514E+08
        -0.13707E+09
         0.30590E+08
         0.99779E+07
         0.17067E+08
        -0.20325E+08
        -0.13233E+09
         0.88496E+08
         0.21691E+08
         0.59076E+08
         0.50930E+08
        -0.11423E+08
         0.66918E+08
         0.98782E+08
         0.15135E+09
         0.17083E+09
         0.16076E+09
         0.85341E+08
        -0.21386E+08
        -0.47371E+08
        -0.76121E+08
        -0.10831E+09
        -0.16337E+09
        -0.14215E+09
        -0.10900E+09
        -0.15007E+09
        -0.16659E+09
        -0.10817E+09
        -0.93104E+07
         0.33752E+08
        -0.47832E+08
         0.10676E+09
         0.13854E+09
         0.16872E+09
         0.18957E+09
         0.19279E+09
         0.18740E+09
         0.18410E+09
         0.17112E+09
         0.10943E+09
         0.36853E+08
         0.17368E+08
         0.16004E+08
        -0.58348E+07
        -0.52898E+08
        -0.10238E+09
        -0.13105E+09
        -0.17662E+09
        -0.19100E+09
        -0.18473E+09
        -0.18311E+09
        -0.17220E+09
        -0.12349E+09
        -0.62085E+08
        -0.59029E+08
        -0.16045E+09
        -0.13668E+09
        -0.12738E+09
        -0.33443E+08
        -0.11843E+09
        -0.74757E+08
        -0.59360E+08
        -0.15593E+09
        -0.13804E+09
        -0.15552E+09
         0.10305E+09
         0.17394E+09
         0.13339E+09
         0.37868E+08
         0.16501E+09
         0.81781E+08
        -0.28599E+08
         0.23214E+08
         0.10837E+09
         0.18739E+08
         0.47391E+08
         0.34879E+08
        -0.20866E+08
         0.31470E+08
        -0.13758E+09
         0.30473E+08
         0.10129E+08
         0.17225E+08
        -0.20050E+08
        -0.13252E+09
         0.88486E+08
         0.21556E+08
         0.59209E+08
         0.51023E+08
        -0.11287E+08
         0.66981E+08
         0.98801E+08
         0.15137E+09
         0.17083E+09
         0.16073E+09
         0.85373E+08
        -0.21261E+08
        -0.47383E+08
        -0.76209E+08
        -0.10838E+09
        -0.16338E+09
        -0.14218E+09
        -0.10898E+09
        -0.14992E+09
        -0.16658E+09
        -0.10817E+09
        -0.91424E+07
         0.33730E+08
        -0.47844E+08
         0.10678E+09
         0.13854E+09
         0.16873E+09
         0.18956E+09
         0.19278E+09
         0.18739E+09
         0.18411E+09
         0.17112E+09
         0.10942E+09
         0.36877E+08
         0.17371E+08
         0.16035E+08
        -0.57793E+07
        -0.52915E+08
        -0.10242E+09
        -0.13106E+09
        -0.17662E+09
        -0.19100E+09
        -0.18474E+09
        -0.18312E+09
        -0.17220E+09
        -0.12348E+09
        -0.62050E+08
        -0.58979E+08
        -0.16043E+09
        -0.13667E+09
        -0.12744E+09
        -0.33678E+08
        -0.11849E+09
        -0.74815E+08
        -0.59403E+08
        -0.15603E+09
        -0.13829E+09
        -0.15564E+09
         0.10314E+09
         0.17393E+09
         0.13338E+09
         0.37897E+08
         0.16506E+09
         0.81720E+08
        -0.28858E+08
         0.23175E+08
         0.10845E+09
         0.18605E+08
         0.47501E+08
         0.34902E+08
        -0.20894E+08
         0.31427E+08
        -0.13808E+09
         0.30355E+08
         0.10284E+08
         0.17381E+08
        -0.19775E+08
        -0.13271E+09
         0.88474E+08
         0.21421E+08
         0.59341E+08
         0.51116E+08
        -0.11151E+08
         0.67044E+08
         0.98820E+08
         0.15139E+09
         0.17084E+09
         0.16071E+09
         0.85406E+08
        -0.21137E+08
        -0.47396E+08
        -0.76298E+08
        -0.10844E+09
        -0.16339E+09
        -0.14221E+09
        -0.10896E+09
        -0.14978E+09
        -0.16657E+09
        -0.10818E+09
        -0.89752E+07
         0.33709E+08
        -0.47857E+08
         0.10680E+09
         0.13854E+09
         0.16873E+09
         0.18956E+09
         0.19278E+09
         0.18738E+09
         0.18411E+09
         0.17112E+09
         0.10942E+09
         0.36902E+08
         0.17373E+08
         0.16066E+08
        -0.57242E+07
        -0.52933E+08
        -0.10245E+09
        -0.13107E+09
        -0.17663E+09
        -0.19100E+09
        -0.18474E+09
        -0.18312E+09
        -0.17221E+09
        -0.12346E+09
        -0.62015E+08
        -0.58929E+08
        -0.16042E+09
        -0.13666E+09
        -0.12750E+09
        -0.33914E+08
        -0.11855E+09
        -0.74873E+08
        -0.59445E+08
        -0.15614E+09
        -0.13855E+09
        -0.15576E+09
         0.10323E+09
         0.17392E+09
         0.13337E+09
         0.37931E+08
         0.16511E+09
         0.81659E+08
        -0.29120E+08
         0.23136E+08
         0.10853E+09
         0.18477E+08
         0.47612E+08
         0.34924E+08
        -0.20923E+08
         0.31382E+08
        -0.13859E+09
         0.30239E+08
         0.10438E+08
         0.17536E+08
        -0.19501E+08
        -0.13289E+09
         0.88463E+08
         0.21284E+08
         0.59473E+08
         0.51209E+08
        -0.11015E+08
         0.67108E+08
         0.98838E+08
         0.15141E+09
         0.17084E+09
         0.16069E+09
         0.85440E+08
        -0.21013E+08
        -0.47410E+08
        -0.76386E+08
        -0.10851E+09
        -0.16341E+09
        -0.14224E+09
        -0.10893E+09
        -0.14964E+09
        -0.16657E+09
        -0.10818E+09
        -0.88075E+07
         0.33688E+08
        -0.47869E+08
         0.10682E+09
         0.13854E+09
         0.16874E+09
         0.18955E+09
         0.19277E+09
         0.18737E+09
         0.18411E+09
         0.17111E+09
         0.10942E+09
         0.36925E+08
         0.17374E+08
         0.16098E+08
        -0.56692E+07
        -0.52951E+08
        -0.10248E+09
        -0.13108E+09
        -0.17663E+09
        -0.19099E+09
        -0.18475E+09
        -0.18312E+09
        -0.17222E+09
        -0.12345E+09
        -0.61980E+08
        -0.58878E+08
        -0.16041E+09
        -0.13665E+09
        -0.12756E+09
        -0.34149E+08
        -0.11862E+09
        -0.74930E+08
        -0.59486E+08
        -0.15624E+09
        -0.13881E+09
        -0.15588E+09
         0.10332E+09
         0.17391E+09
         0.13336E+09
         0.37965E+08
         0.16516E+09
         0.81598E+08
        -0.29386E+08
         0.23097E+08
         0.10861E+09
         0.18355E+08
         0.47722E+08
         0.34946E+08
        -0.20950E+08
         0.31339E+08
        -0.13909E+09
         0.30122E+08
         0.10599E+08
         0.17690E+08
        -0.19227E+08
        -0.13306E+09
         0.88451E+08
         0.21149E+08
         0.59604E+08
         0.51302E+08
        -0.10879E+08
         0.67170E+08
         0.98857E+08
         0.15143E+09
         0.17085E+09
         0.16066E+09
         0.85476E+08
        -0.20890E+08
        -0.47427E+08
        -0.76473E+08
        -0.10857E+09
        -0.16342E+09
        -0.14227E+09
        -0.10891E+09
        -0.14950E+09
        -0.16656E+09
        -0.10819E+09
        -0.86381E+07
         0.33666E+08
        -0.47881E+08
         0.10684E+09
         0.13854E+09
         0.16874E+09
         0.18955E+09
         0.19276E+09
         0.18736E+09
         0.18412E+09
         0.17111E+09
         0.10943E+09
         0.36949E+08
         0.17374E+08
         0.16129E+08
        -0.56138E+07
        -0.52969E+08
        -0.10251E+09
        -0.13110E+09
        -0.17664E+09
        -0.19099E+09
        -0.18476E+09
        -0.18313E+09
        -0.17223E+09
        -0.12343E+09
        -0.61946E+08
        -0.58828E+08
        -0.16039E+09
        -0.13664E+09
        -0.12763E+09
        -0.34383E+08
        -0.11868E+09
        -0.74989E+08
        -0.59531E+08
        -0.15634E+09
        -0.13908E+09
        -0.15600E+09
         0.10341E+09
         0.17390E+09
         0.13334E+09
         0.37994E+08
         0.16521E+09
         0.81538E+08
        -0.29653E+08
         0.23058E+08
         0.10870E+09
         0.18235E+08
         0.47834E+08
         0.34968E+08
        -0.20977E+08
         0.31299E+08
        -0.13960E+09
         0.30008E+08
         0.10755E+08
         0.17837E+08
        -0.18957E+08
        -0.13322E+09
         0.88442E+08
         0.21016E+08
         0.59736E+08
         0.51397E+08
        -0.10743E+08
         0.67231E+08
         0.98874E+08
         0.15146E+09
         0.17085E+09
         0.16064E+09
         0.85512E+08
        -0.20770E+08
        -0.47446E+08
        -0.76559E+08
        -0.10863E+09
        -0.16343E+09
        -0.14231E+09
        -0.10889E+09
        -0.14935E+09
        -0.16656E+09
        -0.10819E+09
        -0.84691E+07
         0.33645E+08
        -0.47893E+08
         0.10686E+09
         0.13854E+09
         0.16875E+09
         0.18954E+09
         0.19275E+09
         0.18735E+09
         0.18412E+09
         0.17111E+09
         0.10943E+09
         0.36971E+08
         0.17372E+08
         0.16160E+08
        -0.55585E+07
        -0.52986E+08
        -0.10255E+09
        -0.13111E+09
        -0.17665E+09
        -0.19099E+09
        -0.18476E+09
        -0.18313E+09
        -0.17224E+09
        -0.12342E+09
        -0.61911E+08
        -0.58777E+08
        -0.15432E+09
        -0.13704E+09
        -0.12808E+09
        -0.34712E+08
        -0.11269E+09
        -0.70420E+08
        -0.59752E+08
        -0.14874E+09
        -0.13973E+09
        -0.14806E+09
         0.10377E+09
         0.17009E+09
         0.12937E+09
         0.34930E+08
         0.16191E+09
         0.76406E+08
        -0.29990E+08
         0.23089E+08
         0.10908E+09
         0.18180E+08
         0.46797E+08
         0.34023E+08
        -0.20438E+08
         0.31370E+08
        -0.14047E+09
         0.30020E+08
         0.10087E+08
         0.17997E+08
        -0.18789E+08
        -0.13018E+09
         0.88709E+08
         0.20984E+08
         0.60041E+08
         0.51640E+08
        -0.10228E+08
         0.61905E+08
         0.93924E+08
         0.14746E+09
         0.16410E+09
         0.15333E+09
         0.83367E+08
        -0.20105E+08
        -0.46288E+08
        -0.74069E+08
        -0.10379E+09
        -0.15815E+09
        -0.13391E+09
        -0.10122E+09
        -0.14948E+09
        -0.15330E+09
        -0.10411E+09
        -0.77513E+07
         0.33390E+08
        -0.47615E+08
         0.10625E+09
         0.13778E+09
         0.16788E+09
         0.18860E+09
         0.19169E+09
         0.18608E+09
         0.18280E+09
         0.16998E+09
         0.10872E+09
         0.36768E+08
         0.17246E+08
         0.16078E+08
        -0.54745E+07
        -0.52722E+08
        -0.10207E+09
        -0.13047E+09
        -0.17557E+09
        -0.18987E+09
        -0.18363E+09
        -0.18197E+09
        -0.17121E+09
        -0.12263E+09
        -0.61520E+08
        -0.58383E+08
        -0.75237E+08
        -0.48116E+08
        -0.45411E+08
        -0.13630E+08
        -0.48997E+08
        -0.24579E+08
        -0.20002E+08
        -0.65486E+08
        -0.51416E+08
        -0.64013E+08
         0.31297E+08
         0.10039E+09
         0.68829E+08
         0.10986E+08
         0.98071E+08
         0.30570E+08
        -0.10890E+08
         0.95000E+07
         0.37609E+08
         0.60876E+07
         0.26831E+08
         0.18563E+08
        -0.11308E+08
         0.11376E+08
        -0.45293E+08
         0.11428E+08
         0.32103E+07
         0.55637E+07
        -0.57315E+07
        -0.41750E+08
         0.32999E+08
         0.76755E+07
         0.23380E+08
         0.19375E+08
        -0.49546E+07
         0.22487E+08
         0.41065E+08
         0.81706E+08
         0.78855E+08
         0.69947E+08
         0.46924E+08
        -0.10957E+08
        -0.26162E+08
        -0.37672E+08
        -0.47205E+08
        -0.81411E+08
        -0.54857E+08
        -0.38700E+08
        -0.49692E+08
        -0.55774E+08
        -0.50788E+08
        -0.29933E+07
         0.26517E+08
        -0.38559E+08
         0.86930E+08
         0.11377E+09
         0.14010E+09
         0.15857E+09
         0.15886E+09
         0.14868E+09
         0.14413E+09
         0.13599E+09
         0.87388E+08
         0.30067E+08
         0.13707E+08
         0.12834E+08
        -0.44641E+07
        -0.43949E+08
        -0.85757E+08
        -0.10969E+09
        -0.14214E+09
        -0.15506E+09
        -0.14894E+09
        -0.14674E+09
        -0.13923E+09
        -0.99066E+08
        -0.50363E+08
        -0.47623E+08
  
SCALARS                      stress_xz  double 1
LOOKUP_TABLE default
         0.49678E+05
        -0.35036E+06
        -0.11566E+07
         0.79456E+05
        -0.36025E+01
         0.12773E+01
         0.42712E+01
         0.85302E+00
        -0.32544E+07
        -0.21743E+07
         0.12775E+02
         0.11507E+02
         0.13876E+06
        -0.56621E+06
        -0.15756E+01
        -0.73811E+01
        -0.11617E+06
        -0.54337E+06
        -0.53317E+01
        -0.79406E+01
        -0.79632E+06
        -0.13418E+07
        -0.12707E+07
        -0.53023E+01
        -0.24450E+01
         0.42716E+01
        -0.14173E+07
        -0.11509E+07
        -0.99253E+01
        -0.78733E+01
         0.27182E+06
        -0.60381E+06
         0.57785E+05
         0.10105E+01
        -0.39051E+01
        -0.24058E+01
         0.80646E+06
         0.38871E+06
        -0.57978E+01
        -0.61731E+01
         0.16074E+07
         0.22776E+07
        -0.13078E+02
        -0.96445E+01
         0.17198E+07
         0.91591E+06
        -0.14362E+02
        -0.69128E+01
        -0.49367E+06
        -0.43392E+01
         0.11757E+07
        -0.12079E+01
        -0.51497E+06
        -0.84788E+01
         0.38469E+06
        -0.22428E+01
         0.16831E+07
         0.46173E+06
        -0.19213E+01
        -0.46441E+01
        -0.29024E+05
         0.80070E+06
         0.38428E+01
         0.26352E+01
        -0.20795E+06
        -0.38654E+00
        -0.69612E+06
         0.25425E+01
        -0.45799E+07
        -0.31384E+07
         0.15891E+02
         0.11525E+02
        -0.20185E+07
         0.83920E+01
         0.47573E+06
        -0.58052E+01
         0.14887E+07
        -0.11394E+01
         0.31561E+07
        -0.17676E+01
         0.41758E+07
         0.29653E+07
        -0.64780E+01
        -0.74087E+01
         0.26192E+07
        -0.79677E+01
         0.20856E+07
        -0.11472E+02
         0.12988E+07
        -0.73168E+01
         0.20446E+07
         0.15037E+07
        -0.31227E+01
         0.42824E+01
        -0.34374E+06
         0.50231E+01
        -0.94356E+06
         0.21091E+01
        -0.22656E+07
         0.52084E+01
        -0.33491E+07
        -0.22985E+07
         0.12009E+02
         0.12532E+02
        -0.82023E+07
        -0.90822E+07
         0.22190E+02
         0.21868E+02
        -0.81237E+07
         0.18957E+02
        -0.74039E+07
         0.14167E+02
        -0.53118E+07
         0.77853E+01
        -0.38595E+07
         0.83251E+00
        -0.14320E+07
        -0.29651E+01
         0.18450E+07
        -0.23723E+01
         0.44030E+07
        -0.23317E+01
         0.65421E+07
        -0.52581E+01
         0.88000E+07
        -0.10004E+02
         0.10693E+08
        -0.11937E+02
         0.11367E+08
        -0.11263E+02
         0.10827E+08
        -0.12248E+02
         0.99228E+07
        -0.15896E+02
         0.89242E+07
        -0.18745E+02
         0.78709E+07
        -0.17425E+02
         0.62592E+07
        -0.14161E+02
         0.36725E+07
        -0.66854E+01
         0.31484E+06
         0.12766E+01
        -0.20538E+07
         0.30994E+01
        -0.32145E+07
         0.50682E+01
        -0.48345E+07
         0.99187E+01
        -0.63742E+07
         0.16276E+02
        -0.83780E+07
         0.19555E+02
        -0.96253E+07
         0.20001E+02
        -0.86633E+06
         0.45114E+06
         0.52925E+06
        -0.10654E+07
         0.41261E+07
         0.31911E+07
         0.48190E+06
        -0.70781E+06
        -0.36505E+06
        -0.64968E+06
         0.35670E+06
         0.15444E+07
         0.32259E+07
        -0.10319E+07
        -0.12415E+07
         0.14179E+07
         0.11899E+07
        -0.55165E+06
        -0.85854E+06
        -0.92349E+06
        -0.50486E+07
        -0.53751E+07
        -0.48551E+07
        -0.15089E+07
         0.60493E+06
        -0.45079E+06
        -0.14484E+07
        -0.16241E+06
        -0.16620E+07
        -0.11426E+07
         0.12659E+07
         0.24849E+06
        -0.59652E+06
        -0.19292E+06
         0.61032E+07
         0.38884E+07
         0.35188E+07
        -0.24633E+07
        -0.14032E+07
        -0.30017E+07
        -0.61767E+07
        -0.57567E+07
        -0.56831E+07
        -0.41777E+07
        -0.29970E+07
        -0.23448E+07
         0.44036E+06
         0.18391E+07
         0.53184E+06
         0.16861E+07
         0.45042E+07
         0.37937E+07
         0.17819E+08
         0.18708E+08
         0.16720E+08
         0.14225E+08
         0.10591E+08
         0.53943E+07
        -0.32004E+06
        -0.38425E+07
        -0.58548E+07
        -0.10051E+08
        -0.16384E+08
        -0.19941E+08
        -0.18269E+08
        -0.17522E+08
        -0.18509E+08
        -0.18504E+08
        -0.16810E+08
        -0.14718E+08
        -0.74551E+07
         0.11785E+07
         0.45298E+07
         0.50498E+07
         0.85509E+07
         0.13655E+08
         0.17714E+08
         0.18619E+08
        -0.54553E+08
         0.15103E+08
        -0.28752E+08
        -0.83718E+08
         0.12283E+09
         0.14675E+09
         0.42757E+08
        -0.70314E+08
        -0.42887E+08
        -0.70751E+08
        -0.17926E+08
         0.25836E+08
         0.11010E+09
        -0.16333E+09
        -0.64651E+08
         0.14454E+09
         0.80467E+08
        -0.48195E+08
        -0.32434E+08
        -0.56960E+08
        -0.16732E+09
        -0.16936E+09
        -0.17136E+09
        -0.76877E+08
         0.43665E+08
         0.29401E+08
        -0.15944E+09
         0.21171E+08
        -0.53361E+08
        -0.72767E+08
         0.11105E+09
         0.71858E+08
        -0.72024E+08
        -0.62161E+08
         0.17168E+09
         0.15453E+09
         0.13851E+09
        -0.86809E+08
        -0.18618E+08
        -0.57781E+08
        -0.15240E+09
        -0.17194E+09
        -0.16702E+09
        -0.15384E+09
        -0.13192E+09
        -0.57353E+08
         0.92550E+08
         0.12760E+09
        -0.18674E+08
         0.20832E+08
         0.13363E+09
         0.16838E+09
         0.18759E+09
         0.18500E+09
         0.15947E+09
         0.13241E+09
         0.93188E+08
         0.40221E+08
        -0.10370E+08
        -0.37407E+08
        -0.50457E+08
        -0.86922E+08
        -0.15726E+09
        -0.18786E+09
        -0.18757E+09
        -0.18694E+09
        -0.18893E+09
        -0.18269E+09
        -0.16118E+09
        -0.14066E+09
        -0.74259E+08
         0.18835E+08
         0.45854E+08
         0.48716E+08
         0.81654E+08
         0.14434E+09
         0.17998E+09
         0.18080E+09
        -0.54616E+08
         0.15159E+08
        -0.28806E+08
        -0.83774E+08
         0.12277E+09
         0.14662E+09
         0.43028E+08
        -0.70072E+08
        -0.42934E+08
        -0.70497E+08
        -0.17563E+08
         0.25899E+08
         0.11012E+09
        -0.16330E+09
        -0.64554E+08
         0.14469E+09
         0.80643E+08
        -0.48062E+08
        -0.32418E+08
        -0.56860E+08
        -0.16730E+09
        -0.16935E+09
        -0.17136E+09
        -0.76881E+08
         0.43764E+08
         0.29450E+08
        -0.15949E+09
         0.20773E+08
        -0.53736E+08
        -0.72813E+08
         0.11121E+09
         0.71849E+08
        -0.71725E+08
        -0.62189E+08
         0.17170E+09
         0.15451E+09
         0.13850E+09
        -0.86821E+08
        -0.18757E+08
        -0.57887E+08
        -0.15240E+09
        -0.17195E+09
        -0.16701E+09
        -0.15382E+09
        -0.13190E+09
        -0.57327E+08
         0.92531E+08
         0.12765E+09
        -0.18538E+08
         0.20788E+08
         0.13362E+09
         0.16838E+09
         0.18759E+09
         0.18499E+09
         0.15945E+09
         0.13241E+09
         0.93174E+08
         0.40221E+08
        -0.10385E+08
        -0.37440E+08
        -0.50426E+08
        -0.86911E+08
        -0.15726E+09
        -0.18786E+09
        -0.18757E+09
        -0.18694E+09
        -0.18893E+09
        -0.18269E+09
        -0.16117E+09
        -0.14066E+09
        -0.74242E+08
         0.18845E+08
         0.45825E+08
         0.48700E+08
         0.81620E+08
         0.14434E+09
         0.17998E+09
         0.18081E+09
        -0.54680E+08
         0.15214E+08
        -0.28861E+08
        -0.83830E+08
         0.12270E+09
         0.14648E+09
         0.43301E+08
        -0.69830E+08
        -0.42978E+08
        -0.70242E+08
        -0.17201E+08
         0.25963E+08
         0.11015E+09
        -0.16326E+09
        -0.64457E+08
         0.14485E+09
         0.80823E+08
        -0.47927E+08
        -0.32402E+08
        -0.56763E+08
        -0.16727E+09
        -0.16935E+09
        -0.17136E+09
        -0.76885E+08
         0.43869E+08
         0.29503E+08
        -0.15954E+09
         0.20380E+08
        -0.54113E+08
        -0.72859E+08
         0.11138E+09
         0.71843E+08
        -0.71423E+08
        -0.62217E+08
         0.17171E+09
         0.15448E+09
         0.13848E+09
        -0.86833E+08
        -0.18895E+08
        -0.57993E+08
        -0.15240E+09
        -0.17197E+09
        -0.16700E+09
        -0.15380E+09
        -0.13187E+09
        -0.57300E+08
         0.92513E+08
         0.12770E+09
        -0.18398E+08
         0.20742E+08
         0.13360E+09
         0.16837E+09
         0.18759E+09
         0.18498E+09
         0.15944E+09
         0.13241E+09
         0.93159E+08
         0.40221E+08
        -0.10401E+08
        -0.37472E+08
        -0.50395E+08
        -0.86901E+08
        -0.15726E+09
        -0.18786E+09
        -0.18757E+09
        -0.18694E+09
        -0.18893E+09
        -0.18269E+09
        -0.16116E+09
        -0.14066E+09
        -0.74225E+08
         0.18854E+08
         0.45796E+08
         0.48684E+08
         0.81585E+08
         0.14434E+09
         0.17998E+09
         0.18082E+09
        -0.54744E+08
         0.15271E+08
        -0.28914E+08
        -0.83885E+08
         0.12263E+09
         0.14635E+09
         0.43571E+08
        -0.69588E+08
        -0.43017E+08
        -0.69983E+08
        -0.16840E+08
         0.26027E+08
         0.11017E+09
        -0.16323E+09
        -0.64361E+08
         0.14501E+09
         0.81011E+08
        -0.47792E+08
        -0.32388E+08
        -0.56662E+08
        -0.16724E+09
        -0.16934E+09
        -0.17136E+09
        -0.76890E+08
         0.43994E+08
         0.29568E+08
        -0.15958E+09
         0.19999E+08
        -0.54489E+08
        -0.72902E+08
         0.11156E+09
         0.71851E+08
        -0.71120E+08
        -0.62245E+08
         0.17172E+09
         0.15445E+09
         0.13847E+09
        -0.86844E+08
        -0.19031E+08
        -0.58094E+08
        -0.15239E+09
        -0.17199E+09
        -0.16699E+09
        -0.15377E+09
        -0.13184E+09
        -0.57270E+08
         0.92493E+08
         0.12775E+09
        -0.18258E+08
         0.20696E+08
         0.13359E+09
         0.16837E+09
         0.18758E+09
         0.18497E+09
         0.15943E+09
         0.13241E+09
         0.93145E+08
         0.40221E+08
        -0.10417E+08
        -0.37504E+08
        -0.50365E+08
        -0.86890E+08
        -0.15726E+09
        -0.18786E+09
        -0.18756E+09
        -0.18693E+09
        -0.18894E+09
        -0.18269E+09
        -0.16115E+09
        -0.14066E+09
        -0.74208E+08
         0.18864E+08
         0.45767E+08
         0.48668E+08
         0.81551E+08
         0.14434E+09
         0.17999E+09
         0.18083E+09
        -0.54807E+08
         0.15328E+08
        -0.28967E+08
        -0.83940E+08
         0.12256E+09
         0.14621E+09
         0.43845E+08
        -0.69346E+08
        -0.43050E+08
        -0.69718E+08
        -0.16478E+08
         0.26091E+08
         0.11020E+09
        -0.16319E+09
        -0.64264E+08
         0.14519E+09
         0.81208E+08
        -0.47656E+08
        -0.32371E+08
        -0.56560E+08
        -0.16721E+09
        -0.16933E+09
        -0.17135E+09
        -0.76894E+08
         0.44139E+08
         0.29643E+08
        -0.15961E+09
         0.19630E+08
        -0.54864E+08
        -0.72942E+08
         0.11175E+09
         0.71868E+08
        -0.70815E+08
        -0.62273E+08
         0.17174E+09
         0.15442E+09
         0.13846E+09
        -0.86854E+08
        -0.19164E+08
        -0.58193E+08
        -0.15239E+09
        -0.17201E+09
        -0.16699E+09
        -0.15373E+09
        -0.13179E+09
        -0.57235E+08
         0.92472E+08
         0.12780E+09
        -0.18119E+08
         0.20651E+08
         0.13357E+09
         0.16837E+09
         0.18758E+09
         0.18497E+09
         0.15941E+09
         0.13241E+09
         0.93130E+08
         0.40222E+08
        -0.10433E+08
        -0.37537E+08
        -0.50334E+08
        -0.86879E+08
        -0.15726E+09
        -0.18785E+09
        -0.18756E+09
        -0.18693E+09
        -0.18894E+09
        -0.18269E+09
        -0.16114E+09
        -0.14065E+09
        -0.74191E+08
         0.18873E+08
         0.45738E+08
         0.48651E+08
         0.81516E+08
         0.14434E+09
         0.17999E+09
         0.18083E+09
        -0.54868E+08
         0.15390E+08
        -0.29015E+08
        -0.83993E+08
         0.12250E+09
         0.14608E+09
         0.44118E+08
        -0.69105E+08
        -0.43082E+08
        -0.69458E+08
        -0.16116E+08
         0.26155E+08
         0.11022E+09
        -0.16297E+09
        -0.64167E+08
         0.14538E+09
         0.81404E+08
        -0.47520E+08
        -0.32352E+08
        -0.56462E+08
        -0.16718E+09
        -0.16933E+09
        -0.17135E+09
        -0.76901E+08
         0.44283E+08
         0.29720E+08
        -0.15964E+09
         0.19263E+08
        -0.55242E+08
        -0.72989E+08
         0.11194E+09
         0.71884E+08
        -0.70508E+08
        -0.62297E+08
         0.17175E+09
         0.15439E+09
         0.13844E+09
        -0.86862E+08
        -0.19297E+08
        -0.58290E+08
        -0.15238E+09
        -0.17203E+09
        -0.16699E+09
        -0.15369E+09
        -0.13174E+09
        -0.57201E+08
         0.92446E+08
         0.12784E+09
        -0.17976E+08
         0.20611E+08
         0.13356E+09
         0.16837E+09
         0.18758E+09
         0.18496E+09
         0.15940E+09
         0.13241E+09
         0.93115E+08
         0.40222E+08
        -0.10448E+08
        -0.37569E+08
        -0.50303E+08
        -0.86869E+08
        -0.15726E+09
        -0.18785E+09
        -0.18756E+09
        -0.18693E+09
        -0.18895E+09
        -0.18269E+09
        -0.16112E+09
        -0.14065E+09
        -0.74174E+08
         0.18882E+08
         0.45709E+08
         0.48635E+08
         0.81482E+08
         0.14434E+09
         0.17999E+09
         0.18084E+09
        -0.54924E+08
         0.15464E+08
        -0.29051E+08
        -0.84046E+08
         0.12243E+09
         0.14595E+09
         0.44396E+08
        -0.68869E+08
        -0.43116E+08
        -0.69211E+08
        -0.15752E+08
         0.26218E+08
         0.11024E+09
        -0.16256E+09
        -0.64069E+08
         0.14556E+09
         0.81592E+08
        -0.47383E+08
        -0.32338E+08
        -0.56367E+08
        -0.16715E+09
        -0.16932E+09
        -0.17135E+09
        -0.76910E+08
         0.44410E+08
         0.29788E+08
        -0.15967E+09
         0.18889E+08
        -0.55622E+08
        -0.73043E+08
         0.11212E+09
         0.71887E+08
        -0.70194E+08
        -0.62315E+08
         0.17177E+09
         0.15436E+09
         0.13843E+09
        -0.86869E+08
        -0.19431E+08
        -0.58389E+08
        -0.15237E+09
        -0.17205E+09
        -0.16699E+09
        -0.15364E+09
        -0.13168E+09
        -0.57168E+08
         0.92406E+08
         0.12787E+09
        -0.17820E+08
         0.20584E+08
         0.13355E+09
         0.16837E+09
         0.18758E+09
         0.18495E+09
         0.15939E+09
         0.13241E+09
         0.93100E+08
         0.40222E+08
        -0.10464E+08
        -0.37601E+08
        -0.50272E+08
        -0.86859E+08
        -0.15726E+09
        -0.18785E+09
        -0.18756E+09
        -0.18693E+09
        -0.18895E+09
        -0.18269E+09
        -0.16111E+09
        -0.14064E+09
        -0.74157E+08
         0.18889E+08
         0.45677E+08
         0.48618E+08
         0.81449E+08
         0.14433E+09
         0.17999E+09
         0.18085E+09
        -0.54978E+08
         0.15542E+08
        -0.29083E+08
        -0.84096E+08
         0.12237E+09
         0.14581E+09
         0.44678E+08
        -0.68637E+08
        -0.43151E+08
        -0.68972E+08
        -0.15387E+08
         0.26281E+08
         0.11027E+09
        -0.16215E+09
        -0.63971E+08
         0.14574E+09
         0.81777E+08
        -0.47246E+08
        -0.32321E+08
        -0.56277E+08
        -0.16712E+09
        -0.16932E+09
        -0.17135E+09
        -0.76918E+08
         0.44529E+08
         0.29852E+08
        -0.15971E+09
         0.18511E+08
        -0.56009E+08
        -0.73102E+08
         0.11229E+09
         0.71882E+08
        -0.69876E+08
        -0.62330E+08
         0.17178E+09
         0.15434E+09
         0.13841E+09
        -0.86875E+08
        -0.19563E+08
        -0.58487E+08
        -0.15236E+09
        -0.17208E+09
        -0.16698E+09
        -0.15360E+09
        -0.13163E+09
        -0.57138E+08
         0.92360E+08
         0.12789E+09
        -0.17660E+08
         0.20564E+08
         0.13354E+09
         0.16837E+09
         0.18758E+09
         0.18494E+09
         0.15937E+09
         0.13241E+09
         0.93086E+08
         0.40222E+08
        -0.10479E+08
        -0.37633E+08
        -0.50241E+08
        -0.86849E+08
        -0.15726E+09
        -0.18784E+09
        -0.18756E+09
        -0.18692E+09
        -0.18895E+09
        -0.18269E+09
        -0.16109E+09
        -0.14064E+09
        -0.74139E+08
         0.18896E+08
         0.45645E+08
         0.48601E+08
         0.81417E+08
         0.14433E+09
         0.18000E+09
         0.18086E+09
        -0.55031E+08
         0.15621E+08
        -0.29114E+08
        -0.84146E+08
         0.12230E+09
         0.14568E+09
         0.44957E+08
        -0.68404E+08
        -0.43186E+08
        -0.68735E+08
        -0.15024E+08
         0.26344E+08
         0.11029E+09
        -0.16175E+09
        -0.63873E+08
         0.14586E+09
         0.81961E+08
        -0.47109E+08
        -0.32303E+08
        -0.56184E+08
        -0.16709E+09
        -0.16931E+09
        -0.17134E+09
        -0.76928E+08
         0.44647E+08
         0.29915E+08
        -0.15975E+09
         0.18135E+08
        -0.56394E+08
        -0.73160E+08
         0.11247E+09
         0.71878E+08
        -0.69559E+08
        -0.62345E+08
         0.17179E+09
         0.15431E+09
         0.13840E+09
        -0.86881E+08
        -0.19696E+08
        -0.58585E+08
        -0.15235E+09
        -0.17210E+09
        -0.16698E+09
        -0.15356E+09
        -0.13158E+09
        -0.57108E+08
         0.92316E+08
         0.12791E+09
        -0.17499E+08
         0.20546E+08
         0.13353E+09
         0.16837E+09
         0.18757E+09
         0.18494E+09
         0.15936E+09
         0.13241E+09
         0.93071E+08
         0.40222E+08
        -0.10495E+08
        -0.37665E+08
        -0.50210E+08
        -0.86839E+08
        -0.15725E+09
        -0.18784E+09
        -0.18756E+09
        -0.18692E+09
        -0.18896E+09
        -0.18269E+09
        -0.16108E+09
        -0.14063E+09
        -0.74122E+08
         0.18904E+08
         0.45613E+08
         0.48585E+08
         0.81385E+08
         0.14433E+09
         0.18000E+09
         0.18086E+09
        -0.55085E+08
         0.15701E+08
        -0.29145E+08
        -0.84198E+08
         0.12224E+09
         0.14554E+09
         0.45239E+08
        -0.68172E+08
        -0.43222E+08
        -0.68499E+08
        -0.14660E+08
         0.26407E+08
         0.11031E+09
        -0.16134E+09
        -0.63775E+08
         0.14590E+09
         0.82146E+08
        -0.46973E+08
        -0.32285E+08
        -0.56094E+08
        -0.16706E+09
        -0.16931E+09
        -0.17134E+09
        -0.76939E+08
         0.44766E+08
         0.29978E+08
        -0.15978E+09
         0.17760E+08
        -0.56778E+08
        -0.73217E+08
         0.11264E+09
         0.71872E+08
        -0.69243E+08
        -0.62361E+08
         0.17181E+09
         0.15428E+09
         0.13838E+09
        -0.86886E+08
        -0.19828E+08
        -0.58684E+08
        -0.15235E+09
        -0.17212E+09
        -0.16698E+09
        -0.15352E+09
        -0.13153E+09
        -0.57077E+08
         0.92270E+08
         0.12793E+09
        -0.17340E+08
         0.20525E+08
         0.13352E+09
         0.16837E+09
         0.18757E+09
         0.18493E+09
         0.15935E+09
         0.13241E+09
         0.93056E+08
         0.40222E+08
        -0.10511E+08
        -0.37697E+08
        -0.50179E+08
        -0.86829E+08
        -0.15725E+09
        -0.18783E+09
        -0.18756E+09
        -0.18692E+09
        -0.18896E+09
        -0.18269E+09
        -0.16107E+09
        -0.14062E+09
        -0.74105E+08
         0.18911E+08
         0.45581E+08
         0.48568E+08
         0.81353E+08
         0.14433E+09
         0.18000E+09
         0.18087E+09
        -0.55138E+08
         0.15781E+08
        -0.29177E+08
        -0.84248E+08
         0.12217E+09
         0.14541E+09
         0.45518E+08
        -0.67940E+08
        -0.43257E+08
        -0.68266E+08
        -0.14296E+08
         0.26471E+08
         0.11033E+09
        -0.16094E+09
        -0.63676E+08
         0.14594E+09
         0.82330E+08
        -0.46837E+08
        -0.32272E+08
        -0.56000E+08
        -0.16703E+09
        -0.16930E+09
        -0.17134E+09
        -0.76950E+08
         0.44884E+08
         0.30040E+08
        -0.15982E+09
         0.17385E+08
        -0.57162E+08
        -0.73273E+08
         0.11282E+09
         0.71867E+08
        -0.68926E+08
        -0.62375E+08
         0.17182E+09
         0.15425E+09
         0.13836E+09
        -0.86891E+08
        -0.19960E+08
        -0.58781E+08
        -0.15234E+09
        -0.17214E+09
        -0.16698E+09
        -0.15348E+09
        -0.13148E+09
        -0.57047E+08
         0.92224E+08
         0.12795E+09
        -0.17180E+08
         0.20504E+08
         0.13351E+09
         0.16837E+09
         0.18757E+09
         0.18492E+09
         0.15933E+09
         0.13241E+09
         0.93041E+08
         0.40223E+08
        -0.10526E+08
        -0.37729E+08
        -0.50148E+08
        -0.86819E+08
        -0.15725E+09
        -0.18783E+09
        -0.18756E+09
        -0.18691E+09
        -0.18897E+09
        -0.18269E+09
        -0.16105E+09
        -0.14062E+09
        -0.74088E+08
         0.18917E+08
         0.45549E+08
         0.48551E+08
         0.81321E+08
         0.14433E+09
         0.18001E+09
         0.18088E+09
        -0.55191E+08
         0.15859E+08
        -0.29207E+08
        -0.84298E+08
         0.12211E+09
         0.14527E+09
         0.45798E+08
        -0.67708E+08
        -0.43293E+08
        -0.68033E+08
        -0.13933E+08
         0.26535E+08
         0.11035E+09
        -0.16053E+09
        -0.63579E+08
         0.14599E+09
         0.82514E+08
        -0.46700E+08
        -0.32255E+08
        -0.55909E+08
        -0.16700E+09
        -0.16930E+09
        -0.17134E+09
        -0.76961E+08
         0.45000E+08
         0.30105E+08
        -0.15986E+09
         0.17012E+08
        -0.57542E+08
        -0.73333E+08
         0.11299E+09
         0.71862E+08
        -0.68608E+08
        -0.62391E+08
         0.17184E+09
         0.15422E+09
         0.13835E+09
        -0.86895E+08
        -0.20092E+08
        -0.58881E+08
        -0.15233E+09
        -0.17217E+09
        -0.16698E+09
        -0.15344E+09
        -0.13143E+09
        -0.57017E+08
         0.92179E+08
         0.12797E+09
        -0.17019E+08
         0.20486E+08
         0.13350E+09
         0.16837E+09
         0.18757E+09
         0.18492E+09
         0.15932E+09
         0.13240E+09
         0.93026E+08
         0.40223E+08
        -0.10541E+08
        -0.37761E+08
        -0.50117E+08
        -0.86810E+08
        -0.15725E+09
        -0.18783E+09
        -0.18756E+09
        -0.18691E+09
        -0.18897E+09
        -0.18269E+09
        -0.16104E+09
        -0.14061E+09
        -0.74071E+08
         0.18924E+08
         0.45516E+08
         0.48534E+08
         0.81289E+08
         0.14433E+09
         0.18001E+09
         0.18089E+09
        -0.55245E+08
         0.15939E+08
        -0.29237E+08
        -0.84348E+08
         0.12204E+09
         0.14514E+09
         0.46078E+08
        -0.67477E+08
        -0.43327E+08
        -0.67800E+08
        -0.13570E+08
         0.26598E+08
         0.11037E+09
        -0.16013E+09
        -0.63480E+08
         0.14603E+09
         0.82697E+08
        -0.46563E+08
        -0.32239E+08
        -0.55817E+08
        -0.16697E+09
        -0.16929E+09
        -0.17133E+09
        -0.76972E+08
         0.45116E+08
         0.30167E+08
        -0.15990E+09
         0.16639E+08
        -0.57925E+08
        -0.73389E+08
         0.11317E+09
         0.71857E+08
        -0.68289E+08
        -0.62406E+08
         0.17185E+09
         0.15419E+09
         0.13833E+09
        -0.86899E+08
        -0.20223E+08
        -0.58978E+08
        -0.15232E+09
        -0.17219E+09
        -0.16698E+09
        -0.15340E+09
        -0.13138E+09
        -0.56986E+08
         0.92133E+08
         0.12799E+09
        -0.16857E+08
         0.20465E+08
         0.13349E+09
         0.16837E+09
         0.18756E+09
         0.18491E+09
         0.15931E+09
         0.13240E+09
         0.93011E+08
         0.40224E+08
        -0.10557E+08
        -0.37793E+08
        -0.50086E+08
        -0.86800E+08
        -0.15725E+09
        -0.18782E+09
        -0.18756E+09
        -0.18691E+09
        -0.18898E+09
        -0.18269E+09
        -0.16102E+09
        -0.14061E+09
        -0.74054E+08
         0.18931E+08
         0.45484E+08
         0.48518E+08
         0.81256E+08
         0.14433E+09
         0.18001E+09
         0.18089E+09
        -0.55299E+08
         0.16018E+08
        -0.29267E+08
        -0.84397E+08
         0.12198E+09
         0.14500E+09
         0.46355E+08
        -0.67246E+08
        -0.43361E+08
        -0.67569E+08
        -0.13209E+08
         0.26661E+08
         0.11040E+09
        -0.15973E+09
        -0.63383E+08
         0.14607E+09
         0.82881E+08
        -0.46427E+08
        -0.32226E+08
        -0.55726E+08
        -0.16694E+09
        -0.16929E+09
        -0.17133E+09
        -0.76984E+08
         0.45231E+08
         0.30230E+08
        -0.15993E+09
         0.16267E+08
        -0.58308E+08
        -0.73446E+08
         0.11334E+09
         0.71852E+08
        -0.67970E+08
        -0.62420E+08
         0.17186E+09
         0.15416E+09
         0.13832E+09
        -0.86902E+08
        -0.20354E+08
        -0.59078E+08
        -0.15231E+09
        -0.17221E+09
        -0.16698E+09
        -0.15335E+09
        -0.13133E+09
        -0.56956E+08
         0.92086E+08
         0.12802E+09
        -0.16696E+08
         0.20444E+08
         0.13348E+09
         0.16836E+09
         0.18756E+09
         0.18490E+09
         0.15929E+09
         0.13240E+09
         0.92997E+08
         0.40224E+08
        -0.10572E+08
        -0.37824E+08
        -0.50055E+08
        -0.86790E+08
        -0.15724E+09
        -0.18782E+09
        -0.18756E+09
        -0.18690E+09
        -0.18898E+09
        -0.18269E+09
        -0.16101E+09
        -0.14060E+09
        -0.74037E+08
         0.18938E+08
         0.45452E+08
         0.48501E+08
         0.81224E+08
         0.14433E+09
         0.18002E+09
         0.18090E+09
        -0.55353E+08
         0.16096E+08
        -0.29297E+08
        -0.84447E+08
         0.12191E+09
         0.14487E+09
         0.46634E+08
        -0.67015E+08
        -0.43396E+08
        -0.67340E+08
        -0.12847E+08
         0.26725E+08
         0.11042E+09
        -0.15932E+09
        -0.63284E+08
         0.14611E+09
         0.83065E+08
        -0.46292E+08
        -0.32210E+08
        -0.55633E+08
        -0.16691E+09
        -0.16928E+09
        -0.17133E+09
        -0.76995E+08
         0.45346E+08
         0.30293E+08
        -0.15997E+09
         0.15896E+08
        -0.58690E+08
        -0.73501E+08
         0.11351E+09
         0.71845E+08
        -0.67651E+08
        -0.62435E+08
         0.17188E+09
         0.15414E+09
         0.13831E+09
        -0.86903E+08
        -0.20484E+08
        -0.59176E+08
        -0.15230E+09
        -0.17223E+09
        -0.16698E+09
        -0.15331E+09
        -0.13127E+09
        -0.56926E+08
         0.92041E+08
         0.12803E+09
        -0.16532E+08
         0.20425E+08
         0.13347E+09
         0.16836E+09
         0.18756E+09
         0.18489E+09
         0.15928E+09
         0.13240E+09
         0.92982E+08
         0.40224E+08
        -0.10588E+08
        -0.37856E+08
        -0.50024E+08
        -0.86781E+08
        -0.15724E+09
        -0.18782E+09
        -0.18755E+09
        -0.18690E+09
        -0.18898E+09
        -0.18269E+09
        -0.16099E+09
        -0.14060E+09
        -0.74020E+08
         0.18944E+08
         0.45420E+08
         0.48485E+08
         0.81192E+08
         0.14433E+09
         0.18002E+09
         0.18091E+09
        -0.55408E+08
         0.16176E+08
        -0.29328E+08
        -0.84496E+08
         0.12184E+09
         0.14474E+09
         0.46911E+08
        -0.66785E+08
        -0.43430E+08
        -0.67111E+08
        -0.12486E+08
         0.26788E+08
         0.11044E+09
        -0.15892E+09
        -0.63186E+08
         0.14615E+09
         0.83248E+08
        -0.46157E+08
        -0.32194E+08
        -0.55542E+08
        -0.16688E+09
        -0.16928E+09
        -0.17133E+09
        -0.77006E+08
         0.45458E+08
         0.30356E+08
        -0.16000E+09
         0.15525E+08
        -0.59072E+08
        -0.73557E+08
         0.11369E+09
         0.71840E+08
        -0.67333E+08
        -0.62450E+08
         0.17189E+09
         0.15411E+09
         0.13829E+09
        -0.86905E+08
        -0.20615E+08
        -0.59274E+08
        -0.15230E+09
        -0.17225E+09
        -0.16698E+09
        -0.15327E+09
        -0.13122E+09
        -0.56895E+08
         0.91995E+08
         0.12806E+09
        -0.16370E+08
         0.20404E+08
         0.13347E+09
         0.16836E+09
         0.18756E+09
         0.18489E+09
         0.15927E+09
         0.13240E+09
         0.92967E+08
         0.40224E+08
        -0.10603E+08
        -0.37887E+08
        -0.49993E+08
        -0.86771E+08
        -0.15724E+09
        -0.18781E+09
        -0.18755E+09
        -0.18690E+09
        -0.18899E+09
        -0.18269E+09
        -0.16098E+09
        -0.14059E+09
        -0.74002E+08
         0.18951E+08
         0.45387E+08
         0.48469E+08
         0.81160E+08
         0.14433E+09
         0.18002E+09
         0.18092E+09
        -0.55462E+08
         0.16254E+08
        -0.29359E+08
        -0.84545E+08
         0.12178E+09
         0.14460E+09
         0.47190E+08
        -0.66555E+08
        -0.43463E+08
        -0.66881E+08
        -0.12124E+08
         0.26852E+08
         0.11046E+09
        -0.15852E+09
        -0.63087E+08
         0.14620E+09
         0.83432E+08
        -0.46022E+08
        -0.32179E+08
        -0.55449E+08
        -0.16686E+09
        -0.16927E+09
        -0.17132E+09
        -0.77019E+08
         0.45568E+08
         0.30418E+08
        -0.16003E+09
         0.15150E+08
        -0.59450E+08
        -0.73612E+08
         0.11386E+09
         0.71836E+08
        -0.67015E+08
        -0.62467E+08
         0.17190E+09
         0.15408E+09
         0.13828E+09
        -0.86905E+08
        -0.20747E+08
        -0.59374E+08
        -0.15229E+09
        -0.17227E+09
        -0.16698E+09
        -0.15323E+09
        -0.13117E+09
        -0.56865E+08
         0.91949E+08
         0.12808E+09
        -0.16209E+08
         0.20383E+08
         0.13345E+09
         0.16836E+09
         0.18756E+09
         0.18488E+09
         0.15925E+09
         0.13240E+09
         0.92952E+08
         0.40224E+08
        -0.10618E+08
        -0.37918E+08
        -0.49963E+08
        -0.86762E+08
        -0.15724E+09
        -0.18781E+09
        -0.18755E+09
        -0.18690E+09
        -0.18899E+09
        -0.18269E+09
        -0.16097E+09
        -0.14059E+09
        -0.73985E+08
         0.18957E+08
         0.45355E+08
         0.48452E+08
         0.81128E+08
         0.14432E+09
         0.18002E+09
         0.18092E+09
        -0.55516E+08
         0.16333E+08
        -0.29388E+08
        -0.84594E+08
         0.12171E+09
         0.14447E+09
         0.47467E+08
        -0.66326E+08
        -0.43493E+08
        -0.66645E+08
        -0.11763E+08
         0.26916E+08
         0.11048E+09
        -0.15811E+09
        -0.62989E+08
         0.14624E+09
         0.83614E+08
        -0.45886E+08
        -0.32168E+08
        -0.55360E+08
        -0.16683E+09
        -0.16927E+09
        -0.17132E+09
        -0.77029E+08
         0.45672E+08
         0.30483E+08
        -0.16005E+09
         0.14766E+08
        -0.59831E+08
        -0.73671E+08
         0.11403E+09
         0.71829E+08
        -0.66696E+08
        -0.62482E+08
         0.17192E+09
         0.15405E+09
         0.13826E+09
        -0.86902E+08
        -0.20883E+08
        -0.59474E+08
        -0.15228E+09
        -0.17229E+09
        -0.16698E+09
        -0.15319E+09
        -0.13112E+09
        -0.56833E+08
         0.91905E+08
         0.12810E+09
        -0.16048E+08
         0.20362E+08
         0.13345E+09
         0.16836E+09
         0.18755E+09
         0.18487E+09
         0.15924E+09
         0.13240E+09
         0.92938E+08
         0.40225E+08
        -0.10633E+08
        -0.37950E+08
        -0.49932E+08
        -0.86753E+08
        -0.15723E+09
        -0.18781E+09
        -0.18755E+09
        -0.18689E+09
        -0.18900E+09
        -0.18269E+09
        -0.16095E+09
        -0.14058E+09
        -0.73968E+08
         0.18964E+08
         0.45323E+08
         0.48435E+08
         0.81096E+08
         0.14432E+09
         0.18003E+09
         0.18093E+09
        -0.55570E+08
         0.16411E+08
        -0.29417E+08
        -0.84642E+08
         0.12165E+09
         0.14433E+09
         0.47744E+08
        -0.66096E+08
        -0.43520E+08
        -0.66403E+08
        -0.11404E+08
         0.26979E+08
         0.11051E+09
        -0.15770E+09
        -0.62889E+08
         0.14628E+09
         0.83794E+08
        -0.45751E+08
        -0.32153E+08
        -0.55268E+08
        -0.16680E+09
        -0.16926E+09
        -0.17132E+09
        -0.77042E+08
         0.45767E+08
         0.30545E+08
        -0.16006E+09
         0.14370E+08
        -0.60211E+08
        -0.73728E+08
         0.11421E+09
         0.71823E+08
        -0.66376E+08
        -0.62498E+08
         0.17193E+09
         0.15402E+09
         0.13825E+09
        -0.86896E+08
        -0.21024E+08
        -0.59577E+08
        -0.15226E+09
        -0.17231E+09
        -0.16697E+09
        -0.15315E+09
        -0.13107E+09
        -0.56803E+08
         0.91858E+08
         0.12812E+09
        -0.15885E+08
         0.20342E+08
         0.13344E+09
         0.16836E+09
         0.18755E+09
         0.18487E+09
         0.15923E+09
         0.13240E+09
         0.92923E+08
         0.40225E+08
        -0.10648E+08
        -0.37981E+08
        -0.49903E+08
        -0.86744E+08
        -0.15723E+09
        -0.18780E+09
        -0.18755E+09
        -0.18689E+09
        -0.18900E+09
        -0.18269E+09
        -0.16094E+09
        -0.14057E+09
        -0.73951E+08
         0.18970E+08
         0.45291E+08
         0.48418E+08
         0.81064E+08
         0.14432E+09
         0.18003E+09
         0.18094E+09
        -0.55623E+08
         0.16490E+08
        -0.29448E+08
        -0.84691E+08
         0.12158E+09
         0.14420E+09
         0.48019E+08
        -0.65868E+08
        -0.43545E+08
        -0.66161E+08
        -0.11046E+08
         0.27041E+08
         0.11053E+09
        -0.15730E+09
        -0.62789E+08
         0.14632E+09
         0.83975E+08
        -0.45617E+08
        -0.32138E+08
        -0.55179E+08
        -0.16677E+09
        -0.16926E+09
        -0.17132E+09
        -0.77054E+08
         0.45859E+08
         0.30607E+08
        -0.16006E+09
         0.13973E+08
        -0.60588E+08
        -0.73784E+08
         0.11438E+09
         0.71817E+08
        -0.66059E+08
        -0.62514E+08
         0.17194E+09
         0.15399E+09
         0.13823E+09
        -0.86889E+08
        -0.21167E+08
        -0.59677E+08
        -0.15225E+09
        -0.17233E+09
        -0.16697E+09
        -0.15311E+09
        -0.13102E+09
        -0.56774E+08
         0.91814E+08
         0.12814E+09
        -0.15724E+08
         0.20320E+08
         0.13343E+09
         0.16835E+09
         0.18755E+09
         0.18486E+09
         0.15922E+09
         0.13240E+09
         0.92908E+08
         0.40225E+08
        -0.10663E+08
        -0.38011E+08
        -0.49873E+08
        -0.86735E+08
        -0.15722E+09
        -0.18780E+09
        -0.18755E+09
        -0.18689E+09
        -0.18900E+09
        -0.18269E+09
        -0.16092E+09
        -0.14057E+09
        -0.73933E+08
         0.18977E+08
         0.45260E+08
         0.48402E+08
         0.81033E+08
         0.14432E+09
         0.18003E+09
         0.18095E+09
        -0.53568E+08
         0.16600E+08
        -0.29565E+08
        -0.84983E+08
         0.11530E+09
         0.13518E+09
         0.48395E+08
        -0.62436E+08
        -0.43692E+08
        -0.62547E+08
        -0.10764E+08
         0.26496E+08
         0.10726E+09
        -0.14417E+09
        -0.61432E+08
         0.13721E+09
         0.84384E+08
        -0.45627E+08
        -0.32204E+08
        -0.55228E+08
        -0.16275E+09
        -0.16457E+09
        -0.16682E+09
        -0.77276E+08
         0.46067E+08
         0.30749E+08
        -0.14817E+09
         0.13639E+08
        -0.61096E+08
        -0.72051E+08
         0.11488E+09
         0.72009E+08
        -0.65961E+08
        -0.62713E+08
         0.16558E+09
         0.14169E+09
         0.13129E+09
        -0.84587E+08
        -0.20453E+08
        -0.57053E+08
        -0.14837E+09
        -0.16758E+09
        -0.16279E+09
        -0.14798E+09
        -0.12508E+09
        -0.54908E+08
         0.86365E+08
         0.11921E+09
        -0.15610E+08
         0.18682E+08
         0.12838E+09
         0.15718E+09
         0.18628E+09
         0.18371E+09
         0.15828E+09
         0.13167E+09
         0.92412E+08
         0.40019E+08
        -0.10622E+08
        -0.37779E+08
        -0.49485E+08
        -0.86148E+08
        -0.15620E+09
        -0.18670E+09
        -0.18627E+09
        -0.18561E+09
        -0.18792E+09
        -0.18175E+09
        -0.16012E+09
        -0.13987E+09
        -0.73463E+08
         0.18877E+08
         0.44959E+08
         0.48081E+08
         0.80519E+08
         0.14342E+09
         0.17899E+09
         0.17988E+09
        -0.26130E+08
         0.58465E+07
        -0.10483E+08
        -0.33202E+08
         0.50077E+08
         0.47107E+08
         0.16238E+08
        -0.27439E+08
        -0.16059E+08
        -0.26999E+08
        -0.31989E+07
         0.15644E+08
         0.57061E+08
        -0.45260E+08
        -0.37178E+08
         0.54911E+08
         0.30472E+08
        -0.18769E+08
        -0.11097E+08
        -0.18530E+08
        -0.93145E+08
        -0.89740E+08
        -0.92335E+08
        -0.28024E+08
         0.14832E+08
         0.11716E+08
        -0.46714E+08
         0.41337E+07
        -0.18804E+08
        -0.23086E+08
         0.42760E+08
         0.26365E+08
        -0.25562E+08
        -0.23508E+08
         0.81268E+08
         0.51449E+08
         0.57406E+08
        -0.46890E+08
        -0.98624E+07
        -0.26049E+08
        -0.83499E+08
        -0.91493E+08
        -0.91920E+08
        -0.75238E+08
        -0.56878E+08
        -0.28260E+08
         0.35371E+08
         0.45632E+08
        -0.51601E+07
         0.67934E+07
         0.62607E+08
         0.61592E+08
         0.14805E+09
         0.14870E+09
         0.12949E+09
         0.10873E+09
         0.77112E+08
         0.33637E+08
        -0.88160E+07
        -0.30194E+08
        -0.38997E+08
        -0.68914E+08
        -0.12555E+09
        -0.15266E+09
        -0.14811E+09
        -0.14799E+09
        -0.15423E+09
        -0.15149E+09
        -0.13451E+09
        -0.11759E+09
        -0.59462E+08
         0.15427E+08
         0.36459E+08
         0.38765E+08
         0.65467E+08
         0.11588E+09
         0.14658E+09
         0.14681E+09
  
SCALARS                      stress_xy  double 1
LOOKUP_TABLE default
        -0.49433E+00
        -0.11598E+01
        -0.99469E+01
         0.35138E+00
        -0.20726E-09
         0.20255E-10
         0.30454E-09
         0.46391E-10
        -0.10492E+03
         0.46101E+02
         0.13556E-08
         0.10750E-08
         0.39251E+01
        -0.81442E+00
         0.11965E-09
        -0.35937E-10
         0.11292E+01
         0.19696E+02
         0.59567E-11
         0.90773E-10
        -0.14981E+02
        -0.95031E+02
        -0.93531E+02
         0.92301E-09
         0.73505E-09
        -0.10734E-08
        -0.98941E+01
        -0.82652E+02
         0.12428E-08
         0.19126E-08
        -0.30196E+01
         0.58482E+01
         0.47517E+00
        -0.65598E-10
         0.25878E-09
        -0.33099E-11
        -0.26628E+02
        -0.12372E+02
         0.69257E-09
         0.57373E-09
        -0.52180E+02
        -0.47072E+02
         0.11806E-08
         0.79568E-09
        -0.50621E+02
        -0.92939E+01
        -0.43010E-10
         0.32021E-09
         0.13500E+02
         0.94634E-10
        -0.31666E+01
        -0.21336E-11
         0.82987E+00
         0.71528E-09
         0.41088E+01
         0.11007E-09
         0.58630E+02
        -0.28553E+01
         0.25579E-11
        -0.12549E-10
         0.39101E+00
        -0.39362E+02
         0.69707E-10
         0.17880E-09
         0.16916E+01
        -0.14153E-10
         0.24313E+02
         0.11341E-09
        -0.12995E+03
        -0.47168E+02
         0.87599E-10
        -0.83885E-09
        -0.10608E+03
        -0.13412E-08
         0.43372E+02
         0.89834E-09
         0.13698E+03
         0.13384E-09
         0.23921E+03
         0.17404E-09
         0.46414E+03
         0.25293E+03
         0.40917E-09
        -0.10375E-09
         0.31239E+02
        -0.12485E-10
        -0.95935E+02
        -0.11261E-08
        -0.14122E+03
        -0.12573E-08
        -0.31067E+03
        -0.14164E+03
        -0.79591E-09
         0.88345E-09
         0.22770E+02
         0.80441E-09
         0.56081E+02
         0.34555E-09
         0.13104E+03
         0.91749E-09
         0.32235E+03
         0.18384E+03
         0.19673E-08
         0.98364E-09
        -0.52971E+03
         0.22199E+03
        -0.12782E-08
         0.15653E-08
        -0.12898E+04
        -0.36326E-08
        -0.16826E+04
        -0.39709E-08
        -0.14781E+04
        -0.26950E-08
        -0.12599E+04
        -0.28586E-09
        -0.55044E+03
         0.80573E-09
         0.72502E+03
         0.49887E-09
         0.16292E+04
         0.45605E-09
         0.21540E+04
         0.97847E-09
         0.21128E+04
         0.11897E-08
         0.17334E+04
         0.46871E-09
         0.92413E+03
         0.28576E-09
        -0.63305E+02
         0.46707E-09
        -0.76944E+03
         0.31309E-09
        -0.12413E+04
        -0.11165E-08
        -0.16943E+04
        -0.29296E-08
        -0.15164E+04
        -0.37179E-08
        -0.97345E+03
        -0.23010E-08
        -0.10662E+03
         0.43900E-09
         0.72034E+03
         0.93042E-09
         0.10418E+04
         0.14828E-08
         0.12745E+04
         0.29200E-08
         0.11424E+04
         0.37889E-08
         0.10635E+04
         0.26919E-08
         0.87853E+03
         0.21289E-08
        -0.79913E+02
         0.21529E+02
         0.22047E+02
        -0.13780E+02
         0.17608E+03
         0.14483E+03
         0.23053E+01
        -0.52050E+02
        -0.23037E+02
        -0.60145E+02
        -0.17236E+02
        -0.31834E+03
        -0.45441E+03
         0.16860E+02
         0.25853E+03
        -0.34645E+02
         0.25758E+02
         0.76889E+01
         0.15617E+02
        -0.12699E+02
         0.63737E+02
         0.55957E+02
        -0.16980E+03
         0.44482E+01
         0.38236E+02
         0.42123E+01
         0.70060E+00
         0.13736E+01
         0.17051E+02
        -0.56605E+02
        -0.30192E+02
         0.64274E+01
         0.10346E+02
        -0.81483E+00
        -0.42497E+02
        -0.14684E+03
        -0.29806E+03
         0.45089E+03
         0.23468E+03
         0.42399E+03
         0.82115E+03
         0.19029E+03
        -0.15382E+03
        -0.31012E+03
        -0.36743E+03
        -0.46910E+03
         0.57855E+02
         0.17342E+03
         0.53503E+02
         0.18009E+03
         0.56392E+03
         0.21726E+03
        -0.19165E+04
         0.24205E+04
        -0.58582E+04
        -0.68868E+04
        -0.65359E+04
        -0.39510E+04
         0.23560E+03
         0.25607E+04
         0.37129E+04
         0.60240E+04
         0.63428E+04
         0.33927E+04
         0.13684E+04
         0.57869E+03
        -0.93637E+03
        -0.37012E+04
        -0.61791E+04
        -0.70580E+04
        -0.43227E+04
         0.78366E+03
         0.28385E+04
         0.29915E+04
         0.47123E+04
         0.52319E+04
         0.39664E+04
         0.36610E+04
        -0.18738E+06
         0.34117E+05
        -0.60103E+05
        -0.41509E+05
         0.31654E+06
         0.17920E+06
         0.41401E+05
        -0.22923E+06
        -0.95202E+05
        -0.21984E+06
         0.30174E+05
        -0.13157E+06
        -0.39082E+06
         0.10130E+06
         0.31448E+06
        -0.19633E+06
         0.33122E+05
         0.18940E+05
         0.57450E+05
         0.19506E+05
         0.20628E+06
         0.15322E+06
        -0.91053E+05
         0.40776E+05
         0.93616E+05
        -0.15591E+05
         0.21217E+05
        -0.52370E+04
        -0.21085E+05
        -0.15562E+06
        -0.16256E+06
        -0.27708E+05
         0.68146E+05
         0.51067E+05
         0.57979E+05
        -0.18382E+06
        -0.29962E+06
         0.36512E+06
         0.78878E+05
         0.22209E+06
         0.36239E+06
        -0.10678E+06
        -0.21288E+06
        -0.27582E+06
        -0.31669E+06
        -0.24732E+06
         0.27188E+06
         0.25445E+06
        -0.47034E+05
         0.61772E+05
         0.36066E+06
         0.38279E+05
        -0.20907E+06
         0.28872E+06
        -0.55657E+06
        -0.60114E+06
        -0.51554E+06
        -0.25045E+06
         0.65641E+05
         0.22984E+06
         0.30407E+06
         0.48760E+06
         0.56411E+06
         0.22486E+06
         0.10608E+06
         0.94772E+05
        -0.40795E+05
        -0.31468E+06
        -0.53801E+06
        -0.60371E+06
        -0.42955E+06
         0.11794E+06
         0.27706E+06
         0.29151E+06
         0.45985E+06
         0.58412E+06
         0.36875E+06
         0.35344E+06
        -0.18768E+06
         0.34249E+05
        -0.60247E+05
        -0.41842E+05
         0.31645E+06
         0.17917E+06
         0.41716E+05
        -0.22877E+06
        -0.95478E+05
        -0.21974E+06
         0.29581E+05
        -0.13189E+06
        -0.39092E+06
         0.10128E+06
         0.31418E+06
        -0.19654E+06
         0.33496E+05
         0.18859E+05
         0.57460E+05
         0.19363E+05
         0.20675E+06
         0.15336E+06
        -0.91077E+05
         0.40759E+05
         0.94252E+05
        -0.15589E+05
         0.21474E+05
        -0.51673E+04
        -0.21093E+05
        -0.15605E+06
        -0.16282E+06
        -0.27644E+05
         0.68013E+05
         0.51173E+05
         0.57427E+05
        -0.18391E+06
        -0.29959E+06
         0.36541E+06
         0.79560E+05
         0.22264E+06
         0.36253E+06
        -0.10647E+06
        -0.21307E+06
        -0.27593E+06
        -0.31667E+06
        -0.24722E+06
         0.27185E+06
         0.25440E+06
        -0.46628E+05
         0.61566E+05
         0.36056E+06
         0.37709E+05
        -0.20894E+06
         0.28879E+06
        -0.55663E+06
        -0.60114E+06
        -0.51547E+06
        -0.25044E+06
         0.65738E+05
         0.23002E+06
         0.30389E+06
         0.48754E+06
         0.56408E+06
         0.22495E+06
         0.10608E+06
         0.94969E+05
        -0.40459E+05
        -0.31478E+06
        -0.53810E+06
        -0.60374E+06
        -0.42947E+06
         0.11800E+06
         0.27689E+06
         0.29142E+06
         0.45968E+06
         0.58404E+06
         0.36854E+06
         0.35316E+06
        -0.18798E+06
         0.34381E+05
        -0.60390E+05
        -0.42178E+05
         0.31635E+06
         0.17916E+06
         0.42033E+05
        -0.22831E+06
        -0.95748E+05
        -0.21963E+06
         0.28989E+05
        -0.13220E+06
        -0.39103E+06
         0.10125E+06
         0.31389E+06
        -0.19677E+06
         0.33877E+05
         0.18778E+05
         0.57472E+05
         0.19220E+05
         0.20722E+06
         0.15351E+06
        -0.91114E+05
         0.40736E+05
         0.94900E+05
        -0.15584E+05
         0.21747E+05
        -0.50995E+04
        -0.21087E+05
        -0.15647E+06
        -0.16309E+06
        -0.27569E+05
         0.67877E+05
         0.51279E+05
         0.56873E+05
        -0.18401E+06
        -0.29956E+06
         0.36569E+06
         0.80239E+05
         0.22319E+06
         0.36268E+06
        -0.10613E+06
        -0.21325E+06
        -0.27607E+06
        -0.31666E+06
        -0.24711E+06
         0.27182E+06
         0.25434E+06
        -0.46215E+05
         0.61353E+05
         0.36045E+06
         0.37141E+05
        -0.20881E+06
         0.28886E+06
        -0.55669E+06
        -0.60114E+06
        -0.51540E+06
        -0.25043E+06
         0.65835E+05
         0.23020E+06
         0.30371E+06
         0.48748E+06
         0.56405E+06
         0.22505E+06
         0.10609E+06
         0.95166E+05
        -0.40122E+05
        -0.31488E+06
        -0.53819E+06
        -0.60376E+06
        -0.42938E+06
         0.11806E+06
         0.27672E+06
         0.29133E+06
         0.45951E+06
         0.58396E+06
         0.36833E+06
         0.35288E+06
        -0.18828E+06
         0.34516E+05
        -0.60532E+05
        -0.42515E+05
         0.31625E+06
         0.17914E+06
         0.42351E+05
        -0.22784E+06
        -0.96008E+05
        -0.21948E+06
         0.28397E+05
        -0.13253E+06
        -0.39115E+06
         0.10123E+06
         0.31360E+06
        -0.19701E+06
         0.34268E+05
         0.18695E+05
         0.57489E+05
         0.19069E+05
         0.20769E+06
         0.15363E+06
        -0.91190E+05
         0.40698E+05
         0.95578E+05
        -0.15576E+05
         0.22029E+05
        -0.50431E+04
        -0.21041E+05
        -0.15685E+06
        -0.16337E+06
        -0.27472E+05
         0.67737E+05
         0.51385E+05
         0.56321E+05
        -0.18410E+06
        -0.29954E+06
         0.36597E+06
         0.80914E+05
         0.22373E+06
         0.36286E+06
        -0.10571E+06
        -0.21339E+06
        -0.27627E+06
        -0.31668E+06
        -0.24700E+06
         0.27180E+06
         0.25429E+06
        -0.45803E+05
         0.61139E+05
         0.36034E+06
         0.36574E+05
        -0.20868E+06
         0.28893E+06
        -0.55675E+06
        -0.60114E+06
        -0.51534E+06
        -0.25042E+06
         0.65933E+05
         0.23039E+06
         0.30353E+06
         0.48741E+06
         0.56403E+06
         0.22517E+06
         0.10609E+06
         0.95359E+05
        -0.39781E+05
        -0.31499E+06
        -0.53830E+06
        -0.60379E+06
        -0.42930E+06
         0.11812E+06
         0.27655E+06
         0.29123E+06
         0.45934E+06
         0.58388E+06
         0.36812E+06
         0.35259E+06
        -0.18857E+06
         0.34651E+05
        -0.60675E+05
        -0.42851E+05
         0.31616E+06
         0.17911E+06
         0.42669E+05
        -0.22737E+06
        -0.96255E+05
        -0.21931E+06
         0.27803E+05
        -0.13284E+06
        -0.39126E+06
         0.10121E+06
         0.31331E+06
        -0.19727E+06
         0.34668E+05
         0.18613E+05
         0.57502E+05
         0.18912E+05
         0.20817E+06
         0.15374E+06
        -0.91306E+05
         0.40644E+05
         0.96287E+05
        -0.15561E+05
         0.22341E+05
        -0.49969E+04
        -0.20954E+05
        -0.15719E+06
        -0.16365E+06
        -0.27349E+05
         0.67595E+05
         0.51491E+05
         0.55765E+05
        -0.18419E+06
        -0.29951E+06
         0.36624E+06
         0.81584E+05
         0.22427E+06
         0.36306E+06
        -0.10519E+06
        -0.21348E+06
        -0.27655E+06
        -0.31673E+06
        -0.24687E+06
         0.27179E+06
         0.25425E+06
        -0.45394E+05
         0.60928E+05
         0.36023E+06
         0.36003E+05
        -0.20855E+06
         0.28899E+06
        -0.55681E+06
        -0.60114E+06
        -0.51527E+06
        -0.25042E+06
         0.66029E+05
         0.23057E+06
         0.30335E+06
         0.48735E+06
         0.56401E+06
         0.22531E+06
         0.10611E+06
         0.95547E+05
        -0.39439E+05
        -0.31510E+06
        -0.53843E+06
        -0.60382E+06
        -0.42922E+06
         0.11818E+06
         0.27639E+06
         0.29114E+06
         0.45917E+06
         0.58380E+06
         0.36790E+06
         0.35231E+06
        -0.18886E+06
         0.34795E+05
        -0.60804E+05
        -0.43191E+05
         0.31607E+06
         0.17909E+06
         0.42983E+05
        -0.22689E+06
        -0.96501E+05
        -0.21913E+06
         0.27211E+05
        -0.13316E+06
        -0.39137E+06
         0.10109E+06
         0.31301E+06
        -0.19754E+06
         0.35077E+05
         0.18532E+05
         0.57513E+05
         0.18754E+05
         0.20865E+06
         0.15385E+06
        -0.91439E+05
         0.40584E+05
         0.96987E+05
        -0.15544E+05
         0.22676E+05
        -0.49543E+04
        -0.20847E+05
        -0.15754E+06
        -0.16392E+06
        -0.27211E+05
         0.67451E+05
         0.51599E+05
         0.55206E+05
        -0.18429E+06
        -0.29949E+06
         0.36652E+06
         0.82252E+05
         0.22482E+06
         0.36327E+06
        -0.10465E+06
        -0.21357E+06
        -0.27684E+06
        -0.31680E+06
        -0.24675E+06
         0.27178E+06
         0.25422E+06
        -0.44980E+05
         0.60734E+05
         0.36013E+06
         0.35432E+05
        -0.20842E+06
         0.28906E+06
        -0.55686E+06
        -0.60114E+06
        -0.51520E+06
        -0.25041E+06
         0.66124E+05
         0.23076E+06
         0.30317E+06
         0.48729E+06
         0.56399E+06
         0.22546E+06
         0.10612E+06
         0.95735E+05
        -0.39098E+05
        -0.31521E+06
        -0.53856E+06
        -0.60386E+06
        -0.42913E+06
         0.11823E+06
         0.27621E+06
         0.29105E+06
         0.45900E+06
         0.58372E+06
         0.36769E+06
         0.35203E+06
        -0.18912E+06
         0.34962E+05
        -0.60910E+05
        -0.43538E+05
         0.31597E+06
         0.17908E+06
         0.43291E+05
        -0.22640E+06
        -0.96754E+05
        -0.21895E+06
         0.26618E+05
        -0.13347E+06
        -0.39148E+06
         0.10092E+06
         0.31271E+06
        -0.19783E+06
         0.35492E+05
         0.18450E+05
         0.57532E+05
         0.18597E+05
         0.20913E+06
         0.15396E+06
        -0.91572E+05
         0.40528E+05
         0.97645E+05
        -0.15522E+05
         0.23071E+05
        -0.49108E+04
        -0.20734E+05
        -0.15789E+06
        -0.16417E+06
        -0.27058E+05
         0.67305E+05
         0.51705E+05
         0.54645E+05
        -0.18440E+06
        -0.29948E+06
         0.36679E+06
         0.82923E+05
         0.22537E+06
         0.36349E+06
        -0.10409E+06
        -0.21364E+06
        -0.27714E+06
        -0.31687E+06
        -0.24664E+06
         0.27176E+06
         0.25423E+06
        -0.44544E+05
         0.60585E+05
         0.36003E+06
         0.34853E+05
        -0.20828E+06
         0.28913E+06
        -0.55692E+06
        -0.60114E+06
        -0.51513E+06
        -0.25040E+06
         0.66220E+05
         0.23094E+06
         0.30299E+06
         0.48723E+06
         0.56398E+06
         0.22561E+06
         0.10614E+06
         0.95925E+05
        -0.38756E+05
        -0.31532E+06
        -0.53868E+06
        -0.60389E+06
        -0.42905E+06
         0.11828E+06
         0.27603E+06
         0.29095E+06
         0.45884E+06
         0.58364E+06
         0.36748E+06
         0.35174E+06
        -0.18937E+06
         0.35137E+05
        -0.61006E+05
        -0.43889E+05
         0.31589E+06
         0.17905E+06
         0.43595E+05
        -0.22590E+06
        -0.97013E+05
        -0.21878E+06
         0.26025E+05
        -0.13379E+06
        -0.39160E+06
         0.10075E+06
         0.31241E+06
        -0.19811E+06
         0.35910E+05
         0.18367E+05
         0.57546E+05
         0.18443E+05
         0.20961E+06
         0.15407E+06
        -0.91702E+05
         0.40472E+05
         0.98282E+05
        -0.15497E+05
         0.23481E+05
        -0.48659E+04
        -0.20619E+05
        -0.15826E+06
        -0.16441E+06
        -0.26895E+05
         0.67156E+05
         0.51812E+05
         0.54079E+05
        -0.18452E+06
        -0.29949E+06
         0.36706E+06
         0.83592E+05
         0.22592E+06
         0.36371E+06
        -0.10354E+06
        -0.21371E+06
        -0.27744E+06
        -0.31696E+06
        -0.24655E+06
         0.27173E+06
         0.25425E+06
        -0.44101E+05
         0.60455E+05
         0.35993E+06
         0.34274E+05
        -0.20815E+06
         0.28919E+06
        -0.55698E+06
        -0.60114E+06
        -0.51507E+06
        -0.25040E+06
         0.66316E+05
         0.23112E+06
         0.30281E+06
         0.48717E+06
         0.56396E+06
         0.22576E+06
         0.10616E+06
         0.96117E+05
        -0.38414E+05
        -0.31543E+06
        -0.53881E+06
        -0.60392E+06
        -0.42896E+06
         0.11832E+06
         0.27585E+06
         0.29086E+06
         0.45868E+06
         0.58356E+06
         0.36727E+06
         0.35146E+06
        -0.18962E+06
         0.35313E+05
        -0.61100E+05
        -0.44241E+05
         0.31580E+06
         0.17903E+06
         0.43897E+05
        -0.22540E+06
        -0.97274E+05
        -0.21861E+06
         0.25431E+05
        -0.13410E+06
        -0.39172E+06
         0.10060E+06
         0.31211E+06
        -0.19831E+06
         0.36333E+05
         0.18284E+05
         0.57559E+05
         0.18287E+05
         0.21009E+06
         0.15418E+06
        -0.91833E+05
         0.40419E+05
         0.98919E+05
        -0.15472E+05
         0.23902E+05
        -0.48185E+04
        -0.20500E+05
        -0.15862E+06
        -0.16464E+06
        -0.26734E+05
         0.67007E+05
         0.51919E+05
         0.53510E+05
        -0.18463E+06
        -0.29948E+06
         0.36733E+06
         0.84262E+05
         0.22646E+06
         0.36392E+06
        -0.10299E+06
        -0.21379E+06
        -0.27774E+06
        -0.31704E+06
        -0.24646E+06
         0.27171E+06
         0.25428E+06
        -0.43659E+05
         0.60331E+05
         0.35983E+06
         0.33692E+05
        -0.20802E+06
         0.28926E+06
        -0.55703E+06
        -0.60114E+06
        -0.51500E+06
        -0.25039E+06
         0.66411E+05
         0.23131E+06
         0.30263E+06
         0.48711E+06
         0.56394E+06
         0.22590E+06
         0.10618E+06
         0.96311E+05
        -0.38073E+05
        -0.31554E+06
        -0.53894E+06
        -0.60395E+06
        -0.42888E+06
         0.11836E+06
         0.27566E+06
         0.29076E+06
         0.45852E+06
         0.58348E+06
         0.36706E+06
         0.35117E+06
        -0.18987E+06
         0.35491E+05
        -0.61194E+05
        -0.44592E+05
         0.31570E+06
         0.17900E+06
         0.44202E+05
        -0.22490E+06
        -0.97534E+05
        -0.21843E+06
         0.24838E+05
        -0.13441E+06
        -0.39183E+06
         0.10044E+06
         0.31181E+06
        -0.19841E+06
         0.36758E+05
         0.18202E+05
         0.57571E+05
         0.18131E+05
         0.21057E+06
         0.15429E+06
        -0.91958E+05
         0.40365E+05
         0.99558E+05
        -0.15447E+05
         0.24312E+05
        -0.47690E+04
        -0.20378E+05
        -0.15898E+06
        -0.16488E+06
        -0.26571E+05
         0.66854E+05
         0.52026E+05
         0.52942E+05
        -0.18475E+06
        -0.29948E+06
         0.36759E+06
         0.84932E+05
         0.22702E+06
         0.36414E+06
        -0.10244E+06
        -0.21386E+06
        -0.27804E+06
        -0.31713E+06
        -0.24636E+06
         0.27168E+06
         0.25430E+06
        -0.43221E+05
         0.60196E+05
         0.35973E+06
         0.33112E+05
        -0.20789E+06
         0.28932E+06
        -0.55709E+06
        -0.60114E+06
        -0.51493E+06
        -0.25038E+06
         0.66506E+05
         0.23149E+06
         0.30245E+06
         0.48705E+06
         0.56393E+06
         0.22605E+06
         0.10620E+06
         0.96505E+05
        -0.37732E+05
        -0.31566E+06
        -0.53907E+06
        -0.60398E+06
        -0.42879E+06
         0.11841E+06
         0.27548E+06
         0.29067E+06
         0.45836E+06
         0.58340E+06
         0.36684E+06
         0.35089E+06
        -0.19012E+06
         0.35667E+05
        -0.61291E+05
        -0.44942E+05
         0.31562E+06
         0.17898E+06
         0.44508E+05
        -0.22439E+06
        -0.97795E+05
        -0.21826E+06
         0.24243E+05
        -0.13473E+06
        -0.39195E+06
         0.10029E+06
         0.31151E+06
        -0.19850E+06
         0.37185E+05
         0.18121E+05
         0.57590E+05
         0.17974E+05
         0.21105E+06
         0.15439E+06
        -0.92089E+05
         0.40313E+05
         0.10020E+06
        -0.15421E+05
         0.24730E+05
        -0.47165E+04
        -0.20252E+05
        -0.15934E+06
        -0.16511E+06
        -0.26410E+05
         0.66701E+05
         0.52133E+05
         0.52372E+05
        -0.18487E+06
        -0.29948E+06
         0.36786E+06
         0.85601E+05
         0.22756E+06
         0.36436E+06
        -0.10188E+06
        -0.21394E+06
        -0.27833E+06
        -0.31721E+06
        -0.24626E+06
         0.27166E+06
         0.25433E+06
        -0.42779E+05
         0.60065E+05
         0.35964E+06
         0.32531E+05
        -0.20776E+06
         0.28938E+06
        -0.55714E+06
        -0.60114E+06
        -0.51486E+06
        -0.25037E+06
         0.66600E+05
         0.23167E+06
         0.30227E+06
         0.48699E+06
         0.56391E+06
         0.22619E+06
         0.10622E+06
         0.96696E+05
        -0.37391E+05
        -0.31577E+06
        -0.53920E+06
        -0.60401E+06
        -0.42871E+06
         0.11845E+06
         0.27529E+06
         0.29057E+06
         0.45820E+06
         0.58331E+06
         0.36663E+06
         0.35060E+06
        -0.19037E+06
         0.35843E+05
        -0.61383E+05
        -0.45295E+05
         0.31552E+06
         0.17896E+06
         0.44812E+05
        -0.22389E+06
        -0.98056E+05
        -0.21808E+06
         0.23648E+05
        -0.13505E+06
        -0.39207E+06
         0.10013E+06
         0.31120E+06
        -0.19860E+06
         0.37614E+05
         0.18038E+05
         0.57605E+05
         0.17820E+05
         0.21153E+06
         0.15449E+06
        -0.92219E+05
         0.40262E+05
         0.10083E+06
        -0.15397E+05
         0.25138E+05
        -0.46622E+04
        -0.20122E+05
        -0.15970E+06
        -0.16535E+06
        -0.26249E+05
         0.66545E+05
         0.52241E+05
         0.51798E+05
        -0.18498E+06
        -0.29948E+06
         0.36812E+06
         0.86271E+05
         0.22811E+06
         0.36457E+06
        -0.10134E+06
        -0.21401E+06
        -0.27863E+06
        -0.31729E+06
        -0.24617E+06
         0.27163E+06
         0.25436E+06
        -0.42338E+05
         0.59941E+05
         0.35954E+06
         0.31949E+05
        -0.20763E+06
         0.28945E+06
        -0.55720E+06
        -0.60115E+06
        -0.51479E+06
        -0.25037E+06
         0.66694E+05
         0.23185E+06
         0.30209E+06
         0.48693E+06
         0.56389E+06
         0.22634E+06
         0.10624E+06
         0.96888E+05
        -0.37048E+05
        -0.31588E+06
        -0.53932E+06
        -0.60405E+06
        -0.42862E+06
         0.11849E+06
         0.27511E+06
         0.29048E+06
         0.45804E+06
         0.58323E+06
         0.36643E+06
         0.35032E+06
        -0.19062E+06
         0.36020E+05
        -0.61476E+05
        -0.45650E+05
         0.31543E+06
         0.17893E+06
         0.45116E+05
        -0.22338E+06
        -0.98315E+05
        -0.21790E+06
         0.23054E+05
        -0.13536E+06
        -0.39219E+06
         0.99963E+05
         0.31090E+06
        -0.19869E+06
         0.38045E+05
         0.17956E+05
         0.57620E+05
         0.17666E+05
         0.21201E+06
         0.15460E+06
        -0.92347E+05
         0.40210E+05
         0.10147E+06
        -0.15370E+05
         0.25558E+05
        -0.46051E+04
        -0.19990E+05
        -0.16006E+06
        -0.16559E+06
        -0.26085E+05
         0.66386E+05
         0.52348E+05
         0.51225E+05
        -0.18510E+06
        -0.29948E+06
         0.36838E+06
         0.86940E+05
         0.22866E+06
         0.36479E+06
        -0.10079E+06
        -0.21408E+06
        -0.27893E+06
        -0.31738E+06
        -0.24607E+06
         0.27161E+06
         0.25438E+06
        -0.41897E+05
         0.59809E+05
         0.35944E+06
         0.31369E+05
        -0.20749E+06
         0.28951E+06
        -0.55725E+06
        -0.60115E+06
        -0.51473E+06
        -0.25036E+06
         0.66790E+05
         0.23203E+06
         0.30191E+06
         0.48687E+06
         0.56387E+06
         0.22649E+06
         0.10626E+06
         0.97080E+05
        -0.36706E+05
        -0.31599E+06
        -0.53945E+06
        -0.60408E+06
        -0.42854E+06
         0.11853E+06
         0.27492E+06
         0.29039E+06
         0.45788E+06
         0.58315E+06
         0.36622E+06
         0.35003E+06
        -0.19087E+06
         0.36195E+05
        -0.61568E+05
        -0.46004E+05
         0.31534E+06
         0.17891E+06
         0.45422E+05
        -0.22288E+06
        -0.98576E+05
        -0.21771E+06
         0.22459E+05
        -0.13567E+06
        -0.39230E+06
         0.99807E+05
         0.31059E+06
        -0.19879E+06
         0.38479E+05
         0.17874E+05
         0.57640E+05
         0.17513E+05
         0.21248E+06
         0.15470E+06
        -0.92477E+05
         0.40159E+05
         0.10211E+06
        -0.15344E+05
         0.25967E+05
        -0.45461E+04
        -0.19855E+05
        -0.16042E+06
        -0.16582E+06
        -0.25923E+05
         0.66226E+05
         0.52456E+05
         0.50649E+05
        -0.18522E+06
        -0.29948E+06
         0.36864E+06
         0.87608E+05
         0.22921E+06
         0.36500E+06
        -0.10024E+06
        -0.21415E+06
        -0.27922E+06
        -0.31746E+06
        -0.24598E+06
         0.27158E+06
         0.25440E+06
        -0.41456E+05
         0.59678E+05
         0.35935E+06
         0.30792E+05
        -0.20736E+06
         0.28957E+06
        -0.55731E+06
        -0.60115E+06
        -0.51466E+06
        -0.25035E+06
         0.66885E+05
         0.23221E+06
         0.30172E+06
         0.48681E+06
         0.56386E+06
         0.22663E+06
         0.10628E+06
         0.97273E+05
        -0.36366E+05
        -0.31610E+06
        -0.53958E+06
        -0.60411E+06
        -0.42845E+06
         0.11857E+06
         0.27474E+06
         0.29029E+06
         0.45772E+06
         0.58307E+06
         0.36601E+06
         0.34975E+06
        -0.19112E+06
         0.36369E+05
        -0.61661E+05
        -0.46358E+05
         0.31525E+06
         0.17888E+06
         0.45726E+05
        -0.22237E+06
        -0.98837E+05
        -0.21753E+06
         0.21864E+05
        -0.13599E+06
        -0.39242E+06
         0.99636E+05
         0.31029E+06
        -0.19888E+06
         0.38916E+05
         0.17793E+05
         0.57654E+05
         0.17358E+05
         0.21296E+06
         0.15481E+06
        -0.92603E+05
         0.40109E+05
         0.10274E+06
        -0.15317E+05
         0.26384E+05
        -0.44843E+04
        -0.19718E+05
        -0.16078E+06
        -0.16605E+06
        -0.25760E+05
         0.66064E+05
         0.52563E+05
         0.50074E+05
        -0.18534E+06
        -0.29948E+06
         0.36889E+06
         0.88275E+05
         0.22976E+06
         0.36522E+06
        -0.99689E+05
        -0.21423E+06
        -0.27952E+06
        -0.31755E+06
        -0.24588E+06
         0.27156E+06
         0.25443E+06
        -0.41010E+05
         0.59550E+05
         0.35925E+06
         0.30211E+05
        -0.20723E+06
         0.28964E+06
        -0.55736E+06
        -0.60115E+06
        -0.51459E+06
        -0.25034E+06
         0.66978E+05
         0.23239E+06
         0.30154E+06
         0.48676E+06
         0.56384E+06
         0.22678E+06
         0.10630E+06
         0.97466E+05
        -0.36025E+05
        -0.31621E+06
        -0.53971E+06
        -0.60414E+06
        -0.42837E+06
         0.11861E+06
         0.27455E+06
         0.29020E+06
         0.45756E+06
         0.58299E+06
         0.36580E+06
         0.34946E+06
        -0.19137E+06
         0.36546E+05
        -0.61754E+05
        -0.46711E+05
         0.31516E+06
         0.17886E+06
         0.46031E+05
        -0.22185E+06
        -0.99099E+05
        -0.21734E+06
         0.21268E+05
        -0.13631E+06
        -0.39254E+06
         0.99477E+05
         0.30998E+06
        -0.19898E+06
         0.39356E+05
         0.17712E+05
         0.57670E+05
         0.17205E+05
         0.21344E+06
         0.15491E+06
        -0.92731E+05
         0.40059E+05
         0.10338E+06
        -0.15291E+05
         0.26790E+05
        -0.44202E+04
        -0.19578E+05
        -0.16113E+06
        -0.16629E+06
        -0.25599E+05
         0.65901E+05
         0.52672E+05
         0.49494E+05
        -0.18545E+06
        -0.29948E+06
         0.36915E+06
         0.88945E+05
         0.23030E+06
         0.36543E+06
        -0.99141E+05
        -0.21430E+06
        -0.27981E+06
        -0.31764E+06
        -0.24578E+06
         0.27153E+06
         0.25445E+06
        -0.40570E+05
         0.59418E+05
         0.35915E+06
         0.29629E+05
        -0.20709E+06
         0.28970E+06
        -0.55741E+06
        -0.60115E+06
        -0.51452E+06
        -0.25033E+06
         0.67071E+05
         0.23257E+06
         0.30136E+06
         0.48670E+06
         0.56382E+06
         0.22692E+06
         0.10632E+06
         0.97656E+05
        -0.35683E+05
        -0.31632E+06
        -0.53984E+06
        -0.60417E+06
        -0.42828E+06
         0.11865E+06
         0.27436E+06
         0.29011E+06
         0.45740E+06
         0.58291E+06
         0.36559E+06
         0.34917E+06
        -0.19162E+06
         0.36721E+05
        -0.61848E+05
        -0.47066E+05
         0.31507E+06
         0.17883E+06
         0.46338E+05
        -0.22134E+06
        -0.99359E+05
        -0.21714E+06
         0.20671E+05
        -0.13663E+06
        -0.39265E+06
         0.99302E+05
         0.30967E+06
        -0.19907E+06
         0.39800E+05
         0.17631E+05
         0.57686E+05
         0.17053E+05
         0.21391E+06
         0.15500E+06
        -0.92858E+05
         0.40010E+05
         0.10401E+06
        -0.15263E+05
         0.27206E+05
        -0.43527E+04
        -0.19433E+05
        -0.16148E+06
        -0.16652E+06
        -0.25436E+05
         0.65737E+05
         0.52782E+05
         0.48914E+05
        -0.18557E+06
        -0.29947E+06
         0.36940E+06
         0.89620E+05
         0.23085E+06
         0.36565E+06
        -0.98598E+05
        -0.21438E+06
        -0.28010E+06
        -0.31772E+06
        -0.24569E+06
         0.27151E+06
         0.25448E+06
        -0.40132E+05
         0.59285E+05
         0.35905E+06
         0.29052E+05
        -0.20696E+06
         0.28976E+06
        -0.55747E+06
        -0.60115E+06
        -0.51446E+06
        -0.25033E+06
         0.67162E+05
         0.23274E+06
         0.30118E+06
         0.48664E+06
         0.56381E+06
         0.22707E+06
         0.10633E+06
         0.97845E+05
        -0.35344E+05
        -0.31642E+06
        -0.53996E+06
        -0.60420E+06
        -0.42820E+06
         0.11869E+06
         0.27418E+06
         0.29001E+06
         0.45724E+06
         0.58282E+06
         0.36539E+06
         0.34888E+06
        -0.19187E+06
         0.36895E+05
        -0.61939E+05
        -0.47423E+05
         0.31498E+06
         0.17880E+06
         0.46642E+05
        -0.22083E+06
        -0.99613E+05
        -0.21691E+06
         0.20073E+05
        -0.13694E+06
        -0.39277E+06
         0.99136E+05
         0.30936E+06
        -0.19916E+06
         0.40248E+05
         0.17549E+05
         0.57710E+05
         0.16909E+05
         0.21439E+06
         0.15510E+06
        -0.92988E+05
         0.39959E+05
         0.10463E+06
        -0.15237E+05
         0.27616E+05
        -0.42803E+04
        -0.19286E+05
        -0.16183E+06
        -0.16675E+06
        -0.25271E+05
         0.65569E+05
         0.52891E+05
         0.48333E+05
        -0.18569E+06
        -0.29947E+06
         0.36964E+06
         0.90315E+05
         0.23139E+06
         0.36586E+06
        -0.98052E+05
        -0.21446E+06
        -0.28040E+06
        -0.31780E+06
        -0.24559E+06
         0.27148E+06
         0.25451E+06
        -0.39695E+05
         0.59154E+05
         0.35896E+06
         0.28473E+05
        -0.20682E+06
         0.28982E+06
        -0.55752E+06
        -0.60115E+06
        -0.51439E+06
        -0.25032E+06
         0.67254E+05
         0.23292E+06
         0.30101E+06
         0.48658E+06
         0.56380E+06
         0.22721E+06
         0.10634E+06
         0.98033E+05
        -0.35005E+05
        -0.31653E+06
        -0.54009E+06
        -0.60423E+06
        -0.42811E+06
         0.11873E+06
         0.27399E+06
         0.28992E+06
         0.45708E+06
         0.58274E+06
         0.36519E+06
         0.34860E+06
        -0.19212E+06
         0.37069E+05
        -0.62030E+05
        -0.47780E+05
         0.31488E+06
         0.17877E+06
         0.46947E+05
        -0.22031E+06
        -0.99862E+05
        -0.21667E+06
         0.19477E+05
        -0.13726E+06
        -0.39288E+06
         0.98968E+05
         0.30904E+06
        -0.19926E+06
         0.40703E+05
         0.17467E+05
         0.57728E+05
         0.16769E+05
         0.21486E+06
         0.15519E+06
        -0.93115E+05
         0.39911E+05
         0.10523E+06
        -0.15209E+05
         0.28041E+05
        -0.42021E+04
        -0.19137E+05
        -0.16216E+06
        -0.16699E+06
        -0.25109E+05
         0.65399E+05
         0.53000E+05
         0.47748E+05
        -0.18580E+06
        -0.29947E+06
         0.36987E+06
         0.91030E+05
         0.23194E+06
         0.36607E+06
        -0.97510E+05
        -0.21455E+06
        -0.28069E+06
        -0.31789E+06
        -0.24550E+06
         0.27145E+06
         0.25453E+06
        -0.39255E+05
         0.59024E+05
         0.35886E+06
         0.27891E+05
        -0.20669E+06
         0.28988E+06
        -0.55757E+06
        -0.60115E+06
        -0.51432E+06
        -0.25031E+06
         0.67346E+05
         0.23310E+06
         0.30083E+06
         0.48652E+06
         0.56379E+06
         0.22735E+06
         0.10633E+06
         0.98222E+05
        -0.34664E+05
        -0.31664E+06
        -0.54022E+06
        -0.60426E+06
        -0.42803E+06
         0.11877E+06
         0.27381E+06
         0.28982E+06
         0.45692E+06
         0.58266E+06
         0.36498E+06
         0.34831E+06
        -0.19237E+06
         0.37244E+05
        -0.62125E+05
        -0.48136E+05
         0.31480E+06
         0.17875E+06
         0.47253E+05
        -0.21980E+06
        -0.10011E+06
        -0.21641E+06
         0.18883E+05
        -0.13757E+06
        -0.39300E+06
         0.98788E+05
         0.30872E+06
        -0.19935E+06
         0.41162E+05
         0.17387E+05
         0.57744E+05
         0.16633E+05
         0.21534E+06
         0.15528E+06
        -0.93235E+05
         0.39866E+05
         0.10582E+06
        -0.15182E+05
         0.28456E+05
        -0.41200E+04
        -0.18986E+05
        -0.16248E+06
        -0.16722E+06
        -0.24949E+05
         0.65231E+05
         0.53112E+05
         0.47169E+05
        -0.18592E+06
        -0.29946E+06
         0.37009E+06
         0.91752E+05
         0.23247E+06
         0.36628E+06
        -0.96978E+05
        -0.21465E+06
        -0.28097E+06
        -0.31797E+06
        -0.24540E+06
         0.27143E+06
         0.25456E+06
        -0.38820E+05
         0.58888E+05
         0.35877E+06
         0.27312E+05
        -0.20655E+06
         0.28994E+06
        -0.55762E+06
        -0.60115E+06
        -0.51425E+06
        -0.25030E+06
         0.67436E+05
         0.23327E+06
         0.30066E+06
         0.48646E+06
         0.56378E+06
         0.22749E+06
         0.10632E+06
         0.98410E+05
        -0.34323E+05
        -0.31675E+06
        -0.54034E+06
        -0.60430E+06
        -0.42794E+06
         0.11881E+06
         0.27363E+06
         0.28973E+06
         0.45676E+06
         0.58258E+06
         0.36478E+06
         0.34802E+06
        -0.18380E+06
         0.37653E+05
        -0.62677E+05
        -0.48822E+05
         0.29466E+06
         0.16805E+06
         0.47868E+05
        -0.20619E+06
        -0.10105E+06
        -0.20278E+06
         0.18494E+05
        -0.13294E+06
        -0.37589E+06
         0.90667E+05
         0.29818E+06
        -0.18723E+06
         0.41888E+05
         0.17434E+05
         0.58147E+05
         0.16621E+05
         0.20818E+06
         0.14917E+06
        -0.89805E+05
         0.40124E+05
         0.10712E+06
        -0.15278E+05
         0.26724E+05
        -0.40639E+04
        -0.19005E+05
        -0.15950E+06
        -0.16866E+06
        -0.25010E+05
         0.65545E+05
         0.53601E+05
         0.44190E+05
        -0.17003E+06
        -0.28064E+06
         0.35509E+06
         0.87229E+05
         0.21851E+06
         0.35202E+06
        -0.92582E+05
        -0.20681E+06
        -0.26868E+06
        -0.29986E+06
        -0.23365E+06
         0.25210E+06
         0.23528E+06
        -0.38657E+05
         0.53881E+05
         0.33989E+06
         0.24745E+05
        -0.20377E+06
         0.28669E+06
        -0.55163E+06
        -0.59496E+06
        -0.50922E+06
        -0.24795E+06
         0.66855E+05
         0.23046E+06
         0.29643E+06
         0.48035E+06
         0.55695E+06
         0.22508E+06
         0.10493E+06
         0.97340E+05
        -0.33638E+05
        -0.31377E+06
        -0.53549E+06
        -0.59881E+06
        -0.42295E+06
         0.11758E+06
         0.27037E+06
         0.28623E+06
         0.45150E+06
         0.57570E+06
         0.36065E+06
         0.34391E+06
        -0.63427E+05
         0.90635E+04
        -0.15317E+05
        -0.14424E+05
         0.79748E+05
         0.37426E+05
         0.10504E+05
        -0.58365E+05
        -0.26473E+05
        -0.56124E+05
         0.32561E+04
        -0.51531E+05
        -0.12838E+06
         0.16205E+05
         0.11975E+06
        -0.53804E+05
         0.10661E+05
         0.56457E+04
         0.13449E+05
         0.36441E+04
         0.81500E+05
         0.54333E+05
        -0.33970E+05
         0.10234E+05
         0.21783E+05
        -0.42807E+04
         0.48871E+04
        -0.74779E+03
        -0.35060E+04
        -0.31312E+05
        -0.45204E+05
        -0.64926E+04
         0.19061E+05
         0.14583E+05
         0.13153E+05
        -0.37560E+05
        -0.76655E+05
         0.12564E+06
         0.25459E+05
         0.59605E+05
         0.12844E+06
        -0.32806E+05
        -0.78582E+05
        -0.91977E+05
        -0.87190E+05
        -0.75188E+05
         0.63072E+05
         0.57173E+05
        -0.82817E+04
         0.12274E+05
         0.10370E+06
         0.59768E+04
        -0.12974E+06
         0.18948E+06
        -0.37206E+06
        -0.40879E+06
        -0.35715E+06
        -0.17640E+06
         0.46319E+05
         0.14843E+06
         0.18583E+06
         0.30994E+06
         0.36277E+06
         0.15172E+06
         0.67025E+05
         0.62674E+05
        -0.22728E+05
        -0.21984E+06
        -0.38096E+06
        -0.42625E+06
        -0.27936E+06
         0.79075E+05
         0.17938E+06
         0.18786E+06
         0.30111E+06
         0.37918E+06
         0.24385E+06
         0.23093E+06
  
SCALARS                      strain_xx  double 1
LOOKUP_TABLE default
        -0.12332E-07
        -0.58378E-06
        -0.65660E-05
        -0.32738E-07
        -0.71326E-20
        -0.89672E-21
        -0.10026E-19
        -0.39991E-21
        -0.50288E-04
        -0.22829E-04
        -0.89699E-19
        -0.72776E-19
        -0.85009E-07
        -0.14114E-05
        -0.13644E-20
        -0.29942E-19
        -0.69431E-07
        -0.13052E-05
        -0.15623E-19
        -0.34654E-19
        -0.26414E-05
        -0.71501E-05
        -0.69138E-05
        -0.15452E-19
        -0.32856E-20
        -0.10028E-19
        -0.79924E-05
        -0.49028E-05
        -0.54141E-19
        -0.34069E-19
        -0.37912E-06
        -0.17542E-05
        -0.18193E-07
        -0.56122E-21
        -0.83811E-20
        -0.31810E-20
        -0.32164E-05
        -0.68674E-06
        -0.18474E-19
        -0.20944E-19
        -0.12365E-04
        -0.23236E-04
        -0.94001E-19
        -0.51121E-19
        -0.14938E-04
        -0.43366E-05
        -0.11336E-18
        -0.26263E-19
        -0.10332E-05
        -0.10348E-19
        -0.71133E-05
        -0.80182E-21
        -0.10337E-05
        -0.39510E-19
        -0.56393E-06
        -0.27646E-20
        -0.10799E-04
        -0.87959E-06
        -0.20288E-20
        -0.11853E-19
        -0.43170E-08
        -0.32063E-05
        -0.81160E-20
        -0.38165E-20
        -0.22498E-06
        -0.82116E-22
        -0.24494E-05
        -0.35526E-20
        -0.98047E-04
        -0.45666E-04
        -0.13879E-18
        -0.73005E-19
        -0.18545E-04
        -0.38706E-19
        -0.81593E-06
        -0.18522E-19
        -0.78855E-05
        -0.71344E-21
        -0.35676E-04
        -0.17172E-20
        -0.64757E-04
        -0.33867E-04
        -0.23064E-19
        -0.30166E-19
        -0.28376E-04
        -0.34890E-19
        -0.21941E-04
        -0.72324E-19
        -0.82634E-05
        -0.29423E-19
        -0.19984E-04
        -0.10661E-04
        -0.53593E-20
        -0.10079E-19
        -0.56650E-06
        -0.13867E-19
        -0.43193E-05
        -0.24448E-20
        -0.24638E-04
        -0.14909E-19
        -0.53643E-04
        -0.25539E-04
        -0.79262E-19
        -0.86309E-19
        -0.30297E-03
        -0.38259E-03
        -0.27062E-18
        -0.26282E-18
        -0.29557E-03
        -0.19751E-18
        -0.25405E-03
        -0.11030E-18
        -0.12644E-03
        -0.33311E-19
        -0.61820E-04
        -0.38091E-21
        -0.78730E-05
        -0.48320E-20
        -0.12449E-04
        -0.30930E-20
        -0.70543E-04
        -0.29880E-20
        -0.15598E-03
        -0.15195E-19
        -0.29749E-03
        -0.54999E-19
        -0.48279E-03
        -0.78319E-19
        -0.60155E-03
        -0.69722E-19
        -0.57624E-03
        -0.82447E-19
        -0.50984E-03
        -0.13887E-18
        -0.42643E-03
        -0.19311E-18
        -0.33134E-03
        -0.16688E-18
        -0.19285E-03
        -0.11022E-18
        -0.62490E-04
        -0.24564E-19
        -0.44972E-06
        -0.89567E-21
        -0.19784E-04
        -0.52795E-20
        -0.49289E-04
        -0.14117E-19
        -0.10832E-03
        -0.54069E-19
        -0.18836E-03
        -0.14559E-18
        -0.33256E-03
        -0.21015E-18
        -0.45137E-03
        -0.21985E-18
        -0.12739E-05
        -0.35390E-06
        -0.48549E-06
        -0.19059E-05
        -0.30284E-04
        -0.17605E-04
        -0.41572E-06
        -0.88089E-06
        -0.22491E-06
        -0.73104E-06
        -0.23206E-06
        -0.43775E-05
        -0.18810E-04
        -0.19220E-05
        -0.28107E-05
        -0.33809E-05
        -0.23953E-05
        -0.50616E-06
        -0.12849E-05
        -0.14744E-05
        -0.44607E-04
        -0.50173E-04
        -0.41523E-04
        -0.39944E-05
        -0.63314E-06
        -0.35192E-06
        -0.37201E-05
        -0.46674E-07
        -0.49711E-05
        -0.22897E-05
        -0.27030E-05
        -0.10740E-06
        -0.60032E-06
        -0.64077E-07
        -0.68617E-04
        -0.27275E-04
        -0.22114E-04
        -0.10968E-04
        -0.35640E-05
        -0.16619E-04
        -0.71335E-04
        -0.59942E-04
        -0.56503E-04
        -0.30671E-04
        -0.16058E-04
        -0.10121E-04
        -0.34816E-06
        -0.59064E-05
        -0.49490E-06
        -0.50824E-05
        -0.37055E-04
        -0.25537E-04
        -0.61483E-03
        -0.66272E-03
        -0.53168E-03
        -0.38287E-03
        -0.21271E-03
        -0.55921E-04
        -0.19924E-06
        -0.28802E-04
        -0.66734E-04
        -0.19701E-03
        -0.52595E-03
        -0.75443E-03
        -0.62440E-03
        -0.57122E-03
        -0.63229E-03
        -0.62811E-03
        -0.51871E-03
        -0.40230E-03
        -0.10688E-03
        -0.26504E-05
        -0.38666E-04
        -0.48032E-04
        -0.13803E-03
        -0.35595E-03
        -0.58913E-03
        -0.64677E-03
        -0.29749E-05
        -0.12536E-06
        -0.45435E-06
        -0.38520E-05
        -0.16208E-04
        -0.11836E-04
        -0.10047E-05
        -0.47881E-05
        -0.10109E-05
        -0.43275E-05
        -0.17661E-06
        -0.23511E-05
        -0.25444E-04
        -0.14963E-04
        -0.16054E-04
        -0.11482E-04
        -0.35586E-05
        -0.12766E-05
        -0.57817E-06
        -0.17831E-05
        -0.62780E-04
        -0.57021E-04
        -0.55525E-04
        -0.32482E-05
        -0.10479E-05
        -0.47507E-06
        -0.13972E-04
        -0.24632E-06
        -0.15649E-05
        -0.29101E-05
        -0.67777E-05
        -0.28379E-05
        -0.28511E-05
        -0.21237E-05
        -0.51551E-04
        -0.15703E-04
        -0.20662E-04
        -0.19743E-04
        -0.55341E-06
        -0.46519E-05
        -0.62789E-04
        -0.66438E-04
        -0.63479E-04
        -0.33186E-04
        -0.19680E-04
        -0.67377E-05
        -0.78697E-05
        -0.10968E-04
        -0.19165E-06
        -0.27784E-06
        -0.29192E-04
        -0.22652E-04
        -0.90144E-03
        -0.91547E-03
        -0.73774E-03
        -0.50186E-03
        -0.27943E-03
        -0.59280E-04
        -0.36541E-05
        -0.38356E-04
        -0.66561E-04
        -0.22367E-03
        -0.70566E-03
        -0.98205E-03
        -0.69047E-03
        -0.62493E-03
        -0.75857E-03
        -0.80460E-03
        -0.67030E-03
        -0.59980E-03
        -0.15570E-03
        -0.10519E-04
        -0.51448E-04
        -0.52805E-04
        -0.16692E-03
        -0.50040E-03
        -0.81985E-03
        -0.81468E-03
        -0.29862E-05
        -0.12629E-06
        -0.45606E-06
        -0.38571E-05
        -0.16177E-04
        -0.11815E-04
        -0.10175E-05
        -0.47639E-05
        -0.10131E-05
        -0.43207E-05
        -0.16953E-06
        -0.23625E-05
        -0.25475E-04
        -0.14889E-04
        -0.16037E-04
        -0.11506E-04
        -0.35742E-05
        -0.12696E-05
        -0.57760E-06
        -0.17769E-05
        -0.62768E-04
        -0.57008E-04
        -0.55518E-04
        -0.32485E-05
        -0.10526E-05
        -0.47666E-06
        -0.13980E-04
        -0.23715E-06
        -0.15870E-05
        -0.29138E-05
        -0.67974E-05
        -0.28372E-05
        -0.28274E-05
        -0.21256E-05
        -0.51603E-04
        -0.15688E-04
        -0.20648E-04
        -0.19806E-04
        -0.56406E-06
        -0.46813E-05
        -0.62868E-04
        -0.66515E-04
        -0.63485E-04
        -0.33177E-04
        -0.19666E-04
        -0.67308E-05
        -0.78667E-05
        -0.10976E-04
        -0.18886E-06
        -0.27594E-06
        -0.29155E-04
        -0.22585E-04
        -0.90082E-03
        -0.91499E-03
        -0.73760E-03
        -0.50187E-03
        -0.27926E-03
        -0.59245E-04
        -0.36624E-05
        -0.38404E-04
        -0.66449E-04
        -0.22350E-03
        -0.70545E-03
        -0.98208E-03
        -0.69034E-03
        -0.62486E-03
        -0.75876E-03
        -0.80495E-03
        -0.67053E-03
        -0.60004E-03
        -0.15562E-03
        -0.10528E-04
        -0.51372E-04
        -0.52763E-04
        -0.16668E-03
        -0.49979E-03
        -0.81903E-03
        -0.81395E-03
        -0.29975E-05
        -0.12721E-06
        -0.45778E-06
        -0.38623E-05
        -0.16145E-04
        -0.11793E-04
        -0.10305E-05
        -0.47397E-05
        -0.10152E-05
        -0.43134E-05
        -0.16262E-06
        -0.23740E-05
        -0.25505E-04
        -0.14816E-04
        -0.16020E-04
        -0.11531E-04
        -0.35902E-05
        -0.12624E-05
        -0.57703E-06
        -0.17708E-05
        -0.62758E-04
        -0.56996E-04
        -0.55511E-04
        -0.32489E-05
        -0.10577E-05
        -0.47838E-06
        -0.13988E-04
        -0.22826E-06
        -0.16093E-05
        -0.29175E-05
        -0.68178E-05
        -0.28367E-05
        -0.28036E-05
        -0.21275E-05
        -0.51655E-04
        -0.15675E-04
        -0.20635E-04
        -0.19870E-04
        -0.57482E-06
        -0.47110E-05
        -0.62948E-04
        -0.66594E-04
        -0.63494E-04
        -0.33169E-04
        -0.19652E-04
        -0.67242E-05
        -0.78638E-05
        -0.10983E-04
        -0.18603E-06
        -0.27399E-06
        -0.29118E-04
        -0.22519E-04
        -0.90020E-03
        -0.91452E-03
        -0.73747E-03
        -0.50187E-03
        -0.27909E-03
        -0.59209E-04
        -0.36707E-05
        -0.38451E-04
        -0.66337E-04
        -0.22332E-03
        -0.70524E-03
        -0.98213E-03
        -0.69021E-03
        -0.62479E-03
        -0.75896E-03
        -0.80531E-03
        -0.67078E-03
        -0.60027E-03
        -0.15553E-03
        -0.10538E-04
        -0.51297E-04
        -0.52721E-04
        -0.16643E-03
        -0.49917E-03
        -0.81822E-03
        -0.81323E-03
        -0.30089E-05
        -0.12817E-06
        -0.45946E-06
        -0.38674E-05
        -0.16113E-04
        -0.11771E-04
        -0.10434E-05
        -0.47155E-05
        -0.10170E-05
        -0.43049E-05
        -0.15586E-06
        -0.23857E-05
        -0.25537E-04
        -0.14743E-04
        -0.16003E-04
        -0.11557E-04
        -0.36069E-05
        -0.12553E-05
        -0.57653E-06
        -0.17645E-05
        -0.62751E-04
        -0.56987E-04
        -0.55511E-04
        -0.32492E-05
        -0.10637E-05
        -0.48050E-06
        -0.13995E-04
        -0.21981E-06
        -0.16318E-05
        -0.29209E-05
        -0.68398E-05
        -0.28373E-05
        -0.27799E-05
        -0.21294E-05
        -0.51706E-04
        -0.15661E-04
        -0.20622E-04
        -0.19933E-04
        -0.58564E-06
        -0.47406E-05
        -0.63030E-04
        -0.66678E-04
        -0.63511E-04
        -0.33162E-04
        -0.19637E-04
        -0.67170E-05
        -0.78616E-05
        -0.10990E-04
        -0.18321E-06
        -0.27205E-06
        -0.29080E-04
        -0.22452E-04
        -0.89958E-03
        -0.91405E-03
        -0.73734E-03
        -0.50188E-03
        -0.27892E-03
        -0.59173E-04
        -0.36792E-05
        -0.38499E-04
        -0.66225E-04
        -0.22314E-03
        -0.70502E-03
        -0.98219E-03
        -0.69012E-03
        -0.62474E-03
        -0.75918E-03
        -0.80573E-03
        -0.67105E-03
        -0.60051E-03
        -0.15544E-03
        -0.10548E-04
        -0.51222E-04
        -0.52680E-04
        -0.16619E-03
        -0.49856E-03
        -0.81741E-03
        -0.81250E-03
        -0.30201E-05
        -0.12913E-06
        -0.46117E-06
        -0.38724E-05
        -0.16082E-04
        -0.11750E-04
        -0.10565E-05
        -0.46912E-05
        -0.10186E-05
        -0.42951E-05
        -0.14923E-06
        -0.23973E-05
        -0.25568E-04
        -0.14669E-04
        -0.15986E-04
        -0.11586E-04
        -0.36244E-05
        -0.12482E-05
        -0.57590E-06
        -0.17582E-05
        -0.62747E-04
        -0.56981E-04
        -0.55516E-04
        -0.32496E-05
        -0.10707E-05
        -0.48293E-06
        -0.14001E-04
        -0.21177E-06
        -0.16543E-05
        -0.29241E-05
        -0.68632E-05
        -0.28387E-05
        -0.27561E-05
        -0.21313E-05
        -0.51758E-04
        -0.15647E-04
        -0.20609E-04
        -0.19996E-04
        -0.59652E-06
        -0.47706E-05
        -0.63115E-04
        -0.66767E-04
        -0.63536E-04
        -0.33158E-04
        -0.19621E-04
        -0.67092E-05
        -0.78598E-05
        -0.10999E-04
        -0.18043E-06
        -0.27014E-06
        -0.29044E-04
        -0.22385E-04
        -0.89896E-03
        -0.91357E-03
        -0.73721E-03
        -0.50188E-03
        -0.27875E-03
        -0.59137E-04
        -0.36875E-05
        -0.38547E-04
        -0.66113E-04
        -0.22296E-03
        -0.70480E-03
        -0.98226E-03
        -0.69006E-03
        -0.62469E-03
        -0.75941E-03
        -0.80620E-03
        -0.67134E-03
        -0.60073E-03
        -0.15536E-03
        -0.10557E-04
        -0.51147E-04
        -0.52639E-04
        -0.16594E-03
        -0.49795E-03
        -0.81659E-03
        -0.81177E-03
        -0.30309E-05
        -0.13017E-06
        -0.46268E-06
        -0.38773E-05
        -0.16050E-04
        -0.11728E-04
        -0.10697E-05
        -0.46665E-05
        -0.10201E-05
        -0.42850E-05
        -0.14274E-06
        -0.24089E-05
        -0.25598E-04
        -0.14596E-04
        -0.15968E-04
        -0.11615E-04
        -0.36419E-05
        -0.12411E-05
        -0.57525E-06
        -0.17521E-05
        -0.62746E-04
        -0.56977E-04
        -0.55525E-04
        -0.32502E-05
        -0.10777E-05
        -0.48545E-06
        -0.14006E-04
        -0.20394E-06
        -0.16771E-05
        -0.29279E-05
        -0.68866E-05
        -0.28399E-05
        -0.27323E-05
        -0.21330E-05
        -0.51812E-04
        -0.15634E-04
        -0.20597E-04
        -0.20059E-04
        -0.60751E-06
        -0.48007E-05
        -0.63201E-04
        -0.66859E-04
        -0.63565E-04
        -0.33155E-04
        -0.19607E-04
        -0.67025E-05
        -0.78575E-05
        -0.11007E-04
        -0.17759E-06
        -0.26839E-06
        -0.29008E-04
        -0.22321E-04
        -0.89835E-03
        -0.91310E-03
        -0.73707E-03
        -0.50189E-03
        -0.27857E-03
        -0.59101E-04
        -0.36956E-05
        -0.38594E-04
        -0.66002E-04
        -0.22279E-03
        -0.70457E-03
        -0.98235E-03
        -0.69001E-03
        -0.62465E-03
        -0.75966E-03
        -0.80669E-03
        -0.67164E-03
        -0.60096E-03
        -0.15527E-03
        -0.10566E-04
        -0.51071E-04
        -0.52597E-04
        -0.16570E-03
        -0.49734E-03
        -0.81578E-03
        -0.81105E-03
        -0.30409E-05
        -0.13143E-06
        -0.46386E-06
        -0.38822E-05
        -0.16020E-04
        -0.11707E-04
        -0.10833E-05
        -0.46413E-05
        -0.10217E-05
        -0.42755E-05
        -0.13637E-06
        -0.24206E-05
        -0.25630E-04
        -0.14523E-04
        -0.15951E-04
        -0.11645E-04
        -0.36588E-05
        -0.12340E-05
        -0.57473E-06
        -0.17462E-05
        -0.62745E-04
        -0.56974E-04
        -0.55535E-04
        -0.32509E-05
        -0.10839E-05
        -0.48767E-06
        -0.14012E-04
        -0.19608E-06
        -0.17003E-05
        -0.29323E-05
        -0.69087E-05
        -0.28401E-05
        -0.27080E-05
        -0.21342E-05
        -0.51866E-04
        -0.15623E-04
        -0.20585E-04
        -0.20122E-04
        -0.61868E-06
        -0.48315E-05
        -0.63289E-04
        -0.66952E-04
        -0.63595E-04
        -0.33153E-04
        -0.19594E-04
        -0.66965E-05
        -0.78540E-05
        -0.11014E-04
        -0.17453E-06
        -0.26705E-06
        -0.28977E-04
        -0.22256E-04
        -0.89773E-03
        -0.91264E-03
        -0.73694E-03
        -0.50189E-03
        -0.27840E-03
        -0.59065E-04
        -0.37038E-05
        -0.38641E-04
        -0.65891E-04
        -0.22261E-03
        -0.70434E-03
        -0.98242E-03
        -0.68996E-03
        -0.62461E-03
        -0.75990E-03
        -0.80719E-03
        -0.67195E-03
        -0.60117E-03
        -0.15518E-03
        -0.10573E-04
        -0.50992E-04
        -0.52557E-04
        -0.16546E-03
        -0.49674E-03
        -0.81497E-03
        -0.81032E-03
        -0.30505E-05
        -0.13276E-06
        -0.46487E-06
        -0.38868E-05
        -0.15990E-04
        -0.11685E-04
        -0.10970E-05
        -0.46160E-05
        -0.10234E-05
        -0.42663E-05
        -0.13012E-06
        -0.24323E-05
        -0.25662E-04
        -0.14451E-04
        -0.15933E-04
        -0.11674E-04
        -0.36754E-05
        -0.12268E-05
        -0.57412E-06
        -0.17406E-05
        -0.62743E-04
        -0.56970E-04
        -0.55545E-04
        -0.32516E-05
        -0.10897E-05
        -0.48976E-06
        -0.14018E-04
        -0.18832E-06
        -0.17240E-05
        -0.29369E-05
        -0.69303E-05
        -0.28398E-05
        -0.26835E-05
        -0.21352E-05
        -0.51923E-04
        -0.15613E-04
        -0.20576E-04
        -0.20185E-04
        -0.62996E-06
        -0.48623E-05
        -0.63376E-04
        -0.67048E-04
        -0.63626E-04
        -0.33153E-04
        -0.19583E-04
        -0.66915E-05
        -0.78499E-05
        -0.11021E-04
        -0.17141E-06
        -0.26588E-06
        -0.28946E-04
        -0.22193E-04
        -0.89711E-03
        -0.91217E-03
        -0.73680E-03
        -0.50190E-03
        -0.27823E-03
        -0.59029E-04
        -0.37120E-05
        -0.38689E-04
        -0.65779E-04
        -0.22243E-03
        -0.70411E-03
        -0.98250E-03
        -0.68990E-03
        -0.62457E-03
        -0.76015E-03
        -0.80768E-03
        -0.67226E-03
        -0.60138E-03
        -0.15509E-03
        -0.10580E-04
        -0.50912E-04
        -0.52516E-04
        -0.16523E-03
        -0.49614E-03
        -0.81416E-03
        -0.80960E-03
        -0.30600E-05
        -0.13412E-06
        -0.46585E-06
        -0.38915E-05
        -0.15960E-04
        -0.11663E-04
        -0.11108E-05
        -0.45908E-05
        -0.10250E-05
        -0.42574E-05
        -0.12405E-06
        -0.24440E-05
        -0.25694E-04
        -0.14378E-04
        -0.15915E-04
        -0.11703E-04
        -0.36920E-05
        -0.12197E-05
        -0.57350E-06
        -0.17349E-05
        -0.62741E-04
        -0.56967E-04
        -0.55555E-04
        -0.32525E-05
        -0.10956E-05
        -0.49183E-06
        -0.14025E-04
        -0.18074E-06
        -0.17478E-05
        -0.29416E-05
        -0.69519E-05
        -0.28394E-05
        -0.26592E-05
        -0.21362E-05
        -0.51980E-04
        -0.15601E-04
        -0.20566E-04
        -0.20248E-04
        -0.64138E-06
        -0.48930E-05
        -0.63464E-04
        -0.67142E-04
        -0.63658E-04
        -0.33154E-04
        -0.19572E-04
        -0.66865E-05
        -0.78459E-05
        -0.11028E-04
        -0.16831E-06
        -0.26477E-06
        -0.28917E-04
        -0.22129E-04
        -0.89649E-03
        -0.91171E-03
        -0.73665E-03
        -0.50190E-03
        -0.27806E-03
        -0.58993E-04
        -0.37201E-05
        -0.38735E-04
        -0.65668E-04
        -0.22226E-03
        -0.70388E-03
        -0.98258E-03
        -0.68985E-03
        -0.62453E-03
        -0.76039E-03
        -0.80818E-03
        -0.67256E-03
        -0.60159E-03
        -0.15500E-03
        -0.10586E-04
        -0.50832E-04
        -0.52475E-04
        -0.16499E-03
        -0.49554E-03
        -0.81336E-03
        -0.80888E-03
        -0.30696E-05
        -0.13549E-06
        -0.46684E-06
        -0.38963E-05
        -0.15930E-04
        -0.11642E-04
        -0.11248E-05
        -0.45656E-05
        -0.10267E-05
        -0.42483E-05
        -0.11812E-06
        -0.24557E-05
        -0.25727E-04
        -0.14307E-04
        -0.15898E-04
        -0.11732E-04
        -0.37086E-05
        -0.12127E-05
        -0.57287E-06
        -0.17293E-05
        -0.62740E-04
        -0.56963E-04
        -0.55563E-04
        -0.32533E-05
        -0.11014E-05
        -0.49390E-06
        -0.14031E-04
        -0.17335E-06
        -0.17717E-05
        -0.29462E-05
        -0.69734E-05
        -0.28390E-05
        -0.26351E-05
        -0.21373E-05
        -0.52035E-04
        -0.15591E-04
        -0.20556E-04
        -0.20311E-04
        -0.65291E-06
        -0.49243E-05
        -0.63552E-04
        -0.67236E-04
        -0.63687E-04
        -0.33154E-04
        -0.19560E-04
        -0.66811E-05
        -0.78418E-05
        -0.11035E-04
        -0.16526E-06
        -0.26356E-06
        -0.28886E-04
        -0.22065E-04
        -0.89587E-03
        -0.91124E-03
        -0.73651E-03
        -0.50190E-03
        -0.27788E-03
        -0.58956E-04
        -0.37282E-05
        -0.38782E-04
        -0.65557E-04
        -0.22208E-03
        -0.70365E-03
        -0.98266E-03
        -0.68979E-03
        -0.62448E-03
        -0.76064E-03
        -0.80868E-03
        -0.67287E-03
        -0.60180E-03
        -0.15491E-03
        -0.10593E-04
        -0.50752E-04
        -0.52435E-04
        -0.16476E-03
        -0.49494E-03
        -0.81256E-03
        -0.80816E-03
        -0.30791E-05
        -0.13686E-06
        -0.46788E-06
        -0.39009E-05
        -0.15901E-04
        -0.11621E-04
        -0.11387E-05
        -0.45404E-05
        -0.10284E-05
        -0.42394E-05
        -0.11232E-06
        -0.24676E-05
        -0.25759E-04
        -0.14235E-04
        -0.15880E-04
        -0.11761E-04
        -0.37253E-05
        -0.12057E-05
        -0.57238E-06
        -0.17235E-05
        -0.62737E-04
        -0.56960E-04
        -0.55574E-04
        -0.32543E-05
        -0.11072E-05
        -0.49597E-06
        -0.14038E-04
        -0.16611E-06
        -0.17958E-05
        -0.29508E-05
        -0.69950E-05
        -0.28386E-05
        -0.26110E-05
        -0.21383E-05
        -0.52092E-04
        -0.15581E-04
        -0.20546E-04
        -0.20374E-04
        -0.66457E-06
        -0.49552E-05
        -0.63639E-04
        -0.67330E-04
        -0.63718E-04
        -0.33153E-04
        -0.19548E-04
        -0.66762E-05
        -0.78376E-05
        -0.11042E-04
        -0.16221E-06
        -0.26240E-06
        -0.28857E-04
        -0.22002E-04
        -0.89525E-03
        -0.91077E-03
        -0.73637E-03
        -0.50190E-03
        -0.27771E-03
        -0.58921E-04
        -0.37361E-05
        -0.38829E-04
        -0.65447E-04
        -0.22190E-03
        -0.70342E-03
        -0.98274E-03
        -0.68973E-03
        -0.62444E-03
        -0.76088E-03
        -0.80917E-03
        -0.67318E-03
        -0.60201E-03
        -0.15482E-03
        -0.10599E-04
        -0.50672E-04
        -0.52394E-04
        -0.16452E-03
        -0.49434E-03
        -0.81176E-03
        -0.80744E-03
        -0.30887E-05
        -0.13824E-06
        -0.46884E-06
        -0.39056E-05
        -0.15871E-04
        -0.11599E-04
        -0.11528E-05
        -0.45154E-05
        -0.10301E-05
        -0.42304E-05
        -0.10668E-06
        -0.24795E-05
        -0.25791E-04
        -0.14164E-04
        -0.15862E-04
        -0.11790E-04
        -0.37420E-05
        -0.11986E-05
        -0.57179E-06
        -0.17180E-05
        -0.62735E-04
        -0.56956E-04
        -0.55584E-04
        -0.32552E-05
        -0.11129E-05
        -0.49810E-06
        -0.14045E-04
        -0.15906E-06
        -0.18197E-05
        -0.29556E-05
        -0.70167E-05
        -0.28382E-05
        -0.25870E-05
        -0.21394E-05
        -0.52150E-04
        -0.15570E-04
        -0.20536E-04
        -0.20437E-04
        -0.67636E-06
        -0.49868E-05
        -0.63727E-04
        -0.67424E-04
        -0.63749E-04
        -0.33153E-04
        -0.19537E-04
        -0.66714E-05
        -0.78336E-05
        -0.11049E-04
        -0.15918E-06
        -0.26129E-06
        -0.28827E-04
        -0.21938E-04
        -0.89463E-03
        -0.91031E-03
        -0.73623E-03
        -0.50190E-03
        -0.27754E-03
        -0.58885E-04
        -0.37442E-05
        -0.38875E-04
        -0.65336E-04
        -0.22173E-03
        -0.70319E-03
        -0.98282E-03
        -0.68968E-03
        -0.62440E-03
        -0.76113E-03
        -0.80966E-03
        -0.67348E-03
        -0.60221E-03
        -0.15473E-03
        -0.10606E-04
        -0.50592E-04
        -0.52353E-04
        -0.16429E-03
        -0.49374E-03
        -0.81096E-03
        -0.80672E-03
        -0.30984E-05
        -0.13963E-06
        -0.46981E-06
        -0.39102E-05
        -0.15841E-04
        -0.11578E-04
        -0.11669E-05
        -0.44904E-05
        -0.10317E-05
        -0.42213E-05
        -0.10121E-06
        -0.24913E-05
        -0.25824E-04
        -0.14092E-04
        -0.15843E-04
        -0.11819E-04
        -0.37586E-05
        -0.11916E-05
        -0.57123E-06
        -0.17123E-05
        -0.62733E-04
        -0.56953E-04
        -0.55593E-04
        -0.32562E-05
        -0.11187E-05
        -0.50017E-06
        -0.14051E-04
        -0.15215E-06
        -0.18440E-05
        -0.29601E-05
        -0.70383E-05
        -0.28378E-05
        -0.25630E-05
        -0.21404E-05
        -0.52205E-04
        -0.15560E-04
        -0.20527E-04
        -0.20500E-04
        -0.68829E-06
        -0.50181E-05
        -0.63817E-04
        -0.67517E-04
        -0.63780E-04
        -0.33153E-04
        -0.19526E-04
        -0.66657E-05
        -0.78295E-05
        -0.11056E-04
        -0.15617E-06
        -0.26013E-06
        -0.28796E-04
        -0.21874E-04
        -0.89401E-03
        -0.90985E-03
        -0.73609E-03
        -0.50190E-03
        -0.27737E-03
        -0.58849E-04
        -0.37523E-05
        -0.38921E-04
        -0.65225E-04
        -0.22155E-03
        -0.70296E-03
        -0.98290E-03
        -0.68962E-03
        -0.62436E-03
        -0.76137E-03
        -0.81016E-03
        -0.67378E-03
        -0.60242E-03
        -0.15464E-03
        -0.10612E-04
        -0.50512E-04
        -0.52313E-04
        -0.16405E-03
        -0.49314E-03
        -0.81016E-03
        -0.80600E-03
        -0.31081E-05
        -0.14101E-06
        -0.47077E-06
        -0.39147E-05
        -0.15812E-04
        -0.11556E-04
        -0.11810E-05
        -0.44655E-05
        -0.10334E-05
        -0.42122E-05
        -0.95888E-07
        -0.25032E-05
        -0.25856E-04
        -0.14021E-04
        -0.15825E-04
        -0.11848E-04
        -0.37754E-05
        -0.11847E-05
        -0.57077E-06
        -0.17067E-05
        -0.62731E-04
        -0.56949E-04
        -0.55603E-04
        -0.32571E-05
        -0.11244E-05
        -0.50225E-06
        -0.14057E-04
        -0.14543E-06
        -0.18685E-05
        -0.29646E-05
        -0.70599E-05
        -0.28374E-05
        -0.25391E-05
        -0.21414E-05
        -0.52263E-04
        -0.15550E-04
        -0.20517E-04
        -0.20562E-04
        -0.70032E-06
        -0.50499E-05
        -0.63904E-04
        -0.67611E-04
        -0.63811E-04
        -0.33153E-04
        -0.19514E-04
        -0.66608E-05
        -0.78253E-05
        -0.11063E-04
        -0.15320E-06
        -0.25897E-06
        -0.28767E-04
        -0.21811E-04
        -0.89339E-03
        -0.90939E-03
        -0.73594E-03
        -0.50190E-03
        -0.27720E-03
        -0.58812E-04
        -0.37604E-05
        -0.38966E-04
        -0.65114E-04
        -0.22137E-03
        -0.70273E-03
        -0.98298E-03
        -0.68957E-03
        -0.62432E-03
        -0.76162E-03
        -0.81066E-03
        -0.67409E-03
        -0.60263E-03
        -0.15454E-03
        -0.10618E-04
        -0.50433E-04
        -0.52274E-04
        -0.16382E-03
        -0.49254E-03
        -0.80935E-03
        -0.80528E-03
        -0.31177E-05
        -0.14239E-06
        -0.47175E-06
        -0.39194E-05
        -0.15782E-04
        -0.11534E-04
        -0.11952E-05
        -0.44406E-05
        -0.10350E-05
        -0.42032E-05
        -0.90712E-07
        -0.25153E-05
        -0.25888E-04
        -0.13951E-04
        -0.15807E-04
        -0.11877E-04
        -0.37921E-05
        -0.11777E-05
        -0.57019E-06
        -0.17010E-05
        -0.62730E-04
        -0.56945E-04
        -0.55612E-04
        -0.32581E-05
        -0.11301E-05
        -0.50433E-06
        -0.14063E-04
        -0.13886E-06
        -0.18931E-05
        -0.29692E-05
        -0.70816E-05
        -0.28369E-05
        -0.25153E-05
        -0.21424E-05
        -0.52319E-04
        -0.15540E-04
        -0.20507E-04
        -0.20624E-04
        -0.71246E-06
        -0.50815E-05
        -0.63992E-04
        -0.67704E-04
        -0.63841E-04
        -0.33153E-04
        -0.19503E-04
        -0.66560E-05
        -0.78212E-05
        -0.11070E-04
        -0.15021E-06
        -0.25785E-06
        -0.28736E-04
        -0.21748E-04
        -0.89277E-03
        -0.90893E-03
        -0.73580E-03
        -0.50190E-03
        -0.27703E-03
        -0.58775E-04
        -0.37683E-05
        -0.39011E-04
        -0.65004E-04
        -0.22120E-03
        -0.70250E-03
        -0.98306E-03
        -0.68951E-03
        -0.62428E-03
        -0.76187E-03
        -0.81115E-03
        -0.67440E-03
        -0.60284E-03
        -0.15445E-03
        -0.10625E-04
        -0.50353E-04
        -0.52234E-04
        -0.16358E-03
        -0.49194E-03
        -0.80856E-03
        -0.80456E-03
        -0.31274E-05
        -0.14381E-06
        -0.47272E-06
        -0.39239E-05
        -0.15752E-04
        -0.11514E-04
        -0.12095E-05
        -0.44158E-05
        -0.10367E-05
        -0.41942E-05
        -0.85677E-07
        -0.25273E-05
        -0.25921E-04
        -0.13880E-04
        -0.15789E-04
        -0.11907E-04
        -0.38089E-05
        -0.11709E-05
        -0.56962E-06
        -0.16955E-05
        -0.62727E-04
        -0.56942E-04
        -0.55622E-04
        -0.32591E-05
        -0.11357E-05
        -0.50643E-06
        -0.14070E-04
        -0.13246E-06
        -0.19178E-05
        -0.29736E-05
        -0.71032E-05
        -0.28365E-05
        -0.24918E-05
        -0.21435E-05
        -0.52377E-04
        -0.15530E-04
        -0.20498E-04
        -0.20686E-04
        -0.72477E-06
        -0.51132E-05
        -0.64079E-04
        -0.67797E-04
        -0.63871E-04
        -0.33151E-04
        -0.19492E-04
        -0.66505E-05
        -0.78171E-05
        -0.11077E-04
        -0.14728E-06
        -0.25669E-06
        -0.28707E-04
        -0.21684E-04
        -0.89215E-03
        -0.90847E-03
        -0.73566E-03
        -0.50190E-03
        -0.27685E-03
        -0.58739E-04
        -0.37760E-05
        -0.39056E-04
        -0.64894E-04
        -0.22102E-03
        -0.70228E-03
        -0.98314E-03
        -0.68946E-03
        -0.62424E-03
        -0.76211E-03
        -0.81165E-03
        -0.67471E-03
        -0.60304E-03
        -0.15436E-03
        -0.10631E-04
        -0.50273E-04
        -0.52194E-04
        -0.16335E-03
        -0.49134E-03
        -0.80776E-03
        -0.80384E-03
        -0.31371E-05
        -0.14521E-06
        -0.47371E-06
        -0.39285E-05
        -0.15723E-04
        -0.11492E-04
        -0.12239E-05
        -0.43910E-05
        -0.10382E-05
        -0.41847E-05
        -0.80789E-07
        -0.25393E-05
        -0.25953E-04
        -0.13810E-04
        -0.15770E-04
        -0.11936E-04
        -0.38257E-05
        -0.11641E-05
        -0.56909E-06
        -0.16898E-05
        -0.62725E-04
        -0.56937E-04
        -0.55632E-04
        -0.32602E-05
        -0.11412E-05
        -0.50851E-06
        -0.14075E-04
        -0.12614E-06
        -0.19424E-05
        -0.29781E-05
        -0.71251E-05
        -0.28361E-05
        -0.24683E-05
        -0.21446E-05
        -0.52435E-04
        -0.15519E-04
        -0.20488E-04
        -0.20748E-04
        -0.73732E-06
        -0.51454E-05
        -0.64165E-04
        -0.67890E-04
        -0.63900E-04
        -0.33152E-04
        -0.19480E-04
        -0.66457E-05
        -0.78131E-05
        -0.11084E-04
        -0.14440E-06
        -0.25553E-06
        -0.28676E-04
        -0.21622E-04
        -0.89153E-03
        -0.90801E-03
        -0.73552E-03
        -0.50190E-03
        -0.27668E-03
        -0.58703E-04
        -0.37837E-05
        -0.39101E-04
        -0.64784E-04
        -0.22084E-03
        -0.70205E-03
        -0.98324E-03
        -0.68941E-03
        -0.62419E-03
        -0.76235E-03
        -0.81214E-03
        -0.67501E-03
        -0.60325E-03
        -0.15427E-03
        -0.10637E-04
        -0.50194E-04
        -0.52153E-04
        -0.16311E-03
        -0.49074E-03
        -0.80695E-03
        -0.80312E-03
        -0.31469E-05
        -0.14661E-06
        -0.47466E-06
        -0.39330E-05
        -0.15694E-04
        -0.11471E-04
        -0.12383E-05
        -0.43664E-05
        -0.10397E-05
        -0.41743E-05
        -0.76052E-07
        -0.25514E-05
        -0.25985E-04
        -0.13740E-04
        -0.15751E-04
        -0.11965E-04
        -0.38424E-05
        -0.11572E-05
        -0.56871E-06
        -0.16844E-05
        -0.62723E-04
        -0.56934E-04
        -0.55642E-04
        -0.32610E-05
        -0.11464E-05
        -0.51068E-06
        -0.14078E-04
        -0.11983E-06
        -0.19674E-05
        -0.29829E-05
        -0.71469E-05
        -0.28356E-05
        -0.24448E-05
        -0.21456E-05
        -0.52492E-04
        -0.15510E-04
        -0.20479E-04
        -0.20808E-04
        -0.75033E-06
        -0.51770E-05
        -0.64244E-04
        -0.67974E-04
        -0.63926E-04
        -0.33152E-04
        -0.19469E-04
        -0.66403E-05
        -0.78090E-05
        -0.11091E-04
        -0.14154E-06
        -0.25438E-06
        -0.28647E-04
        -0.21558E-04
        -0.89091E-03
        -0.90755E-03
        -0.73538E-03
        -0.50190E-03
        -0.27651E-03
        -0.58668E-04
        -0.37914E-05
        -0.39146E-04
        -0.64676E-04
        -0.22066E-03
        -0.70181E-03
        -0.98339E-03
        -0.68939E-03
        -0.62416E-03
        -0.76259E-03
        -0.81263E-03
        -0.67532E-03
        -0.60345E-03
        -0.15418E-03
        -0.10643E-04
        -0.50115E-04
        -0.52113E-04
        -0.16288E-03
        -0.49015E-03
        -0.80616E-03
        -0.80241E-03
        -0.31566E-05
        -0.14802E-06
        -0.47561E-06
        -0.39375E-05
        -0.15664E-04
        -0.11449E-04
        -0.12528E-05
        -0.43417E-05
        -0.10409E-05
        -0.41629E-05
        -0.71470E-07
        -0.25635E-05
        -0.26018E-04
        -0.13669E-04
        -0.15731E-04
        -0.11994E-04
        -0.38590E-05
        -0.11504E-05
        -0.56819E-06
        -0.16788E-05
        -0.62722E-04
        -0.56927E-04
        -0.55652E-04
        -0.32621E-05
        -0.11512E-05
        -0.51275E-06
        -0.14080E-04
        -0.11349E-06
        -0.19925E-05
        -0.29875E-05
        -0.71687E-05
        -0.28351E-05
        -0.24214E-05
        -0.21467E-05
        -0.52550E-04
        -0.15499E-04
        -0.20469E-04
        -0.20868E-04
        -0.76380E-06
        -0.52089E-05
        -0.64317E-04
        -0.68052E-04
        -0.63949E-04
        -0.33152E-04
        -0.19458E-04
        -0.66355E-05
        -0.78049E-05
        -0.11099E-04
        -0.13868E-06
        -0.25325E-06
        -0.28616E-04
        -0.21495E-04
        -0.89029E-03
        -0.90709E-03
        -0.73523E-03
        -0.50190E-03
        -0.27634E-03
        -0.58631E-04
        -0.37991E-05
        -0.39191E-04
        -0.64569E-04
        -0.22047E-03
        -0.70157E-03
        -0.98359E-03
        -0.68940E-03
        -0.62412E-03
        -0.76283E-03
        -0.81313E-03
        -0.67563E-03
        -0.60365E-03
        -0.15409E-03
        -0.10649E-04
        -0.50036E-04
        -0.52073E-04
        -0.16265E-03
        -0.48955E-03
        -0.80536E-03
        -0.80169E-03
        -0.31664E-05
        -0.14944E-06
        -0.47659E-06
        -0.39421E-05
        -0.15635E-04
        -0.11429E-04
        -0.12673E-05
        -0.43173E-05
        -0.10422E-05
        -0.41513E-05
        -0.67062E-07
        -0.25754E-05
        -0.26049E-04
        -0.13598E-04
        -0.15712E-04
        -0.12023E-04
        -0.38756E-05
        -0.11436E-05
        -0.56764E-06
        -0.16734E-05
        -0.62719E-04
        -0.56922E-04
        -0.55661E-04
        -0.32631E-05
        -0.11558E-05
        -0.51484E-06
        -0.14080E-04
        -0.10731E-06
        -0.20175E-05
        -0.29920E-05
        -0.71906E-05
        -0.28347E-05
        -0.23984E-05
        -0.21478E-05
        -0.52609E-04
        -0.15490E-04
        -0.20459E-04
        -0.20926E-04
        -0.77754E-06
        -0.52400E-05
        -0.64386E-04
        -0.68126E-04
        -0.63970E-04
        -0.33152E-04
        -0.19446E-04
        -0.66306E-05
        -0.78011E-05
        -0.11106E-04
        -0.13589E-06
        -0.25207E-06
        -0.28588E-04
        -0.21433E-04
        -0.88967E-03
        -0.90664E-03
        -0.73510E-03
        -0.50191E-03
        -0.27617E-03
        -0.58594E-04
        -0.38067E-05
        -0.39234E-04
        -0.64462E-04
        -0.22028E-03
        -0.70132E-03
        -0.98381E-03
        -0.68941E-03
        -0.62409E-03
        -0.76308E-03
        -0.81362E-03
        -0.67593E-03
        -0.60386E-03
        -0.15400E-03
        -0.10656E-04
        -0.49958E-04
        -0.52033E-04
        -0.16242E-03
        -0.48896E-03
        -0.80457E-03
        -0.80097E-03
        -0.31993E-05
        -0.15169E-06
        -0.48119E-06
        -0.39752E-05
        -0.15715E-04
        -0.11489E-04
        -0.12895E-05
        -0.43274E-05
        -0.10508E-05
        -0.41724E-05
        -0.63804E-07
        -0.26024E-05
        -0.26258E-04
        -0.13633E-04
        -0.15808E-04
        -0.12138E-04
        -0.39200E-05
        -0.11458E-05
        -0.57095E-06
        -0.16793E-05
        -0.63139E-04
        -0.57311E-04
        -0.56042E-04
        -0.32874E-05
        -0.11685E-05
        -0.52045E-06
        -0.14187E-04
        -0.10244E-06
        -0.20555E-05
        -0.30178E-05
        -0.72640E-05
        -0.28544E-05
        -0.23949E-05
        -0.21650E-05
        -0.53027E-04
        -0.15590E-04
        -0.20593E-04
        -0.21135E-04
        -0.79587E-06
        -0.53065E-05
        -0.64914E-04
        -0.68687E-04
        -0.64443E-04
        -0.33375E-04
        -0.19568E-04
        -0.66691E-05
        -0.78526E-05
        -0.11194E-04
        -0.13439E-06
        -0.25268E-06
        -0.28759E-04
        -0.21525E-04
        -0.89485E-03
        -0.91197E-03
        -0.73972E-03
        -0.50512E-03
        -0.27780E-03
        -0.58931E-04
        -0.38422E-05
        -0.39533E-04
        -0.64798E-04
        -0.22160E-03
        -0.70588E-03
        -0.99049E-03
        -0.69379E-03
        -0.62793E-03
        -0.76794E-03
        -0.81892E-03
        -0.68024E-03
        -0.60777E-03
        -0.15491E-03
        -0.10736E-04
        -0.50213E-04
        -0.52318E-04
        -0.16323E-03
        -0.49151E-03
        -0.80884E-03
        -0.80526E-03
        -0.70860E-05
        -0.34044E-06
        -0.10614E-05
        -0.88330E-05
        -0.32211E-04
        -0.24003E-04
        -0.28776E-05
        -0.94541E-05
        -0.23127E-05
        -0.90847E-05
        -0.13291E-06
        -0.51528E-05
        -0.53556E-04
        -0.28904E-04
        -0.31591E-04
        -0.26929E-04
        -0.86495E-05
        -0.25361E-05
        -0.12312E-05
        -0.36370E-05
        -0.12860E-03
        -0.11974E-03
        -0.11479E-03
        -0.72025E-05
        -0.25957E-05
        -0.11609E-05
        -0.30615E-04
        -0.21947E-06
        -0.46193E-05
        -0.66854E-05
        -0.16130E-04
        -0.62978E-05
        -0.52960E-05
        -0.48108E-05
        -0.10477E-03
        -0.32533E-04
        -0.43013E-04
        -0.44247E-04
        -0.17251E-05
        -0.11521E-04
        -0.13681E-03
        -0.14691E-03
        -0.13764E-03
        -0.69350E-04
        -0.40383E-04
        -0.12986E-04
        -0.16095E-04
        -0.23568E-04
        -0.28188E-06
        -0.53070E-06
        -0.57592E-04
        -0.44692E-04
        -0.13906E-02
        -0.14125E-02
        -0.11469E-02
        -0.78777E-03
        -0.43253E-03
        -0.92177E-04
        -0.61662E-05
        -0.64350E-04
        -0.10493E-03
        -0.35486E-03
        -0.11335E-02
        -0.15851E-02
        -0.11346E-02
        -0.10334E-02
        -0.12319E-02
        -0.12841E-02
        -0.10602E-02
        -0.93691E-03
        -0.23834E-03
        -0.16588E-04
        -0.79060E-04
        -0.83102E-04
        -0.25740E-03
        -0.78049E-03
        -0.12766E-02
        -0.12618E-02
  
SCALARS                      strain_yy  double 1
LOOKUP_TABLE default
        -0.45286E-06
        -0.47690E-07
        -0.33225E-06
        -0.92855E-07
        -0.66578E-20
        -0.50577E-21
        -0.10225E-19
        -0.59489E-20
        -0.45155E-05
        -0.19865E-05
        -0.22647E-19
        -0.17553E-19
        -0.32311E-05
        -0.83309E-08
        -0.11599E-19
        -0.47678E-22
        -0.44503E-06
        -0.53127E-05
        -0.25106E-23
        -0.26285E-21
        -0.13479E-05
        -0.18210E-04
        -0.21217E-04
        -0.60949E-19
        -0.18178E-18
        -0.12700E-18
        -0.17724E-06
        -0.17446E-04
        -0.31537E-19
        -0.11869E-18
        -0.57972E-06
        -0.41305E-06
        -0.33741E-06
        -0.84757E-20
        -0.88326E-20
        -0.38070E-23
        -0.49348E-05
        -0.42118E-05
        -0.28701E-19
        -0.17374E-19
        -0.46145E-05
        -0.17502E-05
        -0.16392E-19
        -0.13690E-19
        -0.40055E-05
        -0.48733E-06
        -0.18038E-22
        -0.43157E-20
        -0.28990E-05
        -0.95669E-21
        -0.34178E-07
        -0.62758E-23
        -0.92520E-08
        -0.14315E-19
        -0.39727E-06
        -0.48440E-20
        -0.42274E-05
        -0.14425E-06
        -0.35651E-23
        -0.14686E-22
        -0.85148E-06
        -0.11063E-04
        -0.66182E-21
        -0.92597E-20
        -0.31519E-06
        -0.26966E-20
        -0.56445E-05
        -0.40019E-20
        -0.34431E-05
        -0.95816E-06
        -0.61119E-22
        -0.10655E-19
        -0.11500E-04
        -0.51376E-19
        -0.27377E-04
        -0.48166E-19
        -0.27518E-04
        -0.27755E-19
        -0.18797E-04
        -0.19499E-19
        -0.41922E-04
        -0.25612E-04
        -0.80242E-20
        -0.39446E-21
        -0.53797E-06
        -0.49387E-23
        -0.97706E-05
        -0.19381E-19
        -0.53001E-04
        -0.59396E-19
        -0.10100E-03
        -0.38277E-04
        -0.13066E-18
        -0.85601E-19
        -0.19253E-04
        -0.51582E-19
        -0.15685E-04
        -0.53988E-19
        -0.14696E-04
        -0.62415E-19
        -0.40544E-04
        -0.28303E-04
        -0.53977E-19
        -0.12392E-19
        -0.17180E-04
        -0.25353E-05
        -0.66735E-20
        -0.10306E-19
        -0.10327E-03
        -0.73857E-19
        -0.21899E-03
        -0.15803E-18
        -0.31741E-03
        -0.24103E-18
        -0.40434E-03
        -0.23715E-18
        -0.51840E-03
        -0.14852E-18
        -0.51601E-03
        -0.88947E-19
        -0.45521E-03
        -0.76945E-19
        -0.36099E-03
        -0.69652E-19
        -0.20238E-03
        -0.28447E-19
        -0.10144E-03
        -0.31008E-20
        -0.28150E-04
        -0.12947E-20
        -0.15380E-06
        -0.29250E-20
        -0.28506E-04
        -0.78026E-21
        -0.94866E-04
        -0.71361E-20
        -0.22694E-03
        -0.56855E-19
        -0.26446E-03
        -0.13863E-18
        -0.29783E-03
        -0.23827E-18
        -0.47599E-03
        -0.23785E-18
        -0.52792E-03
        -0.18126E-18
        -0.45850E-03
        -0.17217E-18
        -0.29467E-03
        -0.17432E-18
        -0.13624E-03
        -0.10900E-18
        -0.69853E-04
        -0.38117E-19
        -0.37146E-04
        -0.22788E-19
        -0.13284E-04
        -0.36420E-05
        -0.27664E-05
        -0.25836E-06
        -0.29792E-05
        -0.32751E-05
        -0.37674E-07
        -0.87444E-05
        -0.61823E-05
        -0.13652E-04
        -0.39165E-05
        -0.71702E-04
        -0.32985E-04
        -0.44311E-06
        -0.72734E-04
        -0.92346E-06
        -0.72922E-06
        -0.29719E-06
        -0.53052E-06
        -0.30067E-06
        -0.25654E-06
        -0.17310E-06
        -0.19817E-05
        -0.14023E-07
        -0.63573E-05
        -0.13908E-06
        -0.38155E-09
        -0.11640E-06
        -0.17423E-06
        -0.39589E-05
        -0.88245E-06
        -0.10703E-05
        -0.46679E-06
        -0.28251E-07
        -0.82137E-07
        -0.23659E-05
        -0.11785E-04
        -0.55702E-04
        -0.46567E-04
        -0.33842E-04
        -0.30391E-04
        -0.18176E-05
        -0.11787E-05
        -0.89062E-05
        -0.24713E-04
        -0.67759E-04
        -0.28502E-04
        -0.14281E-04
        -0.16286E-04
        -0.18757E-04
        -0.26328E-04
        -0.53523E-05
        -0.20599E-04
        -0.29150E-04
        -0.21467E-03
        -0.40783E-03
        -0.66398E-03
        -0.94800E-03
        -0.96932E-03
        -0.79662E-03
        -0.71995E-03
        -0.64407E-03
        -0.27003E-03
        -0.50505E-04
        -0.96512E-05
        -0.18662E-05
        -0.43439E-05
        -0.67491E-04
        -0.22812E-03
        -0.39274E-03
        -0.59448E-03
        -0.77595E-03
        -0.68040E-03
        -0.60786E-03
        -0.52721E-03
        -0.25772E-03
        -0.86555E-04
        -0.66336E-04
        -0.25802E-04
        -0.10264E-04
        -0.87890E-05
        -0.49447E-06
        -0.14827E-04
        -0.29991E-05
        -0.18858E-05
        -0.23048E-04
        -0.99115E-05
        -0.20388E-04
        -0.56989E-05
        -0.10675E-03
        -0.37465E-04
        -0.77368E-06
        -0.10362E-03
        -0.37108E-05
        -0.34079E-06
        -0.31062E-06
        -0.63104E-05
        -0.23587E-06
        -0.46882E-05
        -0.23633E-05
        -0.79430E-06
        -0.56585E-06
        -0.92452E-05
        -0.56562E-06
        -0.35616E-07
        -0.12308E-06
        -0.31404E-06
        -0.91997E-05
        -0.43099E-05
        -0.29906E-06
        -0.18006E-05
        -0.13575E-05
        -0.30864E-06
        -0.28678E-05
        -0.10454E-04
        -0.59850E-04
        -0.46541E-04
        -0.36146E-04
        -0.19509E-04
        -0.11911E-05
        -0.50536E-05
        -0.78850E-05
        -0.13074E-04
        -0.54558E-04
        -0.18472E-04
        -0.80778E-05
        -0.12760E-04
        -0.17783E-04
        -0.19092E-04
        -0.10748E-06
        -0.29686E-04
        -0.60743E-04
        -0.32897E-03
        -0.54940E-03
        -0.91524E-03
        -0.13180E-02
        -0.12645E-02
        -0.96425E-03
        -0.88555E-03
        -0.86693E-03
        -0.34186E-03
        -0.37135E-04
        -0.58951E-05
        -0.43281E-05
        -0.92848E-06
        -0.66820E-04
        -0.26819E-03
        -0.51952E-03
        -0.87992E-03
        -0.10820E-02
        -0.83423E-03
        -0.74562E-03
        -0.74120E-03
        -0.36745E-03
        -0.99163E-04
        -0.88905E-04
        -0.25834E-04
        -0.10267E-04
        -0.87978E-05
        -0.50175E-06
        -0.14830E-04
        -0.30038E-05
        -0.18906E-05
        -0.23126E-04
        -0.99471E-05
        -0.20541E-04
        -0.57057E-05
        -0.10673E-03
        -0.37484E-04
        -0.77372E-06
        -0.10389E-03
        -0.37112E-05
        -0.34701E-06
        -0.30969E-06
        -0.63189E-05
        -0.23325E-06
        -0.47114E-05
        -0.23678E-05
        -0.79468E-06
        -0.56531E-06
        -0.93292E-05
        -0.56356E-06
        -0.36461E-07
        -0.12446E-06
        -0.30991E-06
        -0.92387E-05
        -0.43115E-05
        -0.29775E-06
        -0.18085E-05
        -0.13619E-05
        -0.30287E-06
        -0.28716E-05
        -0.10453E-04
        -0.60034E-04
        -0.46742E-04
        -0.36230E-04
        -0.19539E-04
        -0.11847E-05
        -0.50640E-05
        -0.78931E-05
        -0.13075E-04
        -0.54558E-04
        -0.18476E-04
        -0.80682E-05
        -0.12726E-04
        -0.17735E-04
        -0.19076E-04
        -0.10425E-06
        -0.29631E-04
        -0.60750E-04
        -0.32909E-03
        -0.54941E-03
        -0.91502E-03
        -0.13172E-02
        -0.12635E-02
        -0.96366E-03
        -0.88518E-03
        -0.86645E-03
        -0.34171E-03
        -0.37170E-04
        -0.58942E-05
        -0.43459E-05
        -0.91341E-06
        -0.66891E-04
        -0.26843E-03
        -0.51976E-03
        -0.87988E-03
        -0.10818E-02
        -0.83411E-03
        -0.74556E-03
        -0.74082E-03
        -0.36693E-03
        -0.98944E-04
        -0.88671E-04
        -0.25866E-04
        -0.10271E-04
        -0.88066E-05
        -0.50916E-06
        -0.14833E-04
        -0.30087E-05
        -0.18953E-05
        -0.23204E-04
        -0.99830E-05
        -0.20693E-04
        -0.57125E-05
        -0.10671E-03
        -0.37503E-04
        -0.77357E-06
        -0.10415E-03
        -0.37117E-05
        -0.35336E-06
        -0.30875E-06
        -0.63277E-05
        -0.23060E-06
        -0.47349E-05
        -0.23722E-05
        -0.79529E-06
        -0.56462E-06
        -0.94126E-05
        -0.56122E-06
        -0.37374E-07
        -0.12594E-06
        -0.30544E-06
        -0.92763E-05
        -0.43128E-05
        -0.29618E-06
        -0.18166E-05
        -0.13663E-05
        -0.29712E-06
        -0.28755E-05
        -0.10452E-04
        -0.60220E-04
        -0.46944E-04
        -0.36314E-04
        -0.19570E-04
        -0.11777E-05
        -0.50738E-05
        -0.79033E-05
        -0.13078E-04
        -0.54561E-04
        -0.18479E-04
        -0.80581E-05
        -0.12692E-04
        -0.17687E-04
        -0.19060E-04
        -0.10108E-06
        -0.29576E-04
        -0.60757E-04
        -0.32922E-03
        -0.54942E-03
        -0.91480E-03
        -0.13163E-02
        -0.12624E-02
        -0.96309E-03
        -0.88481E-03
        -0.86598E-03
        -0.34157E-03
        -0.37207E-04
        -0.58935E-05
        -0.43638E-05
        -0.89839E-06
        -0.66964E-04
        -0.26868E-03
        -0.52000E-03
        -0.87985E-03
        -0.10817E-02
        -0.83400E-03
        -0.74550E-03
        -0.74045E-03
        -0.36641E-03
        -0.98727E-04
        -0.88437E-04
        -0.25899E-04
        -0.10275E-04
        -0.88155E-05
        -0.51666E-06
        -0.14837E-04
        -0.30136E-05
        -0.19003E-05
        -0.23281E-04
        -0.10019E-04
        -0.20844E-04
        -0.57193E-05
        -0.10669E-03
        -0.37523E-04
        -0.77360E-06
        -0.10442E-03
        -0.37123E-05
        -0.35988E-06
        -0.30779E-06
        -0.63370E-05
        -0.22780E-06
        -0.47590E-05
        -0.23762E-05
        -0.79666E-06
        -0.56351E-06
        -0.94935E-05
        -0.55816E-06
        -0.38329E-07
        -0.12790E-06
        -0.29993E-06
        -0.93106E-05
        -0.43134E-05
        -0.29405E-06
        -0.18246E-05
        -0.13707E-05
        -0.29145E-06
        -0.28792E-05
        -0.10451E-04
        -0.60406E-04
        -0.47151E-04
        -0.36405E-04
        -0.19607E-04
        -0.11688E-05
        -0.50818E-05
        -0.79188E-05
        -0.13086E-04
        -0.54567E-04
        -0.18486E-04
        -0.80484E-05
        -0.12658E-04
        -0.17640E-04
        -0.19043E-04
        -0.97971E-07
        -0.29520E-04
        -0.60763E-04
        -0.32934E-03
        -0.54943E-03
        -0.91458E-03
        -0.13154E-02
        -0.12613E-02
        -0.96251E-03
        -0.88444E-03
        -0.86550E-03
        -0.34144E-03
        -0.37251E-04
        -0.58937E-05
        -0.43814E-05
        -0.88338E-06
        -0.67043E-04
        -0.26897E-03
        -0.52029E-03
        -0.87983E-03
        -0.10815E-02
        -0.83388E-03
        -0.74544E-03
        -0.74007E-03
        -0.36589E-03
        -0.98511E-04
        -0.88204E-04
        -0.25931E-04
        -0.10279E-04
        -0.88244E-05
        -0.52418E-06
        -0.14840E-04
        -0.30184E-05
        -0.19050E-05
        -0.23359E-04
        -0.10055E-04
        -0.20993E-04
        -0.57262E-05
        -0.10668E-03
        -0.37542E-04
        -0.77369E-06
        -0.10468E-03
        -0.37130E-05
        -0.36657E-06
        -0.30682E-06
        -0.63467E-05
        -0.22487E-06
        -0.47835E-05
        -0.23798E-05
        -0.79876E-06
        -0.56193E-06
        -0.95717E-05
        -0.55431E-06
        -0.39407E-07
        -0.13033E-06
        -0.29339E-06
        -0.93412E-05
        -0.43135E-05
        -0.29128E-06
        -0.18326E-05
        -0.13752E-05
        -0.28580E-06
        -0.28830E-05
        -0.10450E-04
        -0.60594E-04
        -0.47361E-04
        -0.36501E-04
        -0.19648E-04
        -0.11578E-05
        -0.50879E-05
        -0.79400E-05
        -0.13099E-04
        -0.54580E-04
        -0.18494E-04
        -0.80397E-05
        -0.12625E-04
        -0.17592E-04
        -0.19027E-04
        -0.94888E-07
        -0.29465E-04
        -0.60771E-04
        -0.32946E-03
        -0.54944E-03
        -0.91436E-03
        -0.13145E-02
        -0.12603E-02
        -0.96192E-03
        -0.88407E-03
        -0.86502E-03
        -0.34133E-03
        -0.37302E-04
        -0.58948E-05
        -0.43987E-05
        -0.86846E-06
        -0.67128E-04
        -0.26930E-03
        -0.52060E-03
        -0.87981E-03
        -0.10814E-02
        -0.83376E-03
        -0.74538E-03
        -0.73969E-03
        -0.36536E-03
        -0.98295E-04
        -0.87972E-04
        -0.25961E-04
        -0.10281E-04
        -0.88331E-05
        -0.53184E-06
        -0.14844E-04
        -0.30231E-05
        -0.19092E-05
        -0.23432E-04
        -0.10092E-04
        -0.21140E-04
        -0.57340E-05
        -0.10666E-03
        -0.37562E-04
        -0.77396E-06
        -0.10495E-03
        -0.37139E-05
        -0.37346E-06
        -0.30588E-06
        -0.63564E-05
        -0.22190E-06
        -0.48081E-05
        -0.23832E-05
        -0.80118E-06
        -0.56020E-06
        -0.96484E-05
        -0.55022E-06
        -0.40582E-07
        -0.13304E-06
        -0.28646E-06
        -0.93702E-05
        -0.43130E-05
        -0.28821E-06
        -0.18408E-05
        -0.13798E-05
        -0.28017E-06
        -0.28872E-05
        -0.10450E-04
        -0.60784E-04
        -0.47575E-04
        -0.36601E-04
        -0.19691E-04
        -0.11463E-05
        -0.50932E-05
        -0.79630E-05
        -0.13115E-04
        -0.54598E-04
        -0.18503E-04
        -0.80326E-05
        -0.12594E-04
        -0.17545E-04
        -0.19011E-04
        -0.91857E-07
        -0.29409E-04
        -0.60777E-04
        -0.32958E-03
        -0.54945E-03
        -0.91414E-03
        -0.13136E-02
        -0.12592E-02
        -0.96134E-03
        -0.88370E-03
        -0.86453E-03
        -0.34122E-03
        -0.37358E-04
        -0.58965E-05
        -0.44161E-05
        -0.85369E-06
        -0.67216E-04
        -0.26965E-03
        -0.52093E-03
        -0.87979E-03
        -0.10813E-02
        -0.83366E-03
        -0.74533E-03
        -0.73932E-03
        -0.36484E-03
        -0.98080E-04
        -0.87739E-04
        -0.25989E-04
        -0.10281E-04
        -0.88416E-05
        -0.53975E-06
        -0.14847E-04
        -0.30281E-05
        -0.19125E-05
        -0.23500E-04
        -0.10129E-04
        -0.21280E-04
        -0.57434E-05
        -0.10665E-03
        -0.37587E-04
        -0.77515E-06
        -0.10522E-03
        -0.37151E-05
        -0.38058E-06
        -0.30493E-06
        -0.63663E-05
        -0.21894E-06
        -0.48329E-05
        -0.23867E-05
        -0.80362E-06
        -0.55851E-06
        -0.97237E-05
        -0.54612E-06
        -0.41990E-07
        -0.13596E-06
        -0.27949E-06
        -0.93985E-05
        -0.43122E-05
        -0.28495E-06
        -0.18492E-05
        -0.13847E-05
        -0.27457E-06
        -0.28916E-05
        -0.10450E-04
        -0.60977E-04
        -0.47791E-04
        -0.36701E-04
        -0.19736E-04
        -0.11346E-05
        -0.50983E-05
        -0.79861E-05
        -0.13132E-04
        -0.54620E-04
        -0.18519E-04
        -0.80299E-05
        -0.12567E-04
        -0.17500E-04
        -0.18995E-04
        -0.88838E-07
        -0.29354E-04
        -0.60784E-04
        -0.32969E-03
        -0.54946E-03
        -0.91391E-03
        -0.13127E-02
        -0.12581E-02
        -0.96076E-03
        -0.88333E-03
        -0.86404E-03
        -0.34111E-03
        -0.37413E-04
        -0.58981E-05
        -0.44336E-05
        -0.83902E-06
        -0.67304E-04
        -0.26999E-03
        -0.52125E-03
        -0.87974E-03
        -0.10811E-02
        -0.83357E-03
        -0.74529E-03
        -0.73893E-03
        -0.36432E-03
        -0.97864E-04
        -0.87507E-04
        -0.26016E-04
        -0.10280E-04
        -0.88502E-05
        -0.54784E-06
        -0.14852E-04
        -0.30330E-05
        -0.19150E-05
        -0.23563E-04
        -0.10166E-04
        -0.21417E-04
        -0.57537E-05
        -0.10664E-03
        -0.37612E-04
        -0.77654E-06
        -0.10549E-03
        -0.37166E-05
        -0.38786E-06
        -0.30397E-06
        -0.63762E-05
        -0.21601E-06
        -0.48577E-05
        -0.23903E-05
        -0.80601E-06
        -0.55687E-06
        -0.97983E-05
        -0.54206E-06
        -0.43478E-07
        -0.13898E-06
        -0.27259E-06
        -0.94266E-05
        -0.43113E-05
        -0.28156E-06
        -0.18578E-05
        -0.13898E-05
        -0.26899E-06
        -0.28964E-05
        -0.10452E-04
        -0.61172E-04
        -0.48007E-04
        -0.36802E-04
        -0.19780E-04
        -0.11230E-05
        -0.51032E-05
        -0.80095E-05
        -0.13150E-04
        -0.54645E-04
        -0.18536E-04
        -0.80287E-05
        -0.12543E-04
        -0.17456E-04
        -0.18979E-04
        -0.85872E-07
        -0.29299E-04
        -0.60791E-04
        -0.32981E-03
        -0.54946E-03
        -0.91369E-03
        -0.13118E-02
        -0.12571E-02
        -0.96017E-03
        -0.88297E-03
        -0.86355E-03
        -0.34100E-03
        -0.37468E-04
        -0.58998E-05
        -0.44513E-05
        -0.82445E-06
        -0.67391E-04
        -0.27033E-03
        -0.52156E-03
        -0.87969E-03
        -0.10810E-02
        -0.83349E-03
        -0.74526E-03
        -0.73854E-03
        -0.36380E-03
        -0.97649E-04
        -0.87275E-04
        -0.26043E-04
        -0.10278E-04
        -0.88587E-05
        -0.55598E-06
        -0.14855E-04
        -0.30378E-05
        -0.19176E-05
        -0.23627E-04
        -0.10204E-04
        -0.21555E-04
        -0.57635E-05
        -0.10663E-03
        -0.37636E-04
        -0.77813E-06
        -0.10576E-03
        -0.37180E-05
        -0.39525E-06
        -0.30300E-06
        -0.63859E-05
        -0.21308E-06
        -0.48826E-05
        -0.23939E-05
        -0.80843E-06
        -0.55525E-06
        -0.98732E-05
        -0.53804E-06
        -0.45031E-07
        -0.14200E-06
        -0.26578E-06
        -0.94548E-05
        -0.43103E-05
        -0.27824E-06
        -0.18664E-05
        -0.13949E-05
        -0.26343E-06
        -0.29008E-05
        -0.10453E-04
        -0.61369E-04
        -0.48226E-04
        -0.36901E-04
        -0.19825E-04
        -0.11115E-05
        -0.51082E-05
        -0.80330E-05
        -0.13168E-04
        -0.54670E-04
        -0.18552E-04
        -0.80277E-05
        -0.12520E-04
        -0.17413E-04
        -0.18965E-04
        -0.82942E-07
        -0.29243E-04
        -0.60797E-04
        -0.32992E-03
        -0.54947E-03
        -0.91347E-03
        -0.13109E-02
        -0.12560E-02
        -0.95959E-03
        -0.88260E-03
        -0.86306E-03
        -0.34089E-03
        -0.37522E-04
        -0.59018E-05
        -0.44694E-05
        -0.81005E-06
        -0.67479E-04
        -0.27068E-03
        -0.52187E-03
        -0.87964E-03
        -0.10808E-02
        -0.83341E-03
        -0.74523E-03
        -0.73815E-03
        -0.36327E-03
        -0.97435E-04
        -0.87043E-04
        -0.26069E-04
        -0.10277E-04
        -0.88670E-05
        -0.56414E-06
        -0.14859E-04
        -0.30425E-05
        -0.19202E-05
        -0.23691E-04
        -0.10242E-04
        -0.21692E-04
        -0.57738E-05
        -0.10662E-03
        -0.37663E-04
        -0.77950E-06
        -0.10603E-03
        -0.37194E-05
        -0.40273E-06
        -0.30203E-06
        -0.63956E-05
        -0.21014E-06
        -0.49074E-05
        -0.23973E-05
        -0.81073E-06
        -0.55363E-06
        -0.99482E-05
        -0.53404E-06
        -0.46567E-07
        -0.14503E-06
        -0.25908E-06
        -0.94830E-05
        -0.43093E-05
        -0.27491E-06
        -0.18750E-05
        -0.13999E-05
        -0.25794E-06
        -0.29056E-05
        -0.10455E-04
        -0.61565E-04
        -0.48444E-04
        -0.37002E-04
        -0.19869E-04
        -0.11001E-05
        -0.51133E-05
        -0.80563E-05
        -0.13186E-04
        -0.54694E-04
        -0.18569E-04
        -0.80272E-05
        -0.12495E-04
        -0.17369E-04
        -0.18949E-04
        -0.80075E-07
        -0.29188E-04
        -0.60803E-04
        -0.33004E-03
        -0.54948E-03
        -0.91325E-03
        -0.13100E-02
        -0.12549E-02
        -0.95900E-03
        -0.88224E-03
        -0.86256E-03
        -0.34078E-03
        -0.37577E-04
        -0.59037E-05
        -0.44874E-05
        -0.79581E-06
        -0.67567E-04
        -0.27102E-03
        -0.52218E-03
        -0.87959E-03
        -0.10807E-02
        -0.83333E-03
        -0.74519E-03
        -0.73776E-03
        -0.36275E-03
        -0.97223E-04
        -0.86812E-04
        -0.26095E-04
        -0.10275E-04
        -0.88755E-05
        -0.57236E-06
        -0.14863E-04
        -0.30474E-05
        -0.19231E-05
        -0.23754E-04
        -0.10280E-04
        -0.21830E-04
        -0.57841E-05
        -0.10661E-03
        -0.37688E-04
        -0.78101E-06
        -0.10631E-03
        -0.37209E-05
        -0.41031E-06
        -0.30106E-06
        -0.64054E-05
        -0.20721E-06
        -0.49324E-05
        -0.24007E-05
        -0.81315E-06
        -0.55204E-06
        -0.10023E-04
        -0.53005E-06
        -0.48157E-07
        -0.14804E-06
        -0.25248E-06
        -0.95112E-05
        -0.43084E-05
        -0.27163E-06
        -0.18836E-05
        -0.14050E-05
        -0.25249E-06
        -0.29102E-05
        -0.10456E-04
        -0.61762E-04
        -0.48664E-04
        -0.37101E-04
        -0.19913E-04
        -0.10887E-05
        -0.51182E-05
        -0.80793E-05
        -0.13204E-04
        -0.54720E-04
        -0.18586E-04
        -0.80261E-05
        -0.12472E-04
        -0.17325E-04
        -0.18934E-04
        -0.77250E-07
        -0.29132E-04
        -0.60808E-04
        -0.33015E-03
        -0.54949E-03
        -0.91303E-03
        -0.13091E-02
        -0.12538E-02
        -0.95841E-03
        -0.88188E-03
        -0.86207E-03
        -0.34067E-03
        -0.37631E-04
        -0.59055E-05
        -0.45051E-05
        -0.78164E-06
        -0.67655E-04
        -0.27136E-03
        -0.52250E-03
        -0.87954E-03
        -0.10806E-02
        -0.83325E-03
        -0.74516E-03
        -0.73736E-03
        -0.36223E-03
        -0.97011E-04
        -0.86580E-04
        -0.26121E-04
        -0.10273E-04
        -0.88839E-05
        -0.58070E-06
        -0.14866E-04
        -0.30522E-05
        -0.19257E-05
        -0.23818E-04
        -0.10318E-04
        -0.21968E-04
        -0.57945E-05
        -0.10659E-03
        -0.37712E-04
        -0.78252E-06
        -0.10658E-03
        -0.37224E-05
        -0.41797E-06
        -0.30008E-06
        -0.64152E-05
        -0.20433E-06
        -0.49574E-05
        -0.24041E-05
        -0.81556E-06
        -0.55046E-06
        -0.10099E-04
        -0.52611E-06
        -0.49738E-07
        -0.15106E-06
        -0.24596E-06
        -0.95393E-05
        -0.43074E-05
        -0.26835E-06
        -0.18922E-05
        -0.14102E-05
        -0.24706E-06
        -0.29149E-05
        -0.10457E-04
        -0.61960E-04
        -0.48884E-04
        -0.37202E-04
        -0.19958E-04
        -0.10775E-05
        -0.51231E-05
        -0.81026E-05
        -0.13223E-04
        -0.54745E-04
        -0.18603E-04
        -0.80257E-05
        -0.12448E-04
        -0.17282E-04
        -0.18919E-04
        -0.74479E-07
        -0.29076E-04
        -0.60814E-04
        -0.33026E-03
        -0.54950E-03
        -0.91281E-03
        -0.13082E-02
        -0.12527E-02
        -0.95783E-03
        -0.88151E-03
        -0.86156E-03
        -0.34055E-03
        -0.37686E-04
        -0.59073E-05
        -0.45230E-05
        -0.76755E-06
        -0.67742E-04
        -0.27171E-03
        -0.52281E-03
        -0.87950E-03
        -0.10804E-02
        -0.83317E-03
        -0.74513E-03
        -0.73697E-03
        -0.36171E-03
        -0.96801E-04
        -0.86350E-04
        -0.26147E-04
        -0.10272E-04
        -0.88924E-05
        -0.58914E-06
        -0.14870E-04
        -0.30571E-05
        -0.19283E-05
        -0.23882E-04
        -0.10357E-04
        -0.22106E-04
        -0.58048E-05
        -0.10658E-03
        -0.37739E-04
        -0.78384E-06
        -0.10685E-03
        -0.37237E-05
        -0.42570E-06
        -0.29909E-06
        -0.64249E-05
        -0.20147E-06
        -0.49826E-05
        -0.24075E-05
        -0.81793E-06
        -0.54889E-06
        -0.10174E-04
        -0.52215E-06
        -0.51391E-07
        -0.15408E-06
        -0.23954E-06
        -0.95674E-05
        -0.43064E-05
        -0.26506E-06
        -0.19008E-05
        -0.14153E-05
        -0.24170E-06
        -0.29197E-05
        -0.10459E-04
        -0.62158E-04
        -0.49105E-04
        -0.37302E-04
        -0.20003E-04
        -0.10662E-05
        -0.51280E-05
        -0.81262E-05
        -0.13241E-04
        -0.54767E-04
        -0.18620E-04
        -0.80248E-05
        -0.12425E-04
        -0.17239E-04
        -0.18902E-04
        -0.71766E-07
        -0.29021E-04
        -0.60820E-04
        -0.33037E-03
        -0.54950E-03
        -0.91259E-03
        -0.13073E-02
        -0.12516E-02
        -0.95724E-03
        -0.88115E-03
        -0.86106E-03
        -0.34044E-03
        -0.37740E-04
        -0.59091E-05
        -0.45410E-05
        -0.75363E-06
        -0.67830E-04
        -0.27205E-03
        -0.52312E-03
        -0.87945E-03
        -0.10803E-02
        -0.83310E-03
        -0.74509E-03
        -0.73658E-03
        -0.36119E-03
        -0.96591E-04
        -0.86120E-04
        -0.26173E-04
        -0.10270E-04
        -0.89009E-05
        -0.59762E-06
        -0.14874E-04
        -0.30619E-05
        -0.19312E-05
        -0.23945E-04
        -0.10395E-04
        -0.22245E-04
        -0.58152E-05
        -0.10657E-03
        -0.37763E-04
        -0.78535E-06
        -0.10712E-03
        -0.37251E-05
        -0.43353E-06
        -0.29812E-06
        -0.64346E-05
        -0.19864E-06
        -0.50077E-05
        -0.24109E-05
        -0.82034E-06
        -0.54734E-06
        -0.10250E-04
        -0.51819E-06
        -0.53026E-07
        -0.15709E-06
        -0.23323E-06
        -0.95955E-05
        -0.43053E-05
        -0.26182E-06
        -0.19094E-05
        -0.14204E-05
        -0.23636E-06
        -0.29243E-05
        -0.10460E-04
        -0.62358E-04
        -0.49326E-04
        -0.37401E-04
        -0.20047E-04
        -0.10550E-05
        -0.51330E-05
        -0.81495E-05
        -0.13259E-04
        -0.54793E-04
        -0.18638E-04
        -0.80239E-05
        -0.12400E-04
        -0.17195E-04
        -0.18888E-04
        -0.69119E-07
        -0.28965E-04
        -0.60825E-04
        -0.33048E-03
        -0.54951E-03
        -0.91237E-03
        -0.13064E-02
        -0.12505E-02
        -0.95665E-03
        -0.88079E-03
        -0.86055E-03
        -0.34033E-03
        -0.37795E-04
        -0.59109E-05
        -0.45591E-05
        -0.73989E-06
        -0.67917E-04
        -0.27240E-03
        -0.52344E-03
        -0.87941E-03
        -0.10801E-02
        -0.83302E-03
        -0.74506E-03
        -0.73618E-03
        -0.36067E-03
        -0.96381E-04
        -0.85890E-04
        -0.26199E-04
        -0.10269E-04
        -0.89093E-05
        -0.60614E-06
        -0.14878E-04
        -0.30667E-05
        -0.19338E-05
        -0.24008E-04
        -0.10434E-04
        -0.22383E-04
        -0.58256E-05
        -0.10656E-03
        -0.37788E-04
        -0.78663E-06
        -0.10740E-03
        -0.37266E-05
        -0.44147E-06
        -0.29715E-06
        -0.64444E-05
        -0.19580E-06
        -0.50330E-05
        -0.24143E-05
        -0.82269E-06
        -0.54582E-06
        -0.10326E-04
        -0.51427E-06
        -0.54716E-07
        -0.16008E-06
        -0.22703E-06
        -0.96238E-05
        -0.43042E-05
        -0.25858E-06
        -0.19181E-05
        -0.14256E-05
        -0.23110E-06
        -0.29291E-05
        -0.10461E-04
        -0.62559E-04
        -0.49549E-04
        -0.37501E-04
        -0.20092E-04
        -0.10439E-05
        -0.51380E-05
        -0.81727E-05
        -0.13278E-04
        -0.54818E-04
        -0.18654E-04
        -0.80235E-05
        -0.12377E-04
        -0.17152E-04
        -0.18873E-04
        -0.66505E-07
        -0.28910E-04
        -0.60830E-04
        -0.33059E-03
        -0.54952E-03
        -0.91215E-03
        -0.13055E-02
        -0.12495E-02
        -0.95606E-03
        -0.88043E-03
        -0.86004E-03
        -0.34022E-03
        -0.37849E-04
        -0.59126E-05
        -0.45771E-05
        -0.72624E-06
        -0.68005E-04
        -0.27275E-03
        -0.52375E-03
        -0.87936E-03
        -0.10800E-02
        -0.83294E-03
        -0.74502E-03
        -0.73579E-03
        -0.36015E-03
        -0.96173E-04
        -0.85660E-04
        -0.26225E-04
        -0.10267E-04
        -0.89177E-05
        -0.61470E-06
        -0.14881E-04
        -0.30715E-05
        -0.19365E-05
        -0.24071E-04
        -0.10472E-04
        -0.22522E-04
        -0.58360E-05
        -0.10655E-03
        -0.37815E-04
        -0.78808E-06
        -0.10767E-03
        -0.37280E-05
        -0.44953E-06
        -0.29618E-06
        -0.64542E-05
        -0.19300E-06
        -0.50583E-05
        -0.24175E-05
        -0.82507E-06
        -0.54431E-06
        -0.10402E-04
        -0.51034E-06
        -0.56387E-07
        -0.16306E-06
        -0.22094E-06
        -0.96520E-05
        -0.43032E-05
        -0.25538E-06
        -0.19267E-05
        -0.14308E-05
        -0.22584E-06
        -0.29337E-05
        -0.10463E-04
        -0.62760E-04
        -0.49771E-04
        -0.37599E-04
        -0.20137E-04
        -0.10329E-05
        -0.51431E-05
        -0.81958E-05
        -0.13296E-04
        -0.54843E-04
        -0.18672E-04
        -0.80226E-05
        -0.12353E-04
        -0.17109E-04
        -0.18857E-04
        -0.63941E-07
        -0.28854E-04
        -0.60835E-04
        -0.33070E-03
        -0.54953E-03
        -0.91193E-03
        -0.13046E-02
        -0.12484E-02
        -0.95547E-03
        -0.88007E-03
        -0.85952E-03
        -0.34011E-03
        -0.37904E-04
        -0.59143E-05
        -0.45950E-05
        -0.71270E-06
        -0.68091E-04
        -0.27309E-03
        -0.52406E-03
        -0.87931E-03
        -0.10799E-02
        -0.83287E-03
        -0.74499E-03
        -0.73539E-03
        -0.35963E-03
        -0.95966E-04
        -0.85430E-04
        -0.26251E-04
        -0.10265E-04
        -0.89262E-05
        -0.62335E-06
        -0.14885E-04
        -0.30763E-05
        -0.19394E-05
        -0.24134E-04
        -0.10511E-04
        -0.22661E-04
        -0.58465E-05
        -0.10654E-03
        -0.37840E-04
        -0.78932E-06
        -0.10795E-03
        -0.37295E-05
        -0.45771E-06
        -0.29518E-06
        -0.64639E-05
        -0.19025E-06
        -0.50836E-05
        -0.24206E-05
        -0.82745E-06
        -0.54280E-06
        -0.10479E-04
        -0.50642E-06
        -0.58130E-07
        -0.16603E-06
        -0.21492E-06
        -0.96796E-05
        -0.43021E-05
        -0.25219E-06
        -0.19353E-05
        -0.14360E-05
        -0.22064E-06
        -0.29384E-05
        -0.10464E-04
        -0.62962E-04
        -0.49993E-04
        -0.37698E-04
        -0.20181E-04
        -0.10220E-05
        -0.51482E-05
        -0.82194E-05
        -0.13315E-04
        -0.54869E-04
        -0.18689E-04
        -0.80222E-05
        -0.12330E-04
        -0.17065E-04
        -0.18842E-04
        -0.61448E-07
        -0.28798E-04
        -0.60840E-04
        -0.33081E-03
        -0.54954E-03
        -0.91171E-03
        -0.13037E-02
        -0.12473E-02
        -0.95487E-03
        -0.87970E-03
        -0.85900E-03
        -0.34000E-03
        -0.37959E-04
        -0.59155E-05
        -0.46127E-05
        -0.69936E-06
        -0.68178E-04
        -0.27344E-03
        -0.52438E-03
        -0.87927E-03
        -0.10797E-02
        -0.83279E-03
        -0.74496E-03
        -0.73499E-03
        -0.35911E-03
        -0.95759E-04
        -0.85201E-04
        -0.26276E-04
        -0.10264E-04
        -0.89347E-05
        -0.63211E-06
        -0.14889E-04
        -0.30811E-05
        -0.19421E-05
        -0.24197E-04
        -0.10551E-04
        -0.22801E-04
        -0.58569E-05
        -0.10653E-03
        -0.37864E-04
        -0.79073E-06
        -0.10822E-03
        -0.37309E-05
        -0.46604E-06
        -0.29419E-06
        -0.64737E-05
        -0.18764E-06
        -0.51090E-05
        -0.24237E-05
        -0.82987E-06
        -0.54126E-06
        -0.10556E-04
        -0.50255E-06
        -0.59881E-07
        -0.16901E-06
        -0.20900E-06
        -0.97055E-05
        -0.43010E-05
        -0.24897E-06
        -0.19439E-05
        -0.14413E-05
        -0.21550E-06
        -0.29433E-05
        -0.10465E-04
        -0.63168E-04
        -0.50216E-04
        -0.37791E-04
        -0.20225E-04
        -0.10111E-05
        -0.51535E-05
        -0.82428E-05
        -0.13333E-04
        -0.54894E-04
        -0.18706E-04
        -0.80214E-05
        -0.12306E-04
        -0.17022E-04
        -0.18827E-04
        -0.59001E-07
        -0.28742E-04
        -0.60845E-04
        -0.33092E-03
        -0.54955E-03
        -0.91149E-03
        -0.13028E-02
        -0.12462E-02
        -0.95429E-03
        -0.87934E-03
        -0.85845E-03
        -0.33990E-03
        -0.38015E-04
        -0.59161E-05
        -0.46306E-05
        -0.68616E-06
        -0.68265E-04
        -0.27378E-03
        -0.52469E-03
        -0.87922E-03
        -0.10796E-02
        -0.83271E-03
        -0.74492E-03
        -0.73459E-03
        -0.35859E-03
        -0.95555E-04
        -0.84972E-04
        -0.26302E-04
        -0.10262E-04
        -0.89431E-05
        -0.64091E-06
        -0.14893E-04
        -0.30858E-05
        -0.19448E-05
        -0.24259E-04
        -0.10590E-04
        -0.22941E-04
        -0.58672E-05
        -0.10652E-03
        -0.37891E-04
        -0.79213E-06
        -0.10850E-03
        -0.37323E-05
        -0.47459E-06
        -0.29319E-06
        -0.64835E-05
        -0.18516E-06
        -0.51344E-05
        -0.24266E-05
        -0.83225E-06
        -0.53979E-06
        -0.10633E-04
        -0.49866E-06
        -0.61736E-07
        -0.17198E-06
        -0.20318E-06
        -0.97300E-05
        -0.42998E-05
        -0.24581E-06
        -0.19526E-05
        -0.14465E-05
        -0.21038E-06
        -0.29479E-05
        -0.10466E-04
        -0.63375E-04
        -0.50437E-04
        -0.37882E-04
        -0.20268E-04
        -0.10002E-05
        -0.51592E-05
        -0.82661E-05
        -0.13352E-04
        -0.54919E-04
        -0.18723E-04
        -0.80205E-05
        -0.12283E-04
        -0.16979E-04
        -0.18811E-04
        -0.56587E-07
        -0.28687E-04
        -0.60849E-04
        -0.33102E-03
        -0.54955E-03
        -0.91126E-03
        -0.13019E-02
        -0.12451E-02
        -0.95371E-03
        -0.87896E-03
        -0.85788E-03
        -0.33982E-03
        -0.38072E-04
        -0.59156E-05
        -0.46485E-05
        -0.67301E-06
        -0.68352E-04
        -0.27413E-03
        -0.52500E-03
        -0.87918E-03
        -0.10794E-02
        -0.83264E-03
        -0.74489E-03
        -0.73419E-03
        -0.35808E-03
        -0.95351E-04
        -0.84744E-04
        -0.26328E-04
        -0.10261E-04
        -0.89521E-05
        -0.64974E-06
        -0.14897E-04
        -0.30906E-05
        -0.19478E-05
        -0.24322E-04
        -0.10630E-04
        -0.23081E-04
        -0.58777E-05
        -0.10651E-03
        -0.37916E-04
        -0.79335E-06
        -0.10877E-03
        -0.37338E-05
        -0.48326E-06
        -0.29220E-06
        -0.64935E-05
        -0.18276E-06
        -0.51601E-05
        -0.24296E-05
        -0.83449E-06
        -0.53840E-06
        -0.10710E-04
        -0.49491E-06
        -0.63570E-07
        -0.17485E-06
        -0.19751E-06
        -0.97540E-05
        -0.42989E-05
        -0.24274E-06
        -0.19612E-05
        -0.14518E-05
        -0.20537E-06
        -0.29525E-05
        -0.10467E-04
        -0.63584E-04
        -0.50658E-04
        -0.37969E-04
        -0.20311E-04
        -0.98961E-06
        -0.51652E-05
        -0.82891E-05
        -0.13370E-04
        -0.54944E-04
        -0.18740E-04
        -0.80199E-05
        -0.12260E-04
        -0.16936E-04
        -0.18797E-04
        -0.54239E-07
        -0.28630E-04
        -0.60855E-04
        -0.33113E-03
        -0.54956E-03
        -0.91105E-03
        -0.13010E-02
        -0.12440E-02
        -0.95312E-03
        -0.87859E-03
        -0.85729E-03
        -0.33974E-03
        -0.38127E-04
        -0.59144E-05
        -0.46663E-05
        -0.66000E-06
        -0.68438E-04
        -0.27447E-03
        -0.52531E-03
        -0.87914E-03
        -0.10793E-02
        -0.83255E-03
        -0.74485E-03
        -0.73379E-03
        -0.35756E-03
        -0.95149E-04
        -0.84516E-04
        -0.26550E-04
        -0.10339E-04
        -0.90307E-05
        -0.66323E-06
        -0.15011E-04
        -0.31177E-05
        -0.19657E-05
        -0.24558E-04
        -0.10747E-04
        -0.23380E-04
        -0.59304E-05
        -0.10724E-03
        -0.38203E-04
        -0.80031E-06
        -0.10981E-03
        -0.37638E-05
        -0.49513E-06
        -0.29341E-06
        -0.65508E-05
        -0.18197E-06
        -0.52200E-05
        -0.24496E-05
        -0.84121E-06
        -0.54172E-06
        -0.10864E-04
        -0.49609E-06
        -0.65745E-07
        -0.17836E-06
        -0.19440E-06
        -0.98519E-05
        -0.43316E-05
        -0.24239E-06
        -0.19842E-05
        -0.14679E-05
        -0.20234E-06
        -0.29758E-05
        -0.10538E-04
        -0.64231E-04
        -0.51232E-04
        -0.38328E-04
        -0.20494E-04
        -0.98865E-06
        -0.52106E-05
        -0.83617E-05
        -0.13473E-04
        -0.55326E-04
        -0.18879E-04
        -0.80709E-05
        -0.12322E-04
        -0.17015E-04
        -0.18915E-04
        -0.52346E-07
        -0.28751E-04
        -0.61265E-04
        -0.33334E-03
        -0.55308E-03
        -0.91677E-03
        -0.13088E-02
        -0.12514E-02
        -0.95912E-03
        -0.88427E-03
        -0.86269E-03
        -0.34197E-03
        -0.38416E-04
        -0.59479E-05
        -0.47117E-05
        -0.65173E-06
        -0.68914E-04
        -0.27640E-03
        -0.52883E-03
        -0.88477E-03
        -0.10861E-02
        -0.83769E-03
        -0.74941E-03
        -0.73799E-03
        -0.35933E-03
        -0.95553E-04
        -0.84828E-04
        -0.58745E-04
        -0.23059E-04
        -0.19918E-04
        -0.14886E-05
        -0.30837E-04
        -0.65346E-05
        -0.43665E-05
        -0.53849E-04
        -0.23707E-04
        -0.51069E-04
        -0.12722E-04
        -0.21220E-03
        -0.77923E-04
        -0.17029E-05
        -0.21983E-03
        -0.83459E-05
        -0.11048E-05
        -0.64972E-06
        -0.14141E-04
        -0.39252E-06
        -0.10671E-04
        -0.51235E-05
        -0.17216E-05
        -0.11868E-05
        -0.24204E-04
        -0.11045E-05
        -0.14459E-06
        -0.39758E-06
        -0.42913E-06
        -0.21865E-04
        -0.96061E-05
        -0.53377E-06
        -0.44306E-05
        -0.32680E-05
        -0.38943E-06
        -0.62151E-05
        -0.22011E-04
        -0.13435E-03
        -0.11028E-03
        -0.83067E-04
        -0.43207E-04
        -0.21070E-05
        -0.11150E-04
        -0.17386E-04
        -0.27816E-04
        -0.10777E-03
        -0.38712E-04
        -0.16951E-04
        -0.26140E-04
        -0.35771E-04
        -0.37899E-04
        -0.10555E-06
        -0.44611E-04
        -0.94980E-04
        -0.51693E-03
        -0.86252E-03
        -0.14277E-02
        -0.20484E-02
        -0.20022E-02
        -0.15604E-02
        -0.14333E-02
        -0.13819E-02
        -0.54916E-03
        -0.61483E-04
        -0.97174E-05
        -0.77716E-05
        -0.10320E-05
        -0.10807E-03
        -0.43091E-03
        -0.81530E-03
        -0.13618E-02
        -0.16758E-02
        -0.13193E-02
        -0.11908E-02
        -0.11641E-02
        -0.57047E-03
        -0.15071E-03
        -0.13278E-03
  
SCALARS                      strain_zz  double 1
LOOKUP_TABLE default
         0.82003E+00
         0.79771E+00
         0.81187E+00
         0.83726E+00
        -0.14959E-08
        -0.16775E-08
        -0.16062E-08
        -0.14592E-08
         0.79698E+00
         0.80451E+00
        -0.15085E-08
        -0.14598E-08
         0.76544E+00
         0.76425E+00
        -0.17924E-08
        -0.16853E-08
         0.83354E+00
         0.76600E+00
        -0.13244E-08
        -0.14689E-08
         0.74123E+00
         0.72206E+00
         0.75262E+00
        -0.17764E-08
        -0.15514E-08
        -0.16020E-08
         0.72279E+00
         0.69481E+00
        -0.17042E-08
        -0.14372E-08
         0.83231E+00
         0.80290E+00
         0.86087E+00
        -0.14543E-08
        -0.13520E-08
        -0.13145E-08
         0.81530E+00
         0.77786E+00
        -0.15386E-08
        -0.14040E-08
         0.80047E+00
         0.77161E+00
        -0.13298E-08
        -0.11772E-08
         0.82495E+00
         0.83580E+00
        -0.14573E-08
        -0.16283E-08
         0.74847E+00
        -0.14236E-08
         0.83368E+00
        -0.16728E-08
         0.71471E+00
        -0.15034E-08
         0.70590E+00
        -0.14421E-08
         0.70606E+00
         0.73734E+00
        -0.14693E-08
        -0.14309E-08
         0.83171E+00
         0.82041E+00
        -0.14733E-08
        -0.16656E-08
         0.83878E+00
        -0.14217E-08
         0.82534E+00
        -0.15516E-08
         0.79008E+00
         0.78650E+00
        -0.14935E-08
        -0.15650E-08
         0.77850E+00
        -0.15781E-08
         0.68488E+00
        -0.12468E-08
         0.67999E+00
        -0.12102E-08
         0.68244E+00
        -0.12761E-08
         0.69601E+00
         0.71004E+00
        -0.12158E-08
        -0.12675E-08
         0.73838E+00
        -0.11805E-08
         0.82439E+00
        -0.15481E-08
         0.81097E+00
        -0.15845E-08
         0.80001E+00
         0.79389E+00
        -0.15216E-08
        -0.15393E-08
         0.80132E+00
        -0.13982E-08
         0.80662E+00
        -0.13782E-08
         0.80185E+00
        -0.14754E-08
         0.80021E+00
         0.80501E+00
        -0.14469E-08
        -0.14893E-08
         0.77385E+00
         0.78666E+00
        -0.11233E-08
        -0.10566E-08
         0.77152E+00
        -0.10726E-08
         0.78629E+00
        -0.10285E-08
         0.77176E+00
        -0.10142E-08
         0.73970E+00
        -0.95839E-09
         0.70871E+00
        -0.85142E-09
         0.69016E+00
        -0.76666E-09
         0.68826E+00
        -0.76133E-09
         0.68884E+00
        -0.82562E-09
         0.70896E+00
        -0.86770E-09
         0.74673E+00
        -0.79231E-09
         0.78826E+00
        -0.71418E-09
         0.81254E+00
        -0.71337E-09
         0.83658E+00
        -0.79737E-09
         0.85249E+00
        -0.90918E-09
         0.85194E+00
        -0.97674E-09
         0.81318E+00
        -0.10549E-08
         0.78619E+00
        -0.11301E-08
         0.77707E+00
        -0.10353E-08
         0.79155E+00
        -0.90822E-09
         0.79903E+00
        -0.90542E-09
         0.78632E+00
        -0.99063E-09
         0.78644E+00
        -0.10561E-08
         0.79602E+00
        -0.10022E-08
         0.80850E+00
        -0.96891E-09
        -0.36936E+00
        -0.37422E+00
        -0.37357E+00
        -0.36724E+00
        -0.37874E+00
        -0.37301E+00
        -0.38012E+00
        -0.37644E+00
        -0.36825E+00
        -0.37339E+00
        -0.38395E+00
        -0.38503E+00
        -0.38196E+00
        -0.38180E+00
        -0.38373E+00
        -0.36755E+00
        -0.36874E+00
        -0.36538E+00
        -0.37473E+00
        -0.37307E+00
        -0.37540E+00
        -0.37383E+00
        -0.37672E+00
        -0.37602E+00
        -0.37320E+00
        -0.37341E+00
        -0.37818E+00
        -0.37775E+00
        -0.38121E+00
        -0.37595E+00
        -0.36814E+00
        -0.37429E+00
        -0.36819E+00
        -0.37224E+00
        -0.38583E+00
        -0.38161E+00
        -0.37955E+00
        -0.38194E+00
        -0.38227E+00
        -0.38614E+00
        -0.38884E+00
        -0.38208E+00
        -0.37529E+00
        -0.37625E+00
        -0.37975E+00
        -0.38566E+00
        -0.38065E+00
        -0.37503E+00
        -0.37543E+00
        -0.37978E+00
        -0.38407E+00
        -0.37824E+00
        -0.39478E+00
        -0.38989E+00
        -0.39065E+00
        -0.38945E+00
        -0.38966E+00
        -0.39217E+00
        -0.39485E+00
        -0.39585E+00
        -0.39552E+00
        -0.39573E+00
        -0.39688E+00
        -0.38999E+00
        -0.38749E+00
        -0.38651E+00
        -0.38466E+00
        -0.38322E+00
        -0.38323E+00
        -0.38552E+00
        -0.39312E+00
        -0.39129E+00
        -0.38878E+00
        -0.38887E+00
        -0.38931E+00
        -0.39182E+00
        -0.38812E+00
        -0.38671E+00
         0.38114E-04
         0.14589E-04
         0.14815E-04
         0.14570E-04
         0.37734E-04
         0.26071E-04
         0.27608E-06
         0.22316E-04
         0.23101E-04
         0.18471E-04
        -0.36034E-05
         0.10897E-03
         0.65577E-04
        -0.43694E-05
         0.11324E-03
         0.18370E-04
         0.10464E-04
         0.10171E-04
         0.72114E-05
         0.33452E-05
         0.66244E-04
         0.62841E-04
         0.51672E-04
         0.19153E-05
         0.20135E-05
         0.16122E-06
        -0.13561E-04
        -0.21805E-04
        -0.94297E-05
         0.50523E-05
         0.13910E-04
         0.29338E-05
         0.13305E-04
         0.16832E-04
         0.52355E-04
         0.19202E-04
         0.33679E-04
         0.71933E-04
         0.40755E-04
         0.37611E-04
         0.82929E-04
         0.65720E-04
         0.67674E-04
         0.37005E-04
         0.29451E-04
         0.58840E-04
         0.26972E-04
         0.21260E-04
         0.17916E-04
         0.26017E-04
         0.55820E-04
         0.33827E-04
         0.92098E-03
         0.98148E-03
         0.10622E-02
         0.10587E-02
         0.12117E-02
         0.14010E-02
         0.12875E-02
         0.10240E-02
         0.96947E-03
         0.11015E-02
         0.10563E-02
         0.10256E-02
         0.69792E-03
         0.63704E-03
         0.75665E-03
         0.86099E-03
         0.92928E-03
         0.11105E-02
         0.10295E-02
         0.10967E-02
         0.89032E-03
         0.79943E-03
         0.90364E-03
         0.86337E-03
         0.92113E-03
         0.91186E-03
         0.37631E-04
         0.14047E-04
         0.14285E-04
         0.14097E-04
         0.37079E-04
         0.25469E-04
        -0.30374E-06
         0.21763E-04
         0.22578E-04
         0.17954E-04
        -0.42746E-05
         0.10818E-03
         0.64939E-04
        -0.51085E-05
         0.11271E-03
         0.17822E-04
         0.98580E-05
         0.96799E-05
         0.65794E-05
         0.26663E-05
         0.65573E-04
         0.62167E-04
         0.50961E-04
         0.12625E-05
         0.13755E-05
        -0.46127E-06
        -0.14195E-04
        -0.22486E-04
        -0.10131E-04
         0.43457E-05
         0.13378E-04
         0.23427E-05
         0.12789E-04
         0.16344E-04
         0.51701E-04
         0.18575E-04
         0.33047E-04
         0.71389E-04
         0.40221E-04
         0.36988E-04
         0.82259E-04
         0.65026E-04
         0.66964E-04
         0.36321E-04
         0.28790E-04
         0.58129E-04
         0.26318E-04
         0.20638E-04
         0.17311E-04
         0.25399E-04
         0.55118E-04
         0.33158E-04
         0.91908E-03
         0.97982E-03
         0.10610E-02
         0.10576E-02
         0.12102E-02
         0.13988E-02
         0.12851E-02
         0.10221E-02
         0.96763E-03
         0.10994E-02
         0.10546E-02
         0.10244E-02
         0.69672E-03
         0.63599E-03
         0.75579E-03
         0.86029E-03
         0.92862E-03
         0.11097E-02
         0.10282E-02
         0.10953E-02
         0.88894E-03
         0.79825E-03
         0.90194E-03
         0.86113E-03
         0.91898E-03
         0.90977E-03
         0.37798E-04
         0.14160E-04
         0.14411E-04
         0.14241E-04
         0.37215E-04
         0.25611E-04
        -0.16341E-06
         0.21954E-04
         0.22709E-04
         0.18125E-04
        -0.41386E-05
         0.10832E-03
         0.65119E-04
        -0.50170E-05
         0.11315E-03
         0.17731E-04
         0.98473E-05
         0.98021E-05
         0.64299E-05
         0.25303E-05
         0.65474E-04
         0.62115E-04
         0.50493E-04
         0.79136E-06
         0.11516E-05
        -0.89763E-06
        -0.14059E-04
        -0.22582E-04
        -0.10403E-04
         0.38634E-05
         0.13401E-04
         0.22070E-05
         0.12908E-04
         0.16513E-04
         0.51930E-04
         0.18721E-04
         0.33169E-04
         0.71773E-04
         0.40552E-04
         0.37143E-04
         0.82350E-04
         0.64820E-04
         0.66591E-04
         0.35867E-04
         0.28668E-04
         0.58222E-04
         0.26437E-04
         0.20775E-04
         0.17430E-04
         0.25525E-04
         0.55250E-04
         0.33259E-04
         0.91877E-03
         0.97968E-03
         0.10613E-02
         0.10579E-02
         0.12100E-02
         0.13981E-02
         0.12843E-02
         0.10218E-02
         0.96741E-03
         0.10991E-02
         0.10544E-02
         0.10245E-02
         0.69662E-03
         0.63612E-03
         0.75609E-03
         0.86051E-03
         0.92887E-03
         0.11103E-02
         0.10284E-02
         0.10955E-02
         0.88909E-03
         0.79849E-03
         0.90170E-03
         0.86032E-03
         0.91821E-03
         0.90907E-03
         0.37767E-04
         0.14118E-04
         0.14377E-04
         0.14177E-04
         0.37128E-04
         0.25544E-04
        -0.19666E-06
         0.21927E-04
         0.22585E-04
         0.17982E-04
        -0.42077E-05
         0.10823E-03
         0.65116E-04
        -0.51678E-05
         0.11330E-03
         0.17303E-04
         0.95007E-05
         0.97073E-05
         0.58794E-05
         0.19573E-05
         0.64973E-04
         0.61651E-04
         0.49420E-04
        -0.26238E-06
         0.37604E-06
        -0.18912E-05
        -0.14226E-04
        -0.23133E-04
        -0.11270E-04
         0.26459E-05
         0.13154E-04
         0.16747E-05
         0.12815E-04
         0.16439E-04
         0.51884E-04
         0.18649E-04
         0.33106E-04
         0.71876E-04
         0.40585E-04
         0.36929E-04
         0.82027E-04
         0.64029E-04
         0.65554E-04
         0.34799E-04
         0.28124E-04
         0.57937E-04
         0.26230E-04
         0.20658E-04
         0.17298E-04
         0.25369E-04
         0.55098E-04
         0.33124E-04
         0.91793E-03
         0.97910E-03
         0.10611E-02
         0.10577E-02
         0.12095E-02
         0.13970E-02
         0.12830E-02
         0.10211E-02
         0.96671E-03
         0.10981E-02
         0.10536E-02
         0.10239E-02
         0.69588E-03
         0.63577E-03
         0.75595E-03
         0.86006E-03
         0.92843E-03
         0.11103E-02
         0.10281E-02
         0.10952E-02
         0.88873E-03
         0.79820E-03
         0.90088E-03
         0.85905E-03
         0.91708E-03
         0.90801E-03
         0.37674E-04
         0.14029E-04
         0.14309E-04
         0.14111E-04
         0.37033E-04
         0.25458E-04
        -0.25869E-06
         0.21848E-04
         0.22428E-04
         0.17825E-04
        -0.42813E-05
         0.10818E-03
         0.65104E-04
        -0.53266E-05
         0.11350E-03
         0.17025E-04
         0.92321E-05
         0.96188E-05
         0.55203E-05
         0.15418E-05
         0.64661E-04
         0.61318E-04
         0.48767E-04
        -0.91578E-06
        -0.15992E-06
        -0.25280E-05
        -0.14372E-04
        -0.23531E-04
        -0.11864E-04
         0.18459E-05
         0.12897E-04
         0.12881E-05
         0.12648E-04
         0.16334E-04
         0.51837E-04
         0.18559E-04
         0.33018E-04
         0.72017E-04
         0.40653E-04
         0.36801E-04
         0.81842E-04
         0.63525E-04
         0.64889E-04
         0.34132E-04
         0.27767E-04
         0.57755E-04
         0.26050E-04
         0.20473E-04
         0.17094E-04
         0.25160E-04
         0.54894E-04
         0.32948E-04
         0.91710E-03
         0.97853E-03
         0.10610E-02
         0.10576E-02
         0.12090E-02
         0.13960E-02
         0.12819E-02
         0.10204E-02
         0.96604E-03
         0.10973E-02
         0.10530E-02
         0.10235E-02
         0.69537E-03
         0.63551E-03
         0.75593E-03
         0.86000E-03
         0.92835E-03
         0.11105E-02
         0.10279E-02
         0.10949E-02
         0.88833E-03
         0.79788E-03
         0.90001E-03
         0.85770E-03
         0.91591E-03
         0.90694E-03
         0.37386E-04
         0.13852E-04
         0.14241E-04
         0.14191E-04
         0.37090E-04
         0.25552E-04
        -0.29682E-06
         0.21667E-04
         0.22194E-04
         0.17561E-04
        -0.42227E-05
         0.10835E-03
         0.65223E-04
        -0.53708E-05
         0.11397E-03
         0.17110E-04
         0.91879E-05
         0.97442E-05
         0.56045E-05
         0.15920E-05
         0.64781E-04
         0.61433E-04
         0.48793E-04
        -0.92961E-06
        -0.34157E-06
        -0.26178E-05
        -0.14400E-04
        -0.23579E-04
        -0.11813E-04
         0.18487E-05
         0.12584E-04
         0.10835E-05
         0.12380E-04
         0.16313E-04
         0.51965E-04
         0.18559E-04
         0.32992E-04
         0.72407E-04
         0.40999E-04
         0.37066E-04
         0.82123E-04
         0.63697E-04
         0.64997E-04
         0.34108E-04
         0.27723E-04
         0.57735E-04
         0.25895E-04
         0.20101E-04
         0.16647E-04
         0.24896E-04
         0.54792E-04
         0.32932E-04
         0.91672E-03
         0.97838E-03
         0.10612E-02
         0.10578E-02
         0.12088E-02
         0.13953E-02
         0.12811E-02
         0.10201E-02
         0.96586E-03
         0.10971E-02
         0.10530E-02
         0.10239E-02
         0.69556E-03
         0.63573E-03
         0.75639E-03
         0.86077E-03
         0.92913E-03
         0.11112E-02
         0.10279E-02
         0.10949E-02
         0.88812E-03
         0.79763E-03
         0.89929E-03
         0.85662E-03
         0.91504E-03
         0.90620E-03
         0.36921E-04
         0.13534E-04
         0.14065E-04
         0.14157E-04
         0.36997E-04
         0.25530E-04
        -0.52131E-06
         0.21261E-04
         0.21773E-04
         0.17103E-04
        -0.43805E-05
         0.10828E-03
         0.65169E-04
        -0.56546E-05
         0.11417E-03
         0.17047E-04
         0.89714E-05
         0.97117E-05
         0.55492E-05
         0.14891E-05
         0.64757E-04
         0.61401E-04
         0.48754E-04
        -0.10093E-05
        -0.63558E-06
        -0.27794E-05
        -0.14653E-04
        -0.23784E-04
        -0.11862E-04
         0.17814E-05
         0.12137E-04
         0.74761E-06
         0.11979E-04
         0.16169E-04
         0.51904E-04
         0.18423E-04
         0.32836E-04
         0.72548E-04
         0.41115E-04
         0.37136E-04
         0.82227E-04
         0.63765E-04
         0.65025E-04
         0.34024E-04
         0.27532E-04
         0.57486E-04
         0.25534E-04
         0.19546E-04
         0.16028E-04
         0.24472E-04
         0.54541E-04
         0.32792E-04
         0.91593E-03
         0.97782E-03
         0.10611E-02
         0.10577E-02
         0.12083E-02
         0.13943E-02
         0.12799E-02
         0.10195E-02
         0.96528E-03
         0.10963E-02
         0.10526E-02
         0.10239E-02
         0.69549E-03
         0.63568E-03
         0.75657E-03
         0.86132E-03
         0.92972E-03
         0.11115E-02
         0.10275E-02
         0.10944E-02
         0.88756E-03
         0.79707E-03
         0.89824E-03
         0.85527E-03
         0.91389E-03
         0.90515E-03
         0.36811E-04
         0.13416E-04
         0.13998E-04
         0.14105E-04
         0.36899E-04
         0.25446E-04
        -0.62771E-06
         0.21145E-04
         0.21677E-04
         0.17053E-04
        -0.44911E-05
         0.10819E-03
         0.65116E-04
        -0.58421E-05
         0.11434E-03
         0.16994E-04
         0.88976E-05
         0.96410E-05
         0.54991E-05
         0.14071E-05
         0.64707E-04
         0.61325E-04
         0.48697E-04
        -0.10705E-05
        -0.68897E-06
        -0.28718E-05
        -0.14756E-04
        -0.23894E-04
        -0.11957E-04
         0.17189E-05
         0.12004E-04
         0.61249E-06
         0.11839E-04
         0.16092E-04
         0.51862E-04
         0.18348E-04
         0.32739E-04
         0.72661E-04
         0.41215E-04
         0.37140E-04
         0.82228E-04
         0.63745E-04
         0.64994E-04
         0.33953E-04
         0.27421E-04
         0.57382E-04
         0.25423E-04
         0.19413E-04
         0.15855E-04
         0.24296E-04
         0.54370E-04
         0.32637E-04
         0.91508E-03
         0.97719E-03
         0.10610E-02
         0.10576E-02
         0.12077E-02
         0.13932E-02
         0.12787E-02
         0.10187E-02
         0.96456E-03
         0.10954E-02
         0.10521E-02
         0.10240E-02
         0.69536E-03
         0.63549E-03
         0.75662E-03
         0.86173E-03
         0.93015E-03
         0.11119E-02
         0.10272E-02
         0.10941E-02
         0.88729E-03
         0.79683E-03
         0.89740E-03
         0.85395E-03
         0.91270E-03
         0.90403E-03
         0.36940E-04
         0.13496E-04
         0.14066E-04
         0.14140E-04
         0.36952E-04
         0.25451E-04
        -0.52879E-06
         0.21297E-04
         0.21805E-04
         0.17291E-04
        -0.44069E-05
         0.10828E-03
         0.65243E-04
        -0.57900E-05
         0.11475E-03
         0.17132E-04
         0.90134E-05
         0.96943E-05
         0.56188E-05
         0.14949E-05
         0.64828E-04
         0.61419E-04
         0.48810E-04
        -0.96312E-06
        -0.51344E-06
        -0.27720E-05
        -0.14588E-04
        -0.23771E-04
        -0.11847E-04
         0.18422E-05
         0.12113E-04
         0.68535E-06
         0.11886E-04
         0.16127E-04
         0.52018E-04
         0.18422E-04
         0.32800E-04
         0.73022E-04
         0.41526E-04
         0.37344E-04
         0.82449E-04
         0.63925E-04
         0.65130E-04
         0.34068E-04
         0.27504E-04
         0.57481E-04
         0.25515E-04
         0.19515E-04
         0.15925E-04
         0.24327E-04
         0.54380E-04
         0.32592E-04
         0.91466E-03
         0.97698E-03
         0.10611E-02
         0.10577E-02
         0.12075E-02
         0.13925E-02
         0.12779E-02
         0.10184E-02
         0.96415E-03
         0.10948E-02
         0.10519E-02
         0.10243E-02
         0.69552E-03
         0.63560E-03
         0.75698E-03
         0.86246E-03
         0.93094E-03
         0.11126E-02
         0.10272E-02
         0.10942E-02
         0.88734E-03
         0.79695E-03
         0.89693E-03
         0.85296E-03
         0.91183E-03
         0.90323E-03
         0.36952E-04
         0.13489E-04
         0.14060E-04
         0.14110E-04
         0.36910E-04
         0.25398E-04
        -0.52805E-06
         0.21294E-04
         0.21777E-04
         0.17349E-04
        -0.44515E-05
         0.10823E-03
         0.65285E-04
        -0.59178E-05
         0.11492E-03
         0.17110E-04
         0.89742E-05
         0.96194E-05
         0.55788E-05
         0.14291E-05
         0.64813E-04
         0.61369E-04
         0.48785E-04
        -0.10032E-05
        -0.47238E-06
        -0.28107E-05
        -0.14615E-04
        -0.23785E-04
        -0.11860E-04
         0.18304E-05
         0.12086E-04
         0.64192E-06
         0.11803E-04
         0.16072E-04
         0.52034E-04
         0.18386E-04
         0.32771E-04
         0.73156E-04
         0.41684E-04
         0.37411E-04
         0.82517E-04
         0.63967E-04
         0.65108E-04
         0.34064E-04
         0.27483E-04
         0.57460E-04
         0.25471E-04
         0.19458E-04
         0.15841E-04
         0.24231E-04
         0.54283E-04
         0.32474E-04
         0.91391E-03
         0.97646E-03
         0.10609E-02
         0.10576E-02
         0.12071E-02
         0.13915E-02
         0.12766E-02
         0.10176E-02
         0.96356E-03
         0.10940E-02
         0.10514E-02
         0.10244E-02
         0.69536E-03
         0.63552E-03
         0.75715E-03
         0.86299E-03
         0.93158E-03
         0.11130E-02
         0.10270E-02
         0.10939E-02
         0.88701E-03
         0.79674E-03
         0.89624E-03
         0.85181E-03
         0.91074E-03
         0.90217E-03
         0.36920E-04
         0.13428E-04
         0.14025E-04
         0.14099E-04
         0.36835E-04
         0.25360E-04
        -0.56202E-06
         0.21271E-04
         0.21756E-04
         0.17408E-04
        -0.45020E-05
         0.10815E-03
         0.65292E-04
        -0.60318E-05
         0.11508E-03
         0.17068E-04
         0.89482E-05
         0.95730E-05
         0.55279E-05
         0.13773E-05
         0.64787E-04
         0.61320E-04
         0.48744E-04
        -0.10656E-05
        -0.43062E-06
        -0.28831E-05
        -0.14631E-04
        -0.23815E-04
        -0.11876E-04
         0.18303E-05
         0.12037E-04
         0.57262E-06
         0.11750E-04
         0.16068E-04
         0.52004E-04
         0.18325E-04
         0.32715E-04
         0.73295E-04
         0.41835E-04
         0.37484E-04
         0.82613E-04
         0.64016E-04
         0.65091E-04
         0.34036E-04
         0.27440E-04
         0.57427E-04
         0.25430E-04
         0.19409E-04
         0.15760E-04
         0.24142E-04
         0.54193E-04
         0.32386E-04
         0.91308E-03
         0.97588E-03
         0.10608E-02
         0.10576E-02
         0.12066E-02
         0.13904E-02
         0.12753E-02
         0.10169E-02
         0.96298E-03
         0.10932E-02
         0.10510E-02
         0.10244E-02
         0.69517E-03
         0.63541E-03
         0.75729E-03
         0.86347E-03
         0.93216E-03
         0.11135E-02
         0.10268E-02
         0.10937E-02
         0.88672E-03
         0.79653E-03
         0.89551E-03
         0.85060E-03
         0.90961E-03
         0.90110E-03
         0.37000E-04
         0.13453E-04
         0.14056E-04
         0.14151E-04
         0.36862E-04
         0.25395E-04
        -0.49250E-06
         0.21388E-04
         0.21836E-04
         0.17582E-04
        -0.44214E-05
         0.10822E-03
         0.65369E-04
        -0.59888E-05
         0.11547E-03
         0.17158E-04
         0.90087E-05
         0.96260E-05
         0.56035E-05
         0.14461E-05
         0.64888E-04
         0.61403E-04
         0.48824E-04
        -0.99960E-06
        -0.30543E-06
        -0.28199E-05
        -0.14520E-04
        -0.23736E-04
        -0.11755E-04
         0.19620E-05
         0.12128E-04
         0.62131E-06
         0.11810E-04
         0.16146E-04
         0.52120E-04
         0.18371E-04
         0.32735E-04
         0.73637E-04
         0.42147E-04
         0.37725E-04
         0.82844E-04
         0.64172E-04
         0.65207E-04
         0.34114E-04
         0.27493E-04
         0.57492E-04
         0.25491E-04
         0.19474E-04
         0.15797E-04
         0.24161E-04
         0.54204E-04
         0.32382E-04
         0.91260E-03
         0.97562E-03
         0.10610E-02
         0.10577E-02
         0.12062E-02
         0.13895E-02
         0.12744E-02
         0.10165E-02
         0.96262E-03
         0.10927E-02
         0.10508E-02
         0.10246E-02
         0.69525E-03
         0.63552E-03
         0.75765E-03
         0.86415E-03
         0.93288E-03
         0.11141E-02
         0.10267E-02
         0.10936E-02
         0.88670E-03
         0.79660E-03
         0.89500E-03
         0.84958E-03
         0.90875E-03
         0.90032E-03
         0.37005E-04
         0.13405E-04
         0.14023E-04
         0.14116E-04
         0.36784E-04
         0.25327E-04
        -0.53967E-06
         0.21371E-04
         0.21827E-04
         0.17626E-04
        -0.44956E-05
         0.10813E-03
         0.65328E-04
        -0.61330E-05
         0.11567E-03
         0.17130E-04
         0.89686E-05
         0.95466E-05
         0.55390E-05
         0.13701E-05
         0.64822E-04
         0.61314E-04
         0.48743E-04
        -0.10716E-05
        -0.30379E-06
        -0.28834E-05
        -0.14607E-04
        -0.23841E-04
        -0.11821E-04
         0.19365E-05
         0.12084E-04
         0.55564E-06
         0.11713E-04
         0.16096E-04
         0.52092E-04
         0.18302E-04
         0.32649E-04
         0.73765E-04
         0.42252E-04
         0.37746E-04
         0.82856E-04
         0.64140E-04
         0.65154E-04
         0.34036E-04
         0.27411E-04
         0.57430E-04
         0.25428E-04
         0.19394E-04
         0.15700E-04
         0.24067E-04
         0.54095E-04
         0.32257E-04
         0.91178E-03
         0.97504E-03
         0.10608E-02
         0.10575E-02
         0.12056E-02
         0.13883E-02
         0.12732E-02
         0.10159E-02
         0.96195E-03
         0.10918E-02
         0.10502E-02
         0.10245E-02
         0.69505E-03
         0.63534E-03
         0.75775E-03
         0.86458E-03
         0.93329E-03
         0.11144E-02
         0.10265E-02
         0.10934E-02
         0.88639E-03
         0.79645E-03
         0.89432E-03
         0.84835E-03
         0.90759E-03
         0.89922E-03
         0.37035E-04
         0.13389E-04
         0.14020E-04
         0.14115E-04
         0.36753E-04
         0.25296E-04
        -0.53434E-06
         0.21406E-04
         0.21870E-04
         0.17750E-04
        -0.45030E-05
         0.10811E-03
         0.65368E-04
        -0.61930E-05
         0.11593E-03
         0.17149E-04
         0.89953E-05
         0.95238E-05
         0.55410E-05
         0.13564E-05
         0.64826E-04
         0.61300E-04
         0.48735E-04
        -0.10852E-05
        -0.23070E-06
        -0.29023E-05
        -0.14578E-04
        -0.23856E-04
        -0.11825E-04
         0.19563E-05
         0.12071E-04
         0.52801E-06
         0.11665E-04
         0.16092E-04
         0.52126E-04
         0.18276E-04
         0.32617E-04
         0.73963E-04
         0.42411E-04
         0.37832E-04
         0.82974E-04
         0.64212E-04
         0.65177E-04
         0.34041E-04
         0.27401E-04
         0.57433E-04
         0.25416E-04
         0.19366E-04
         0.15645E-04
         0.24012E-04
         0.54039E-04
         0.32178E-04
         0.91109E-03
         0.97459E-03
         0.10607E-02
         0.10575E-02
         0.12052E-02
         0.13874E-02
         0.12721E-02
         0.10152E-02
         0.96134E-03
         0.10910E-02
         0.10499E-02
         0.10246E-02
         0.69496E-03
         0.63526E-03
         0.75791E-03
         0.86511E-03
         0.93391E-03
         0.11149E-02
         0.10263E-02
         0.10932E-02
         0.88617E-03
         0.79633E-03
         0.89369E-03
         0.84721E-03
         0.90651E-03
         0.89821E-03
         0.37210E-04
         0.13541E-04
         0.14157E-04
         0.14227E-04
         0.36884E-04
         0.25398E-04
        -0.33997E-06
         0.21610E-04
         0.22015E-04
         0.18006E-04
        -0.43155E-05
         0.10832E-03
         0.65606E-04
        -0.60715E-05
         0.11639E-03
         0.17309E-04
         0.91457E-05
         0.96297E-05
         0.56959E-05
         0.15067E-05
         0.65025E-04
         0.61464E-04
         0.48913E-04
        -0.94206E-06
         0.79404E-08
        -0.27609E-05
        -0.14368E-04
        -0.23644E-04
        -0.11603E-04
         0.21716E-05
         0.12233E-04
         0.67004E-06
         0.11767E-04
         0.16193E-04
         0.52349E-04
         0.18420E-04
         0.32760E-04
         0.74355E-04
         0.42807E-04
         0.38140E-04
         0.83273E-04
         0.64462E-04
         0.65362E-04
         0.34236E-04
         0.27580E-04
         0.57627E-04
         0.25584E-04
         0.19521E-04
         0.15747E-04
         0.24082E-04
         0.54111E-04
         0.32219E-04
         0.91076E-03
         0.97447E-03
         0.10610E-02
         0.10577E-02
         0.12051E-02
         0.13868E-02
         0.12713E-02
         0.10148E-02
         0.96109E-03
         0.10906E-02
         0.10498E-02
         0.10250E-02
         0.69511E-03
         0.63547E-03
         0.75841E-03
         0.86597E-03
         0.93488E-03
         0.11157E-02
         0.10264E-02
         0.10933E-02
         0.88627E-03
         0.79645E-03
         0.89327E-03
         0.84635E-03
         0.90577E-03
         0.89754E-03
         0.37187E-04
         0.13497E-04
         0.14127E-04
         0.14180E-04
         0.36793E-04
         0.25329E-04
        -0.38005E-06
         0.21576E-04
         0.21986E-04
         0.18030E-04
        -0.43879E-05
         0.10825E-03
         0.65620E-04
        -0.62194E-05
         0.11656E-03
         0.17265E-04
         0.90893E-05
         0.95637E-05
         0.56079E-05
         0.14154E-05
         0.64988E-04
         0.61383E-04
         0.48868E-04
        -0.10288E-05
        -0.37177E-08
        -0.28504E-05
        -0.14445E-04
        -0.23715E-04
        -0.11602E-04
         0.21632E-05
         0.12206E-04
         0.59606E-06
         0.11696E-04
         0.16131E-04
         0.52302E-04
         0.18357E-04
         0.32714E-04
         0.74469E-04
         0.42937E-04
         0.38221E-04
         0.83328E-04
         0.64456E-04
         0.65295E-04
         0.34181E-04
         0.27510E-04
         0.57573E-04
         0.25534E-04
         0.19478E-04
         0.15662E-04
         0.23962E-04
         0.53991E-04
         0.32092E-04
         0.90987E-03
         0.97383E-03
         0.10608E-02
         0.10576E-02
         0.12047E-02
         0.13858E-02
         0.12700E-02
         0.10141E-02
         0.96041E-03
         0.10897E-02
         0.10492E-02
         0.10249E-02
         0.69488E-03
         0.63535E-03
         0.75860E-03
         0.86653E-03
         0.93544E-03
         0.11161E-02
         0.10262E-02
         0.10931E-02
         0.88599E-03
         0.79623E-03
         0.89249E-03
         0.84514E-03
         0.90468E-03
         0.89644E-03
         0.37126E-04
         0.13386E-04
         0.14028E-04
         0.14113E-04
         0.36664E-04
         0.25212E-04
        -0.45719E-06
         0.21529E-04
         0.21926E-04
         0.17973E-04
        -0.44767E-05
         0.10814E-03
         0.65579E-04
        -0.63694E-05
         0.11670E-03
         0.17203E-04
         0.89912E-05
         0.94884E-05
         0.55374E-05
         0.13675E-05
         0.64938E-04
         0.61286E-04
         0.48811E-04
        -0.11032E-05
        -0.87798E-07
        -0.29383E-05
        -0.14634E-04
        -0.23831E-04
        -0.11345E-04
         0.23251E-05
         0.12142E-04
         0.49322E-06
         0.11626E-04
         0.16091E-04
         0.52242E-04
         0.18255E-04
         0.32613E-04
         0.74513E-04
         0.43068E-04
         0.38515E-04
         0.83450E-04
         0.64442E-04
         0.65193E-04
         0.34122E-04
         0.27418E-04
         0.57477E-04
         0.25436E-04
         0.19399E-04
         0.15567E-04
         0.23857E-04
         0.53880E-04
         0.31953E-04
         0.90905E-03
         0.97324E-03
         0.10606E-02
         0.10575E-02
         0.12041E-02
         0.13846E-02
         0.12686E-02
         0.10133E-02
         0.95972E-03
         0.10890E-02
         0.10485E-02
         0.10245E-02
         0.69458E-03
         0.63519E-03
         0.75870E-03
         0.86699E-03
         0.93595E-03
         0.11165E-02
         0.10259E-02
         0.10927E-02
         0.88569E-03
         0.79603E-03
         0.89170E-03
         0.84391E-03
         0.90350E-03
         0.89530E-03
         0.37293E-04
         0.13526E-04
         0.14176E-04
         0.14246E-04
         0.36804E-04
         0.25323E-04
        -0.28455E-06
         0.21730E-04
         0.22039E-04
         0.18070E-04
        -0.43073E-05
         0.10829E-03
         0.65769E-04
        -0.62578E-05
         0.11714E-03
         0.17365E-04
         0.91021E-05
         0.95873E-05
         0.57151E-05
         0.16201E-05
         0.65106E-04
         0.61429E-04
         0.48958E-04
        -0.94884E-06
         0.32496E-07
        -0.27841E-05
        -0.14660E-04
        -0.23699E-04
        -0.10586E-04
         0.29195E-05
         0.12284E-04
         0.63765E-06
         0.11725E-04
         0.16223E-04
         0.52478E-04
         0.18417E-04
         0.32749E-04
         0.74789E-04
         0.43490E-04
         0.39255E-04
         0.83894E-04
         0.64685E-04
         0.65311E-04
         0.34293E-04
         0.27594E-04
         0.57690E-04
         0.25611E-04
         0.19541E-04
         0.15681E-04
         0.23968E-04
         0.53992E-04
         0.32014E-04
         0.90872E-03
         0.97314E-03
         0.10609E-02
         0.10578E-02
         0.12039E-02
         0.13838E-02
         0.12678E-02
         0.10130E-02
         0.95953E-03
         0.10888E-02
         0.10480E-02
         0.10242E-02
         0.69458E-03
         0.63536E-03
         0.75909E-03
         0.86771E-03
         0.93677E-03
         0.11173E-02
         0.10261E-02
         0.10929E-02
         0.88581E-03
         0.79624E-03
         0.89139E-03
         0.84309E-03
         0.90274E-03
         0.89461E-03
         0.36837E-04
         0.13012E-04
         0.13686E-04
         0.13782E-04
         0.36190E-04
         0.24749E-04
        -0.83238E-06
         0.21192E-04
         0.21538E-04
         0.17481E-04
        -0.49353E-05
         0.10756E-03
         0.65142E-04
        -0.69837E-05
         0.11665E-03
         0.16899E-04
         0.85477E-05
         0.90981E-05
         0.51582E-05
         0.10771E-05
         0.64490E-04
         0.60796E-04
         0.48348E-04
        -0.14942E-05
        -0.56654E-06
        -0.33022E-05
        -0.15438E-04
        -0.24349E-04
        -0.10859E-04
         0.25663E-05
         0.11810E-04
         0.97920E-07
         0.11206E-04
         0.15699E-04
         0.51849E-04
         0.17802E-04
         0.32107E-04
         0.74196E-04
         0.43042E-04
         0.38975E-04
         0.83381E-04
         0.64072E-04
         0.64657E-04
         0.33707E-04
         0.26962E-04
         0.56985E-04
         0.24991E-04
         0.18972E-04
         0.15090E-04
         0.23313E-04
         0.53248E-04
         0.31333E-04
         0.90682E-03
         0.97150E-03
         0.10597E-02
         0.10565E-02
         0.12023E-02
         0.13817E-02
         0.12655E-02
         0.10112E-02
         0.95782E-03
         0.10869E-02
         0.10461E-02
         0.10227E-02
         0.69338E-03
         0.63434E-03
         0.75827E-03
         0.86720E-03
         0.93630E-03
         0.11165E-02
         0.10246E-02
         0.10915E-02
         0.88450E-03
         0.79506E-03
         0.88963E-03
         0.84082E-03
         0.90062E-03
         0.89256E-03
         0.37155E-04
         0.13047E-04
         0.13789E-04
         0.13978E-04
         0.36363E-04
         0.24916E-04
        -0.73462E-06
         0.21581E-04
         0.21932E-04
         0.18122E-04
        -0.47558E-05
         0.10758E-03
         0.65023E-04
        -0.66269E-05
         0.11724E-03
         0.17315E-04
         0.89489E-05
         0.93516E-05
         0.54729E-05
         0.13874E-05
         0.64803E-04
         0.61010E-04
         0.48806E-04
        -0.10855E-05
         0.10941E-06
        -0.29224E-05
        -0.14768E-04
        -0.23605E-04
        -0.10222E-04
         0.31641E-05
         0.12135E-04
         0.33162E-06
         0.11335E-04
         0.15629E-04
         0.52006E-04
         0.17752E-04
         0.31919E-04
         0.74858E-04
         0.43762E-04
         0.39520E-04
         0.83776E-04
         0.64521E-04
         0.65092E-04
         0.34144E-04
         0.27200E-04
         0.57116E-04
         0.25099E-04
         0.19224E-04
         0.15253E-04
         0.23280E-04
         0.53251E-04
         0.31281E-04
         0.90662E-03
         0.97166E-03
         0.10598E-02
         0.10563E-02
         0.12013E-02
         0.13804E-02
         0.12650E-02
         0.10112E-02
         0.95779E-03
         0.10864E-02
         0.10459E-02
         0.10232E-02
         0.69385E-03
         0.63455E-03
         0.75898E-03
         0.86846E-03
         0.93753E-03
         0.11175E-02
         0.10247E-02
         0.10914E-02
         0.88460E-03
         0.79535E-03
         0.88958E-03
         0.84042E-03
         0.90018E-03
         0.89220E-03
         0.19561E-02
         0.20145E-02
         0.19998E-02
         0.18263E-02
         0.23336E-02
         0.21691E-02
         0.21656E-02
         0.22154E-02
         0.19079E-02
         0.22184E-02
         0.24077E-02
         0.28949E-02
         0.25654E-02
         0.24843E-02
         0.29857E-02
         0.18610E-02
         0.19926E-02
         0.17426E-02
         0.20733E-02
         0.21644E-02
         0.23641E-02
         0.23785E-02
         0.22557E-02
         0.19775E-02
         0.22075E-02
         0.18925E-02
         0.24519E-02
         0.23679E-02
         0.23833E-02
         0.22865E-02
         0.18755E-02
         0.19608E-02
         0.18357E-02
         0.19201E-02
         0.26070E-02
         0.23082E-02
         0.23256E-02
         0.27979E-02
         0.26653E-02
         0.26202E-02
         0.27402E-02
         0.25754E-02
         0.24452E-02
         0.21767E-02
         0.22626E-02
         0.26277E-02
         0.23518E-02
         0.21860E-02
         0.21303E-02
         0.22211E-02
         0.24883E-02
         0.22476E-02
         0.53765E-02
         0.53342E-02
         0.55089E-02
         0.53540E-02
         0.56219E-02
         0.60073E-02
         0.59170E-02
         0.56178E-02
         0.56061E-02
         0.58647E-02
         0.56852E-02
         0.54020E-02
         0.45928E-02
         0.43122E-02
         0.44949E-02
         0.46953E-02
         0.48109E-02
         0.53293E-02
         0.55324E-02
         0.56081E-02
         0.50334E-02
         0.48037E-02
         0.50414E-02
         0.49500E-02
         0.49743E-02
         0.49691E-02
         0.20633E-01
         0.21569E-01
         0.21271E-01
         0.19485E-01
         0.23793E-01
         0.22395E-01
         0.23259E-01
         0.23445E-01
         0.20192E-01
         0.23432E-01
         0.25446E-01
         0.28491E-01
         0.25879E-01
         0.26161E-01
         0.29470E-01
         0.19802E-01
         0.21221E-01
         0.18630E-01
         0.21888E-01
         0.22980E-01
         0.23782E-01
         0.24277E-01
         0.22855E-01
         0.21085E-01
         0.23687E-01
         0.20377E-01
         0.26070E-01
         0.25638E-01
         0.25750E-01
         0.24492E-01
         0.20007E-01
         0.20997E-01
         0.19633E-01
         0.20494E-01
         0.25978E-01
         0.23892E-01
         0.23975E-01
         0.28528E-01
         0.27789E-01
         0.27460E-01
         0.27971E-01
         0.26597E-01
         0.25205E-01
         0.22322E-01
         0.23203E-01
         0.25974E-01
         0.24068E-01
         0.22682E-01
         0.22248E-01
         0.23036E-01
         0.24949E-01
         0.23103E-01
         0.41583E-01
         0.40641E-01
         0.41578E-01
         0.40344E-01
         0.41659E-01
         0.43910E-01
         0.44446E-01
         0.44009E-01
         0.44223E-01
         0.45354E-01
         0.44074E-01
         0.41562E-01
         0.37071E-01
         0.35054E-01
         0.35310E-01
         0.35876E-01
         0.36291E-01
         0.39398E-01
         0.41893E-01
         0.42135E-01
         0.38925E-01
         0.37681E-01
         0.38987E-01
         0.38663E-01
         0.38316E-01
         0.38186E-01
  
SCALARS                      strain_yz  double 1
LOOKUP_TABLE default
         0.83521E-03
        -0.27248E-03
        -0.71678E-03
        -0.37665E-03
        -0.11572E-09
        -0.31895E-10
        -0.14341E-09
        -0.10939E-09
        -0.26518E-02
         0.17558E-02
        -0.21343E-09
        -0.18790E-09
        -0.22601E-02
        -0.11479E-03
         0.15274E-09
        -0.97927E-11
         0.82531E-03
         0.28976E-02
         0.22472E-11
         0.22993E-10
        -0.14682E-02
        -0.54211E-02
        -0.58092E-02
         0.35013E-09
         0.60467E-09
         0.50542E-09
        -0.53473E-03
        -0.53410E-02
         0.25186E-09
         0.48860E-09
         0.94224E-03
         0.80090E-03
        -0.71398E-03
         0.13057E-09
         0.13329E-09
        -0.27672E-11
         0.27602E-02
         0.25727E-02
         0.24027E-09
         0.18694E-09
         0.26785E-02
         0.16609E-02
         0.18158E-09
         0.16594E-09
         0.24811E-02
         0.86318E-03
        -0.60234E-11
         0.93169E-10
         0.21494E-02
         0.43866E-10
         0.22871E-03
        -0.35529E-11
         0.12241E-03
         0.16968E-09
        -0.80382E-03
         0.98707E-10
        -0.26220E-02
         0.48074E-03
         0.26778E-11
        -0.54350E-11
         0.11421E-02
         0.41277E-02
        -0.36485E-10
        -0.13647E-09
         0.69370E-03
        -0.73646E-10
         0.29450E-02
        -0.89718E-10
        -0.23194E-02
        -0.12246E-02
        -0.11087E-10
         0.14639E-09
        -0.42506E-02
         0.32146E-09
        -0.67067E-02
         0.31125E-09
        -0.67319E-02
         0.23627E-09
        -0.55605E-02
         0.19804E-09
        -0.82769E-02
        -0.64477E-02
         0.12704E-09
        -0.28167E-10
        -0.92816E-03
        -0.31518E-11
         0.38755E-02
        -0.19744E-09
         0.90550E-02
        -0.34564E-09
         0.12533E-01
         0.77264E-02
        -0.51265E-09
        -0.41494E-09
         0.54700E-02
        -0.32210E-09
         0.49310E-02
        -0.32953E-09
         0.47784E-02
        -0.35431E-09
         0.79399E-02
         0.66264E-02
        -0.32950E-09
        -0.15788E-09
        -0.52009E-02
         0.19918E-02
         0.11586E-09
        -0.14397E-09
        -0.12758E-01
         0.38543E-09
        -0.18513E-01
         0.56378E-09
        -0.22366E-01
         0.69628E-09
        -0.25437E-01
         0.69065E-09
        -0.29016E-01
         0.54656E-09
        -0.29079E-01
         0.42297E-09
        -0.27325E-01
         0.39340E-09
        -0.24330E-01
         0.37429E-09
        -0.18129E-01
         0.23920E-09
        -0.12720E-01
         0.78974E-10
        -0.66345E-02
         0.51030E-10
         0.48758E-03
         0.76702E-10
         0.66002E-02
         0.39616E-10
         0.11995E-01
        -0.11980E-09
         0.18555E-01
        -0.33817E-09
         0.20215E-01
        -0.52806E-09
         0.21591E-01
        -0.69227E-09
         0.27354E-01
        -0.69167E-09
         0.28709E-01
        -0.60380E-09
         0.26707E-01
        -0.58846E-09
         0.21476E-01
        -0.59213E-09
         0.14602E-01
        -0.46824E-09
         0.10432E-01
        -0.27689E-09
         0.75847E-02
        -0.21409E-09
        -0.54785E-02
        -0.28708E-02
        -0.25017E-02
        -0.76381E-03
        -0.25982E-02
        -0.27218E-02
        -0.29223E-03
        -0.44498E-02
        -0.37369E-02
        -0.55574E-02
         0.29813E-02
         0.12758E-01
         0.86494E-02
         0.10025E-02
         0.12847E-01
         0.14441E-02
        -0.12835E-02
         0.81897E-03
         0.10957E-02
        -0.82470E-03
         0.76204E-03
         0.62582E-03
        -0.21184E-02
         0.17818E-03
        -0.37922E-02
         0.56092E-03
         0.29401E-04
         0.51349E-03
         0.62855E-03
        -0.29938E-02
         0.14118E-02
        -0.15562E-02
         0.10268E-02
        -0.25276E-03
         0.43187E-03
         0.23164E-02
         0.51681E-02
         0.11240E-01
         0.10278E-01
         0.87666E-02
         0.83109E-02
         0.20304E-02
        -0.16334E-02
        -0.44906E-02
        -0.74843E-02
        -0.12404E-01
        -0.80387E-02
        -0.56853E-02
        -0.60718E-02
        -0.65204E-02
        -0.77300E-02
        -0.34822E-02
         0.68480E-02
        -0.81404E-02
         0.22093E-01
         0.30446E-01
         0.38849E-01
         0.46438E-01
         0.46976E-01
         0.42593E-01
         0.40489E-01
         0.38297E-01
         0.24802E-01
         0.10715E-01
         0.46823E-02
         0.20587E-02
        -0.31400E-02
        -0.12374E-01
        -0.22749E-01
        -0.29860E-01
        -0.36779E-01
        -0.42008E-01
        -0.39322E-01
        -0.37167E-01
        -0.34616E-01
        -0.24212E-01
        -0.14024E-01
        -0.12274E-01
        -0.72039E-02
        -0.45436E-02
        -0.42045E-02
        -0.99727E-03
        -0.54609E-02
        -0.24560E-02
        -0.19476E-02
        -0.68086E-02
        -0.44649E-02
        -0.64037E-02
         0.33856E-02
         0.14653E-01
         0.86807E-02
         0.12475E-02
         0.14436E-01
         0.27320E-02
        -0.82791E-03
         0.79042E-03
         0.35626E-02
         0.68879E-03
         0.30707E-02
         0.21802E-02
        -0.12640E-02
         0.10668E-02
        -0.43122E-02
         0.10666E-02
         0.26765E-03
         0.49756E-03
        -0.79477E-03
        -0.43016E-02
         0.29443E-02
         0.77557E-03
         0.19030E-02
         0.16524E-02
        -0.78788E-03
         0.24017E-02
         0.45855E-02
         0.10972E-01
         0.96752E-02
         0.85265E-02
         0.62640E-02
        -0.15478E-02
        -0.31882E-02
        -0.39824E-02
        -0.51280E-02
        -0.10475E-01
        -0.60954E-02
        -0.40308E-02
        -0.50660E-02
        -0.59806E-02
        -0.61968E-02
        -0.46495E-03
         0.77254E-02
        -0.11051E-01
         0.25716E-01
         0.33233E-01
         0.42893E-01
         0.51471E-01
         0.50416E-01
         0.44028E-01
         0.42194E-01
         0.41746E-01
         0.26215E-01
         0.86403E-02
         0.34428E-02
         0.29500E-02
        -0.13663E-02
        -0.11591E-01
        -0.23220E-01
        -0.32317E-01
        -0.42059E-01
        -0.46637E-01
        -0.40954E-01
        -0.38718E-01
        -0.38602E-01
        -0.27180E-01
        -0.14120E-01
        -0.13369E-01
        -0.72084E-02
        -0.45444E-02
        -0.42066E-02
        -0.10046E-02
        -0.54615E-02
        -0.24580E-02
        -0.19500E-02
        -0.68201E-02
        -0.44729E-02
        -0.64276E-02
         0.33876E-02
         0.14651E-01
         0.86829E-02
         0.12475E-02
         0.14455E-01
         0.27321E-02
        -0.83544E-03
         0.78923E-03
         0.35651E-02
         0.68494E-03
         0.30783E-02
         0.21823E-02
        -0.12643E-02
         0.10663E-02
        -0.43318E-02
         0.10647E-02
         0.27081E-03
         0.50034E-03
        -0.78953E-03
        -0.43107E-02
         0.29448E-02
         0.77388E-03
         0.19073E-02
         0.16551E-02
        -0.78049E-03
         0.24033E-02
         0.45853E-02
         0.10988E-01
         0.96961E-02
         0.85364E-02
         0.62688E-02
        -0.15437E-02
        -0.31914E-02
        -0.39844E-02
        -0.51282E-02
        -0.10475E-01
        -0.60960E-02
        -0.40284E-02
        -0.50592E-02
        -0.59726E-02
        -0.61942E-02
        -0.45791E-03
         0.77182E-02
        -0.11051E-01
         0.25721E-01
         0.33234E-01
         0.42888E-01
         0.51453E-01
         0.50395E-01
         0.44015E-01
         0.42185E-01
         0.41735E-01
         0.26210E-01
         0.86443E-02
         0.34426E-02
         0.29561E-02
        -0.13552E-02
        -0.11597E-01
        -0.23230E-01
        -0.32324E-01
        -0.42058E-01
        -0.46634E-01
        -0.40951E-01
        -0.38717E-01
        -0.38593E-01
        -0.27161E-01
        -0.14104E-01
        -0.13352E-01
        -0.72129E-02
        -0.45453E-02
        -0.42087E-02
        -0.10120E-02
        -0.54621E-02
        -0.24600E-02
        -0.19525E-02
        -0.68316E-02
        -0.44810E-02
        -0.64514E-02
         0.33897E-02
         0.14650E-01
         0.86850E-02
         0.12474E-02
         0.14473E-01
         0.27323E-02
        -0.84305E-03
         0.78804E-03
         0.35675E-02
         0.68104E-03
         0.30860E-02
         0.21843E-02
        -0.12647E-02
         0.10657E-02
        -0.43511E-02
         0.10625E-02
         0.27418E-03
         0.50330E-03
        -0.78380E-03
        -0.43195E-02
         0.29453E-02
         0.77183E-03
         0.19115E-02
         0.16577E-02
        -0.77304E-03
         0.24049E-02
         0.45850E-02
         0.11005E-01
         0.97170E-02
         0.85463E-02
         0.62739E-02
        -0.15391E-02
        -0.31945E-02
        -0.39870E-02
        -0.51288E-02
        -0.10476E-01
        -0.60966E-02
        -0.40259E-02
        -0.50525E-02
        -0.59645E-02
        -0.61916E-02
        -0.45090E-03
         0.77110E-02
        -0.11052E-01
         0.25726E-01
         0.33234E-01
         0.42882E-01
         0.51436E-01
         0.50374E-01
         0.44002E-01
         0.42176E-01
         0.41723E-01
         0.26204E-01
         0.86486E-02
         0.34424E-02
         0.29622E-02
        -0.13440E-02
        -0.11603E-01
        -0.23241E-01
        -0.32332E-01
        -0.42057E-01
        -0.46631E-01
        -0.40948E-01
        -0.38715E-01
        -0.38583E-01
        -0.27141E-01
        -0.14088E-01
        -0.13334E-01
        -0.72174E-02
        -0.45461E-02
        -0.42108E-02
        -0.10194E-02
        -0.54627E-02
        -0.24620E-02
        -0.19550E-02
        -0.68430E-02
        -0.44891E-02
        -0.64749E-02
         0.33917E-02
         0.14649E-01
         0.86874E-02
         0.12474E-02
         0.14492E-01
         0.27325E-02
        -0.85080E-03
         0.78681E-03
         0.35702E-02
         0.67690E-03
         0.30938E-02
         0.21862E-02
        -0.12658E-02
         0.10646E-02
        -0.43698E-02
         0.10596E-02
         0.27766E-03
         0.50721E-03
        -0.77671E-03
        -0.43275E-02
         0.29455E-02
         0.76905E-03
         0.19157E-02
         0.16604E-02
        -0.76564E-03
         0.24065E-02
         0.45847E-02
         0.11022E-01
         0.97383E-02
         0.85570E-02
         0.62797E-02
        -0.15332E-02
        -0.31970E-02
        -0.39909E-02
        -0.51303E-02
        -0.10476E-01
        -0.60976E-02
        -0.40234E-02
        -0.50458E-02
        -0.59565E-02
        -0.61888E-02
        -0.44391E-03
         0.77038E-02
        -0.11053E-01
         0.25731E-01
         0.33234E-01
         0.42877E-01
         0.51419E-01
         0.50353E-01
         0.43988E-01
         0.42167E-01
         0.41712E-01
         0.26199E-01
         0.86537E-02
         0.34424E-02
         0.29681E-02
        -0.13327E-02
        -0.11610E-01
        -0.23254E-01
        -0.32340E-01
        -0.42057E-01
        -0.46628E-01
        -0.40945E-01
        -0.38714E-01
        -0.38573E-01
        -0.27122E-01
        -0.14073E-01
        -0.13317E-01
        -0.72219E-02
        -0.45469E-02
        -0.42129E-02
        -0.10268E-02
        -0.54634E-02
        -0.24639E-02
        -0.19574E-02
        -0.68543E-02
        -0.44971E-02
        -0.64981E-02
         0.33937E-02
         0.14648E-01
         0.86896E-02
         0.12475E-02
         0.14510E-01
         0.27328E-02
        -0.85866E-03
         0.78557E-03
         0.35729E-02
         0.67253E-03
         0.31018E-02
         0.21878E-02
        -0.12675E-02
         0.10631E-02
        -0.43877E-02
         0.10559E-02
         0.28154E-03
         0.51201E-03
        -0.76818E-03
        -0.43346E-02
         0.29455E-02
         0.76542E-03
         0.19199E-02
         0.16631E-02
        -0.75817E-03
         0.24081E-02
         0.45845E-02
         0.11040E-01
         0.97600E-02
         0.85683E-02
         0.62863E-02
        -0.15260E-02
        -0.31990E-02
        -0.39962E-02
        -0.51329E-02
        -0.10477E-01
        -0.60990E-02
        -0.40213E-02
        -0.50392E-02
        -0.59484E-02
        -0.61862E-02
        -0.43687E-03
         0.76966E-02
        -0.11053E-01
         0.25735E-01
         0.33235E-01
         0.42872E-01
         0.51401E-01
         0.50332E-01
         0.43975E-01
         0.42158E-01
         0.41700E-01
         0.26195E-01
         0.86597E-02
         0.34428E-02
         0.29740E-02
        -0.13214E-02
        -0.11617E-01
        -0.23268E-01
        -0.32350E-01
        -0.42056E-01
        -0.46625E-01
        -0.40942E-01
        -0.38712E-01
        -0.38563E-01
        -0.27103E-01
        -0.14058E-01
        -0.13299E-01
        -0.72261E-02
        -0.45475E-02
        -0.42150E-02
        -0.10343E-02
        -0.54640E-02
        -0.24659E-02
        -0.19596E-02
        -0.68652E-02
        -0.45053E-02
        -0.65207E-02
         0.33960E-02
         0.14646E-01
         0.86919E-02
         0.12477E-02
         0.14528E-01
         0.27331E-02
        -0.86669E-03
         0.78437E-03
         0.35756E-02
         0.66807E-03
         0.31097E-02
         0.21894E-02
        -0.12694E-02
         0.10615E-02
        -0.44053E-02
         0.10520E-02
         0.28570E-03
         0.51730E-03
        -0.75906E-03
        -0.43413E-02
         0.29453E-02
         0.76138E-03
         0.19242E-02
         0.16659E-02
        -0.75067E-03
         0.24098E-02
         0.45845E-02
         0.11057E-01
         0.97820E-02
         0.85800E-02
         0.62932E-02
        -0.15184E-02
        -0.32006E-02
        -0.40020E-02
        -0.51360E-02
        -0.10479E-01
        -0.61006E-02
        -0.40195E-02
        -0.50329E-02
        -0.59405E-02
        -0.61836E-02
        -0.42983E-03
         0.76893E-02
        -0.11054E-01
         0.25740E-01
         0.33235E-01
         0.42867E-01
         0.51383E-01
         0.50310E-01
         0.43962E-01
         0.42150E-01
         0.41689E-01
         0.26191E-01
         0.86661E-02
         0.34432E-02
         0.29799E-02
        -0.13101E-02
        -0.11625E-01
        -0.23283E-01
        -0.32360E-01
        -0.42055E-01
        -0.46622E-01
        -0.40940E-01
        -0.38711E-01
        -0.38553E-01
        -0.27083E-01
        -0.14042E-01
        -0.13281E-01
        -0.72300E-02
        -0.45473E-02
        -0.42171E-02
        -0.10419E-02
        -0.54647E-02
        -0.24679E-02
        -0.19613E-02
        -0.68750E-02
        -0.45136E-02
        -0.65423E-02
         0.33988E-02
         0.14646E-01
         0.86947E-02
         0.12486E-02
         0.14547E-01
         0.27336E-02
        -0.87492E-03
         0.78316E-03
         0.35784E-02
         0.66361E-03
         0.31177E-02
         0.21910E-02
        -0.12714E-02
         0.10599E-02
        -0.44224E-02
         0.10481E-02
         0.29062E-03
         0.52294E-03
        -0.74978E-03
        -0.43478E-02
         0.29451E-02
         0.75706E-03
         0.19286E-02
         0.16689E-02
        -0.74314E-03
         0.24116E-02
         0.45846E-02
         0.11074E-01
         0.98042E-02
         0.85917E-02
         0.63003E-02
        -0.15107E-02
        -0.32022E-02
        -0.40078E-02
        -0.51394E-02
        -0.10481E-01
        -0.61030E-02
        -0.40188E-02
        -0.50277E-02
        -0.59329E-02
        -0.61810E-02
        -0.42271E-03
         0.76821E-02
        -0.11054E-01
         0.25745E-01
         0.33235E-01
         0.42862E-01
         0.51366E-01
         0.50289E-01
         0.43948E-01
         0.42141E-01
         0.41677E-01
         0.26187E-01
         0.86725E-02
         0.34437E-02
         0.29857E-02
        -0.12988E-02
        -0.11632E-01
        -0.23298E-01
        -0.32370E-01
        -0.42054E-01
        -0.46619E-01
        -0.40937E-01
        -0.38710E-01
        -0.38543E-01
        -0.27064E-01
        -0.14027E-01
        -0.13264E-01
        -0.72337E-02
        -0.45471E-02
        -0.42191E-02
        -0.10497E-02
        -0.54655E-02
        -0.24699E-02
        -0.19626E-02
        -0.68843E-02
        -0.45220E-02
        -0.65634E-02
         0.34019E-02
         0.14645E-01
         0.86976E-02
         0.12498E-02
         0.14566E-01
         0.27341E-02
        -0.88324E-03
         0.78191E-03
         0.35812E-02
         0.65915E-03
         0.31257E-02
         0.21926E-02
        -0.12732E-02
         0.10583E-02
        -0.44394E-02
         0.10442E-02
         0.29572E-03
         0.52872E-03
        -0.74045E-03
        -0.43543E-02
         0.29448E-02
         0.75255E-03
         0.19331E-02
         0.16720E-02
        -0.73554E-03
         0.24136E-02
         0.45850E-02
         0.11092E-01
         0.98264E-02
         0.86035E-02
         0.63074E-02
        -0.15029E-02
        -0.32038E-02
        -0.40137E-02
        -0.51429E-02
        -0.10484E-01
        -0.61059E-02
        -0.40185E-02
        -0.50228E-02
        -0.59254E-02
        -0.61785E-02
        -0.41559E-03
         0.76748E-02
        -0.11055E-01
         0.25749E-01
         0.33235E-01
         0.42856E-01
         0.51348E-01
         0.50267E-01
         0.43935E-01
         0.42132E-01
         0.41665E-01
         0.26182E-01
         0.86789E-02
         0.34442E-02
         0.29917E-02
        -0.12875E-02
        -0.11640E-01
        -0.23313E-01
        -0.32380E-01
        -0.42053E-01
        -0.46616E-01
        -0.40935E-01
        -0.38709E-01
        -0.38533E-01
        -0.27045E-01
        -0.14011E-01
        -0.13246E-01
        -0.72374E-02
        -0.45468E-02
        -0.42211E-02
        -0.10575E-02
        -0.54661E-02
        -0.24718E-02
        -0.19639E-02
        -0.68936E-02
        -0.45304E-02
        -0.65844E-02
         0.34048E-02
         0.14644E-01
         0.87005E-02
         0.12510E-02
         0.14585E-01
         0.27346E-02
        -0.89162E-03
         0.78066E-03
         0.35839E-02
         0.65465E-03
         0.31337E-02
         0.21943E-02
        -0.12751E-02
         0.10568E-02
        -0.44563E-02
         0.10403E-02
         0.30095E-03
         0.53444E-03
        -0.73115E-03
        -0.43608E-02
         0.29444E-02
         0.74809E-03
         0.19375E-02
         0.16750E-02
        -0.72790E-03
         0.24155E-02
         0.45852E-02
         0.11110E-01
         0.98487E-02
         0.86151E-02
         0.63145E-02
        -0.14952E-02
        -0.32053E-02
        -0.40196E-02
        -0.51465E-02
        -0.10486E-01
        -0.61085E-02
        -0.40183E-02
        -0.50181E-02
        -0.59181E-02
        -0.61761E-02
        -0.40844E-03
         0.76676E-02
        -0.11056E-01
         0.25754E-01
         0.33236E-01
         0.42851E-01
         0.51331E-01
         0.50246E-01
         0.43922E-01
         0.42123E-01
         0.41653E-01
         0.26178E-01
         0.86852E-02
         0.34448E-02
         0.29978E-02
        -0.12762E-02
        -0.11648E-01
        -0.23328E-01
        -0.32390E-01
        -0.42052E-01
        -0.46613E-01
        -0.40934E-01
        -0.38708E-01
        -0.38523E-01
        -0.27025E-01
        -0.13996E-01
        -0.13229E-01
        -0.72410E-02
        -0.45464E-02
        -0.42231E-02
        -0.10652E-02
        -0.54668E-02
        -0.24738E-02
        -0.19653E-02
        -0.69030E-02
        -0.45388E-02
        -0.66054E-02
         0.34078E-02
         0.14644E-01
         0.87035E-02
         0.12521E-02
         0.14603E-01
         0.27351E-02
        -0.90002E-03
         0.77941E-03
         0.35866E-02
         0.65013E-03
         0.31417E-02
         0.21959E-02
        -0.12770E-02
         0.10552E-02
        -0.44732E-02
         0.10364E-02
         0.30605E-03
         0.54010E-03
        -0.72188E-03
        -0.43674E-02
         0.29441E-02
         0.74361E-03
         0.19420E-02
         0.16780E-02
        -0.72028E-03
         0.24175E-02
         0.45856E-02
         0.11128E-01
         0.98710E-02
         0.86269E-02
         0.63215E-02
        -0.14875E-02
        -0.32069E-02
        -0.40254E-02
        -0.51500E-02
        -0.10488E-01
        -0.61114E-02
        -0.40181E-02
        -0.50133E-02
        -0.59106E-02
        -0.61734E-02
        -0.40132E-03
         0.76603E-02
        -0.11056E-01
         0.25758E-01
         0.33236E-01
         0.42846E-01
         0.51313E-01
         0.50224E-01
         0.43908E-01
         0.42115E-01
         0.41641E-01
         0.26174E-01
         0.86915E-02
         0.34453E-02
         0.30038E-02
        -0.12649E-02
        -0.11655E-01
        -0.23342E-01
        -0.32399E-01
        -0.42051E-01
        -0.46610E-01
        -0.40932E-01
        -0.38707E-01
        -0.38513E-01
        -0.27006E-01
        -0.13981E-01
        -0.13211E-01
        -0.72447E-02
        -0.45460E-02
        -0.42251E-02
        -0.10729E-02
        -0.54675E-02
        -0.24758E-02
        -0.19667E-02
        -0.69122E-02
        -0.45472E-02
        -0.66263E-02
         0.34109E-02
         0.14643E-01
         0.87064E-02
         0.12534E-02
         0.14622E-01
         0.27357E-02
        -0.90845E-03
         0.77817E-03
         0.35894E-02
         0.64558E-03
         0.31497E-02
         0.21974E-02
        -0.12789E-02
         0.10537E-02
        -0.44900E-02
         0.10325E-02
         0.31123E-03
         0.54567E-03
        -0.71262E-03
        -0.43738E-02
         0.29438E-02
         0.73915E-03
         0.19464E-02
         0.16811E-02
        -0.71262E-03
         0.24194E-02
         0.45859E-02
         0.11145E-01
         0.98934E-02
         0.86384E-02
         0.63286E-02
        -0.14797E-02
        -0.32085E-02
        -0.40311E-02
        -0.51535E-02
        -0.10491E-01
        -0.61142E-02
        -0.40179E-02
        -0.50085E-02
        -0.59032E-02
        -0.61710E-02
        -0.39418E-03
         0.76530E-02
        -0.11057E-01
         0.25762E-01
         0.33236E-01
         0.42841E-01
         0.51296E-01
         0.50202E-01
         0.43895E-01
         0.42106E-01
         0.41629E-01
         0.26170E-01
         0.86977E-02
         0.34459E-02
         0.30098E-02
        -0.12536E-02
        -0.11663E-01
        -0.23357E-01
        -0.32409E-01
        -0.42050E-01
        -0.46607E-01
        -0.40930E-01
        -0.38706E-01
        -0.38503E-01
        -0.26986E-01
        -0.13966E-01
        -0.13193E-01
        -0.72483E-02
        -0.45457E-02
        -0.42271E-02
        -0.10807E-02
        -0.54682E-02
        -0.24777E-02
        -0.19680E-02
        -0.69214E-02
        -0.45556E-02
        -0.66472E-02
         0.34139E-02
         0.14642E-01
         0.87092E-02
         0.12546E-02
         0.14641E-01
         0.27362E-02
        -0.91688E-03
         0.77690E-03
         0.35921E-02
         0.64107E-03
         0.31577E-02
         0.21990E-02
        -0.12808E-02
         0.10522E-02
        -0.45069E-02
         0.10287E-02
         0.31629E-03
         0.55122E-03
        -0.70336E-03
        -0.43803E-02
         0.29434E-02
         0.73467E-03
         0.19509E-02
         0.16841E-02
        -0.70492E-03
         0.24213E-02
         0.45862E-02
         0.11163E-01
         0.99157E-02
         0.86501E-02
         0.63357E-02
        -0.14721E-02
        -0.32100E-02
        -0.40370E-02
        -0.51570E-02
        -0.10493E-01
        -0.61169E-02
        -0.40178E-02
        -0.50037E-02
        -0.58958E-02
        -0.61686E-02
        -0.38704E-03
         0.76457E-02
        -0.11057E-01
         0.25767E-01
         0.33236E-01
         0.42836E-01
         0.51278E-01
         0.50181E-01
         0.43881E-01
         0.42098E-01
         0.41617E-01
         0.26165E-01
         0.87041E-02
         0.34464E-02
         0.30157E-02
        -0.12423E-02
        -0.11670E-01
        -0.23372E-01
        -0.32419E-01
        -0.42049E-01
        -0.46604E-01
        -0.40928E-01
        -0.38706E-01
        -0.38492E-01
        -0.26967E-01
        -0.13950E-01
        -0.13176E-01
        -0.72520E-02
        -0.45453E-02
        -0.42292E-02
        -0.10886E-02
        -0.54689E-02
        -0.24797E-02
        -0.19694E-02
        -0.69306E-02
        -0.45641E-02
        -0.66681E-02
         0.34170E-02
         0.14641E-01
         0.87123E-02
         0.12556E-02
         0.14660E-01
         0.27367E-02
        -0.92533E-03
         0.77561E-03
         0.35948E-02
         0.63658E-03
         0.31657E-02
         0.22005E-02
        -0.12826E-02
         0.10507E-02
        -0.45237E-02
         0.10248E-02
         0.32151E-03
         0.55670E-03
        -0.69412E-03
        -0.43867E-02
         0.29431E-02
         0.73015E-03
         0.19553E-02
         0.16872E-02
        -0.69723E-03
         0.24233E-02
         0.45865E-02
         0.11181E-01
         0.99381E-02
         0.86618E-02
         0.63428E-02
        -0.14644E-02
        -0.32115E-02
        -0.40428E-02
        -0.51606E-02
        -0.10495E-01
        -0.61198E-02
        -0.40175E-02
        -0.49990E-02
        -0.58884E-02
        -0.61659E-02
        -0.37993E-03
         0.76384E-02
        -0.11058E-01
         0.25771E-01
         0.33237E-01
         0.42831E-01
         0.51261E-01
         0.50159E-01
         0.43868E-01
         0.42089E-01
         0.41605E-01
         0.26161E-01
         0.87104E-02
         0.34469E-02
         0.30217E-02
        -0.12310E-02
        -0.11678E-01
        -0.23387E-01
        -0.32428E-01
        -0.42047E-01
        -0.46601E-01
        -0.40926E-01
        -0.38705E-01
        -0.38482E-01
        -0.26948E-01
        -0.13935E-01
        -0.13158E-01
        -0.72556E-02
        -0.45450E-02
        -0.42312E-02
        -0.10964E-02
        -0.54696E-02
        -0.24816E-02
        -0.19709E-02
        -0.69398E-02
        -0.45725E-02
        -0.66889E-02
         0.34200E-02
         0.14641E-01
         0.87151E-02
         0.12568E-02
         0.14678E-01
         0.27372E-02
        -0.93380E-03
         0.77435E-03
         0.35975E-02
         0.63209E-03
         0.31736E-02
         0.22021E-02
        -0.12845E-02
         0.10492E-02
        -0.45405E-02
         0.10209E-02
         0.32658E-03
         0.56212E-03
        -0.68492E-03
        -0.43932E-02
         0.29427E-02
         0.72568E-03
         0.19597E-02
         0.16903E-02
        -0.68949E-03
         0.24252E-02
         0.45868E-02
         0.11199E-01
         0.99605E-02
         0.86733E-02
         0.63498E-02
        -0.14567E-02
        -0.32131E-02
        -0.40486E-02
        -0.51642E-02
        -0.10498E-01
        -0.61227E-02
        -0.40173E-02
        -0.49942E-02
        -0.58810E-02
        -0.61635E-02
        -0.37286E-03
         0.76311E-02
        -0.11058E-01
         0.25775E-01
         0.33237E-01
         0.42825E-01
         0.51243E-01
         0.50137E-01
         0.43854E-01
         0.42080E-01
         0.41592E-01
         0.26157E-01
         0.87166E-02
         0.34474E-02
         0.30277E-02
        -0.12197E-02
        -0.11685E-01
        -0.23402E-01
        -0.32438E-01
        -0.42046E-01
        -0.46598E-01
        -0.40924E-01
        -0.38704E-01
        -0.38472E-01
        -0.26928E-01
        -0.13920E-01
        -0.13141E-01
        -0.72592E-02
        -0.45447E-02
        -0.42332E-02
        -0.11042E-02
        -0.54703E-02
        -0.24836E-02
        -0.19722E-02
        -0.69490E-02
        -0.45810E-02
        -0.67097E-02
         0.34231E-02
         0.14640E-01
         0.87180E-02
         0.12579E-02
         0.14697E-01
         0.27378E-02
        -0.94232E-03
         0.77310E-03
         0.36003E-02
         0.62756E-03
         0.31816E-02
         0.22036E-02
        -0.12863E-02
         0.10478E-02
        -0.45573E-02
         0.10170E-02
         0.33174E-03
         0.56743E-03
        -0.67576E-03
        -0.43996E-02
         0.29423E-02
         0.72117E-03
         0.19642E-02
         0.16933E-02
        -0.68177E-03
         0.24272E-02
         0.45871E-02
         0.11217E-01
         0.99829E-02
         0.86849E-02
         0.63569E-02
        -0.14490E-02
        -0.32147E-02
        -0.40544E-02
        -0.51678E-02
        -0.10500E-01
        -0.61253E-02
        -0.40172E-02
        -0.49894E-02
        -0.58735E-02
        -0.61611E-02
        -0.36574E-03
         0.76237E-02
        -0.11059E-01
         0.25780E-01
         0.33237E-01
         0.42820E-01
         0.51225E-01
         0.50115E-01
         0.43841E-01
         0.42072E-01
         0.41580E-01
         0.26152E-01
         0.87229E-02
         0.34479E-02
         0.30337E-02
        -0.12084E-02
        -0.11693E-01
        -0.23417E-01
        -0.32448E-01
        -0.42045E-01
        -0.46595E-01
        -0.40922E-01
        -0.38703E-01
        -0.38461E-01
        -0.26909E-01
        -0.13905E-01
        -0.13123E-01
        -0.72627E-02
        -0.45442E-02
        -0.42352E-02
        -0.11119E-02
        -0.54710E-02
        -0.24855E-02
        -0.19736E-02
        -0.69581E-02
        -0.45895E-02
        -0.67305E-02
         0.34261E-02
         0.14639E-01
         0.87210E-02
         0.12590E-02
         0.14716E-01
         0.27383E-02
        -0.95088E-03
         0.77182E-03
         0.36030E-02
         0.62305E-03
         0.31896E-02
         0.22051E-02
        -0.12882E-02
         0.10463E-02
        -0.45741E-02
         0.10132E-02
         0.33677E-03
         0.57269E-03
        -0.66662E-03
        -0.44061E-02
         0.29420E-02
         0.71670E-03
         0.19686E-02
         0.16964E-02
        -0.67397E-03
         0.24291E-02
         0.45874E-02
         0.11235E-01
         0.10005E-01
         0.86962E-02
         0.63640E-02
        -0.14413E-02
        -0.32163E-02
        -0.40601E-02
        -0.51714E-02
        -0.10503E-01
        -0.61282E-02
        -0.40170E-02
        -0.49847E-02
        -0.58661E-02
        -0.61585E-02
        -0.35862E-03
         0.76164E-02
        -0.11059E-01
         0.25784E-01
         0.33237E-01
         0.42815E-01
         0.51207E-01
         0.50093E-01
         0.43827E-01
         0.42063E-01
         0.41568E-01
         0.26148E-01
         0.87293E-02
         0.34484E-02
         0.30396E-02
        -0.11971E-02
        -0.11700E-01
        -0.23431E-01
        -0.32458E-01
        -0.42044E-01
        -0.46592E-01
        -0.40920E-01
        -0.38702E-01
        -0.38451E-01
        -0.26889E-01
        -0.13890E-01
        -0.13106E-01
        -0.72663E-02
        -0.45439E-02
        -0.42372E-02
        -0.11197E-02
        -0.54717E-02
        -0.24875E-02
        -0.19750E-02
        -0.69672E-02
        -0.45980E-02
        -0.67513E-02
         0.34292E-02
         0.14638E-01
         0.87239E-02
         0.12600E-02
         0.14735E-01
         0.27388E-02
        -0.95948E-03
         0.77053E-03
         0.36057E-02
         0.61859E-03
         0.31976E-02
         0.22065E-02
        -0.12901E-02
         0.10449E-02
        -0.45909E-02
         0.10093E-02
         0.34194E-03
         0.57789E-03
        -0.65748E-03
        -0.44124E-02
         0.29416E-02
         0.71220E-03
         0.19730E-02
         0.16995E-02
        -0.66617E-03
         0.24311E-02
         0.45876E-02
         0.11253E-01
         0.10028E-01
         0.87076E-02
         0.63710E-02
        -0.14337E-02
        -0.32179E-02
        -0.40659E-02
        -0.51750E-02
        -0.10505E-01
        -0.61311E-02
        -0.40169E-02
        -0.49800E-02
        -0.58587E-02
        -0.61560E-02
        -0.35156E-03
         0.76090E-02
        -0.11059E-01
         0.25788E-01
         0.33238E-01
         0.42810E-01
         0.51190E-01
         0.50071E-01
         0.43814E-01
         0.42054E-01
         0.41555E-01
         0.26144E-01
         0.87356E-02
         0.34488E-02
         0.30455E-02
        -0.11858E-02
        -0.11708E-01
        -0.23446E-01
        -0.32467E-01
        -0.42043E-01
        -0.46589E-01
        -0.40918E-01
        -0.38701E-01
        -0.38441E-01
        -0.26870E-01
        -0.13875E-01
        -0.13088E-01
        -0.72698E-02
        -0.45435E-02
        -0.42392E-02
        -0.11276E-02
        -0.54724E-02
        -0.24894E-02
        -0.19764E-02
        -0.69762E-02
        -0.46066E-02
        -0.67720E-02
         0.34322E-02
         0.14638E-01
         0.87268E-02
         0.12611E-02
         0.14753E-01
         0.27394E-02
        -0.96818E-03
         0.76923E-03
         0.36085E-02
         0.61434E-03
         0.32056E-02
         0.22079E-02
        -0.12919E-02
         0.10434E-02
        -0.46077E-02
         0.10054E-02
         0.34705E-03
         0.58305E-03
        -0.64836E-03
        -0.44183E-02
         0.29412E-02
         0.70764E-03
         0.19774E-02
         0.17026E-02
        -0.65836E-03
         0.24331E-02
         0.45879E-02
         0.11272E-01
         0.10050E-01
         0.87183E-02
         0.63779E-02
        -0.14260E-02
        -0.32195E-02
        -0.40717E-02
        -0.51786E-02
        -0.10508E-01
        -0.61338E-02
        -0.40167E-02
        -0.49751E-02
        -0.58513E-02
        -0.61537E-02
        -0.34449E-03
         0.76017E-02
        -0.11060E-01
         0.25792E-01
         0.33238E-01
         0.42805E-01
         0.51172E-01
         0.50049E-01
         0.43800E-01
         0.42045E-01
         0.41542E-01
         0.26140E-01
         0.87421E-02
         0.34489E-02
         0.30514E-02
        -0.11746E-02
        -0.11715E-01
        -0.23461E-01
        -0.32477E-01
        -0.42042E-01
        -0.46586E-01
        -0.40916E-01
        -0.38700E-01
        -0.38430E-01
        -0.26851E-01
        -0.13860E-01
        -0.13070E-01
        -0.72734E-02
        -0.45432E-02
        -0.42412E-02
        -0.11354E-02
        -0.54730E-02
        -0.24913E-02
        -0.19778E-02
        -0.69853E-02
        -0.46153E-02
        -0.67928E-02
         0.34353E-02
         0.14637E-01
         0.87298E-02
         0.12622E-02
         0.14772E-01
         0.27399E-02
        -0.97702E-03
         0.76792E-03
         0.36112E-02
         0.61026E-03
         0.32136E-02
         0.22092E-02
        -0.12938E-02
         0.10420E-02
        -0.46246E-02
         0.10015E-02
         0.35238E-03
         0.58815E-03
        -0.63927E-03
        -0.44239E-02
         0.29408E-02
         0.70315E-03
         0.19817E-02
         0.17057E-02
        -0.65049E-03
         0.24350E-02
         0.45882E-02
         0.11290E-01
         0.10072E-01
         0.87288E-02
         0.63847E-02
        -0.14183E-02
        -0.32213E-02
        -0.40775E-02
        -0.51822E-02
        -0.10510E-01
        -0.61367E-02
        -0.40165E-02
        -0.49704E-02
        -0.58438E-02
        -0.61511E-02
        -0.33736E-03
         0.75943E-02
        -0.11060E-01
         0.25796E-01
         0.33238E-01
         0.42799E-01
         0.51154E-01
         0.50027E-01
         0.43787E-01
         0.42037E-01
         0.41528E-01
         0.26137E-01
         0.87486E-02
         0.34488E-02
         0.30573E-02
        -0.11633E-02
        -0.11723E-01
        -0.23476E-01
        -0.32487E-01
        -0.42041E-01
        -0.46583E-01
        -0.40914E-01
        -0.38699E-01
        -0.38420E-01
        -0.26831E-01
        -0.13846E-01
        -0.13053E-01
        -0.72770E-02
        -0.45429E-02
        -0.42433E-02
        -0.11432E-02
        -0.54739E-02
        -0.24933E-02
        -0.19793E-02
        -0.69942E-02
        -0.46240E-02
        -0.68134E-02
         0.34383E-02
         0.14636E-01
         0.87327E-02
         0.12632E-02
         0.14791E-01
         0.27404E-02
        -0.98590E-03
         0.76663E-03
         0.36140E-02
         0.60629E-03
         0.32216E-02
         0.22106E-02
        -0.12955E-02
         0.10406E-02
        -0.46414E-02
         0.99772E-03
         0.35758E-03
         0.59304E-03
        -0.63029E-03
        -0.44293E-02
         0.29405E-02
         0.69874E-03
         0.19861E-02
         0.17089E-02
        -0.64271E-03
         0.24369E-02
         0.45883E-02
         0.11309E-01
         0.10094E-01
         0.87389E-02
         0.63914E-02
        -0.14108E-02
        -0.32232E-02
        -0.40831E-02
        -0.51857E-02
        -0.10512E-01
        -0.61395E-02
        -0.40163E-02
        -0.49657E-02
        -0.58364E-02
        -0.61487E-02
        -0.33029E-03
         0.75868E-02
        -0.11061E-01
         0.25801E-01
         0.33238E-01
         0.42794E-01
         0.51137E-01
         0.50005E-01
         0.43773E-01
         0.42028E-01
         0.41514E-01
         0.26134E-01
         0.87549E-02
         0.34485E-02
         0.30631E-02
        -0.11520E-02
        -0.11730E-01
        -0.23491E-01
        -0.32496E-01
        -0.42040E-01
        -0.46580E-01
        -0.40913E-01
        -0.38698E-01
        -0.38409E-01
        -0.26812E-01
        -0.13831E-01
        -0.13035E-01
        -0.73053E-02
        -0.45587E-02
        -0.42605E-02
        -0.11546E-02
        -0.54927E-02
        -0.25033E-02
        -0.19877E-02
        -0.70256E-02
        -0.46479E-02
        -0.68550E-02
         0.34523E-02
         0.14679E-01
         0.87621E-02
         0.12682E-02
         0.14854E-01
         0.27506E-02
        -0.99761E-03
         0.76800E-03
         0.36286E-02
         0.60477E-03
         0.32390E-02
         0.22188E-02
        -0.13003E-02
         0.10435E-02
        -0.46728E-02
         0.99859E-03
         0.36349E-03
         0.59872E-03
        -0.62506E-03
        -0.44498E-02
         0.29508E-02
         0.69801E-03
         0.19971E-02
         0.17177E-02
        -0.63767E-03
         0.24456E-02
         0.46022E-02
         0.11361E-01
         0.10147E-01
         0.87763E-02
         0.64173E-02
        -0.14095E-02
        -0.32360E-02
        -0.40995E-02
        -0.52037E-02
        -0.10544E-01
        -0.61598E-02
        -0.40276E-02
        -0.49766E-02
        -0.58479E-02
        -0.61654E-02
        -0.32436E-03
         0.75972E-02
        -0.11090E-01
         0.25868E-01
         0.33321E-01
         0.42897E-01
         0.51251E-01
         0.50116E-01
         0.43877E-01
         0.42131E-01
         0.41611E-01
         0.26200E-01
         0.87816E-02
         0.34560E-02
         0.30761E-02
        -0.11440E-02
        -0.11763E-01
        -0.23558E-01
        -0.32582E-01
        -0.42143E-01
        -0.46692E-01
        -0.41010E-01
        -0.38791E-01
        -0.38492E-01
        -0.26860E-01
        -0.13851E-01
        -0.13050E-01
        -0.10833E-01
        -0.67859E-02
        -0.63072E-02
        -0.17248E-02
        -0.78445E-02
        -0.36119E-02
        -0.29521E-02
        -0.10367E-01
        -0.68822E-02
        -0.10096E-01
         0.50372E-02
         0.20562E-01
         0.12465E-01
         0.18427E-02
         0.20924E-01
         0.40837E-02
        -0.14854E-02
         0.11396E-02
         0.53137E-02
         0.88516E-03
         0.46146E-02
         0.31972E-02
        -0.18538E-02
         0.15396E-02
        -0.69500E-02
         0.14854E-02
         0.53695E-03
         0.89044E-03
        -0.92509E-03
        -0.66048E-02
         0.43810E-02
         0.10325E-02
         0.29755E-02
         0.25551E-02
        -0.88121E-03
         0.35216E-02
         0.66272E-02
         0.16361E-01
         0.14825E-01
         0.12867E-01
         0.92789E-02
        -0.20495E-02
        -0.47158E-02
        -0.58917E-02
        -0.74510E-02
        -0.14659E-01
        -0.87888E-02
        -0.58171E-02
        -0.72243E-02
        -0.84498E-02
        -0.86948E-02
        -0.45900E-03
         0.94061E-02
        -0.13727E-01
         0.32018E-01
         0.41367E-01
         0.53210E-01
         0.63708E-01
         0.62982E-01
         0.55606E-01
         0.53291E-01
         0.52317E-01
         0.32987E-01
         0.11042E-01
         0.43934E-02
         0.39303E-02
        -0.14322E-02
        -0.14654E-01
        -0.29259E-01
        -0.40225E-01
        -0.51966E-01
        -0.57642E-01
        -0.51175E-01
        -0.48629E-01
        -0.48070E-01
        -0.33653E-01
        -0.17298E-01
        -0.16237E-01
  
SCALARS                      strain_xz  double 1
LOOKUP_TABLE default
         0.13782E-03
        -0.95332E-03
        -0.31864E-02
         0.22365E-03
        -0.11978E-09
         0.42469E-10
         0.14201E-09
         0.28361E-10
        -0.88495E-02
        -0.59519E-02
         0.42476E-09
         0.38259E-09
         0.36659E-03
        -0.14942E-02
        -0.52387E-10
        -0.24541E-09
        -0.32599E-03
        -0.14363E-02
        -0.17727E-09
        -0.26401E-09
        -0.20552E-02
        -0.33970E-02
        -0.33161E-02
        -0.17629E-09
        -0.81293E-10
         0.14202E-09
        -0.35909E-02
        -0.28314E-02
        -0.33000E-09
        -0.26177E-09
         0.76197E-03
        -0.16505E-02
         0.16579E-03
         0.33598E-10
        -0.12984E-09
        -0.79989E-10
         0.22284E-02
         0.10389E-02
        -0.19276E-09
        -0.20524E-09
         0.43845E-02
         0.60519E-02
        -0.43482E-09
        -0.32066E-09
         0.47912E-02
         0.25749E-02
        -0.47751E-09
        -0.22984E-09
        -0.12832E-02
        -0.14427E-09
         0.32995E-02
        -0.40159E-10
        -0.12939E-02
        -0.28190E-09
         0.95770E-03
        -0.74570E-10
         0.41908E-02
         0.11871E-02
        -0.63880E-10
        -0.15441E-09
        -0.81321E-04
         0.22222E-02
         0.12777E-09
         0.87615E-10
        -0.58608E-03
        -0.12852E-10
        -0.19400E-02
         0.84532E-10
        -0.12377E-01
        -0.84541E-02
         0.52835E-09
         0.38320E-09
        -0.53977E-02
         0.27902E-09
         0.11578E-02
        -0.19301E-09
         0.36037E-02
        -0.37881E-10
         0.76606E-02
        -0.58770E-10
         0.10287E-01
         0.74143E-02
        -0.21538E-09
        -0.24632E-09
         0.67409E-02
        -0.26491E-09
         0.58075E-02
        -0.38141E-09
         0.35754E-02
        -0.24327E-09
         0.55746E-02
         0.40776E-02
        -0.10382E-09
         0.14238E-09
        -0.93830E-03
         0.16701E-09
        -0.25876E-02
         0.70125E-10
        -0.61872E-02
         0.17317E-09
        -0.91329E-02
        -0.62945E-02
         0.39928E-09
         0.41665E-09
        -0.21840E-01
        -0.24469E-01
         0.73778E-09
         0.72707E-09
        -0.21584E-01
         0.63028E-09
        -0.19940E-01
         0.47102E-09
        -0.14116E-01
         0.25885E-09
        -0.99461E-02
         0.27679E-10
        -0.35759E-02
        -0.98585E-10
         0.45167E-02
        -0.78874E-10
         0.10757E-01
        -0.77524E-10
         0.15993E-01
        -0.17482E-09
         0.21980E-01
        -0.33260E-09
         0.27749E-01
        -0.39690E-09
         0.30669E-01
        -0.37448E-09
         0.29845E-01
        -0.40722E-09
         0.27913E-01
        -0.52851E-09
         0.25432E-01
        -0.62322E-09
         0.22420E-01
        -0.57935E-09
         0.17263E-01
        -0.47084E-09
         0.98900E-02
        -0.22228E-09
         0.84081E-03
         0.42444E-10
        -0.55577E-02
         0.10305E-09
        -0.87566E-02
         0.16851E-09
        -0.13021E-01
         0.32978E-09
        -0.17170E-01
         0.54114E-09
        -0.22762E-01
         0.65015E-09
        -0.26439E-01
         0.66499E-09
        -0.16966E-02
         0.89488E-03
         0.10480E-02
        -0.20745E-02
         0.82837E-02
         0.63105E-02
         0.97075E-03
        -0.14123E-02
        -0.71275E-03
        -0.12860E-02
         0.72571E-03
         0.31524E-02
         0.65316E-02
        -0.20878E-02
        -0.25255E-02
         0.27632E-02
         0.23262E-02
        -0.10688E-02
        -0.17053E-02
        -0.18263E-02
        -0.10049E-01
        -0.10655E-01
        -0.96969E-02
        -0.30072E-02
         0.11968E-02
        -0.89227E-03
        -0.29031E-02
        -0.32516E-03
        -0.33574E-02
        -0.22768E-02
         0.24709E-02
         0.49299E-03
        -0.11645E-02
        -0.38067E-03
         0.12482E-01
         0.78649E-02
         0.70795E-02
        -0.49877E-02
        -0.28433E-02
        -0.61433E-02
        -0.12733E-01
        -0.11660E-01
        -0.11309E-01
        -0.83333E-02
        -0.60330E-02
        -0.47939E-02
         0.88844E-03
         0.36563E-02
         0.10584E-02
         0.33941E-02
         0.91704E-02
         0.76063E-02
         0.37413E-01
         0.38814E-01
         0.34770E-01
         0.29500E-01
         0.21988E-01
         0.11279E-01
        -0.67349E-03
        -0.80988E-02
        -0.12327E-01
        -0.21181E-01
        -0.34614E-01
        -0.41413E-01
        -0.37662E-01
        -0.36017E-01
        -0.37883E-01
        -0.37749E-01
        -0.34305E-01
        -0.30221E-01
        -0.15595E-01
         0.24551E-02
         0.93738E-02
         0.10448E-01
         0.17712E-01
         0.28454E-01
         0.36586E-01
         0.38326E-01
        -0.24461E-02
         0.50214E-03
        -0.95596E-03
        -0.27835E-02
         0.57096E-02
         0.48792E-02
         0.14216E-02
        -0.31033E-02
        -0.14259E-02
        -0.29503E-02
        -0.59601E-03
         0.21745E-02
         0.71537E-02
        -0.54859E-02
        -0.56824E-02
         0.48057E-02
         0.26754E-02
        -0.16024E-02
        -0.10784E-02
        -0.18938E-02
        -0.11237E-01
        -0.10709E-01
        -0.10568E-01
        -0.25560E-02
         0.14518E-02
         0.97752E-03
        -0.53012E-02
         0.70388E-03
        -0.17741E-02
        -0.24194E-02
         0.36922E-02
         0.23892E-02
        -0.23947E-02
        -0.20667E-02
         0.10183E-01
         0.56199E-02
         0.64465E-02
        -0.63015E-02
        -0.10550E-02
        -0.30588E-02
        -0.11238E-01
        -0.11560E-01
        -0.11299E-01
        -0.81700E-02
        -0.62916E-02
        -0.36813E-02
         0.39785E-02
         0.46969E-02
        -0.62087E-03
         0.74755E-03
         0.76625E-02
         0.67499E-02
         0.42571E-01
         0.42900E-01
         0.38511E-01
         0.31763E-01
         0.23700E-01
         0.10916E-01
        -0.27102E-02
        -0.87812E-02
        -0.11568E-01
        -0.21205E-01
        -0.37664E-01
        -0.44433E-01
        -0.37260E-01
        -0.35448E-01
        -0.39053E-01
        -0.40220E-01
        -0.36710E-01
        -0.34724E-01
        -0.17692E-01
         0.45984E-02
         0.10170E-01
         0.10304E-01
         0.18319E-01
         0.31718E-01
         0.40599E-01
         0.40471E-01
        -0.24508E-02
         0.50400E-03
        -0.95776E-03
        -0.27853E-02
         0.57041E-02
         0.48747E-02
         0.14306E-02
        -0.30954E-02
        -0.14275E-02
        -0.29480E-02
        -0.58394E-03
         0.21798E-02
         0.71580E-02
        -0.54724E-02
        -0.56793E-02
         0.48107E-02
         0.26812E-02
        -0.15980E-02
        -0.10779E-02
        -0.18905E-02
        -0.11236E-01
        -0.10708E-01
        -0.10567E-01
        -0.25561E-02
         0.14551E-02
         0.97915E-03
        -0.53028E-02
         0.69065E-03
        -0.17866E-02
        -0.24209E-02
         0.36976E-02
         0.23888E-02
        -0.23847E-02
        -0.20677E-02
         0.10188E-01
         0.56174E-02
         0.64445E-02
        -0.63116E-02
        -0.10651E-02
        -0.30685E-02
        -0.11245E-01
        -0.11566E-01
        -0.11300E-01
        -0.81688E-02
        -0.62893E-02
        -0.36794E-02
         0.39778E-02
         0.46985E-02
        -0.61634E-03
         0.74500E-03
         0.76576E-02
         0.67399E-02
         0.42556E-01
         0.42889E-01
         0.38507E-01
         0.31763E-01
         0.23693E-01
         0.10912E-01
        -0.27132E-02
        -0.87867E-02
        -0.11558E-01
        -0.21196E-01
        -0.37659E-01
        -0.44433E-01
        -0.37256E-01
        -0.35446E-01
        -0.39058E-01
        -0.40229E-01
        -0.36716E-01
        -0.34731E-01
        -0.17687E-01
         0.46005E-02
         0.10163E-01
         0.10300E-01
         0.18306E-01
         0.31699E-01
         0.40579E-01
         0.40453E-01
        -0.24554E-02
         0.50583E-03
        -0.95956E-03
        -0.27872E-02
         0.56984E-02
         0.48703E-02
         0.14397E-02
        -0.30876E-02
        -0.14289E-02
        -0.29455E-02
        -0.57191E-03
         0.21851E-02
         0.71623E-02
        -0.54589E-02
        -0.56763E-02
         0.48158E-02
         0.26872E-02
        -0.15935E-02
        -0.10773E-02
        -0.18873E-02
        -0.11235E-01
        -0.10707E-01
        -0.10566E-01
        -0.25563E-02
         0.14585E-02
         0.98091E-03
        -0.53043E-02
         0.67758E-03
        -0.17992E-02
        -0.24224E-02
         0.37031E-02
         0.23887E-02
        -0.23747E-02
        -0.20686E-02
         0.10193E-01
         0.56150E-02
         0.64423E-02
        -0.63217E-02
        -0.10752E-02
        -0.30782E-02
        -0.11252E-01
        -0.11573E-01
        -0.11301E-01
        -0.81678E-02
        -0.62871E-02
        -0.36776E-02
         0.39770E-02
         0.47000E-02
        -0.61169E-03
         0.74236E-03
         0.76528E-02
         0.67300E-02
         0.42542E-01
         0.42878E-01
         0.38504E-01
         0.31763E-01
         0.23686E-01
         0.10909E-01
        -0.27163E-02
        -0.87921E-02
        -0.11548E-01
        -0.21188E-01
        -0.37653E-01
        -0.44434E-01
        -0.37253E-01
        -0.35444E-01
        -0.39064E-01
        -0.40238E-01
        -0.36723E-01
        -0.34738E-01
        -0.17682E-01
         0.46026E-02
         0.10155E-01
         0.10296E-01
         0.18292E-01
         0.31679E-01
         0.40558E-01
         0.40435E-01
        -0.24600E-02
         0.50773E-03
        -0.96132E-03
        -0.27890E-02
         0.56928E-02
         0.48658E-02
         0.14487E-02
        -0.30797E-02
        -0.14302E-02
        -0.29426E-02
        -0.55990E-03
         0.21905E-02
         0.71667E-02
        -0.54454E-02
        -0.56733E-02
         0.48214E-02
         0.26935E-02
        -0.15890E-02
        -0.10769E-02
        -0.18839E-02
        -0.11234E-01
        -0.10706E-01
        -0.10566E-01
        -0.25564E-02
         0.14627E-02
         0.98309E-03
        -0.53056E-02
         0.66492E-03
        -0.18117E-02
        -0.24239E-02
         0.37091E-02
         0.23889E-02
        -0.23646E-02
        -0.20695E-02
         0.10198E-01
         0.56124E-02
         0.64403E-02
        -0.63317E-02
        -0.10853E-02
        -0.30878E-02
        -0.11259E-01
        -0.11581E-01
        -0.11302E-01
        -0.81670E-02
        -0.62847E-02
        -0.36756E-02
         0.39765E-02
         0.47016E-02
        -0.60704E-03
         0.73972E-03
         0.76478E-02
         0.67200E-02
         0.42527E-01
         0.42867E-01
         0.38500E-01
         0.31764E-01
         0.23678E-01
         0.10906E-01
        -0.27195E-02
        -0.87975E-02
        -0.11539E-01
        -0.21180E-01
        -0.37647E-01
        -0.44436E-01
        -0.37251E-01
        -0.35443E-01
        -0.39069E-01
        -0.40248E-01
        -0.36730E-01
        -0.34744E-01
        -0.17677E-01
         0.46047E-02
         0.10148E-01
         0.10292E-01
         0.18279E-01
         0.31660E-01
         0.40538E-01
         0.40417E-01
        -0.24646E-02
         0.50963E-03
        -0.96311E-03
        -0.27908E-02
         0.56873E-02
         0.48613E-02
         0.14578E-02
        -0.30717E-02
        -0.14313E-02
        -0.29392E-02
        -0.54786E-03
         0.21958E-02
         0.71711E-02
        -0.54319E-02
        -0.56702E-02
         0.48274E-02
         0.27000E-02
        -0.15845E-02
        -0.10763E-02
        -0.18805E-02
        -0.11234E-01
        -0.10705E-01
        -0.10567E-01
        -0.25566E-02
         0.14675E-02
         0.98557E-03
        -0.53067E-02
         0.65266E-03
        -0.18241E-02
        -0.24252E-02
         0.37154E-02
         0.23895E-02
        -0.23545E-02
        -0.20704E-02
         0.10203E-01
         0.56099E-02
         0.64382E-02
        -0.63418E-02
        -0.10953E-02
        -0.30976E-02
        -0.11267E-01
        -0.11588E-01
        -0.11304E-01
        -0.81665E-02
        -0.62821E-02
        -0.36735E-02
         0.39760E-02
         0.47034E-02
        -0.60241E-03
         0.73712E-03
         0.76431E-02
         0.67100E-02
         0.42512E-01
         0.42856E-01
         0.38497E-01
         0.31764E-01
         0.23671E-01
         0.10902E-01
        -0.27225E-02
        -0.88030E-02
        -0.11529E-01
        -0.21171E-01
        -0.37641E-01
        -0.44437E-01
        -0.37249E-01
        -0.35441E-01
        -0.39075E-01
        -0.40260E-01
        -0.36738E-01
        -0.34751E-01
        -0.17672E-01
         0.46068E-02
         0.10141E-01
         0.10288E-01
         0.18265E-01
         0.31641E-01
         0.40518E-01
         0.40398E-01
        -0.24690E-02
         0.51169E-03
        -0.96468E-03
        -0.27926E-02
         0.56818E-02
         0.48568E-02
         0.14668E-02
        -0.30636E-02
        -0.14324E-02
        -0.29357E-02
        -0.53582E-03
         0.22011E-02
         0.71754E-02
        -0.54184E-02
        -0.56671E-02
         0.48335E-02
         0.27065E-02
        -0.15800E-02
        -0.10757E-02
        -0.18773E-02
        -0.11234E-01
        -0.10705E-01
        -0.10568E-01
        -0.25568E-02
         0.14723E-02
         0.98814E-03
        -0.53077E-02
         0.64047E-03
        -0.18367E-02
        -0.24267E-02
         0.37217E-02
         0.23900E-02
        -0.23443E-02
        -0.20713E-02
         0.10208E-01
         0.56077E-02
         0.64363E-02
        -0.63518E-02
        -0.11054E-02
        -0.31074E-02
        -0.11275E-01
        -0.11596E-01
        -0.11307E-01
        -0.81662E-02
        -0.62799E-02
        -0.36716E-02
         0.39754E-02
         0.47051E-02
        -0.59765E-03
         0.73473E-03
         0.76384E-02
         0.67003E-02
         0.42498E-01
         0.42845E-01
         0.38493E-01
         0.31764E-01
         0.23664E-01
         0.10899E-01
        -0.27255E-02
        -0.88084E-02
        -0.11519E-01
        -0.21163E-01
        -0.37635E-01
        -0.44439E-01
        -0.37247E-01
        -0.35440E-01
        -0.39082E-01
        -0.40272E-01
        -0.36746E-01
        -0.34757E-01
        -0.17667E-01
         0.46087E-02
         0.10133E-01
         0.10283E-01
         0.18252E-01
         0.31621E-01
         0.40498E-01
         0.40380E-01
        -0.24731E-02
         0.51416E-03
        -0.96591E-03
        -0.27944E-02
         0.56764E-02
         0.48525E-02
         0.14761E-02
        -0.30554E-02
        -0.14335E-02
        -0.29325E-02
        -0.52372E-03
         0.22064E-02
         0.71798E-02
        -0.54048E-02
        -0.56640E-02
         0.48396E-02
         0.27128E-02
        -0.15754E-02
        -0.10752E-02
        -0.18741E-02
        -0.11234E-01
        -0.10705E-01
        -0.10569E-01
        -0.25571E-02
         0.14765E-02
         0.99039E-03
        -0.53088E-02
         0.62800E-03
        -0.18493E-02
        -0.24285E-02
         0.37277E-02
         0.23901E-02
        -0.23338E-02
        -0.20719E-02
         0.10214E-01
         0.56056E-02
         0.64346E-02
        -0.63617E-02
        -0.11155E-02
        -0.31173E-02
        -0.11282E-01
        -0.11604E-01
        -0.11310E-01
        -0.81659E-02
        -0.62778E-02
        -0.36700E-02
         0.39745E-02
         0.47067E-02
        -0.59249E-03
         0.73288E-03
         0.76343E-02
         0.66906E-02
         0.42483E-01
         0.42834E-01
         0.38490E-01
         0.31764E-01
         0.23657E-01
         0.10896E-01
        -0.27285E-02
        -0.88138E-02
        -0.11509E-01
        -0.21154E-01
        -0.37629E-01
        -0.44441E-01
        -0.37246E-01
        -0.35439E-01
        -0.39088E-01
        -0.40285E-01
        -0.36755E-01
        -0.34764E-01
        -0.17662E-01
         0.46102E-02
         0.10125E-01
         0.10280E-01
         0.18239E-01
         0.31602E-01
         0.40478E-01
         0.40362E-01
        -0.24770E-02
         0.51676E-03
        -0.96696E-03
        -0.27960E-02
         0.56711E-02
         0.48479E-02
         0.14854E-02
        -0.30470E-02
        -0.14347E-02
        -0.29293E-02
        -0.51159E-03
         0.22118E-02
         0.71843E-02
        -0.53912E-02
        -0.56608E-02
         0.48456E-02
         0.27189E-02
        -0.15708E-02
        -0.10746E-02
        -0.18711E-02
        -0.11234E-01
        -0.10704E-01
        -0.10570E-01
        -0.25574E-02
         0.14805E-02
         0.99251E-03
        -0.53100E-02
         0.61546E-03
        -0.18622E-02
        -0.24305E-02
         0.37335E-02
         0.23899E-02
        -0.23233E-02
        -0.20724E-02
         0.10219E-01
         0.56038E-02
         0.64331E-02
        -0.63717E-02
        -0.11256E-02
        -0.31272E-02
        -0.11290E-01
        -0.11613E-01
        -0.11312E-01
        -0.81659E-02
        -0.62759E-02
        -0.36686E-02
         0.39735E-02
         0.47081E-02
        -0.58716E-03
         0.73128E-03
         0.76302E-02
         0.66811E-02
         0.42469E-01
         0.42823E-01
         0.38486E-01
         0.31764E-01
         0.23649E-01
         0.10893E-01
        -0.27316E-02
        -0.88192E-02
        -0.11500E-01
        -0.21146E-01
        -0.37623E-01
        -0.44443E-01
        -0.37245E-01
        -0.35438E-01
        -0.39094E-01
        -0.40297E-01
        -0.36763E-01
        -0.34770E-01
        -0.17657E-01
         0.46117E-02
         0.10117E-01
         0.10276E-01
         0.18226E-01
         0.31583E-01
         0.40458E-01
         0.40344E-01
        -0.24809E-02
         0.51938E-03
        -0.96798E-03
        -0.27977E-02
         0.56658E-02
         0.48434E-02
         0.14947E-02
        -0.30387E-02
        -0.14359E-02
        -0.29263E-02
        -0.49951E-03
         0.22171E-02
         0.71888E-02
        -0.53778E-02
        -0.56577E-02
         0.48517E-02
         0.27251E-02
        -0.15663E-02
        -0.10740E-02
        -0.18680E-02
        -0.11233E-01
        -0.10704E-01
        -0.10571E-01
        -0.25577E-02
         0.14844E-02
         0.99461E-03
        -0.53112E-02
         0.60294E-03
        -0.18750E-02
        -0.24324E-02
         0.37394E-02
         0.23898E-02
        -0.23127E-02
        -0.20729E-02
         0.10225E-01
         0.56018E-02
         0.64315E-02
        -0.63816E-02
        -0.11358E-02
        -0.31371E-02
        -0.11298E-01
        -0.11621E-01
        -0.11315E-01
        -0.81660E-02
        -0.62742E-02
        -0.36672E-02
         0.39725E-02
         0.47096E-02
        -0.58182E-03
         0.72975E-03
         0.76264E-02
         0.66714E-02
         0.42454E-01
         0.42812E-01
         0.38482E-01
         0.31764E-01
         0.23642E-01
         0.10889E-01
        -0.27346E-02
        -0.88245E-02
        -0.11490E-01
        -0.21138E-01
        -0.37617E-01
        -0.44445E-01
        -0.37243E-01
        -0.35437E-01
        -0.39100E-01
        -0.40309E-01
        -0.36771E-01
        -0.34776E-01
        -0.17652E-01
         0.46132E-02
         0.10109E-01
         0.10272E-01
         0.18213E-01
         0.31564E-01
         0.40438E-01
         0.40326E-01
        -0.24847E-02
         0.52204E-03
        -0.96901E-03
        -0.27994E-02
         0.56604E-02
         0.48390E-02
         0.15041E-02
        -0.30303E-02
        -0.14371E-02
        -0.29231E-02
        -0.48741E-03
         0.22224E-02
         0.71934E-02
        -0.53643E-02
        -0.56545E-02
         0.48577E-02
         0.27312E-02
        -0.15618E-02
        -0.10734E-02
        -0.18650E-02
        -0.11233E-01
        -0.10704E-01
        -0.10571E-01
        -0.25581E-02
         0.14884E-02
         0.99671E-03
        -0.53124E-02
         0.59049E-03
        -0.18878E-02
        -0.24343E-02
         0.37451E-02
         0.23896E-02
        -0.23022E-02
        -0.20734E-02
         0.10230E-01
         0.56000E-02
         0.64300E-02
        -0.63915E-02
        -0.11460E-02
        -0.31471E-02
        -0.11306E-01
        -0.11629E-01
        -0.11318E-01
        -0.81660E-02
        -0.62723E-02
        -0.36657E-02
         0.39715E-02
         0.47111E-02
        -0.57653E-03
         0.72809E-03
         0.76223E-02
         0.66618E-02
         0.42439E-01
         0.42801E-01
         0.38479E-01
         0.31764E-01
         0.23635E-01
         0.10886E-01
        -0.27375E-02
        -0.88298E-02
        -0.11480E-01
        -0.21129E-01
        -0.37611E-01
        -0.44446E-01
        -0.37242E-01
        -0.35435E-01
        -0.39107E-01
        -0.40322E-01
        -0.36780E-01
        -0.34782E-01
        -0.17647E-01
         0.46146E-02
         0.10101E-01
         0.10268E-01
         0.18200E-01
         0.31545E-01
         0.40418E-01
         0.40308E-01
        -0.24886E-02
         0.52467E-03
        -0.97008E-03
        -0.28011E-02
         0.56552E-02
         0.48346E-02
         0.15134E-02
        -0.30220E-02
        -0.14382E-02
        -0.29201E-02
        -0.47530E-03
         0.22278E-02
         0.71979E-02
        -0.53508E-02
        -0.56513E-02
         0.48637E-02
         0.27373E-02
        -0.15573E-02
        -0.10730E-02
        -0.18619E-02
        -0.11233E-01
        -0.10703E-01
        -0.10572E-01
        -0.25584E-02
         0.14923E-02
         0.99878E-03
        -0.53137E-02
         0.57803E-03
        -0.19005E-02
        -0.24362E-02
         0.37509E-02
         0.23894E-02
        -0.22917E-02
        -0.20739E-02
         0.10236E-01
         0.55980E-02
         0.64285E-02
        -0.64014E-02
        -0.11561E-02
        -0.31570E-02
        -0.11314E-01
        -0.11637E-01
        -0.11321E-01
        -0.81658E-02
        -0.62704E-02
        -0.36644E-02
         0.39704E-02
         0.47126E-02
        -0.57119E-03
         0.72648E-03
         0.76185E-02
         0.66523E-02
         0.42425E-01
         0.42790E-01
         0.38475E-01
         0.31764E-01
         0.23627E-01
         0.10883E-01
        -0.27404E-02
        -0.88351E-02
        -0.11471E-01
        -0.21121E-01
        -0.37604E-01
        -0.44448E-01
        -0.37240E-01
        -0.35434E-01
        -0.39113E-01
        -0.40334E-01
        -0.36788E-01
        -0.34788E-01
        -0.17642E-01
         0.46160E-02
         0.10093E-01
         0.10264E-01
         0.18187E-01
         0.31526E-01
         0.40398E-01
         0.40290E-01
        -0.24925E-02
         0.52730E-03
        -0.97108E-03
        -0.28028E-02
         0.56499E-02
         0.48301E-02
         0.15227E-02
        -0.30136E-02
        -0.14394E-02
        -0.29170E-02
        -0.46323E-03
         0.22331E-02
         0.72023E-02
        -0.53374E-02
        -0.56481E-02
         0.48697E-02
         0.27434E-02
        -0.15527E-02
        -0.10724E-02
        -0.18589E-02
        -0.11233E-01
        -0.10703E-01
        -0.10573E-01
        -0.25588E-02
         0.14962E-02
         0.10009E-02
        -0.53150E-02
         0.56563E-03
        -0.19131E-02
        -0.24382E-02
         0.37567E-02
         0.23893E-02
        -0.22811E-02
        -0.20744E-02
         0.10242E-01
         0.55962E-02
         0.64269E-02
        -0.64113E-02
        -0.11664E-02
        -0.31670E-02
        -0.11321E-01
        -0.11645E-01
        -0.11323E-01
        -0.81658E-02
        -0.62686E-02
        -0.36631E-02
         0.39694E-02
         0.47142E-02
        -0.56584E-03
         0.72495E-03
         0.76145E-02
         0.66426E-02
         0.42410E-01
         0.42779E-01
         0.38471E-01
         0.31764E-01
         0.23620E-01
         0.10879E-01
        -0.27434E-02
        -0.88404E-02
        -0.11461E-01
        -0.21112E-01
        -0.37598E-01
        -0.44450E-01
        -0.37239E-01
        -0.35433E-01
        -0.39119E-01
        -0.40346E-01
        -0.36796E-01
        -0.34794E-01
        -0.17637E-01
         0.46174E-02
         0.10085E-01
         0.10260E-01
         0.18174E-01
         0.31507E-01
         0.40378E-01
         0.40273E-01
        -0.24964E-02
         0.52995E-03
        -0.97208E-03
        -0.28044E-02
         0.56446E-02
         0.48256E-02
         0.15320E-02
        -0.30053E-02
        -0.14405E-02
        -0.29138E-02
        -0.45119E-03
         0.22385E-02
         0.72069E-02
        -0.53240E-02
        -0.56449E-02
         0.48757E-02
         0.27495E-02
        -0.15481E-02
        -0.10719E-02
        -0.18558E-02
        -0.11233E-01
        -0.10703E-01
        -0.10574E-01
        -0.25592E-02
         0.15000E-02
         0.10030E-02
        -0.53162E-02
         0.55320E-03
        -0.19259E-02
        -0.24401E-02
         0.37625E-02
         0.23891E-02
        -0.22705E-02
        -0.20749E-02
         0.10247E-01
         0.55944E-02
         0.64254E-02
        -0.64211E-02
        -0.11766E-02
        -0.31770E-02
        -0.11329E-01
        -0.11653E-01
        -0.11326E-01
        -0.81659E-02
        -0.62669E-02
        -0.36615E-02
         0.39683E-02
         0.47157E-02
        -0.56046E-03
         0.72333E-03
         0.76104E-02
         0.66330E-02
         0.42395E-01
         0.42769E-01
         0.38468E-01
         0.31764E-01
         0.23613E-01
         0.10876E-01
        -0.27464E-02
        -0.88456E-02
        -0.11451E-01
        -0.21104E-01
        -0.37592E-01
        -0.44452E-01
        -0.37237E-01
        -0.35432E-01
        -0.39126E-01
        -0.40359E-01
        -0.36805E-01
        -0.34800E-01
        -0.17631E-01
         0.46188E-02
         0.10077E-01
         0.10256E-01
         0.18161E-01
         0.31488E-01
         0.40358E-01
         0.40255E-01
        -0.25003E-02
         0.53256E-03
        -0.97308E-03
        -0.28060E-02
         0.56394E-02
         0.48211E-02
         0.15412E-02
        -0.29969E-02
        -0.14417E-02
        -0.29107E-02
        -0.43916E-03
         0.22438E-02
         0.72114E-02
        -0.53106E-02
        -0.56417E-02
         0.48817E-02
         0.27556E-02
        -0.15436E-02
        -0.10715E-02
        -0.18528E-02
        -0.11233E-01
        -0.10702E-01
        -0.10575E-01
        -0.25596E-02
         0.15038E-02
         0.10051E-02
        -0.53173E-02
         0.54085E-03
        -0.19386E-02
        -0.24419E-02
         0.37683E-02
         0.23889E-02
        -0.22599E-02
        -0.20754E-02
         0.10253E-01
         0.55925E-02
         0.64239E-02
        -0.64308E-02
        -0.11868E-02
        -0.31870E-02
        -0.11337E-01
        -0.11661E-01
        -0.11329E-01
        -0.81659E-02
        -0.62650E-02
        -0.36602E-02
         0.39673E-02
         0.47171E-02
        -0.55511E-03
         0.72172E-03
         0.76065E-02
         0.66234E-02
         0.42380E-01
         0.42758E-01
         0.38464E-01
         0.31764E-01
         0.23605E-01
         0.10872E-01
        -0.27493E-02
        -0.88508E-02
        -0.11441E-01
        -0.21095E-01
        -0.37586E-01
        -0.44454E-01
        -0.37236E-01
        -0.35431E-01
        -0.39132E-01
        -0.40371E-01
        -0.36813E-01
        -0.34806E-01
        -0.17626E-01
         0.46202E-02
         0.10069E-01
         0.10252E-01
         0.18148E-01
         0.31468E-01
         0.40338E-01
         0.40237E-01
        -0.25042E-02
         0.53515E-03
        -0.97409E-03
        -0.28077E-02
         0.56341E-02
         0.48166E-02
         0.15505E-02
        -0.29886E-02
        -0.14428E-02
        -0.29076E-02
        -0.42715E-03
         0.22492E-02
         0.72159E-02
        -0.52972E-02
        -0.56384E-02
         0.48877E-02
         0.27617E-02
        -0.15391E-02
        -0.10709E-02
        -0.18497E-02
        -0.11232E-01
        -0.10702E-01
        -0.10576E-01
        -0.25599E-02
         0.15076E-02
         0.10072E-02
        -0.53185E-02
         0.52850E-03
        -0.19513E-02
        -0.24438E-02
         0.37741E-02
         0.23887E-02
        -0.22493E-02
        -0.20759E-02
         0.10258E-01
         0.55908E-02
         0.64224E-02
        -0.64405E-02
        -0.11971E-02
        -0.31970E-02
        -0.11345E-01
        -0.11669E-01
        -0.11332E-01
        -0.81658E-02
        -0.62631E-02
        -0.36589E-02
         0.39662E-02
         0.47186E-02
        -0.54966E-03
         0.72015E-03
         0.76025E-02
         0.66138E-02
         0.42366E-01
         0.42747E-01
         0.38460E-01
         0.31764E-01
         0.23598E-01
         0.10869E-01
        -0.27522E-02
        -0.88559E-02
        -0.11432E-01
        -0.21087E-01
        -0.37580E-01
        -0.44455E-01
        -0.37234E-01
        -0.35430E-01
        -0.39138E-01
        -0.40383E-01
        -0.36822E-01
        -0.34812E-01
        -0.17621E-01
         0.46215E-02
         0.10061E-01
         0.10248E-01
         0.18135E-01
         0.31449E-01
         0.40318E-01
         0.40219E-01
        -0.25080E-02
         0.53781E-03
        -0.97510E-03
        -0.28093E-02
         0.56288E-02
         0.48122E-02
         0.15597E-02
        -0.29802E-02
        -0.14440E-02
        -0.29045E-02
        -0.41512E-03
         0.22545E-02
         0.72204E-02
        -0.52838E-02
        -0.56351E-02
         0.48937E-02
         0.27678E-02
        -0.15346E-02
        -0.10704E-02
        -0.18467E-02
        -0.11232E-01
        -0.10702E-01
        -0.10577E-01
        -0.25603E-02
         0.15114E-02
         0.10093E-02
        -0.53197E-02
         0.51616E-03
        -0.19640E-02
        -0.24456E-02
         0.37798E-02
         0.23885E-02
        -0.22387E-02
        -0.20764E-02
         0.10264E-01
         0.55889E-02
         0.64209E-02
        -0.64502E-02
        -0.12074E-02
        -0.32069E-02
        -0.11353E-01
        -0.11677E-01
        -0.11334E-01
        -0.81657E-02
        -0.62614E-02
        -0.36574E-02
         0.39652E-02
         0.47201E-02
        -0.54428E-03
         0.71853E-03
         0.75986E-02
         0.66041E-02
         0.42351E-01
         0.42736E-01
         0.38457E-01
         0.31764E-01
         0.23591E-01
         0.10866E-01
        -0.27550E-02
        -0.88610E-02
        -0.11422E-01
        -0.21079E-01
        -0.37574E-01
        -0.44457E-01
        -0.37233E-01
        -0.35428E-01
        -0.39145E-01
        -0.40396E-01
        -0.36830E-01
        -0.34818E-01
        -0.17616E-01
         0.46228E-02
         0.10053E-01
         0.10244E-01
         0.18122E-01
         0.31430E-01
         0.40298E-01
         0.40201E-01
        -0.25119E-02
         0.54043E-03
        -0.97612E-03
        -0.28110E-02
         0.56236E-02
         0.48078E-02
         0.15690E-02
        -0.29718E-02
        -0.14451E-02
        -0.29012E-02
        -0.40311E-03
         0.22599E-02
         0.72249E-02
        -0.52704E-02
        -0.56318E-02
         0.48997E-02
         0.27740E-02
        -0.15301E-02
        -0.10699E-02
        -0.18436E-02
        -0.11232E-01
        -0.10701E-01
        -0.10578E-01
        -0.25607E-02
         0.15151E-02
         0.10113E-02
        -0.53208E-02
         0.50370E-03
        -0.19766E-02
        -0.24475E-02
         0.37856E-02
         0.23884E-02
        -0.22281E-02
        -0.20769E-02
         0.10270E-01
         0.55870E-02
         0.64193E-02
        -0.64599E-02
        -0.12178E-02
        -0.32170E-02
        -0.11360E-01
        -0.11685E-01
        -0.11337E-01
        -0.81658E-02
        -0.62595E-02
        -0.36560E-02
         0.39642E-02
         0.47217E-02
        -0.53892E-03
         0.71691E-03
         0.75945E-02
         0.65946E-02
         0.42336E-01
         0.42725E-01
         0.38453E-01
         0.31764E-01
         0.23583E-01
         0.10862E-01
        -0.27578E-02
        -0.88661E-02
        -0.11412E-01
        -0.21070E-01
        -0.37568E-01
        -0.44460E-01
        -0.37231E-01
        -0.35427E-01
        -0.39151E-01
        -0.40408E-01
        -0.36838E-01
        -0.34823E-01
        -0.17611E-01
         0.46242E-02
         0.10046E-01
         0.10240E-01
         0.18109E-01
         0.31411E-01
         0.40278E-01
         0.40183E-01
        -0.25158E-02
         0.54304E-03
        -0.97709E-03
        -0.28126E-02
         0.56183E-02
         0.48033E-02
         0.15782E-02
        -0.29635E-02
        -0.14461E-02
        -0.28976E-02
        -0.39111E-03
         0.22653E-02
         0.72294E-02
        -0.52569E-02
        -0.56284E-02
         0.49057E-02
         0.27800E-02
        -0.15256E-02
        -0.10695E-02
        -0.18406E-02
        -0.11232E-01
        -0.10701E-01
        -0.10579E-01
        -0.25611E-02
         0.15185E-02
         0.10135E-02
        -0.53214E-02
         0.49094E-03
        -0.19893E-02
        -0.24494E-02
         0.37914E-02
         0.23882E-02
        -0.22175E-02
        -0.20774E-02
         0.10275E-01
         0.55853E-02
         0.64179E-02
        -0.64693E-02
        -0.12285E-02
        -0.32269E-02
        -0.11367E-01
        -0.11693E-01
        -0.11339E-01
        -0.81658E-02
        -0.62577E-02
        -0.36546E-02
         0.39631E-02
         0.47232E-02
        -0.53357E-03
         0.71529E-03
         0.75907E-02
         0.65849E-02
         0.42322E-01
         0.42715E-01
         0.38449E-01
         0.31764E-01
         0.23576E-01
         0.10859E-01
        -0.27606E-02
        -0.88712E-02
        -0.11403E-01
        -0.21061E-01
        -0.37561E-01
        -0.44463E-01
        -0.37231E-01
        -0.35426E-01
        -0.39157E-01
        -0.40420E-01
        -0.36847E-01
        -0.34829E-01
        -0.17606E-01
         0.46255E-02
         0.10038E-01
         0.10236E-01
         0.18096E-01
         0.31392E-01
         0.40258E-01
         0.40165E-01
        -0.25197E-02
         0.54564E-03
        -0.97806E-03
        -0.28142E-02
         0.56130E-02
         0.47988E-02
         0.15874E-02
        -0.29551E-02
        -0.14470E-02
        -0.28936E-02
        -0.37915E-03
         0.22707E-02
         0.72339E-02
        -0.52433E-02
        -0.56249E-02
         0.49117E-02
         0.27860E-02
        -0.15211E-02
        -0.10690E-02
        -0.18376E-02
        -0.11232E-01
        -0.10700E-01
        -0.10580E-01
        -0.25615E-02
         0.15217E-02
         0.10155E-02
        -0.53216E-02
         0.47779E-03
        -0.20019E-02
        -0.24513E-02
         0.37972E-02
         0.23880E-02
        -0.22069E-02
        -0.20779E-02
         0.10281E-01
         0.55834E-02
         0.64164E-02
        -0.64785E-02
        -0.12395E-02
        -0.32368E-02
        -0.11374E-01
        -0.11699E-01
        -0.11341E-01
        -0.81657E-02
        -0.62559E-02
        -0.36532E-02
         0.39621E-02
         0.47247E-02
        -0.52815E-03
         0.71370E-03
         0.75866E-02
         0.65752E-02
         0.42307E-01
         0.42704E-01
         0.38445E-01
         0.31764E-01
         0.23569E-01
         0.10856E-01
        -0.27634E-02
        -0.88763E-02
        -0.11393E-01
        -0.21052E-01
        -0.37555E-01
        -0.44467E-01
        -0.37231E-01
        -0.35425E-01
        -0.39163E-01
        -0.40432E-01
        -0.36855E-01
        -0.34835E-01
        -0.17601E-01
         0.46269E-02
         0.10030E-01
         0.10232E-01
         0.18083E-01
         0.31373E-01
         0.40239E-01
         0.40147E-01
        -0.25236E-02
         0.54826E-03
        -0.97908E-03
        -0.28158E-02
         0.56079E-02
         0.47944E-02
         0.15965E-02
        -0.29468E-02
        -0.14478E-02
        -0.28896E-02
        -0.36727E-03
         0.22759E-02
         0.72383E-02
        -0.52298E-02
        -0.56214E-02
         0.49176E-02
         0.27920E-02
        -0.15167E-02
        -0.10685E-02
        -0.18346E-02
        -0.11231E-01
        -0.10700E-01
        -0.10581E-01
        -0.25619E-02
         0.15247E-02
         0.10176E-02
        -0.53217E-02
         0.46459E-03
        -0.20144E-02
        -0.24532E-02
         0.38030E-02
         0.23878E-02
        -0.21964E-02
        -0.20785E-02
         0.10287E-01
         0.55817E-02
         0.64149E-02
        -0.64876E-02
        -0.12506E-02
        -0.32464E-02
        -0.11380E-01
        -0.11706E-01
        -0.11343E-01
        -0.81658E-02
        -0.62540E-02
        -0.36519E-02
         0.39611E-02
         0.47264E-02
        -0.52280E-03
         0.71204E-03
         0.75828E-02
         0.65657E-02
         0.42292E-01
         0.42693E-01
         0.38442E-01
         0.31765E-01
         0.23562E-01
         0.10852E-01
        -0.27662E-02
        -0.88811E-02
        -0.11384E-01
        -0.21043E-01
        -0.37548E-01
        -0.44472E-01
        -0.37231E-01
        -0.35424E-01
        -0.39169E-01
        -0.40445E-01
        -0.36863E-01
        -0.34841E-01
        -0.17595E-01
         0.46283E-02
         0.10022E-01
         0.10228E-01
         0.18070E-01
         0.31354E-01
         0.40219E-01
         0.40129E-01
        -0.25359E-02
         0.55218E-03
        -0.98346E-03
        -0.28268E-02
         0.56200E-02
         0.48055E-02
         0.16099E-02
        -0.29492E-02
        -0.14534E-02
        -0.28958E-02
        -0.35809E-03
         0.22867E-02
         0.72642E-02
        -0.52344E-02
        -0.56359E-02
         0.49396E-02
         0.28070E-02
        -0.15177E-02
        -0.10713E-02
        -0.18372E-02
        -0.11265E-01
        -0.10732E-01
        -0.10613E-01
        -0.25705E-02
         0.15325E-02
         0.10228E-02
        -0.53397E-02
         0.45374E-03
        -0.20325E-02
        -0.24628E-02
         0.38212E-02
         0.23953E-02
        -0.21941E-02
        -0.20861E-02
         0.10323E-01
         0.55976E-02
         0.64333E-02
        -0.65169E-02
        -0.12647E-02
        -0.32656E-02
        -0.11421E-01
        -0.11749E-01
        -0.11380E-01
        -0.81902E-02
        -0.62712E-02
        -0.36609E-02
         0.39727E-02
         0.47434E-02
        -0.51972E-03
         0.71265E-03
         0.76024E-02
         0.65774E-02
         0.42384E-01
         0.42787E-01
         0.38534E-01
         0.31843E-01
         0.23614E-01
         0.10875E-01
        -0.27769E-02
        -0.89081E-02
        -0.11405E-01
        -0.21090E-01
        -0.37641E-01
        -0.44591E-01
        -0.37325E-01
        -0.35512E-01
        -0.39270E-01
        -0.40551E-01
        -0.36957E-01
        -0.34929E-01
        -0.17634E-01
         0.46422E-02
         0.10041E-01
         0.10249E-01
         0.18103E-01
         0.31414E-01
         0.40298E-01
         0.40209E-01
        -0.37623E-02
         0.82454E-03
        -0.14560E-02
        -0.42014E-02
         0.80173E-02
         0.69225E-02
         0.23965E-02
        -0.43437E-02
        -0.21495E-02
        -0.42580E-02
        -0.51486E-03
         0.32041E-02
         0.10334E-01
        -0.75916E-02
        -0.79321E-02
         0.73354E-02
         0.41563E-02
        -0.22516E-02
        -0.15679E-02
        -0.26944E-02
        -0.16020E-01
        -0.15457E-01
        -0.15137E-01
        -0.37929E-02
         0.22759E-02
         0.15229E-02
        -0.78133E-02
         0.66158E-03
        -0.30351E-02
        -0.36521E-02
         0.56770E-02
         0.35467E-02
        -0.32532E-02
        -0.31001E-02
         0.14454E-01
         0.80571E-02
         0.92643E-02
        -0.93891E-02
        -0.18541E-02
        -0.47918E-02
        -0.16511E-01
        -0.17114E-01
        -0.16569E-01
        -0.11767E-01
        -0.89777E-02
        -0.50887E-02
         0.56669E-02
         0.68591E-02
        -0.75019E-03
         0.10292E-02
         0.10718E-01
         0.94448E-02
         0.52516E-01
         0.52935E-01
         0.47692E-01
         0.39534E-01
         0.29287E-01
         0.13515E-01
        -0.34951E-02
        -0.11292E-01
        -0.14419E-01
        -0.26511E-01
        -0.47393E-01
        -0.56066E-01
        -0.47474E-01
        -0.45321E-01
        -0.49480E-01
        -0.50514E-01
        -0.45894E-01
        -0.43120E-01
        -0.21740E-01
         0.57350E-02
         0.12527E-01
         0.12846E-01
         0.22604E-01
         0.39363E-01
         0.50345E-01
         0.50054E-01
  
SCALARS                      strain_xy  double 1
LOOKUP_TABLE default
        -0.74730E-07
        -0.16685E-06
        -0.14770E-05
         0.55135E-07
        -0.68911E-20
         0.67345E-21
         0.10125E-19
         0.15424E-20
        -0.15069E-04
         0.67343E-05
         0.45071E-19
         0.35741E-19
         0.52409E-06
        -0.10844E-06
         0.39782E-20
        -0.11948E-20
         0.17578E-06
         0.26333E-05
         0.19805E-21
         0.30180E-20
        -0.18869E-05
        -0.11411E-04
        -0.12112E-04
         0.30688E-19
         0.24439E-19
        -0.35688E-19
        -0.11902E-05
        -0.92484E-05
         0.41321E-19
         0.63590E-19
        -0.46881E-06
         0.85122E-06
         0.78349E-07
        -0.21810E-20
         0.86038E-20
        -0.11005E-21
        -0.39840E-05
        -0.17007E-05
         0.23027E-19
         0.19075E-19
        -0.75536E-05
        -0.63772E-05
         0.39254E-19
         0.26455E-19
        -0.77352E-05
        -0.14538E-05
        -0.14300E-20
         0.10646E-19
         0.17307E-05
         0.31464E-20
        -0.49307E-06
        -0.70937E-22
         0.97794E-07
         0.23782E-19
         0.47332E-06
         0.36595E-20
         0.67567E-05
        -0.35620E-06
         0.85047E-22
        -0.41723E-21
         0.60629E-07
        -0.59556E-05
         0.23176E-20
         0.59447E-20
         0.26629E-06
        -0.47056E-21
         0.37183E-05
         0.37706E-20
        -0.18374E-04
        -0.66148E-05
         0.29125E-20
        -0.27890E-19
        -0.14604E-04
        -0.44593E-19
         0.47263E-05
         0.29868E-19
         0.14731E-04
         0.44499E-20
         0.25896E-04
         0.57866E-20
         0.52103E-04
         0.29452E-04
         0.13604E-19
        -0.34495E-20
         0.39071E-05
        -0.41511E-21
        -0.14642E-04
        -0.37439E-19
        -0.20928E-04
        -0.41804E-19
        -0.44927E-04
        -0.20201E-04
        -0.26462E-19
         0.29373E-19
         0.33025E-05
         0.26745E-19
         0.82308E-05
         0.11489E-19
         0.19028E-04
         0.30505E-19
         0.46636E-04
         0.26885E-04
         0.65409E-19
         0.32704E-19
        -0.72146E-04
         0.31145E-04
        -0.42497E-19
         0.52043E-19
        -0.17471E-03
        -0.12078E-18
        -0.23587E-03
        -0.13203E-18
        -0.20033E-03
        -0.89605E-19
        -0.15810E-03
        -0.95044E-20
        -0.63886E-04
         0.26789E-19
         0.80150E-04
         0.16587E-19
         0.17920E-03
         0.15163E-19
         0.23729E-03
         0.32532E-19
         0.24537E-03
         0.39554E-19
         0.22131E-03
         0.15584E-19
         0.13013E-03
         0.95010E-20
        -0.94142E-05
         0.15529E-19
        -0.12056E-03
         0.10410E-19
        -0.20113E-03
        -0.37122E-19
        -0.27422E-03
        -0.97405E-19
        -0.22583E-03
        -0.12361E-18
        -0.13642E-03
        -0.76503E-19
        -0.14631E-04
         0.14596E-19
         0.10220E-03
         0.30935E-19
         0.15033E-03
         0.49300E-19
         0.17866E-03
         0.97083E-19
         0.16019E-03
         0.12597E-18
         0.15241E-03
         0.89500E-19
         0.12948E-03
         0.70782E-19
        -0.41137E-05
         0.11353E-05
         0.11589E-05
        -0.70173E-06
         0.94985E-05
         0.75932E-05
         0.12515E-06
        -0.27754E-05
        -0.11792E-05
        -0.31592E-05
        -0.95335E-06
        -0.17716E-04
        -0.24909E-04
         0.92284E-06
         0.14298E-04
        -0.17670E-05
         0.13216E-05
         0.38785E-06
         0.82564E-06
        -0.66582E-06
         0.33828E-05
         0.29471E-05
        -0.90711E-05
         0.23667E-06
         0.20062E-05
         0.22123E-06
         0.37675E-07
         0.73707E-07
         0.93065E-06
        -0.30108E-05
        -0.15444E-05
         0.33905E-06
         0.52936E-06
        -0.42547E-07
        -0.23740E-05
        -0.80331E-05
        -0.16143E-04
         0.24718E-04
         0.12883E-04
         0.23716E-04
         0.46561E-04
         0.10438E-04
        -0.81611E-05
        -0.16527E-04
        -0.19921E-04
        -0.26188E-04
         0.31501E-05
         0.91841E-05
         0.28390E-05
         0.97639E-05
         0.31234E-04
         0.11691E-04
        -0.11254E-03
         0.13899E-03
        -0.33784E-03
        -0.39515E-03
        -0.37581E-03
        -0.23025E-03
         0.13897E-04
         0.15147E-03
         0.21919E-03
         0.35621E-03
         0.37686E-03
         0.19520E-03
         0.77629E-04
         0.32650E-04
        -0.52408E-04
        -0.20589E-03
        -0.34399E-03
        -0.39749E-03
        -0.25206E-03
         0.45349E-04
         0.16220E-03
         0.17087E-03
         0.26976E-03
         0.30288E-03
         0.22581E-03
         0.20713E-03
        -0.87612E-05
         0.11343E-05
        -0.19983E-05
        -0.13801E-05
         0.15502E-04
         0.59580E-05
         0.13765E-05
        -0.10505E-04
        -0.31653E-05
        -0.93931E-05
         0.10032E-05
        -0.15842E-04
        -0.30875E-04
         0.34024E-05
         0.40787E-04
        -0.65275E-05
         0.11012E-05
         0.62971E-06
         0.19101E-05
         0.64853E-06
         0.17156E-04
         0.11608E-04
        -0.66411E-05
         0.13557E-05
         0.31125E-05
        -0.51837E-06
         0.70543E-06
        -0.17412E-06
        -0.70103E-06
        -0.51742E-05
        -0.54047E-05
        -0.92125E-06
         0.22657E-05
         0.16979E-05
         0.39888E-05
        -0.67106E-05
        -0.14697E-04
         0.34375E-04
         0.50751E-05
         0.12967E-04
         0.34999E-04
        -0.88960E-05
        -0.17911E-04
        -0.16176E-04
        -0.16041E-04
        -0.19173E-04
         0.12057E-04
         0.94127E-05
        -0.15638E-05
         0.22228E-05
         0.23608E-04
         0.15603E-05
        -0.16359E-03
         0.23581E-03
        -0.49264E-03
        -0.52509E-03
        -0.50572E-03
        -0.27952E-03
         0.67976E-04
         0.19231E-03
         0.24278E-03
         0.44035E-03
         0.49116E-03
         0.19097E-03
         0.63800E-04
         0.52008E-04
        -0.26539E-04
        -0.23187E-03
        -0.42399E-03
        -0.55822E-03
        -0.37014E-03
         0.10668E-03
         0.20717E-03
         0.19842E-03
         0.35174E-03
         0.42880E-03
         0.28513E-03
         0.26913E-03
        -0.87832E-05
         0.11387E-05
        -0.20031E-05
        -0.13912E-05
         0.15489E-04
         0.59572E-05
         0.13870E-05
        -0.10496E-04
        -0.31745E-05
        -0.94207E-05
         0.98351E-06
        -0.15879E-04
        -0.30901E-04
         0.33941E-05
         0.40817E-04
        -0.65346E-05
         0.11137E-05
         0.62703E-06
         0.19104E-05
         0.64378E-06
         0.17197E-04
         0.11618E-04
        -0.66422E-05
         0.13551E-05
         0.31337E-05
        -0.51829E-06
         0.71395E-06
        -0.17180E-06
        -0.70130E-06
        -0.51884E-05
        -0.54136E-05
        -0.91912E-06
         0.22613E-05
         0.17014E-05
         0.39533E-05
        -0.67120E-05
        -0.14692E-04
         0.34483E-04
         0.51347E-05
         0.13023E-04
         0.35048E-04
        -0.88772E-05
        -0.17930E-04
        -0.16182E-04
        -0.16035E-04
        -0.19163E-04
         0.12056E-04
         0.94102E-05
        -0.15503E-05
         0.22122E-05
         0.23583E-04
         0.15344E-05
        -0.16338E-03
         0.23577E-03
        -0.49269E-03
        -0.52510E-03
        -0.50550E-03
        -0.27935E-03
         0.68024E-04
         0.19238E-03
         0.24253E-03
         0.44006E-03
         0.49098E-03
         0.19106E-03
         0.63788E-04
         0.52112E-04
        -0.26326E-04
        -0.23204E-03
        -0.42425E-03
        -0.55846E-03
        -0.37003E-03
         0.10672E-03
         0.20700E-03
         0.19834E-03
         0.35140E-03
         0.42824E-03
         0.28467E-03
         0.26865E-03
        -0.88054E-05
         0.11431E-05
        -0.20079E-05
        -0.14023E-05
         0.15475E-04
         0.59567E-05
         0.13975E-05
        -0.10487E-04
        -0.31834E-05
        -0.94476E-05
         0.96381E-06
        -0.15916E-04
        -0.30928E-04
         0.33854E-05
         0.40847E-04
        -0.65421E-05
         0.11263E-05
         0.62432E-06
         0.19108E-05
         0.63902E-06
         0.17238E-04
         0.11628E-04
        -0.66443E-05
         0.13544E-05
         0.31552E-05
        -0.51815E-06
         0.72305E-06
        -0.16955E-06
        -0.70111E-06
        -0.52023E-05
        -0.54225E-05
        -0.91661E-06
         0.22568E-05
         0.17049E-05
         0.39176E-05
        -0.67137E-05
        -0.14686E-04
         0.34591E-04
         0.51946E-05
         0.13080E-04
         0.35099E-04
        -0.88560E-05
        -0.17949E-04
        -0.16191E-04
        -0.16032E-04
        -0.19154E-04
         0.12055E-04
         0.94075E-05
        -0.15366E-05
         0.22014E-05
         0.23558E-04
         0.15087E-05
        -0.16317E-03
         0.23572E-03
        -0.49273E-03
        -0.52511E-03
        -0.50528E-03
        -0.27917E-03
         0.68073E-04
         0.19244E-03
         0.24227E-03
         0.43976E-03
         0.49080E-03
         0.19116E-03
         0.63779E-04
         0.52216E-04
        -0.26112E-04
        -0.23222E-03
        -0.42453E-03
        -0.55870E-03
        -0.36992E-03
         0.10676E-03
         0.20684E-03
         0.19825E-03
         0.35105E-03
         0.42767E-03
         0.28422E-03
         0.26818E-03
        -0.88276E-05
         0.11476E-05
        -0.20126E-05
        -0.14136E-05
         0.15462E-04
         0.59560E-05
         0.14081E-05
        -0.10478E-04
        -0.31921E-05
        -0.94727E-05
         0.94414E-06
        -0.15954E-04
        -0.30955E-04
         0.33771E-05
         0.40878E-04
        -0.65502E-05
         0.11393E-05
         0.62159E-06
         0.19114E-05
         0.63400E-06
         0.17281E-04
         0.11637E-04
        -0.66501E-05
         0.13531E-05
         0.31778E-05
        -0.51787E-06
         0.73241E-06
        -0.16767E-06
        -0.69959E-06
        -0.52149E-05
        -0.54316E-05
        -0.91340E-06
         0.22521E-05
         0.17085E-05
         0.38820E-05
        -0.67150E-05
        -0.14680E-04
         0.34700E-04
         0.52549E-05
         0.13137E-04
         0.35154E-04
        -0.88278E-05
        -0.17965E-04
        -0.16205E-04
        -0.16030E-04
        -0.19145E-04
         0.12055E-04
         0.94050E-05
        -0.15229E-05
         0.21907E-05
         0.23532E-04
         0.14831E-05
        -0.16296E-03
         0.23567E-03
        -0.49278E-03
        -0.52512E-03
        -0.50507E-03
        -0.27899E-03
         0.68123E-04
         0.19250E-03
         0.24202E-03
         0.43946E-03
         0.49064E-03
         0.19128E-03
         0.63776E-04
         0.52319E-04
        -0.25897E-04
        -0.23242E-03
        -0.42485E-03
        -0.55896E-03
        -0.36981E-03
         0.10681E-03
         0.20667E-03
         0.19817E-03
         0.35070E-03
         0.42710E-03
         0.28377E-03
         0.26771E-03
        -0.88495E-05
         0.11521E-05
        -0.20173E-05
        -0.14247E-05
         0.15449E-04
         0.59552E-05
         0.14187E-05
        -0.10468E-04
        -0.32003E-05
        -0.94957E-05
         0.92440E-06
        -0.15992E-04
        -0.30982E-04
         0.33689E-05
         0.40908E-04
        -0.65589E-05
         0.11526E-05
         0.61885E-06
         0.19118E-05
         0.62877E-06
         0.17325E-04
         0.11645E-04
        -0.66591E-05
         0.13513E-05
         0.32014E-05
        -0.51739E-06
         0.74279E-06
        -0.16614E-06
        -0.69667E-06
        -0.52264E-05
        -0.54410E-05
        -0.90931E-06
         0.22474E-05
         0.17120E-05
         0.38461E-05
        -0.67164E-05
        -0.14675E-04
         0.34809E-04
         0.53152E-05
         0.13196E-04
         0.35215E-04
        -0.87924E-05
        -0.17980E-04
        -0.16226E-04
        -0.16032E-04
        -0.19136E-04
         0.12056E-04
         0.94035E-05
        -0.15093E-05
         0.21800E-05
         0.23508E-04
         0.14574E-05
        -0.16275E-03
         0.23562E-03
        -0.49283E-03
        -0.52512E-03
        -0.50485E-03
        -0.27881E-03
         0.68171E-04
         0.19256E-03
         0.24176E-03
         0.43917E-03
         0.49048E-03
         0.19142E-03
         0.63779E-04
         0.52420E-04
        -0.25681E-04
        -0.23263E-03
        -0.42520E-03
        -0.55924E-03
        -0.36971E-03
         0.10685E-03
         0.20651E-03
         0.19808E-03
         0.35035E-03
         0.42654E-03
         0.28331E-03
         0.26723E-03
        -0.88705E-05
         0.11569E-05
        -0.20216E-05
        -0.14360E-05
         0.15435E-04
         0.59544E-05
         0.14291E-05
        -0.10457E-04
        -0.32085E-05
        -0.95175E-05
         0.90470E-06
        -0.16029E-04
        -0.31008E-04
         0.33611E-05
         0.40937E-04
        -0.65680E-05
         0.11662E-05
         0.61614E-06
         0.19122E-05
         0.62353E-06
         0.17369E-04
         0.11653E-04
        -0.66697E-05
         0.13493E-05
         0.32246E-05
        -0.51682E-06
         0.75393E-06
        -0.16472E-06
        -0.69313E-06
        -0.52379E-05
        -0.54499E-05
        -0.90471E-06
         0.22426E-05
         0.17156E-05
         0.38100E-05
        -0.67186E-05
        -0.14671E-04
         0.34918E-04
         0.53761E-05
         0.13256E-04
         0.35278E-04
        -0.87547E-05
        -0.17993E-04
        -0.16249E-04
        -0.16036E-04
        -0.19130E-04
         0.12058E-04
         0.94027E-05
        -0.14955E-05
         0.21700E-05
         0.23484E-04
         0.14319E-05
        -0.16254E-03
         0.23558E-03
        -0.49287E-03
        -0.52513E-03
        -0.50463E-03
        -0.27863E-03
         0.68217E-04
         0.19262E-03
         0.24151E-03
         0.43887E-03
         0.49032E-03
         0.19157E-03
         0.63786E-04
         0.52521E-04
        -0.25466E-04
        -0.23286E-03
        -0.42557E-03
        -0.55951E-03
        -0.36960E-03
         0.10688E-03
         0.20634E-03
         0.19800E-03
         0.35001E-03
         0.42597E-03
         0.28286E-03
         0.26676E-03
        -0.88899E-05
         0.11624E-05
        -0.20252E-05
        -0.14476E-05
         0.15423E-04
         0.59540E-05
         0.14393E-05
        -0.10444E-04
        -0.32169E-05
        -0.95384E-05
         0.88499E-06
        -0.16067E-04
        -0.31038E-04
         0.33553E-05
         0.40967E-04
        -0.65773E-05
         0.11800E-05
         0.61341E-06
         0.19128E-05
         0.61832E-06
         0.17414E-04
         0.11661E-04
        -0.66805E-05
         0.13475E-05
         0.32465E-05
        -0.51607E-06
         0.76705E-06
        -0.16328E-06
        -0.68937E-06
        -0.52496E-05
        -0.54582E-05
        -0.89961E-06
         0.22378E-05
         0.17191E-05
         0.37737E-05
        -0.67212E-05
        -0.14667E-04
         0.35029E-04
         0.54376E-05
         0.13316E-04
         0.35342E-04
        -0.87159E-05
        -0.18006E-04
        -0.16272E-04
        -0.16041E-04
        -0.19125E-04
         0.12060E-04
         0.94043E-05
        -0.14810E-05
         0.21618E-05
         0.23461E-04
         0.14061E-05
        -0.16233E-03
         0.23553E-03
        -0.49291E-03
        -0.52514E-03
        -0.50442E-03
        -0.27845E-03
         0.68263E-04
         0.19268E-03
         0.24125E-03
         0.43857E-03
         0.49016E-03
         0.19172E-03
         0.63792E-04
         0.52624E-04
        -0.25250E-04
        -0.23308E-03
        -0.42594E-03
        -0.55978E-03
        -0.36948E-03
         0.10691E-03
         0.20617E-03
         0.19791E-03
         0.34967E-03
         0.42541E-03
         0.28241E-03
         0.26629E-03
        -0.89085E-05
         0.11682E-05
        -0.20283E-05
        -0.14592E-05
         0.15410E-04
         0.59532E-05
         0.14494E-05
        -0.10429E-04
        -0.32255E-05
        -0.95589E-05
         0.86527E-06
        -0.16105E-04
        -0.31068E-04
         0.33498E-05
         0.40997E-04
        -0.65868E-05
         0.11940E-05
         0.61066E-06
         0.19133E-05
         0.61319E-06
         0.17458E-04
         0.11669E-04
        -0.66910E-05
         0.13456E-05
         0.32677E-05
        -0.51524E-06
         0.78070E-06
        -0.16178E-06
        -0.68553E-06
        -0.52617E-05
        -0.54662E-05
        -0.89419E-06
         0.22328E-05
         0.17227E-05
         0.37372E-05
        -0.67246E-05
        -0.14665E-04
         0.35139E-04
         0.54993E-05
         0.13377E-04
         0.35406E-04
        -0.86773E-05
        -0.18019E-04
        -0.16295E-04
        -0.16047E-04
        -0.19122E-04
         0.12062E-04
         0.94065E-05
        -0.14663E-05
         0.21544E-05
         0.23439E-04
         0.13805E-05
        -0.16212E-03
         0.23548E-03
        -0.49295E-03
        -0.52514E-03
        -0.50420E-03
        -0.27827E-03
         0.68309E-04
         0.19274E-03
         0.24100E-03
         0.43827E-03
         0.49000E-03
         0.19186E-03
         0.63799E-04
         0.52727E-04
        -0.25034E-04
        -0.23330E-03
        -0.42630E-03
        -0.56005E-03
        -0.36936E-03
         0.10694E-03
         0.20600E-03
         0.19783E-03
         0.34932E-03
         0.42484E-03
         0.28196E-03
         0.26581E-03
        -0.89270E-05
         0.11741E-05
        -0.20315E-05
        -0.14709E-05
         0.15398E-04
         0.59524E-05
         0.14595E-05
        -0.10415E-04
        -0.32342E-05
        -0.95795E-05
         0.84555E-06
        -0.16143E-04
        -0.31097E-04
         0.33449E-05
         0.41027E-04
        -0.65963E-05
         0.12080E-05
         0.60791E-06
         0.19137E-05
         0.60800E-06
         0.17502E-04
         0.11678E-04
        -0.67017E-05
         0.13439E-05
         0.32889E-05
        -0.51441E-06
         0.79470E-06
        -0.16020E-06
        -0.68157E-06
        -0.52737E-05
        -0.54740E-05
        -0.88885E-06
         0.22278E-05
         0.17262E-05
         0.37004E-05
        -0.67273E-05
        -0.14662E-04
         0.35250E-04
         0.55616E-05
         0.13437E-04
         0.35470E-04
        -0.86387E-05
        -0.18033E-04
        -0.16319E-04
        -0.16054E-04
        -0.19119E-04
         0.12065E-04
         0.94089E-05
        -0.14516E-05
         0.21472E-05
         0.23418E-04
         0.13548E-05
        -0.16191E-03
         0.23543E-03
        -0.49299E-03
        -0.52515E-03
        -0.50398E-03
        -0.27809E-03
         0.68355E-04
         0.19279E-03
         0.24075E-03
         0.43797E-03
         0.48984E-03
         0.19201E-03
         0.63807E-04
         0.52832E-04
        -0.24818E-04
        -0.23353E-03
        -0.42667E-03
        -0.56031E-03
        -0.36924E-03
         0.10697E-03
         0.20583E-03
         0.19775E-03
         0.34898E-03
         0.42428E-03
         0.28151E-03
         0.26534E-03
        -0.89454E-05
         0.11800E-05
        -0.20346E-05
        -0.14826E-05
         0.15385E-04
         0.59515E-05
         0.14696E-05
        -0.10400E-04
        -0.32428E-05
        -0.95998E-05
         0.82582E-06
        -0.16181E-04
        -0.31128E-04
         0.33394E-05
         0.41057E-04
        -0.66057E-05
         0.12221E-05
         0.60519E-06
         0.19141E-05
         0.60283E-06
         0.17547E-04
         0.11686E-04
        -0.67117E-05
         0.13421E-05
         0.33101E-05
        -0.51358E-06
         0.80833E-06
        -0.15856E-06
        -0.67752E-06
        -0.52857E-05
        -0.54819E-05
        -0.88345E-06
         0.22228E-05
         0.17298E-05
         0.36636E-05
        -0.67307E-05
        -0.14660E-04
         0.35362E-04
         0.56240E-05
         0.13499E-04
         0.35535E-04
        -0.86002E-05
        -0.18046E-04
        -0.16343E-04
        -0.16060E-04
        -0.19116E-04
         0.12067E-04
         0.94116E-05
        -0.14370E-05
         0.21396E-05
         0.23396E-04
         0.13292E-05
        -0.16170E-03
         0.23538E-03
        -0.49303E-03
        -0.52515E-03
        -0.50376E-03
        -0.27791E-03
         0.68400E-04
         0.19285E-03
         0.24049E-03
         0.43767E-03
         0.48968E-03
         0.19216E-03
         0.63815E-04
         0.52937E-04
        -0.24603E-04
        -0.23375E-03
        -0.42704E-03
        -0.56058E-03
        -0.36913E-03
         0.10699E-03
         0.20565E-03
         0.19767E-03
         0.34864E-03
         0.42372E-03
         0.28107E-03
         0.26487E-03
        -0.89638E-05
         0.11858E-05
        -0.20378E-05
        -0.14942E-05
         0.15373E-04
         0.59509E-05
         0.14798E-05
        -0.10385E-04
        -0.32515E-05
        -0.96201E-05
         0.80602E-06
        -0.16219E-04
        -0.31158E-04
         0.33343E-05
         0.41086E-04
        -0.66152E-05
         0.12363E-05
         0.60248E-06
         0.19148E-05
         0.59760E-06
         0.17591E-04
         0.11694E-04
        -0.67223E-05
         0.13403E-05
         0.33313E-05
        -0.51272E-06
         0.82222E-06
        -0.15681E-06
        -0.67335E-06
        -0.52977E-05
        -0.54897E-05
        -0.87809E-06
         0.22177E-05
         0.17333E-05
         0.36267E-05
        -0.67337E-05
        -0.14657E-04
         0.35473E-04
         0.56869E-05
         0.13559E-04
         0.35599E-04
        -0.85616E-05
        -0.18059E-04
        -0.16366E-04
        -0.16066E-04
        -0.19113E-04
         0.12070E-04
         0.94139E-05
        -0.14223E-05
         0.21322E-05
         0.23375E-04
         0.13037E-05
        -0.16149E-03
         0.23534E-03
        -0.49306E-03
        -0.52515E-03
        -0.50354E-03
        -0.27773E-03
         0.68443E-04
         0.19291E-03
         0.24024E-03
         0.43737E-03
         0.48952E-03
         0.19231E-03
         0.63822E-04
         0.53040E-04
        -0.24387E-04
        -0.23397E-03
        -0.42741E-03
        -0.56084E-03
        -0.36901E-03
         0.10702E-03
         0.20548E-03
         0.19759E-03
         0.34830E-03
         0.42316E-03
         0.28062E-03
         0.26440E-03
        -0.89823E-05
         0.11917E-05
        -0.20409E-05
        -0.15060E-05
         0.15360E-04
         0.59500E-05
         0.14899E-05
        -0.10371E-04
        -0.32602E-05
        -0.96403E-05
         0.78624E-06
        -0.16257E-04
        -0.31187E-04
         0.33292E-05
         0.41115E-04
        -0.66247E-05
         0.12506E-05
         0.59974E-06
         0.19152E-05
         0.59247E-06
         0.17635E-04
         0.11702E-04
        -0.67329E-05
         0.13386E-05
         0.33525E-05
        -0.51191E-06
         0.83580E-06
        -0.15501E-06
        -0.66901E-06
        -0.53098E-05
        -0.54976E-05
        -0.87271E-06
         0.22125E-05
         0.17369E-05
         0.35895E-05
        -0.67368E-05
        -0.14654E-04
         0.35585E-04
         0.57501E-05
         0.13620E-04
         0.35663E-04
        -0.85233E-05
        -0.18072E-04
        -0.16390E-04
        -0.16073E-04
        -0.19111E-04
         0.12072E-04
         0.94168E-05
        -0.14077E-05
         0.21250E-05
         0.23353E-04
         0.12782E-05
        -0.16128E-03
         0.23529E-03
        -0.49310E-03
        -0.52516E-03
        -0.50333E-03
        -0.27755E-03
         0.68487E-04
         0.19297E-03
         0.23999E-03
         0.43707E-03
         0.48936E-03
         0.19245E-03
         0.63829E-04
         0.53143E-04
        -0.24170E-04
        -0.23420E-03
        -0.42777E-03
        -0.56111E-03
        -0.36889E-03
         0.10705E-03
         0.20531E-03
         0.19751E-03
         0.34796E-03
         0.42260E-03
         0.28018E-03
         0.26393E-03
        -0.90008E-05
         0.11976E-05
        -0.20439E-05
        -0.15178E-05
         0.15348E-04
         0.59492E-05
         0.15000E-05
        -0.10356E-04
        -0.32688E-05
        -0.96601E-05
         0.76649E-06
        -0.16295E-04
        -0.31218E-04
         0.33236E-05
         0.41145E-04
        -0.66341E-05
         0.12649E-05
         0.59699E-06
         0.19157E-05
         0.58734E-06
         0.17680E-04
         0.11710E-04
        -0.67432E-05
         0.13369E-05
         0.33736E-05
        -0.51104E-06
         0.84976E-06
        -0.15311E-06
        -0.66462E-06
        -0.53217E-05
        -0.55054E-05
        -0.86728E-06
         0.22072E-05
         0.17405E-05
         0.35522E-05
        -0.67403E-05
        -0.14652E-04
         0.35696E-04
         0.58136E-05
         0.13682E-04
         0.35728E-04
        -0.84845E-05
        -0.18085E-04
        -0.16414E-04
        -0.16079E-04
        -0.19107E-04
         0.12074E-04
         0.94192E-05
        -0.13930E-05
         0.21176E-05
         0.23331E-04
         0.12529E-05
        -0.16107E-03
         0.23524E-03
        -0.49313E-03
        -0.52516E-03
        -0.50311E-03
        -0.27737E-03
         0.68532E-04
         0.19302E-03
         0.23974E-03
         0.43677E-03
         0.48920E-03
         0.19260E-03
         0.63836E-04
         0.53247E-04
        -0.23954E-04
        -0.23442E-03
        -0.42814E-03
        -0.56137E-03
        -0.36877E-03
         0.10707E-03
         0.20514E-03
         0.19743E-03
         0.34762E-03
         0.42204E-03
         0.27974E-03
         0.26346E-03
        -0.90193E-05
         0.12034E-05
        -0.20470E-05
        -0.15295E-05
         0.15336E-04
         0.59484E-05
         0.15102E-05
        -0.10340E-04
        -0.32775E-05
        -0.96798E-05
         0.74673E-06
        -0.16333E-04
        -0.31248E-04
         0.33184E-05
         0.41174E-04
        -0.66435E-05
         0.12793E-05
         0.59428E-06
         0.19164E-05
         0.58226E-06
         0.17724E-04
         0.11718E-04
        -0.67538E-05
         0.13352E-05
         0.33948E-05
        -0.51016E-06
         0.86336E-06
        -0.15115E-06
        -0.66014E-06
        -0.53336E-05
        -0.55132E-05
        -0.86190E-06
         0.22019E-05
         0.17441E-05
         0.35147E-05
        -0.67433E-05
        -0.14649E-04
         0.35808E-04
         0.58774E-05
         0.13743E-04
         0.35793E-04
        -0.84458E-05
        -0.18098E-04
        -0.16437E-04
        -0.16086E-04
        -0.19104E-04
         0.12077E-04
         0.94216E-05
        -0.13783E-05
         0.21103E-05
         0.23310E-04
         0.12278E-05
        -0.16086E-03
         0.23519E-03
        -0.49317E-03
        -0.52517E-03
        -0.50290E-03
        -0.27719E-03
         0.68575E-04
         0.19307E-03
         0.23948E-03
         0.43646E-03
         0.48904E-03
         0.19275E-03
         0.63843E-04
         0.53351E-04
        -0.23738E-04
        -0.23464E-03
        -0.42851E-03
        -0.56164E-03
        -0.36866E-03
         0.10709E-03
         0.20497E-03
         0.19735E-03
         0.34727E-03
         0.42148E-03
         0.27930E-03
         0.26299E-03
        -0.90378E-05
         0.12092E-05
        -0.20501E-05
        -0.15413E-05
         0.15323E-04
         0.59474E-05
         0.15203E-05
        -0.10325E-04
        -0.32861E-05
        -0.96996E-05
         0.72695E-06
        -0.16372E-04
        -0.31277E-04
         0.33127E-05
         0.41203E-04
        -0.66530E-05
         0.12939E-05
         0.59158E-06
         0.19169E-05
         0.57712E-06
         0.17768E-04
         0.11725E-04
        -0.67640E-05
         0.13335E-05
         0.34160E-05
        -0.50927E-06
         0.87721E-06
        -0.14910E-06
        -0.65558E-06
        -0.53455E-05
        -0.55209E-05
        -0.85647E-06
         0.21965E-05
         0.17476E-05
         0.34772E-05
        -0.67468E-05
        -0.14647E-04
         0.35919E-04
         0.59415E-05
         0.13804E-04
         0.35857E-04
        -0.84070E-05
        -0.18111E-04
        -0.16461E-04
        -0.16092E-04
        -0.19102E-04
         0.12079E-04
         0.94245E-05
        -0.13635E-05
         0.21030E-05
         0.23288E-04
         0.12026E-05
        -0.16065E-03
         0.23514E-03
        -0.49320E-03
        -0.52517E-03
        -0.50268E-03
        -0.27700E-03
         0.68617E-04
         0.19312E-03
         0.23923E-03
         0.43616E-03
         0.48888E-03
         0.19289E-03
         0.63850E-04
         0.53455E-04
        -0.23522E-04
        -0.23487E-03
        -0.42888E-03
        -0.56190E-03
        -0.36854E-03
         0.10712E-03
         0.20480E-03
         0.19727E-03
         0.34693E-03
         0.42092E-03
         0.27886E-03
         0.26252E-03
        -0.90563E-05
         0.12151E-05
        -0.20532E-05
        -0.15531E-05
         0.15311E-04
         0.59468E-05
         0.15304E-05
        -0.10310E-04
        -0.32949E-05
        -0.97192E-05
         0.70712E-06
        -0.16410E-04
        -0.31308E-04
         0.33074E-05
         0.41231E-04
        -0.66624E-05
         0.13085E-05
         0.58889E-06
         0.19174E-05
         0.57203E-06
         0.17813E-04
         0.11733E-04
        -0.67744E-05
         0.13319E-05
         0.34371E-05
        -0.50838E-06
         0.89070E-06
        -0.14696E-06
        -0.65093E-06
        -0.53574E-05
        -0.55287E-05
        -0.85110E-06
         0.21911E-05
         0.17513E-05
         0.34393E-05
        -0.67498E-05
        -0.14645E-04
         0.36031E-04
         0.60060E-05
         0.13865E-04
         0.35921E-04
        -0.83682E-05
        -0.18124E-04
        -0.16483E-04
        -0.16099E-04
        -0.19098E-04
         0.12081E-04
         0.94269E-05
        -0.13489E-05
         0.20956E-05
         0.23266E-04
         0.11775E-05
        -0.16044E-03
         0.23509E-03
        -0.49324E-03
        -0.52518E-03
        -0.50247E-03
        -0.27682E-03
         0.68657E-04
         0.19318E-03
         0.23898E-03
         0.43586E-03
         0.48872E-03
         0.19304E-03
         0.63856E-04
         0.53557E-04
        -0.23306E-04
        -0.23509E-03
        -0.42925E-03
        -0.56217E-03
        -0.36842E-03
         0.10714E-03
         0.20462E-03
         0.19719E-03
         0.34659E-03
         0.42036E-03
         0.27842E-03
         0.26205E-03
        -0.90748E-05
         0.12209E-05
        -0.20563E-05
        -0.15649E-05
         0.15299E-04
         0.59459E-05
         0.15406E-05
        -0.10294E-04
        -0.33035E-05
        -0.97382E-05
         0.68726E-06
        -0.16448E-04
        -0.31338E-04
         0.33016E-05
         0.41259E-04
        -0.66719E-05
         0.13233E-05
         0.58618E-06
         0.19180E-05
         0.56699E-06
         0.17857E-04
         0.11740E-04
        -0.67847E-05
         0.13303E-05
         0.34581E-05
        -0.50746E-06
         0.90454E-06
        -0.14472E-06
        -0.64611E-06
        -0.53691E-05
        -0.55365E-05
        -0.84571E-06
         0.21856E-05
         0.17549E-05
         0.34014E-05
        -0.67529E-05
        -0.14642E-04
         0.36143E-04
         0.60713E-05
         0.13927E-04
         0.35985E-04
        -0.83297E-05
        -0.18138E-04
        -0.16507E-04
        -0.16105E-04
        -0.19096E-04
         0.12084E-04
         0.94297E-05
        -0.13343E-05
         0.20882E-05
         0.23245E-04
         0.11527E-05
        -0.16023E-03
         0.23504E-03
        -0.49327E-03
        -0.52518E-03
        -0.50225E-03
        -0.27664E-03
         0.68696E-04
         0.19323E-03
         0.23873E-03
         0.43555E-03
         0.48857E-03
         0.19319E-03
         0.63861E-04
         0.53659E-04
        -0.23090E-04
        -0.23531E-03
        -0.42962E-03
        -0.56243E-03
        -0.36830E-03
         0.10717E-03
         0.20445E-03
         0.19711E-03
         0.34625E-03
         0.41980E-03
         0.27798E-03
         0.26159E-03
        -0.90933E-05
         0.12267E-05
        -0.20593E-05
        -0.15767E-05
         0.15286E-04
         0.59449E-05
         0.15508E-05
        -0.10279E-04
        -0.33120E-05
        -0.97559E-05
         0.66740E-06
        -0.16487E-04
        -0.31367E-04
         0.32961E-05
         0.41287E-04
        -0.66814E-05
         0.13382E-05
         0.58347E-06
         0.19188E-05
         0.56219E-06
         0.17901E-04
         0.11747E-04
        -0.67953E-05
         0.13286E-05
         0.34787E-05
        -0.50660E-06
         0.91817E-06
        -0.14231E-06
        -0.64123E-06
        -0.53806E-05
        -0.55443E-05
        -0.84022E-06
         0.21800E-05
         0.17585E-05
         0.33633E-05
        -0.67564E-05
        -0.14639E-04
         0.36255E-04
         0.61383E-05
         0.13987E-04
         0.36046E-04
        -0.82901E-05
        -0.18151E-04
        -0.16531E-04
        -0.16112E-04
        -0.19092E-04
         0.12086E-04
         0.94323E-05
        -0.13198E-05
         0.20809E-05
         0.23224E-04
         0.11278E-05
        -0.16002E-03
         0.23499E-03
        -0.49330E-03
        -0.52518E-03
        -0.50203E-03
        -0.27646E-03
         0.68737E-04
         0.19328E-03
         0.23848E-03
         0.43523E-03
         0.48841E-03
         0.19335E-03
         0.63863E-04
         0.53761E-04
        -0.22875E-04
        -0.23553E-03
        -0.42999E-03
        -0.56269E-03
        -0.36819E-03
         0.10719E-03
         0.20428E-03
         0.19703E-03
         0.34591E-03
         0.41924E-03
         0.27755E-03
         0.26112E-03
        -0.91118E-05
         0.12325E-05
        -0.20624E-05
        -0.15886E-05
         0.15274E-04
         0.59439E-05
         0.15609E-05
        -0.10263E-04
        -0.33202E-05
        -0.97724E-05
         0.64756E-06
        -0.16525E-04
        -0.31398E-04
         0.32905E-05
         0.41314E-04
        -0.66907E-05
         0.13533E-05
         0.58075E-06
         0.19193E-05
         0.55753E-06
         0.17946E-04
         0.11753E-04
        -0.68057E-05
         0.13270E-05
         0.34986E-05
        -0.50566E-06
         0.93232E-06
        -0.13971E-06
        -0.63626E-06
        -0.53915E-05
        -0.55520E-05
        -0.83481E-06
         0.21744E-05
         0.17622E-05
         0.33250E-05
        -0.67595E-05
        -0.14637E-04
         0.36366E-04
         0.62068E-05
         0.14047E-04
         0.36105E-04
        -0.82502E-05
        -0.18164E-04
        -0.16554E-04
        -0.16118E-04
        -0.19090E-04
         0.12089E-04
         0.94349E-05
        -0.13052E-05
         0.20736E-05
         0.23202E-04
         0.11029E-05
        -0.15981E-03
         0.23494E-03
        -0.49333E-03
        -0.52519E-03
        -0.50181E-03
        -0.27628E-03
         0.68776E-04
         0.19333E-03
         0.23823E-03
         0.43490E-03
         0.48827E-03
         0.19351E-03
         0.63861E-04
         0.53863E-04
        -0.22658E-04
        -0.23575E-03
        -0.43036E-03
        -0.56295E-03
        -0.36807E-03
         0.10721E-03
         0.20411E-03
         0.19695E-03
         0.34556E-03
         0.41868E-03
         0.27711E-03
         0.26065E-03
        -0.91304E-05
         0.12383E-05
        -0.20655E-05
        -0.16004E-05
         0.15262E-04
         0.59432E-05
         0.15711E-05
        -0.10247E-04
        -0.33284E-05
        -0.97885E-05
         0.62783E-06
        -0.16563E-04
        -0.31427E-04
         0.32845E-05
         0.41340E-04
        -0.67002E-05
         0.13686E-05
         0.57808E-06
         0.19199E-05
         0.55301E-06
         0.17990E-04
         0.11760E-04
        -0.68153E-05
         0.13255E-05
         0.35184E-05
        -0.50478E-06
         0.94609E-06
        -0.13698E-06
        -0.63125E-06
        -0.54022E-05
        -0.55598E-05
        -0.82951E-06
         0.21688E-05
         0.17659E-05
         0.32870E-05
        -0.67627E-05
        -0.14634E-04
         0.36477E-04
         0.62761E-05
         0.14105E-04
         0.36162E-04
        -0.82109E-05
        -0.18177E-04
        -0.16577E-04
        -0.16124E-04
        -0.19087E-04
         0.12091E-04
         0.94377E-05
        -0.12907E-05
         0.20662E-05
         0.23181E-04
         0.10782E-05
        -0.15960E-03
         0.23489E-03
        -0.49337E-03
        -0.52519E-03
        -0.50160E-03
        -0.27610E-03
         0.68814E-04
         0.19338E-03
         0.23798E-03
         0.43456E-03
         0.48813E-03
         0.19367E-03
         0.63855E-04
         0.53964E-04
        -0.22442E-04
        -0.23597E-03
        -0.43073E-03
        -0.56322E-03
        -0.36795E-03
         0.10724E-03
         0.20394E-03
         0.19687E-03
         0.34522E-03
         0.41813E-03
         0.27668E-03
         0.26018E-03
        -0.92164E-05
         0.12523E-05
        -0.20846E-05
        -0.16237E-05
         0.15359E-04
         0.59850E-05
         0.15921E-05
        -0.10309E-04
        -0.33606E-05
        -0.98768E-05
         0.61513E-06
        -0.16705E-04
        -0.31672E-04
         0.33032E-05
         0.41663E-04
        -0.67592E-05
         0.13932E-05
         0.57982E-06
         0.19340E-05
         0.55280E-06
         0.18154E-04
         0.11848E-04
        -0.68661E-05
         0.13345E-05
         0.35629E-05
        -0.50812E-06
         0.96578E-06
        -0.13517E-06
        -0.63213E-06
        -0.54526E-05
        -0.56093E-05
        -0.83179E-06
         0.21799E-05
         0.17827E-05
         0.32756E-05
        -0.68112E-05
        -0.14731E-04
         0.36844E-04
         0.63855E-05
         0.14261E-04
         0.36474E-04
        -0.82406E-05
        -0.18324E-04
        -0.16705E-04
        -0.16237E-04
        -0.19209E-04
         0.12176E-04
         0.95052E-05
        -0.12868E-05
         0.20735E-05
         0.23323E-04
         0.10615E-05
        -0.16040E-03
         0.23637E-03
        -0.49657E-03
        -0.52856E-03
        -0.50466E-03
        -0.27772E-03
         0.69341E-04
         0.19472E-03
         0.23937E-03
         0.43723E-03
         0.49132E-03
         0.19507E-03
         0.64238E-04
         0.54393E-04
        -0.22372E-04
        -0.23756E-03
        -0.43361E-03
        -0.56693E-03
        -0.37021E-03
         0.10799E-03
         0.20509E-03
         0.19801E-03
         0.34708E-03
         0.42026E-03
         0.27801E-03
         0.26136E-03
        -0.20403E-04
         0.28018E-05
        -0.45980E-05
        -0.36261E-05
         0.31516E-04
         0.12524E-04
         0.35447E-05
        -0.22563E-04
        -0.74045E-05
        -0.21539E-04
         0.13004E-05
        -0.33067E-04
        -0.64600E-04
         0.70156E-05
         0.83333E-04
        -0.14992E-04
         0.30912E-05
         0.12837E-05
         0.41725E-05
         0.11948E-05
         0.37045E-04
         0.24769E-04
        -0.14058E-04
         0.29237E-05
         0.79264E-05
        -0.11323E-05
         0.21040E-05
        -0.29539E-06
        -0.14079E-05
        -0.12090E-04
        -0.12448E-04
        -0.18335E-05
         0.48440E-05
         0.39651E-05
         0.63875E-05
        -0.14220E-04
        -0.30769E-04
         0.77102E-04
         0.13793E-04
         0.30935E-04
         0.76884E-04
        -0.17594E-04
        -0.39175E-04
        -0.34724E-04
        -0.33515E-04
        -0.37410E-04
         0.24961E-04
         0.19987E-04
        -0.27145E-05
         0.43570E-05
         0.46719E-04
         0.21719E-05
        -0.24907E-03
         0.36628E-03
        -0.76999E-03
        -0.82430E-03
        -0.78584E-03
        -0.43453E-03
         0.11111E-03
         0.31688E-03
         0.38780E-03
         0.70029E-03
         0.78898E-03
         0.31218E-03
         0.10500E-03
         0.89616E-04
        -0.35655E-04
        -0.37253E-03
        -0.67590E-03
        -0.87399E-03
        -0.56972E-03
         0.16673E-03
         0.32296E-03
         0.31457E-03
         0.54739E-03
         0.66727E-03
         0.43863E-03
         0.40933E-03
  
SCALARS                      strain_eq  double 1
LOOKUP_TABLE default
         0.66955E+00
         0.65133E+00
         0.66290E+00
         0.68362E+00
         0.12365E-08
         0.13710E-08
         0.13320E-08
         0.11985E-08
         0.65082E+00
         0.65692E+00
         0.13484E-08
         0.12895E-08
         0.62499E+00
         0.62401E+00
         0.14753E-08
         0.14049E-08
         0.68058E+00
         0.62544E+00
         0.11005E-08
         0.12378E-08
         0.60522E+00
         0.58961E+00
         0.61456E+00
         0.15194E-08
         0.14494E-08
         0.14417E-08
         0.59017E+00
         0.56735E+00
         0.14718E-08
         0.13367E-08
         0.67958E+00
         0.65557E+00
         0.70290E+00
         0.11976E-08
         0.11246E-08
         0.10773E-08
         0.66570E+00
         0.63513E+00
         0.13057E-08
         0.11903E-08
         0.65361E+00
         0.63006E+00
         0.12145E-08
         0.10477E-08
         0.67359E+00
         0.68243E+00
         0.13114E-08
         0.13600E-08
         0.61113E+00
         0.11754E-08
         0.68070E+00
         0.13667E-08
         0.58356E+00
         0.12850E-08
         0.57637E+00
         0.11861E-08
         0.57652E+00
         0.60204E+00
         0.12019E-08
         0.11819E-08
         0.67909E+00
         0.66989E+00
         0.12127E-08
         0.13728E-08
         0.68486E+00
         0.11640E-08
         0.67390E+00
         0.12748E-08
         0.64526E+00
         0.64225E+00
         0.13636E-08
         0.13628E-08
         0.63569E+00
         0.13791E-08
         0.55926E+00
         0.11024E-08
         0.55528E+00
         0.10260E-08
         0.55732E+00
         0.10688E-08
         0.56850E+00
         0.57985E+00
         0.10338E-08
         0.10738E-08
         0.60294E+00
         0.10113E-08
         0.67316E+00
         0.13578E-08
         0.66225E+00
         0.13827E-08
         0.65340E+00
         0.64829E+00
         0.13814E-08
         0.13551E-08
         0.65430E+00
         0.12161E-08
         0.65863E+00
         0.11907E-08
         0.65477E+00
         0.12879E-08
         0.65351E+00
         0.65738E+00
         0.13240E-08
         0.13204E-08
         0.63238E+00
         0.64293E+00
         0.12589E-08
         0.12152E-08
         0.63061E+00
         0.12226E-08
         0.64277E+00
         0.11937E-08
         0.63088E+00
         0.11922E-08
         0.60478E+00
         0.11178E-08
         0.57964E+00
         0.94580E-09
         0.56453E+00
         0.79917E-09
         0.56298E+00
         0.77510E-09
         0.56344E+00
         0.82582E-09
         0.57980E+00
         0.85190E-09
         0.61072E+00
         0.79803E-09
         0.64463E+00
         0.72835E-09
         0.66433E+00
         0.75380E-09
         0.68387E+00
         0.89353E-09
         0.69681E+00
         0.10431E-08
         0.69642E+00
         0.11118E-08
         0.66467E+00
         0.11871E-08
         0.64251E+00
         0.12475E-08
         0.63526E+00
         0.11640E-08
         0.64718E+00
         0.10248E-08
         0.65321E+00
         0.10228E-08
         0.64268E+00
         0.11255E-08
         0.64265E+00
         0.11943E-08
         0.65059E+00
         0.11556E-08
         0.66091E+00
         0.11299E-08
         0.30165E+00
         0.30557E+00
         0.30503E+00
         0.29986E+00
         0.30940E+00
         0.30466E+00
         0.31037E+00
         0.30741E+00
         0.30071E+00
         0.30494E+00
         0.31351E+00
         0.31474E+00
         0.31212E+00
         0.31175E+00
         0.31368E+00
         0.30012E+00
         0.30109E+00
         0.29834E+00
         0.30598E+00
         0.30462E+00
         0.30673E+00
         0.30548E+00
         0.30781E+00
         0.30704E+00
         0.30475E+00
         0.30489E+00
         0.30880E+00
         0.30843E+00
         0.31128E+00
         0.30699E+00
         0.30060E+00
         0.30561E+00
         0.30063E+00
         0.30393E+00
         0.31536E+00
         0.31173E+00
         0.31007E+00
         0.31217E+00
         0.31236E+00
         0.31552E+00
         0.31798E+00
         0.31226E+00
         0.30671E+00
         0.30740E+00
         0.31026E+00
         0.31527E+00
         0.31094E+00
         0.30631E+00
         0.30662E+00
         0.31021E+00
         0.31390E+00
         0.30898E+00
         0.32532E+00
         0.32162E+00
         0.32249E+00
         0.32173E+00
         0.32231E+00
         0.32492E+00
         0.32693E+00
         0.32706E+00
         0.32662E+00
         0.32704E+00
         0.32776E+00
         0.32223E+00
         0.31941E+00
         0.31832E+00
         0.31712E+00
         0.31624E+00
         0.31650E+00
         0.31857E+00
         0.32428E+00
         0.32316E+00
         0.32085E+00
         0.32062E+00
         0.32103E+00
         0.32281E+00
         0.32011E+00
         0.31915E+00
         0.87849E-02
         0.52784E-02
         0.49789E-02
         0.34141E-02
         0.91230E-02
         0.63076E-02
         0.27842E-02
         0.86401E-02
         0.54122E-02
         0.81414E-02
         0.39695E-02
         0.17105E-01
         0.12989E-01
         0.64963E-02
         0.17915E-01
         0.63832E-02
         0.32338E-02
         0.20632E-02
         0.42981E-02
         0.23269E-02
         0.13451E-01
         0.12620E-01
         0.12290E-01
         0.31982E-02
         0.52540E-02
         0.16706E-02
         0.61291E-02
         0.99549E-03
         0.22448E-02
         0.56988E-02
         0.54530E-02
         0.29005E-02
         0.35320E-02
         0.30555E-02
         0.11793E-01
         0.70571E-02
         0.91350E-02
         0.14610E-01
         0.11238E-01
         0.10460E-01
         0.14856E-01
         0.13467E-01
         0.13557E-01
         0.10495E-01
         0.93724E-02
         0.12821E-01
         0.84050E-02
         0.71469E-02
         0.58935E-02
         0.69595E-02
         0.11379E-01
         0.78126E-02
         0.49971E-01
         0.51167E-01
         0.53486E-01
         0.53097E-01
         0.56603E-01
         0.60776E-01
         0.58319E-01
         0.51854E-01
         0.50531E-01
         0.54082E-01
         0.53002E-01
         0.52281E-01
         0.43215E-01
         0.41080E-01
         0.45131E-01
         0.48342E-01
         0.50168E-01
         0.54789E-01
         0.52700E-01
         0.54128E-01
         0.48736E-01
         0.46273E-01
         0.49350E-01
         0.48243E-01
         0.49645E-01
         0.49227E-01
         0.87915E-02
         0.52796E-02
         0.49817E-02
         0.34190E-02
         0.91189E-02
         0.63040E-02
         0.27927E-02
         0.86484E-02
         0.54216E-02
         0.81654E-02
         0.39694E-02
         0.17105E-01
         0.12994E-01
         0.64811E-02
         0.17934E-01
         0.63883E-02
         0.32429E-02
         0.20580E-02
         0.43006E-02
         0.23218E-02
         0.13452E-01
         0.12619E-01
         0.12289E-01
         0.31981E-02
         0.52766E-02
         0.16702E-02
         0.61311E-02
         0.98495E-03
         0.22555E-02
         0.57088E-02
         0.54582E-02
         0.28995E-02
         0.35260E-02
         0.30583E-02
         0.11798E-01
         0.70551E-02
         0.91329E-02
         0.14633E-01
         0.11264E-01
         0.10475E-01
         0.14866E-01
         0.13474E-01
         0.13559E-01
         0.10495E-01
         0.93705E-02
         0.12821E-01
         0.84051E-02
         0.71464E-02
         0.58851E-02
         0.69500E-02
         0.11373E-01
         0.78006E-02
         0.49953E-01
         0.51154E-01
         0.53485E-01
         0.53097E-01
         0.56594E-01
         0.60756E-01
         0.58294E-01
         0.51840E-01
         0.50518E-01
         0.54065E-01
         0.52993E-01
         0.52282E-01
         0.43211E-01
         0.41078E-01
         0.45136E-01
         0.48354E-01
         0.50181E-01
         0.54800E-01
         0.52697E-01
         0.54125E-01
         0.48731E-01
         0.46270E-01
         0.49333E-01
         0.48212E-01
         0.49617E-01
         0.49200E-01
         0.87982E-02
         0.52809E-02
         0.49845E-02
         0.34240E-02
         0.91147E-02
         0.63005E-02
         0.28011E-02
         0.86568E-02
         0.54309E-02
         0.81892E-02
         0.39694E-02
         0.17104E-01
         0.12999E-01
         0.64659E-02
         0.17952E-01
         0.63936E-02
         0.32521E-02
         0.20527E-02
         0.43032E-02
         0.23168E-02
         0.13454E-01
         0.12618E-01
         0.12288E-01
         0.31980E-02
         0.52990E-02
         0.16697E-02
         0.61331E-02
         0.97480E-03
         0.22661E-02
         0.57185E-02
         0.54635E-02
         0.28986E-02
         0.35200E-02
         0.30610E-02
         0.11804E-01
         0.70533E-02
         0.91307E-02
         0.14656E-01
         0.11289E-01
         0.10489E-01
         0.14876E-01
         0.13482E-01
         0.13560E-01
         0.10495E-01
         0.93690E-02
         0.12820E-01
         0.84052E-02
         0.71459E-02
         0.58768E-02
         0.69404E-02
         0.11367E-01
         0.77886E-02
         0.49935E-01
         0.51142E-01
         0.53485E-01
         0.53098E-01
         0.56585E-01
         0.60735E-01
         0.58270E-01
         0.51826E-01
         0.50505E-01
         0.54049E-01
         0.52984E-01
         0.52284E-01
         0.43207E-01
         0.41077E-01
         0.45142E-01
         0.48366E-01
         0.50194E-01
         0.54812E-01
         0.52694E-01
         0.54121E-01
         0.48726E-01
         0.46267E-01
         0.49316E-01
         0.48180E-01
         0.49589E-01
         0.49174E-01
         0.88049E-02
         0.52820E-02
         0.49874E-02
         0.34289E-02
         0.91105E-02
         0.62969E-02
         0.28097E-02
         0.86650E-02
         0.54403E-02
         0.82125E-02
         0.39694E-02
         0.17104E-01
         0.13004E-01
         0.64507E-02
         0.17971E-01
         0.63993E-02
         0.32616E-02
         0.20474E-02
         0.43059E-02
         0.23115E-02
         0.13455E-01
         0.12618E-01
         0.12289E-01
         0.31977E-02
         0.53210E-02
         0.16690E-02
         0.61348E-02
         0.96585E-03
         0.22761E-02
         0.57274E-02
         0.54691E-02
         0.28979E-02
         0.35140E-02
         0.30638E-02
         0.11809E-01
         0.70513E-02
         0.91285E-02
         0.14678E-01
         0.11315E-01
         0.10505E-01
         0.14887E-01
         0.13489E-01
         0.13563E-01
         0.10496E-01
         0.93679E-02
         0.12820E-01
         0.84059E-02
         0.71455E-02
         0.58684E-02
         0.69308E-02
         0.11360E-01
         0.77766E-02
         0.49917E-01
         0.51130E-01
         0.53485E-01
         0.53098E-01
         0.56575E-01
         0.60715E-01
         0.58246E-01
         0.51812E-01
         0.50493E-01
         0.54033E-01
         0.52976E-01
         0.52287E-01
         0.43204E-01
         0.41075E-01
         0.45148E-01
         0.48380E-01
         0.50209E-01
         0.54825E-01
         0.52692E-01
         0.54118E-01
         0.48720E-01
         0.46265E-01
         0.49299E-01
         0.48149E-01
         0.49561E-01
         0.49148E-01
         0.88114E-02
         0.52832E-02
         0.49902E-02
         0.34338E-02
         0.91065E-02
         0.62933E-02
         0.28182E-02
         0.86732E-02
         0.54496E-02
         0.82352E-02
         0.39695E-02
         0.17103E-01
         0.13010E-01
         0.64355E-02
         0.17989E-01
         0.64054E-02
         0.32716E-02
         0.20421E-02
         0.43087E-02
         0.23061E-02
         0.13458E-01
         0.12617E-01
         0.12289E-01
         0.31972E-02
         0.53424E-02
         0.16678E-02
         0.61363E-02
         0.95804E-03
         0.22855E-02
         0.57353E-02
         0.54748E-02
         0.28972E-02
         0.35080E-02
         0.30666E-02
         0.11814E-01
         0.70494E-02
         0.91265E-02
         0.14701E-01
         0.11341E-01
         0.10521E-01
         0.14898E-01
         0.13497E-01
         0.13566E-01
         0.10498E-01
         0.93675E-02
         0.12821E-01
         0.84069E-02
         0.71454E-02
         0.58602E-02
         0.69212E-02
         0.11354E-01
         0.77645E-02
         0.49899E-01
         0.51118E-01
         0.53485E-01
         0.53099E-01
         0.56566E-01
         0.60694E-01
         0.58221E-01
         0.51799E-01
         0.50480E-01
         0.54016E-01
         0.52967E-01
         0.52290E-01
         0.43202E-01
         0.41074E-01
         0.45155E-01
         0.48395E-01
         0.50226E-01
         0.54838E-01
         0.52689E-01
         0.54115E-01
         0.48715E-01
         0.46262E-01
         0.49282E-01
         0.48117E-01
         0.49533E-01
         0.49122E-01
         0.88177E-02
         0.52841E-02
         0.49929E-02
         0.34387E-02
         0.91023E-02
         0.62897E-02
         0.28265E-02
         0.86808E-02
         0.54589E-02
         0.82574E-02
         0.39699E-02
         0.17103E-01
         0.13015E-01
         0.64203E-02
         0.18008E-01
         0.64117E-02
         0.32815E-02
         0.20369E-02
         0.43116E-02
         0.23009E-02
         0.13460E-01
         0.12617E-01
         0.12291E-01
         0.31967E-02
         0.53634E-02
         0.16666E-02
         0.61377E-02
         0.95085E-03
         0.22948E-02
         0.57429E-02
         0.54804E-02
         0.28964E-02
         0.35020E-02
         0.30693E-02
         0.11820E-01
         0.70478E-02
         0.91247E-02
         0.14724E-01
         0.11367E-01
         0.10537E-01
         0.14910E-01
         0.13505E-01
         0.13569E-01
         0.10501E-01
         0.93678E-02
         0.12822E-01
         0.84081E-02
         0.71456E-02
         0.58524E-02
         0.69118E-02
         0.11348E-01
         0.77528E-02
         0.49880E-01
         0.51106E-01
         0.53484E-01
         0.53099E-01
         0.56556E-01
         0.60674E-01
         0.58197E-01
         0.51785E-01
         0.50467E-01
         0.54000E-01
         0.52959E-01
         0.52294E-01
         0.43200E-01
         0.41074E-01
         0.45161E-01
         0.48411E-01
         0.50243E-01
         0.54851E-01
         0.52686E-01
         0.54112E-01
         0.48710E-01
         0.46259E-01
         0.49265E-01
         0.48086E-01
         0.49506E-01
         0.49096E-01
         0.88234E-02
         0.52843E-02
         0.49956E-02
         0.34437E-02
         0.90984E-02
         0.62862E-02
         0.28344E-02
         0.86873E-02
         0.54684E-02
         0.82786E-02
         0.39709E-02
         0.17103E-01
         0.13021E-01
         0.64053E-02
         0.18026E-01
         0.64181E-02
         0.32913E-02
         0.20315E-02
         0.43145E-02
         0.22957E-02
         0.13462E-01
         0.12617E-01
         0.12292E-01
         0.31963E-02
         0.53837E-02
         0.16651E-02
         0.61393E-02
         0.94385E-03
         0.23043E-02
         0.57506E-02
         0.54857E-02
         0.28950E-02
         0.34959E-02
         0.30720E-02
         0.11825E-01
         0.70464E-02
         0.91231E-02
         0.14748E-01
         0.11394E-01
         0.10554E-01
         0.14922E-01
         0.13513E-01
         0.13573E-01
         0.10504E-01
         0.93684E-02
         0.12823E-01
         0.84099E-02
         0.71465E-02
         0.58456E-02
         0.69028E-02
         0.11342E-01
         0.77411E-02
         0.49862E-01
         0.51093E-01
         0.53484E-01
         0.53099E-01
         0.56547E-01
         0.60653E-01
         0.58172E-01
         0.51771E-01
         0.50454E-01
         0.53983E-01
         0.52950E-01
         0.52297E-01
         0.43199E-01
         0.41073E-01
         0.45168E-01
         0.48427E-01
         0.50260E-01
         0.54864E-01
         0.52683E-01
         0.54109E-01
         0.48706E-01
         0.46257E-01
         0.49249E-01
         0.48054E-01
         0.49478E-01
         0.49070E-01
         0.88290E-02
         0.52843E-02
         0.49981E-02
         0.34486E-02
         0.90946E-02
         0.62826E-02
         0.28421E-02
         0.86932E-02
         0.54781E-02
         0.82993E-02
         0.39723E-02
         0.17103E-01
         0.13026E-01
         0.63904E-02
         0.18045E-01
         0.64245E-02
         0.33010E-02
         0.20261E-02
         0.43173E-02
         0.22907E-02
         0.13464E-01
         0.12617E-01
         0.12293E-01
         0.31959E-02
         0.54037E-02
         0.16635E-02
         0.61410E-02
         0.93710E-03
         0.23140E-02
         0.57582E-02
         0.54907E-02
         0.28932E-02
         0.34899E-02
         0.30747E-02
         0.11831E-01
         0.70454E-02
         0.91219E-02
         0.14771E-01
         0.11421E-01
         0.10571E-01
         0.14934E-01
         0.13521E-01
         0.13576E-01
         0.10507E-01
         0.93693E-02
         0.12825E-01
         0.84120E-02
         0.71475E-02
         0.58394E-02
         0.68941E-02
         0.11337E-01
         0.77296E-02
         0.49844E-01
         0.51081E-01
         0.53483E-01
         0.53099E-01
         0.56538E-01
         0.60632E-01
         0.58148E-01
         0.51757E-01
         0.50442E-01
         0.53967E-01
         0.52941E-01
         0.52301E-01
         0.43197E-01
         0.41072E-01
         0.45175E-01
         0.48444E-01
         0.50278E-01
         0.54877E-01
         0.52679E-01
         0.54105E-01
         0.48701E-01
         0.46255E-01
         0.49231E-01
         0.48023E-01
         0.49450E-01
         0.49043E-01
         0.88345E-02
         0.52843E-02
         0.50007E-02
         0.34536E-02
         0.90907E-02
         0.62790E-02
         0.28499E-02
         0.86992E-02
         0.54877E-02
         0.83201E-02
         0.39736E-02
         0.17103E-01
         0.13032E-01
         0.63755E-02
         0.18064E-01
         0.64309E-02
         0.33108E-02
         0.20208E-02
         0.43202E-02
         0.22856E-02
         0.13467E-01
         0.12617E-01
         0.12295E-01
         0.31956E-02
         0.54237E-02
         0.16619E-02
         0.61427E-02
         0.93055E-03
         0.23239E-02
         0.57658E-02
         0.54958E-02
         0.28916E-02
         0.34838E-02
         0.30773E-02
         0.11837E-01
         0.70441E-02
         0.91207E-02
         0.14795E-01
         0.11448E-01
         0.10587E-01
         0.14945E-01
         0.13529E-01
         0.13580E-01
         0.10510E-01
         0.93703E-02
         0.12828E-01
         0.84139E-02
         0.71486E-02
         0.58332E-02
         0.68854E-02
         0.11332E-01
         0.77180E-02
         0.49826E-01
         0.51069E-01
         0.53482E-01
         0.53100E-01
         0.56528E-01
         0.60612E-01
         0.58123E-01
         0.51743E-01
         0.50429E-01
         0.53950E-01
         0.52933E-01
         0.52304E-01
         0.43196E-01
         0.41071E-01
         0.45182E-01
         0.48460E-01
         0.50295E-01
         0.54890E-01
         0.52675E-01
         0.54102E-01
         0.48697E-01
         0.46252E-01
         0.49214E-01
         0.47991E-01
         0.49423E-01
         0.49017E-01
         0.88399E-02
         0.52842E-02
         0.50032E-02
         0.34586E-02
         0.90868E-02
         0.62754E-02
         0.28576E-02
         0.87051E-02
         0.54974E-02
         0.83408E-02
         0.39751E-02
         0.17103E-01
         0.13038E-01
         0.63607E-02
         0.18083E-01
         0.64372E-02
         0.33205E-02
         0.20155E-02
         0.43230E-02
         0.22806E-02
         0.13469E-01
         0.12617E-01
         0.12296E-01
         0.31953E-02
         0.54436E-02
         0.16603E-02
         0.61445E-02
         0.92424E-03
         0.23338E-02
         0.57735E-02
         0.55008E-02
         0.28898E-02
         0.34778E-02
         0.30800E-02
         0.11842E-01
         0.70431E-02
         0.91195E-02
         0.14818E-01
         0.11475E-01
         0.10604E-01
         0.14957E-01
         0.13538E-01
         0.13583E-01
         0.10513E-01
         0.93712E-02
         0.12830E-01
         0.84160E-02
         0.71499E-02
         0.58270E-02
         0.68766E-02
         0.11326E-01
         0.77064E-02
         0.49808E-01
         0.51057E-01
         0.53482E-01
         0.53100E-01
         0.56519E-01
         0.60591E-01
         0.58098E-01
         0.51729E-01
         0.50416E-01
         0.53933E-01
         0.52924E-01
         0.52308E-01
         0.43194E-01
         0.41071E-01
         0.45189E-01
         0.48476E-01
         0.50312E-01
         0.54903E-01
         0.52672E-01
         0.54099E-01
         0.48692E-01
         0.46250E-01
         0.49197E-01
         0.47960E-01
         0.49395E-01
         0.48991E-01
         0.88453E-02
         0.52841E-02
         0.50057E-02
         0.34636E-02
         0.90831E-02
         0.62719E-02
         0.28655E-02
         0.87110E-02
         0.55071E-02
         0.83615E-02
         0.39766E-02
         0.17103E-01
         0.13044E-01
         0.63459E-02
         0.18102E-01
         0.64436E-02
         0.33303E-02
         0.20102E-02
         0.43259E-02
         0.22755E-02
         0.13471E-01
         0.12617E-01
         0.12297E-01
         0.31950E-02
         0.54635E-02
         0.16588E-02
         0.61463E-02
         0.91808E-03
         0.23437E-02
         0.57811E-02
         0.55058E-02
         0.28881E-02
         0.34719E-02
         0.30827E-02
         0.11848E-01
         0.70420E-02
         0.91183E-02
         0.14842E-01
         0.11502E-01
         0.10620E-01
         0.14969E-01
         0.13546E-01
         0.13587E-01
         0.10516E-01
         0.93722E-02
         0.12832E-01
         0.84181E-02
         0.71510E-02
         0.58208E-02
         0.68679E-02
         0.11321E-01
         0.76949E-02
         0.49790E-01
         0.51045E-01
         0.53481E-01
         0.53100E-01
         0.56510E-01
         0.60570E-01
         0.58073E-01
         0.51715E-01
         0.50404E-01
         0.53917E-01
         0.52915E-01
         0.52311E-01
         0.43192E-01
         0.41070E-01
         0.45196E-01
         0.48492E-01
         0.50330E-01
         0.54915E-01
         0.52668E-01
         0.54095E-01
         0.48688E-01
         0.46248E-01
         0.49180E-01
         0.47929E-01
         0.49367E-01
         0.48965E-01
         0.88508E-02
         0.52841E-02
         0.50082E-02
         0.34686E-02
         0.90792E-02
         0.62684E-02
         0.28733E-02
         0.87169E-02
         0.55168E-02
         0.83821E-02
         0.39782E-02
         0.17103E-01
         0.13050E-01
         0.63311E-02
         0.18121E-01
         0.64499E-02
         0.33401E-02
         0.20048E-02
         0.43287E-02
         0.22705E-02
         0.13474E-01
         0.12617E-01
         0.12299E-01
         0.31947E-02
         0.54834E-02
         0.16573E-02
         0.61481E-02
         0.91218E-03
         0.23537E-02
         0.57887E-02
         0.55108E-02
         0.28864E-02
         0.34659E-02
         0.30853E-02
         0.11854E-01
         0.70408E-02
         0.91170E-02
         0.14865E-01
         0.11529E-01
         0.10637E-01
         0.14981E-01
         0.13554E-01
         0.13591E-01
         0.10519E-01
         0.93731E-02
         0.12834E-01
         0.84201E-02
         0.71523E-02
         0.58147E-02
         0.68592E-02
         0.11316E-01
         0.76833E-02
         0.49771E-01
         0.51033E-01
         0.53480E-01
         0.53100E-01
         0.56500E-01
         0.60550E-01
         0.58049E-01
         0.51701E-01
         0.50391E-01
         0.53900E-01
         0.52907E-01
         0.52314E-01
         0.43191E-01
         0.41069E-01
         0.45202E-01
         0.48508E-01
         0.50347E-01
         0.54928E-01
         0.52665E-01
         0.54092E-01
         0.48684E-01
         0.46246E-01
         0.49163E-01
         0.47897E-01
         0.49340E-01
         0.48939E-01
         0.88562E-02
         0.52841E-02
         0.50108E-02
         0.34737E-02
         0.90753E-02
         0.62648E-02
         0.28811E-02
         0.87229E-02
         0.55264E-02
         0.84027E-02
         0.39798E-02
         0.17103E-01
         0.13056E-01
         0.63163E-02
         0.18140E-01
         0.64563E-02
         0.33499E-02
         0.19995E-02
         0.43316E-02
         0.22655E-02
         0.13476E-01
         0.12617E-01
         0.12300E-01
         0.31945E-02
         0.55032E-02
         0.16558E-02
         0.61498E-02
         0.90644E-03
         0.23639E-02
         0.57962E-02
         0.55158E-02
         0.28847E-02
         0.34599E-02
         0.30880E-02
         0.11860E-01
         0.70399E-02
         0.91158E-02
         0.14889E-01
         0.11556E-01
         0.10653E-01
         0.14993E-01
         0.13562E-01
         0.13594E-01
         0.10522E-01
         0.93742E-02
         0.12836E-01
         0.84222E-02
         0.71534E-02
         0.58086E-02
         0.68505E-02
         0.11310E-01
         0.76717E-02
         0.49753E-01
         0.51021E-01
         0.53479E-01
         0.53101E-01
         0.56491E-01
         0.60529E-01
         0.58024E-01
         0.51687E-01
         0.50379E-01
         0.53883E-01
         0.52898E-01
         0.52318E-01
         0.43189E-01
         0.41068E-01
         0.45209E-01
         0.48524E-01
         0.50364E-01
         0.54941E-01
         0.52661E-01
         0.54089E-01
         0.48679E-01
         0.46244E-01
         0.49146E-01
         0.47866E-01
         0.49313E-01
         0.48913E-01
         0.88616E-02
         0.52841E-02
         0.50133E-02
         0.34787E-02
         0.90716E-02
         0.62612E-02
         0.28890E-02
         0.87287E-02
         0.55361E-02
         0.84233E-02
         0.39815E-02
         0.17103E-01
         0.13062E-01
         0.63015E-02
         0.18158E-01
         0.64626E-02
         0.33597E-02
         0.19941E-02
         0.43344E-02
         0.22605E-02
         0.13478E-01
         0.12617E-01
         0.12301E-01
         0.31942E-02
         0.55230E-02
         0.16543E-02
         0.61515E-02
         0.90094E-03
         0.23741E-02
         0.58038E-02
         0.55208E-02
         0.28830E-02
         0.34540E-02
         0.30907E-02
         0.11866E-01
         0.70388E-02
         0.91145E-02
         0.14912E-01
         0.11583E-01
         0.10670E-01
         0.15005E-01
         0.13570E-01
         0.13598E-01
         0.10525E-01
         0.93751E-02
         0.12838E-01
         0.84243E-02
         0.71545E-02
         0.58023E-02
         0.68418E-02
         0.11305E-01
         0.76603E-02
         0.49735E-01
         0.51009E-01
         0.53479E-01
         0.53101E-01
         0.56482E-01
         0.60508E-01
         0.57999E-01
         0.51673E-01
         0.50366E-01
         0.53866E-01
         0.52889E-01
         0.52321E-01
         0.43187E-01
         0.41067E-01
         0.45216E-01
         0.48540E-01
         0.50382E-01
         0.54954E-01
         0.52658E-01
         0.54085E-01
         0.48675E-01
         0.46242E-01
         0.49129E-01
         0.47835E-01
         0.49285E-01
         0.48887E-01
         0.88670E-02
         0.52840E-02
         0.50158E-02
         0.34838E-02
         0.90678E-02
         0.62576E-02
         0.28968E-02
         0.87346E-02
         0.55459E-02
         0.84439E-02
         0.39833E-02
         0.17104E-01
         0.13068E-01
         0.62867E-02
         0.18177E-01
         0.64689E-02
         0.33695E-02
         0.19888E-02
         0.43373E-02
         0.22554E-02
         0.13481E-01
         0.12617E-01
         0.12302E-01
         0.31940E-02
         0.55429E-02
         0.16528E-02
         0.61533E-02
         0.89560E-03
         0.23845E-02
         0.58114E-02
         0.55258E-02
         0.28812E-02
         0.34481E-02
         0.30934E-02
         0.11871E-01
         0.70379E-02
         0.91133E-02
         0.14936E-01
         0.11610E-01
         0.10686E-01
         0.15017E-01
         0.13578E-01
         0.13601E-01
         0.10527E-01
         0.93761E-02
         0.12840E-01
         0.84263E-02
         0.71558E-02
         0.57961E-02
         0.68330E-02
         0.11299E-01
         0.76486E-02
         0.49717E-01
         0.50997E-01
         0.53478E-01
         0.53101E-01
         0.56473E-01
         0.60488E-01
         0.57973E-01
         0.51658E-01
         0.50353E-01
         0.53849E-01
         0.52881E-01
         0.52325E-01
         0.43186E-01
         0.41067E-01
         0.45223E-01
         0.48557E-01
         0.50399E-01
         0.54966E-01
         0.52654E-01
         0.54082E-01
         0.48671E-01
         0.46240E-01
         0.49112E-01
         0.47803E-01
         0.49258E-01
         0.48861E-01
         0.88723E-02
         0.52839E-02
         0.50183E-02
         0.34888E-02
         0.90639E-02
         0.62542E-02
         0.29047E-02
         0.87405E-02
         0.55556E-02
         0.84645E-02
         0.39851E-02
         0.17104E-01
         0.13074E-01
         0.62720E-02
         0.18196E-01
         0.64753E-02
         0.33794E-02
         0.19835E-02
         0.43401E-02
         0.22505E-02
         0.13483E-01
         0.12617E-01
         0.12304E-01
         0.31937E-02
         0.55626E-02
         0.16513E-02
         0.61550E-02
         0.89045E-03
         0.23949E-02
         0.58189E-02
         0.55308E-02
         0.28795E-02
         0.34423E-02
         0.30961E-02
         0.11877E-01
         0.70367E-02
         0.91121E-02
         0.14959E-01
         0.11637E-01
         0.10703E-01
         0.15028E-01
         0.13586E-01
         0.13605E-01
         0.10530E-01
         0.93772E-02
         0.12842E-01
         0.84284E-02
         0.71569E-02
         0.57900E-02
         0.68243E-02
         0.11294E-01
         0.76370E-02
         0.49699E-01
         0.50985E-01
         0.53477E-01
         0.53101E-01
         0.56463E-01
         0.60467E-01
         0.57948E-01
         0.51644E-01
         0.50341E-01
         0.53831E-01
         0.52872E-01
         0.52328E-01
         0.43184E-01
         0.41066E-01
         0.45230E-01
         0.48573E-01
         0.50416E-01
         0.54979E-01
         0.52651E-01
         0.54079E-01
         0.48666E-01
         0.46237E-01
         0.49094E-01
         0.47772E-01
         0.49230E-01
         0.48835E-01
         0.88777E-02
         0.52838E-02
         0.50208E-02
         0.34939E-02
         0.90602E-02
         0.62506E-02
         0.29126E-02
         0.87464E-02
         0.55654E-02
         0.84851E-02
         0.39870E-02
         0.17104E-01
         0.13080E-01
         0.62572E-02
         0.18215E-01
         0.64816E-02
         0.33893E-02
         0.19783E-02
         0.43430E-02
         0.22454E-02
         0.13485E-01
         0.12617E-01
         0.12305E-01
         0.31936E-02
         0.55824E-02
         0.16498E-02
         0.61566E-02
         0.88540E-03
         0.24053E-02
         0.58263E-02
         0.55358E-02
         0.28779E-02
         0.34365E-02
         0.30988E-02
         0.11883E-01
         0.70356E-02
         0.91108E-02
         0.14983E-01
         0.11664E-01
         0.10719E-01
         0.15040E-01
         0.13594E-01
         0.13608E-01
         0.10533E-01
         0.93782E-02
         0.12844E-01
         0.84306E-02
         0.71582E-02
         0.57839E-02
         0.68155E-02
         0.11289E-01
         0.76257E-02
         0.49680E-01
         0.50973E-01
         0.53476E-01
         0.53101E-01
         0.56454E-01
         0.60446E-01
         0.57923E-01
         0.51630E-01
         0.50328E-01
         0.53814E-01
         0.52864E-01
         0.52332E-01
         0.43183E-01
         0.41065E-01
         0.45237E-01
         0.48589E-01
         0.50434E-01
         0.54992E-01
         0.52647E-01
         0.54075E-01
         0.48662E-01
         0.46235E-01
         0.49077E-01
         0.47740E-01
         0.49203E-01
         0.48809E-01
         0.88830E-02
         0.52838E-02
         0.50234E-02
         0.34990E-02
         0.90564E-02
         0.62470E-02
         0.29205E-02
         0.87522E-02
         0.55752E-02
         0.85054E-02
         0.39889E-02
         0.17104E-01
         0.13086E-01
         0.62424E-02
         0.18234E-01
         0.64880E-02
         0.33992E-02
         0.19729E-02
         0.43459E-02
         0.22406E-02
         0.13488E-01
         0.12617E-01
         0.12306E-01
         0.31933E-02
         0.56021E-02
         0.16484E-02
         0.61577E-02
         0.88034E-03
         0.24159E-02
         0.58334E-02
         0.55409E-02
         0.28761E-02
         0.34307E-02
         0.31015E-02
         0.11889E-01
         0.70348E-02
         0.91096E-02
         0.15007E-01
         0.11691E-01
         0.10735E-01
         0.15051E-01
         0.13602E-01
         0.13611E-01
         0.10536E-01
         0.93792E-02
         0.12846E-01
         0.84325E-02
         0.71594E-02
         0.57777E-02
         0.68068E-02
         0.11284E-01
         0.76140E-02
         0.49662E-01
         0.50961E-01
         0.53475E-01
         0.53102E-01
         0.56445E-01
         0.60425E-01
         0.57898E-01
         0.51616E-01
         0.50316E-01
         0.53796E-01
         0.52855E-01
         0.52338E-01
         0.43182E-01
         0.41065E-01
         0.45243E-01
         0.48605E-01
         0.50451E-01
         0.55004E-01
         0.52644E-01
         0.54072E-01
         0.48658E-01
         0.46233E-01
         0.49060E-01
         0.47709E-01
         0.49175E-01
         0.48783E-01
         0.88884E-02
         0.52838E-02
         0.50259E-02
         0.35041E-02
         0.90525E-02
         0.62434E-02
         0.29284E-02
         0.87580E-02
         0.55851E-02
         0.85257E-02
         0.39908E-02
         0.17104E-01
         0.13092E-01
         0.62275E-02
         0.18253E-01
         0.64943E-02
         0.34091E-02
         0.19676E-02
         0.43487E-02
         0.22358E-02
         0.13490E-01
         0.12617E-01
         0.12308E-01
         0.31931E-02
         0.56216E-02
         0.16469E-02
         0.61583E-02
         0.87521E-03
         0.24266E-02
         0.58400E-02
         0.55459E-02
         0.28745E-02
         0.34249E-02
         0.31043E-02
         0.11895E-01
         0.70337E-02
         0.91084E-02
         0.15031E-01
         0.11718E-01
         0.10750E-01
         0.15061E-01
         0.13608E-01
         0.13614E-01
         0.10539E-01
         0.93803E-02
         0.12848E-01
         0.84347E-02
         0.71606E-02
         0.57717E-02
         0.67980E-02
         0.11278E-01
         0.76024E-02
         0.49644E-01
         0.50949E-01
         0.53474E-01
         0.53102E-01
         0.56435E-01
         0.60404E-01
         0.57872E-01
         0.51602E-01
         0.50303E-01
         0.53777E-01
         0.52847E-01
         0.52344E-01
         0.43182E-01
         0.41064E-01
         0.45250E-01
         0.48621E-01
         0.50468E-01
         0.55017E-01
         0.52641E-01
         0.54068E-01
         0.48653E-01
         0.46231E-01
         0.49042E-01
         0.47678E-01
         0.49148E-01
         0.48757E-01
         0.88938E-02
         0.52837E-02
         0.50285E-02
         0.35092E-02
         0.90489E-02
         0.62400E-02
         0.29363E-02
         0.87638E-02
         0.55950E-02
         0.85458E-02
         0.39928E-02
         0.17104E-01
         0.13097E-01
         0.62125E-02
         0.18271E-01
         0.65006E-02
         0.34190E-02
         0.19623E-02
         0.43516E-02
         0.22311E-02
         0.13492E-01
         0.12616E-01
         0.12309E-01
         0.31929E-02
         0.56412E-02
         0.16456E-02
         0.61589E-02
         0.87011E-03
         0.24373E-02
         0.58466E-02
         0.55509E-02
         0.28728E-02
         0.34193E-02
         0.31071E-02
         0.11901E-01
         0.70327E-02
         0.91071E-02
         0.15055E-01
         0.11745E-01
         0.10765E-01
         0.15071E-01
         0.13615E-01
         0.13616E-01
         0.10542E-01
         0.93812E-02
         0.12850E-01
         0.84368E-02
         0.71619E-02
         0.57656E-02
         0.67893E-02
         0.11273E-01
         0.75910E-02
         0.49626E-01
         0.50938E-01
         0.53473E-01
         0.53102E-01
         0.56426E-01
         0.60383E-01
         0.57847E-01
         0.51588E-01
         0.50290E-01
         0.53757E-01
         0.52839E-01
         0.52351E-01
         0.43183E-01
         0.41063E-01
         0.45257E-01
         0.48637E-01
         0.50486E-01
         0.55029E-01
         0.52637E-01
         0.54065E-01
         0.48649E-01
         0.46229E-01
         0.49025E-01
         0.47647E-01
         0.49121E-01
         0.48731E-01
         0.90709E-02
         0.55516E-02
         0.53065E-02
         0.38283E-02
         0.92720E-02
         0.65025E-02
         0.34424E-02
         0.89823E-02
         0.58350E-02
         0.87817E-02
         0.44640E-02
         0.17317E-01
         0.13308E-01
         0.65415E-02
         0.18507E-01
         0.67029E-02
         0.38052E-02
         0.24253E-02
         0.46853E-02
         0.28480E-02
         0.13672E-01
         0.12803E-01
         0.12483E-01
         0.35874E-02
         0.59577E-02
         0.22610E-02
         0.64962E-02
         0.21190E-02
         0.31330E-02
         0.61622E-02
         0.57813E-02
         0.32959E-02
         0.37394E-02
         0.34920E-02
         0.12131E-01
         0.73009E-02
         0.93290E-02
         0.15295E-01
         0.12006E-01
         0.11023E-01
         0.15292E-01
         0.13825E-01
         0.13807E-01
         0.10724E-01
         0.95894E-02
         0.13066E-01
         0.86788E-02
         0.74037E-02
         0.60339E-02
         0.70402E-02
         0.11484E-01
         0.78225E-02
         0.49920E-01
         0.51231E-01
         0.53787E-01
         0.53406E-01
         0.56737E-01
         0.60706E-01
         0.58167E-01
         0.51908E-01
         0.50613E-01
         0.54087E-01
         0.53166E-01
         0.52670E-01
         0.43450E-01
         0.41312E-01
         0.45516E-01
         0.48910E-01
         0.50765E-01
         0.55335E-01
         0.52950E-01
         0.54382E-01
         0.48931E-01
         0.46499E-01
         0.49295E-01
         0.47902E-01
         0.49377E-01
         0.48987E-01
         0.21428E-01
         0.19299E-01
         0.18908E-01
         0.16751E-01
         0.23349E-01
         0.20388E-01
         0.19492E-01
         0.23128E-01
         0.18470E-01
         0.22937E-01
         0.21584E-01
         0.33445E-01
         0.28215E-01
         0.23187E-01
         0.35308E-01
         0.18852E-01
         0.18061E-01
         0.15488E-01
         0.18982E-01
         0.19047E-01
         0.27343E-01
         0.26927E-01
         0.25658E-01
         0.17853E-01
         0.21104E-01
         0.16818E-01
         0.23128E-01
         0.20973E-01
         0.21342E-01
         0.21814E-01
         0.18314E-01
         0.17667E-01
         0.16819E-01
         0.17364E-01
         0.27009E-01
         0.21992E-01
         0.23584E-01
         0.31891E-01
         0.28504E-01
         0.27461E-01
         0.31621E-01
         0.29458E-01
         0.28622E-01
         0.23729E-01
         0.23247E-01
         0.27764E-01
         0.23065E-01
         0.21233E-01
         0.20008E-01
         0.21222E-01
         0.25864E-01
         0.21796E-01
         0.70352E-01
         0.71344E-01
         0.74525E-01
         0.73840E-01
         0.77961E-01
         0.83328E-01
         0.81393E-01
         0.74737E-01
         0.73275E-01
         0.77201E-01
         0.75779E-01
         0.74211E-01
         0.62832E-01
         0.59827E-01
         0.64026E-01
         0.67438E-01
         0.69493E-01
         0.75322E-01
         0.73502E-01
         0.75230E-01
         0.68648E-01
         0.65732E-01
         0.69114E-01
         0.67629E-01
         0.68982E-01
         0.68304E-01
  
SCALARS                     nodal_mass  double 1
LOOKUP_TABLE default
         0.24608E-05
         0.19551E-05
         0.20945E-05
         0.35953E-05
         0.12304E-05
         0.97770E-06
         0.10472E-05
         0.17973E-05
         0.19315E-05
         0.24627E-05
         0.96570E-06
         0.12312E-05
         0.13823E-05
         0.16614E-05
         0.69133E-06
         0.83095E-06
         0.27274E-05
         0.20125E-05
         0.13635E-05
         0.10066E-05
         0.81737E-06
         0.15393E-05
         0.16929E-05
         0.40889E-06
         0.76975E-06
         0.84649E-06
         0.13859E-05
         0.17532E-05
         0.69345E-06
         0.87672E-06
         0.32470E-05
         0.25355E-05
         0.32225E-05
         0.16233E-05
         0.12675E-05
         0.16109E-05
         0.18980E-05
         0.21673E-05
         0.94902E-06
         0.10836E-05
         0.20482E-05
         0.22683E-05
         0.10242E-05
         0.11342E-05
         0.17426E-05
         0.10823E-05
         0.87140E-06
         0.54121E-06
         0.20598E-05
         0.10301E-05
         0.17103E-05
         0.85523E-06
         0.17977E-05
         0.89958E-06
         0.18362E-05
         0.91859E-06
         0.15911E-05
         0.19369E-05
         0.79575E-06
         0.96860E-06
         0.24553E-05
         0.17361E-05
         0.12277E-05
         0.86816E-06
         0.27409E-05
         0.13702E-05
         0.23792E-05
         0.11891E-05
         0.10821E-05
         0.16705E-05
         0.54106E-06
         0.83538E-06
         0.18955E-05
         0.94787E-06
         0.20026E-05
         0.10014E-05
         0.19316E-05
         0.96578E-06
         0.15181E-05
         0.75906E-06
         0.95443E-06
         0.15782E-05
         0.47723E-06
         0.78918E-06
         0.20886E-05
         0.10443E-05
         0.16867E-05
         0.84342E-06
         0.14838E-05
         0.74203E-06
         0.97224E-06
         0.16569E-05
         0.48620E-06
         0.82849E-06
         0.22482E-05
         0.11241E-05
         0.23568E-05
         0.11783E-05
         0.19018E-05
         0.95085E-06
         0.11709E-05
         0.20091E-05
         0.58544E-06
         0.10044E-05
         0.74681E-06
         0.94889E-06
         0.37348E-06
         0.47447E-06
         0.88885E-06
         0.44455E-06
         0.10466E-05
         0.52333E-06
         0.10205E-05
         0.51021E-06
         0.99108E-06
         0.49550E-06
         0.10560E-05
         0.52791E-06
         0.11142E-05
         0.55694E-06
         0.10497E-05
         0.52469E-06
         0.82085E-06
         0.41039E-06
         0.66950E-06
         0.33475E-06
         0.86397E-06
         0.43199E-06
         0.11504E-05
         0.57519E-06
         0.12637E-05
         0.63182E-06
         0.12132E-05
         0.60658E-06
         0.10948E-05
         0.54745E-06
         0.99429E-06
         0.49718E-06
         0.80759E-06
         0.40382E-06
         0.67982E-06
         0.33995E-06
         0.88797E-06
         0.44401E-06
         0.11753E-05
         0.58766E-06
         0.12140E-05
         0.60702E-06
         0.98236E-06
         0.49125E-06
         0.79766E-06
         0.39889E-06
         0.97540E-06
         0.48769E-06
         0.11548E-05
         0.57743E-06
         0.24609E-05
         0.19547E-05
         0.20946E-05
         0.35969E-05
         0.19318E-05
         0.24634E-05
         0.13815E-05
         0.16603E-05
         0.27283E-05
         0.20111E-05
         0.81658E-06
         0.15390E-05
         0.16927E-05
         0.13839E-05
         0.17528E-05
         0.32479E-05
         0.25367E-05
         0.32241E-05
         0.18980E-05
         0.21675E-05
         0.20481E-05
         0.22684E-05
         0.17424E-05
         0.10822E-05
         0.20589E-05
         0.17102E-05
         0.17950E-05
         0.18344E-05
         0.15904E-05
         0.19365E-05
         0.24555E-05
         0.17359E-05
         0.27423E-05
         0.23814E-05
         0.10820E-05
         0.16702E-05
         0.18953E-05
         0.20025E-05
         0.19317E-05
         0.15181E-05
         0.95442E-06
         0.15780E-05
         0.20884E-05
         0.16864E-05
         0.14835E-05
         0.97197E-06
         0.16567E-05
         0.22482E-05
         0.23571E-05
         0.19022E-05
         0.11709E-05
         0.20101E-05
         0.74658E-06
         0.94886E-06
         0.88841E-06
         0.10467E-05
         0.10207E-05
         0.99128E-06
         0.10565E-05
         0.11150E-05
         0.10503E-05
         0.82102E-06
         0.66954E-06
         0.86398E-06
         0.11506E-05
         0.12640E-05
         0.12133E-05
         0.10948E-05
         0.99421E-06
         0.80751E-06
         0.67970E-06
         0.88789E-06
         0.11752E-05
         0.12140E-05
         0.98215E-06
         0.79747E-06
         0.97551E-06
         0.11548E-05
         0.24611E-05
         0.19543E-05
         0.20949E-05
         0.35987E-05
         0.19321E-05
         0.24642E-05
         0.13808E-05
         0.16594E-05
         0.27293E-05
         0.20098E-05
         0.81582E-06
         0.15388E-05
         0.16927E-05
         0.13821E-05
         0.17525E-05
         0.32489E-05
         0.25379E-05
         0.32257E-05
         0.18982E-05
         0.21678E-05
         0.20480E-05
         0.22685E-05
         0.17423E-05
         0.10821E-05
         0.20580E-05
         0.17101E-05
         0.17924E-05
         0.18326E-05
         0.15898E-05
         0.19361E-05
         0.24558E-05
         0.17357E-05
         0.27438E-05
         0.23836E-05
         0.10821E-05
         0.16699E-05
         0.18951E-05
         0.20024E-05
         0.19318E-05
         0.15183E-05
         0.95445E-06
         0.15778E-05
         0.20884E-05
         0.16862E-05
         0.14831E-05
         0.97174E-06
         0.16566E-05
         0.22483E-05
         0.23575E-05
         0.19026E-05
         0.11709E-05
         0.20112E-05
         0.74636E-06
         0.94886E-06
         0.88800E-06
         0.10467E-05
         0.10210E-05
         0.99152E-06
         0.10570E-05
         0.11159E-05
         0.10509E-05
         0.82122E-06
         0.66961E-06
         0.86402E-06
         0.11507E-05
         0.12643E-05
         0.12135E-05
         0.10948E-05
         0.99417E-06
         0.80747E-06
         0.67961E-06
         0.88784E-06
         0.11752E-05
         0.12140E-05
         0.98197E-06
         0.79731E-06
         0.97565E-06
         0.11548E-05
         0.24612E-05
         0.19539E-05
         0.20950E-05
         0.36004E-05
         0.19324E-05
         0.24650E-05
         0.13801E-05
         0.16584E-05
         0.27303E-05
         0.20085E-05
         0.81504E-06
         0.15385E-05
         0.16925E-05
         0.13801E-05
         0.17521E-05
         0.32498E-05
         0.25390E-05
         0.32274E-05
         0.18982E-05
         0.21681E-05
         0.20479E-05
         0.22686E-05
         0.17421E-05
         0.10820E-05
         0.20571E-05
         0.17099E-05
         0.17897E-05
         0.18308E-05
         0.15891E-05
         0.19356E-05
         0.24561E-05
         0.17355E-05
         0.27453E-05
         0.23857E-05
         0.10820E-05
         0.16696E-05
         0.18948E-05
         0.20022E-05
         0.19320E-05
         0.15183E-05
         0.95445E-06
         0.15776E-05
         0.20883E-05
         0.16859E-05
         0.14828E-05
         0.97149E-06
         0.16564E-05
         0.22483E-05
         0.23578E-05
         0.19030E-05
         0.11710E-05
         0.20122E-05
         0.74613E-06
         0.94884E-06
         0.88756E-06
         0.10467E-05
         0.10212E-05
         0.99173E-06
         0.10574E-05
         0.11167E-05
         0.10515E-05
         0.82140E-06
         0.66966E-06
         0.86404E-06
         0.11509E-05
         0.12646E-05
         0.12136E-05
         0.10947E-05
         0.99410E-06
         0.80740E-06
         0.67950E-06
         0.88777E-06
         0.11752E-05
         0.12140E-05
         0.98177E-06
         0.79713E-06
         0.97576E-06
         0.11547E-05
         0.24613E-05
         0.19535E-05
         0.20952E-05
         0.36022E-05
         0.19327E-05
         0.24657E-05
         0.13794E-05
         0.16574E-05
         0.27313E-05
         0.20072E-05
         0.81426E-06
         0.15382E-05
         0.16924E-05
         0.13782E-05
         0.17517E-05
         0.32508E-05
         0.25402E-05
         0.32290E-05
         0.18983E-05
         0.21684E-05
         0.20479E-05
         0.22687E-05
         0.17420E-05
         0.10819E-05
         0.20563E-05
         0.17098E-05
         0.17870E-05
         0.18290E-05
         0.15884E-05
         0.19352E-05
         0.24563E-05
         0.17353E-05
         0.27467E-05
         0.23879E-05
         0.10820E-05
         0.16693E-05
         0.18946E-05
         0.20021E-05
         0.19321E-05
         0.15184E-05
         0.95445E-06
         0.15773E-05
         0.20882E-05
         0.16857E-05
         0.14824E-05
         0.97124E-06
         0.16563E-05
         0.22484E-05
         0.23582E-05
         0.19034E-05
         0.11710E-05
         0.20132E-05
         0.74590E-06
         0.94883E-06
         0.88713E-06
         0.10468E-05
         0.10215E-05
         0.99194E-06
         0.10579E-05
         0.11175E-05
         0.10521E-05
         0.82159E-06
         0.66972E-06
         0.86406E-06
         0.11510E-05
         0.12649E-05
         0.12138E-05
         0.10947E-05
         0.99404E-06
         0.80734E-06
         0.67940E-06
         0.88771E-06
         0.11752E-05
         0.12140E-05
         0.98157E-06
         0.79696E-06
         0.97588E-06
         0.11547E-05
         0.24615E-05
         0.19531E-05
         0.20954E-05
         0.36039E-05
         0.19331E-05
         0.24665E-05
         0.13787E-05
         0.16564E-05
         0.27322E-05
         0.20059E-05
         0.81349E-06
         0.15380E-05
         0.16923E-05
         0.13763E-05
         0.17514E-05
         0.32518E-05
         0.25414E-05
         0.32306E-05
         0.18984E-05
         0.21687E-05
         0.20478E-05
         0.22688E-05
         0.17418E-05
         0.10818E-05
         0.20554E-05
         0.17096E-05
         0.17843E-05
         0.18272E-05
         0.15878E-05
         0.19347E-05
         0.24566E-05
         0.17351E-05
         0.27482E-05
         0.23901E-05
         0.10820E-05
         0.16690E-05
         0.18943E-05
         0.20019E-05
         0.19322E-05
         0.15185E-05
         0.95446E-06
         0.15771E-05
         0.20881E-05
         0.16855E-05
         0.14821E-05
         0.97100E-06
         0.16562E-05
         0.22484E-05
         0.23586E-05
         0.19038E-05
         0.11710E-05
         0.20142E-05
         0.74568E-06
         0.94882E-06
         0.88671E-06
         0.10468E-05
         0.10217E-05
         0.99216E-06
         0.10583E-05
         0.11183E-05
         0.10528E-05
         0.82178E-06
         0.66977E-06
         0.86408E-06
         0.11512E-05
         0.12652E-05
         0.12139E-05
         0.10947E-05
         0.99398E-06
         0.80728E-06
         0.67930E-06
         0.88766E-06
         0.11752E-05
         0.12140E-05
         0.98138E-06
         0.79679E-06
         0.97601E-06
         0.11547E-05
         0.24616E-05
         0.19527E-05
         0.20956E-05
         0.36056E-05
         0.19334E-05
         0.24672E-05
         0.13779E-05
         0.16554E-05
         0.27332E-05
         0.20046E-05
         0.81271E-06
         0.15377E-05
         0.16922E-05
         0.13744E-05
         0.17510E-05
         0.32527E-05
         0.25425E-05
         0.32322E-05
         0.18984E-05
         0.21689E-05
         0.20477E-05
         0.22689E-05
         0.17416E-05
         0.10816E-05
         0.20545E-05
         0.17095E-05
         0.17817E-05
         0.18254E-05
         0.15871E-05
         0.19343E-05
         0.24568E-05
         0.17349E-05
         0.27496E-05
         0.23922E-05
         0.10820E-05
         0.16686E-05
         0.18941E-05
         0.20018E-05
         0.19324E-05
         0.15186E-05
         0.95446E-06
         0.15769E-05
         0.20880E-05
         0.16852E-05
         0.14817E-05
         0.97074E-06
         0.16560E-05
         0.22484E-05
         0.23589E-05
         0.19042E-05
         0.11710E-05
         0.20152E-05
         0.74544E-06
         0.94880E-06
         0.88627E-06
         0.10469E-05
         0.10219E-05
         0.99237E-06
         0.10588E-05
         0.11191E-05
         0.10534E-05
         0.82196E-06
         0.66982E-06
         0.86410E-06
         0.11513E-05
         0.12654E-05
         0.12140E-05
         0.10947E-05
         0.99391E-06
         0.80721E-06
         0.67919E-06
         0.88759E-06
         0.11751E-05
         0.12140E-05
         0.98118E-06
         0.79661E-06
         0.97612E-06
         0.11546E-05
         0.24618E-05
         0.19523E-05
         0.20957E-05
         0.36073E-05
         0.19337E-05
         0.24680E-05
         0.13772E-05
         0.16545E-05
         0.27341E-05
         0.20033E-05
         0.81194E-06
         0.15374E-05
         0.16921E-05
         0.13725E-05
         0.17506E-05
         0.32537E-05
         0.25437E-05
         0.32339E-05
         0.18985E-05
         0.21692E-05
         0.20476E-05
         0.22690E-05
         0.17414E-05
         0.10815E-05
         0.20536E-05
         0.17093E-05
         0.17790E-05
         0.18236E-05
         0.15864E-05
         0.19339E-05
         0.24571E-05
         0.17347E-05
         0.27511E-05
         0.23944E-05
         0.10820E-05
         0.16683E-05
         0.18938E-05
         0.20016E-05
         0.19325E-05
         0.15186E-05
         0.95446E-06
         0.15767E-05
         0.20878E-05
         0.16850E-05
         0.14814E-05
         0.97050E-06
         0.16559E-05
         0.22484E-05
         0.23593E-05
         0.19046E-05
         0.11711E-05
         0.20162E-05
         0.74522E-06
         0.94878E-06
         0.88584E-06
         0.10469E-05
         0.10222E-05
         0.99258E-06
         0.10593E-05
         0.11199E-05
         0.10540E-05
         0.82215E-06
         0.66988E-06
         0.86413E-06
         0.11515E-05
         0.12657E-05
         0.12142E-05
         0.10946E-05
         0.99385E-06
         0.80715E-06
         0.67909E-06
         0.88752E-06
         0.11751E-05
         0.12140E-05
         0.98098E-06
         0.79643E-06
         0.97624E-06
         0.11546E-05
         0.24619E-05
         0.19519E-05
         0.20959E-05
         0.36091E-05
         0.19340E-05
         0.24688E-05
         0.13765E-05
         0.16535E-05
         0.27351E-05
         0.20020E-05
         0.81117E-06
         0.15372E-05
         0.16920E-05
         0.13706E-05
         0.17503E-05
         0.32546E-05
         0.25448E-05
         0.32355E-05
         0.18986E-05
         0.21695E-05
         0.20475E-05
         0.22691E-05
         0.17413E-05
         0.10814E-05
         0.20527E-05
         0.17092E-05
         0.17763E-05
         0.18219E-05
         0.15858E-05
         0.19334E-05
         0.24573E-05
         0.17345E-05
         0.27525E-05
         0.23966E-05
         0.10820E-05
         0.16680E-05
         0.18936E-05
         0.20015E-05
         0.19326E-05
         0.15187E-05
         0.95447E-06
         0.15765E-05
         0.20878E-05
         0.16848E-05
         0.14810E-05
         0.97025E-06
         0.16557E-05
         0.22485E-05
         0.23597E-05
         0.19050E-05
         0.11711E-05
         0.20172E-05
         0.74499E-06
         0.94877E-06
         0.88541E-06
         0.10469E-05
         0.10224E-05
         0.99280E-06
         0.10597E-05
         0.11207E-05
         0.10546E-05
         0.82234E-06
         0.66994E-06
         0.86415E-06
         0.11517E-05
         0.12660E-05
         0.12143E-05
         0.10946E-05
         0.99379E-06
         0.80709E-06
         0.67898E-06
         0.88746E-06
         0.11751E-05
         0.12140E-05
         0.98079E-06
         0.79626E-06
         0.97636E-06
         0.11546E-05
         0.24621E-05
         0.19515E-05
         0.20961E-05
         0.36108E-05
         0.19343E-05
         0.24695E-05
         0.13758E-05
         0.16525E-05
         0.27361E-05
         0.20006E-05
         0.81039E-06
         0.15369E-05
         0.16919E-05
         0.13686E-05
         0.17499E-05
         0.32556E-05
         0.25460E-05
         0.32371E-05
         0.18986E-05
         0.21697E-05
         0.20474E-05
         0.22692E-05
         0.17411E-05
         0.10813E-05
         0.20519E-05
         0.17091E-05
         0.17736E-05
         0.18201E-05
         0.15851E-05
         0.19330E-05
         0.24575E-05
         0.17342E-05
         0.27540E-05
         0.23987E-05
         0.10820E-05
         0.16677E-05
         0.18933E-05
         0.20014E-05
         0.19328E-05
         0.15188E-05
         0.95448E-06
         0.15763E-05
         0.20876E-05
         0.16845E-05
         0.14807E-05
         0.97000E-06
         0.16556E-05
         0.22485E-05
         0.23600E-05
         0.19053E-05
         0.11711E-05
         0.20182E-05
         0.74476E-06
         0.94875E-06
         0.88498E-06
         0.10470E-05
         0.10227E-05
         0.99301E-06
         0.10602E-05
         0.11215E-05
         0.10553E-05
         0.82252E-06
         0.66999E-06
         0.86417E-06
         0.11518E-05
         0.12663E-05
         0.12145E-05
         0.10946E-05
         0.99373E-06
         0.80702E-06
         0.67888E-06
         0.88740E-06
         0.11751E-05
         0.12140E-05
         0.98058E-06
         0.79608E-06
         0.97648E-06
         0.11546E-05
         0.24622E-05
         0.19511E-05
         0.20963E-05
         0.36125E-05
         0.19346E-05
         0.24703E-05
         0.13751E-05
         0.16515E-05
         0.27370E-05
         0.19993E-05
         0.80962E-06
         0.15366E-05
         0.16917E-05
         0.13667E-05
         0.17495E-05
         0.32565E-05
         0.25471E-05
         0.32388E-05
         0.18987E-05
         0.21700E-05
         0.20473E-05
         0.22693E-05
         0.17409E-05
         0.10812E-05
         0.20510E-05
         0.17089E-05
         0.17710E-05
         0.18183E-05
         0.15844E-05
         0.19325E-05
         0.24578E-05
         0.17340E-05
         0.27554E-05
         0.24009E-05
         0.10820E-05
         0.16674E-05
         0.18931E-05
         0.20012E-05
         0.19329E-05
         0.15189E-05
         0.95448E-06
         0.15760E-05
         0.20875E-05
         0.16843E-05
         0.14803E-05
         0.96975E-06
         0.16555E-05
         0.22485E-05
         0.23604E-05
         0.19057E-05
         0.11712E-05
         0.20192E-05
         0.74453E-06
         0.94874E-06
         0.88455E-06
         0.10470E-05
         0.10229E-05
         0.99322E-06
         0.10606E-05
         0.11223E-05
         0.10559E-05
         0.82270E-06
         0.67004E-06
         0.86419E-06
         0.11520E-05
         0.12666E-05
         0.12146E-05
         0.10945E-05
         0.99366E-06
         0.80696E-06
         0.67877E-06
         0.88733E-06
         0.11751E-05
         0.12140E-05
         0.98038E-06
         0.79590E-06
         0.97660E-06
         0.11545E-05
         0.24623E-05
         0.19507E-05
         0.20964E-05
         0.36142E-05
         0.19349E-05
         0.24710E-05
         0.13743E-05
         0.16505E-05
         0.27380E-05
         0.19980E-05
         0.80885E-06
         0.15364E-05
         0.16916E-05
         0.13648E-05
         0.17492E-05
         0.32575E-05
         0.25483E-05
         0.32404E-05
         0.18988E-05
         0.21703E-05
         0.20473E-05
         0.22694E-05
         0.17407E-05
         0.10811E-05
         0.20501E-05
         0.17088E-05
         0.17683E-05
         0.18165E-05
         0.15837E-05
         0.19321E-05
         0.24580E-05
         0.17338E-05
         0.27569E-05
         0.24031E-05
         0.10820E-05
         0.16670E-05
         0.18928E-05
         0.20011E-05
         0.19330E-05
         0.15189E-05
         0.95448E-06
         0.15758E-05
         0.20874E-05
         0.16840E-05
         0.14800E-05
         0.96950E-06
         0.16553E-05
         0.22485E-05
         0.23608E-05
         0.19061E-05
         0.11712E-05
         0.20202E-05
         0.74430E-06
         0.94872E-06
         0.88412E-06
         0.10470E-05
         0.10231E-05
         0.99344E-06
         0.10611E-05
         0.11231E-05
         0.10565E-05
         0.82289E-06
         0.67009E-06
         0.86422E-06
         0.11521E-05
         0.12669E-05
         0.12147E-05
         0.10945E-05
         0.99360E-06
         0.80690E-06
         0.67867E-06
         0.88727E-06
         0.11750E-05
         0.12140E-05
         0.98019E-06
         0.79573E-06
         0.97672E-06
         0.11545E-05
         0.24625E-05
         0.19503E-05
         0.20966E-05
         0.36160E-05
         0.19352E-05
         0.24718E-05
         0.13736E-05
         0.16496E-05
         0.27389E-05
         0.19967E-05
         0.80807E-06
         0.15361E-05
         0.16915E-05
         0.13629E-05
         0.17488E-05
         0.32584E-05
         0.25495E-05
         0.32420E-05
         0.18988E-05
         0.21705E-05
         0.20472E-05
         0.22695E-05
         0.17406E-05
         0.10810E-05
         0.20492E-05
         0.17086E-05
         0.17656E-05
         0.18147E-05
         0.15831E-05
         0.19317E-05
         0.24583E-05
         0.17336E-05
         0.27583E-05
         0.24053E-05
         0.10820E-05
         0.16667E-05
         0.18926E-05
         0.20009E-05
         0.19331E-05
         0.15190E-05
         0.95449E-06
         0.15756E-05
         0.20873E-05
         0.16838E-05
         0.14796E-05
         0.96925E-06
         0.16552E-05
         0.22486E-05
         0.23611E-05
         0.19065E-05
         0.11712E-05
         0.20212E-05
         0.74407E-06
         0.94870E-06
         0.88368E-06
         0.10471E-05
         0.10234E-05
         0.99365E-06
         0.10616E-05
         0.11239E-05
         0.10571E-05
         0.82307E-06
         0.67014E-06
         0.86424E-06
         0.11523E-05
         0.12672E-05
         0.12149E-05
         0.10945E-05
         0.99354E-06
         0.80683E-06
         0.67856E-06
         0.88721E-06
         0.11750E-05
         0.12140E-05
         0.97999E-06
         0.79555E-06
         0.97684E-06
         0.11545E-05
         0.24626E-05
         0.19499E-05
         0.20968E-05
         0.36177E-05
         0.19355E-05
         0.24725E-05
         0.13729E-05
         0.16486E-05
         0.27399E-05
         0.19954E-05
         0.80730E-06
         0.15358E-05
         0.16914E-05
         0.13610E-05
         0.17484E-05
         0.32594E-05
         0.25506E-05
         0.32437E-05
         0.18989E-05
         0.21708E-05
         0.20471E-05
         0.22696E-05
         0.17404E-05
         0.10808E-05
         0.20483E-05
         0.17085E-05
         0.17629E-05
         0.18129E-05
         0.15824E-05
         0.19312E-05
         0.24585E-05
         0.17334E-05
         0.27598E-05
         0.24074E-05
         0.10820E-05
         0.16664E-05
         0.18923E-05
         0.20008E-05
         0.19333E-05
         0.15191E-05
         0.95449E-06
         0.15754E-05
         0.20872E-05
         0.16835E-05
         0.14793E-05
         0.96901E-06
         0.16550E-05
         0.22486E-05
         0.23615E-05
         0.19069E-05
         0.11713E-05
         0.20222E-05
         0.74384E-06
         0.94869E-06
         0.88325E-06
         0.10471E-05
         0.10236E-05
         0.99386E-06
         0.10620E-05
         0.11247E-05
         0.10577E-05
         0.82326E-06
         0.67020E-06
         0.86426E-06
         0.11524E-05
         0.12674E-05
         0.12150E-05
         0.10944E-05
         0.99348E-06
         0.80677E-06
         0.67846E-06
         0.88714E-06
         0.11750E-05
         0.12140E-05
         0.97979E-06
         0.79538E-06
         0.97696E-06
         0.11544E-05
         0.24628E-05
         0.19495E-05
         0.20970E-05
         0.36194E-05
         0.19358E-05
         0.24733E-05
         0.13722E-05
         0.16476E-05
         0.27409E-05
         0.19941E-05
         0.80652E-06
         0.15355E-05
         0.16913E-05
         0.13591E-05
         0.17481E-05
         0.32604E-05
         0.25518E-05
         0.32453E-05
         0.18990E-05
         0.21711E-05
         0.20470E-05
         0.22697E-05
         0.17402E-05
         0.10807E-05
         0.20474E-05
         0.17084E-05
         0.17603E-05
         0.18111E-05
         0.15817E-05
         0.19308E-05
         0.24588E-05
         0.17332E-05
         0.27613E-05
         0.24096E-05
         0.10819E-05
         0.16661E-05
         0.18921E-05
         0.20006E-05
         0.19334E-05
         0.15192E-05
         0.95450E-06
         0.15752E-05
         0.20871E-05
         0.16833E-05
         0.14789E-05
         0.96876E-06
         0.16549E-05
         0.22486E-05
         0.23619E-05
         0.19073E-05
         0.11713E-05
         0.20232E-05
         0.74362E-06
         0.94868E-06
         0.88282E-06
         0.10472E-05
         0.10238E-05
         0.99408E-06
         0.10625E-05
         0.11255E-05
         0.10584E-05
         0.82345E-06
         0.67025E-06
         0.86428E-06
         0.11526E-05
         0.12677E-05
         0.12152E-05
         0.10944E-05
         0.99342E-06
         0.80671E-06
         0.67836E-06
         0.88709E-06
         0.11750E-05
         0.12140E-05
         0.97959E-06
         0.79521E-06
         0.97708E-06
         0.11544E-05
         0.24629E-05
         0.19491E-05
         0.20972E-05
         0.36212E-05
         0.19361E-05
         0.24741E-05
         0.13715E-05
         0.16466E-05
         0.27418E-05
         0.19928E-05
         0.80575E-06
         0.15353E-05
         0.16912E-05
         0.13572E-05
         0.17477E-05
         0.32613E-05
         0.25529E-05
         0.32469E-05
         0.18990E-05
         0.21714E-05
         0.20469E-05
         0.22698E-05
         0.17400E-05
         0.10806E-05
         0.20466E-05
         0.17082E-05
         0.17576E-05
         0.18093E-05
         0.15810E-05
         0.19303E-05
         0.24590E-05
         0.17330E-05
         0.27627E-05
         0.24118E-05
         0.10819E-05
         0.16658E-05
         0.18919E-05
         0.20005E-05
         0.19335E-05
         0.15192E-05
         0.95450E-06
         0.15750E-05
         0.20870E-05
         0.16831E-05
         0.14786E-05
         0.96851E-06
         0.16548E-05
         0.22487E-05
         0.23622E-05
         0.19077E-05
         0.11713E-05
         0.20242E-05
         0.74339E-06
         0.94866E-06
         0.88239E-06
         0.10472E-05
         0.10241E-05
         0.99429E-06
         0.10630E-05
         0.11263E-05
         0.10590E-05
         0.82363E-06
         0.67030E-06
         0.86430E-06
         0.11527E-05
         0.12680E-05
         0.12153E-05
         0.10944E-05
         0.99335E-06
         0.80665E-06
         0.67825E-06
         0.88702E-06
         0.11749E-05
         0.12140E-05
         0.97939E-06
         0.79503E-06
         0.97720E-06
         0.11544E-05
         0.24631E-05
         0.19487E-05
         0.20973E-05
         0.36229E-05
         0.19364E-05
         0.24748E-05
         0.13707E-05
         0.16456E-05
         0.27428E-05
         0.19915E-05
         0.80498E-06
         0.15350E-05
         0.16911E-05
         0.13553E-05
         0.17473E-05
         0.32623E-05
         0.25541E-05
         0.32486E-05
         0.18991E-05
         0.21716E-05
         0.20468E-05
         0.22699E-05
         0.17399E-05
         0.10805E-05
         0.20457E-05
         0.17081E-05
         0.17549E-05
         0.18075E-05
         0.15804E-05
         0.19299E-05
         0.24592E-05
         0.17328E-05
         0.27642E-05
         0.24140E-05
         0.10819E-05
         0.16654E-05
         0.18916E-05
         0.20003E-05
         0.19337E-05
         0.15193E-05
         0.95450E-06
         0.15748E-05
         0.20869E-05
         0.16828E-05
         0.14782E-05
         0.96826E-06
         0.16546E-05
         0.22487E-05
         0.23626E-05
         0.19081E-05
         0.11714E-05
         0.20253E-05
         0.74316E-06
         0.94864E-06
         0.88196E-06
         0.10472E-05
         0.10243E-05
         0.99450E-06
         0.10634E-05
         0.11271E-05
         0.10596E-05
         0.82381E-06
         0.67036E-06
         0.86432E-06
         0.11529E-05
         0.12683E-05
         0.12154E-05
         0.10943E-05
         0.99329E-06
         0.80658E-06
         0.67815E-06
         0.88696E-06
         0.11749E-05
         0.12140E-05
         0.97919E-06
         0.79485E-06
         0.97732E-06
         0.11544E-05
         0.24632E-05
         0.19483E-05
         0.20975E-05
         0.36246E-05
         0.19368E-05
         0.24756E-05
         0.13700E-05
         0.16447E-05
         0.27437E-05
         0.19902E-05
         0.80421E-06
         0.15347E-05
         0.16910E-05
         0.13534E-05
         0.17470E-05
         0.32632E-05
         0.25552E-05
         0.32502E-05
         0.18992E-05
         0.21719E-05
         0.20467E-05
         0.22700E-05
         0.17397E-05
         0.10804E-05
         0.20448E-05
         0.17079E-05
         0.17523E-05
         0.18057E-05
         0.15797E-05
         0.19295E-05
         0.24595E-05
         0.17326E-05
         0.27656E-05
         0.24161E-05
         0.10819E-05
         0.16651E-05
         0.18914E-05
         0.20002E-05
         0.19338E-05
         0.15194E-05
         0.95451E-06
         0.15745E-05
         0.20868E-05
         0.16826E-05
         0.14779E-05
         0.96801E-06
         0.16545E-05
         0.22487E-05
         0.23630E-05
         0.19085E-05
         0.11714E-05
         0.20263E-05
         0.74293E-06
         0.94863E-06
         0.88153E-06
         0.10473E-05
         0.10245E-05
         0.99472E-06
         0.10639E-05
         0.11279E-05
         0.10602E-05
         0.82400E-06
         0.67041E-06
         0.86435E-06
         0.11530E-05
         0.12686E-05
         0.12156E-05
         0.10943E-05
         0.99323E-06
         0.80652E-06
         0.67804E-06
         0.88690E-06
         0.11749E-05
         0.12140E-05
         0.97900E-06
         0.79468E-06
         0.97744E-06
         0.11543E-05
         0.24633E-05
         0.19479E-05
         0.20977E-05
         0.36264E-05
         0.19371E-05
         0.24763E-05
         0.13693E-05
         0.16437E-05
         0.27447E-05
         0.19888E-05
         0.80343E-06
         0.15345E-05
         0.16908E-05
         0.13515E-05
         0.17466E-05
         0.32642E-05
         0.25564E-05
         0.32518E-05
         0.18992E-05
         0.21722E-05
         0.20466E-05
         0.22701E-05
         0.17395E-05
         0.10803E-05
         0.20439E-05
         0.17078E-05
         0.17496E-05
         0.18039E-05
         0.15790E-05
         0.19290E-05
         0.24597E-05
         0.17323E-05
         0.27671E-05
         0.24183E-05
         0.10819E-05
         0.16648E-05
         0.18911E-05
         0.20001E-05
         0.19339E-05
         0.15195E-05
         0.95452E-06
         0.15743E-05
         0.20867E-05
         0.16823E-05
         0.14775E-05
         0.96776E-06
         0.16543E-05
         0.22487E-05
         0.23633E-05
         0.19089E-05
         0.11714E-05
         0.20273E-05
         0.74270E-06
         0.94861E-06
         0.88109E-06
         0.10473E-05
         0.10248E-05
         0.99493E-06
         0.10643E-05
         0.11287E-05
         0.10609E-05
         0.82418E-06
         0.67046E-06
         0.86437E-06
         0.11532E-05
         0.12689E-05
         0.12157E-05
         0.10943E-05
         0.99316E-06
         0.80646E-06
         0.67794E-06
         0.88683E-06
         0.11749E-05
         0.12140E-05
         0.97879E-06
         0.79450E-06
         0.97755E-06
         0.11543E-05
         0.24635E-05
         0.19475E-05
         0.20979E-05
         0.36281E-05
         0.19374E-05
         0.24771E-05
         0.13686E-05
         0.16427E-05
         0.27456E-05
         0.19875E-05
         0.80266E-06
         0.15342E-05
         0.16907E-05
         0.13496E-05
         0.17463E-05
         0.32651E-05
         0.25575E-05
         0.32534E-05
         0.18993E-05
         0.21724E-05
         0.20466E-05
         0.22702E-05
         0.17393E-05
         0.10802E-05
         0.20430E-05
         0.17076E-05
         0.17469E-05
         0.18021E-05
         0.15784E-05
         0.19286E-05
         0.24600E-05
         0.17321E-05
         0.27685E-05
         0.24205E-05
         0.10819E-05
         0.16645E-05
         0.18909E-05
         0.19999E-05
         0.19341E-05
         0.15195E-05
         0.95452E-06
         0.15741E-05
         0.20866E-05
         0.16821E-05
         0.14772E-05
         0.96751E-06
         0.16542E-05
         0.22488E-05
         0.23637E-05
         0.19092E-05
         0.11715E-05
         0.20283E-05
         0.74247E-06
         0.94860E-06
         0.88066E-06
         0.10473E-05
         0.10250E-05
         0.99514E-06
         0.10648E-05
         0.11295E-05
         0.10615E-05
         0.82437E-06
         0.67052E-06
         0.86439E-06
         0.11533E-05
         0.12691E-05
         0.12159E-05
         0.10942E-05
         0.99310E-06
         0.80639E-06
         0.67783E-06
         0.88676E-06
         0.11748E-05
         0.12140E-05
         0.97859E-06
         0.79433E-06
         0.97767E-06
         0.11543E-05
         0.24636E-05
         0.19471E-05
         0.20980E-05
         0.36298E-05
         0.19377E-05
         0.24779E-05
         0.13679E-05
         0.16417E-05
         0.27466E-05
         0.19862E-05
         0.80189E-06
         0.15339E-05
         0.16906E-05
         0.13477E-05
         0.17459E-05
         0.32661E-05
         0.25587E-05
         0.32551E-05
         0.18994E-05
         0.21727E-05
         0.20465E-05
         0.22703E-05
         0.17392E-05
         0.10800E-05
         0.20421E-05
         0.17075E-05
         0.17443E-05
         0.18003E-05
         0.15777E-05
         0.19281E-05
         0.24602E-05
         0.17319E-05
         0.27700E-05
         0.24227E-05
         0.10819E-05
         0.16642E-05
         0.18906E-05
         0.19998E-05
         0.19342E-05
         0.15196E-05
         0.95453E-06
         0.15739E-05
         0.20865E-05
         0.16819E-05
         0.14768E-05
         0.96727E-06
         0.16541E-05
         0.22488E-05
         0.23640E-05
         0.19096E-05
         0.11715E-05
         0.20293E-05
         0.74225E-06
         0.94859E-06
         0.88023E-06
         0.10474E-05
         0.10253E-05
         0.99535E-06
         0.10653E-05
         0.11303E-05
         0.10621E-05
         0.82456E-06
         0.67057E-06
         0.86441E-06
         0.11535E-05
         0.12694E-05
         0.12160E-05
         0.10942E-05
         0.99304E-06
         0.80633E-06
         0.67773E-06
         0.88671E-06
         0.11748E-05
         0.12140E-05
         0.97840E-06
         0.79415E-06
         0.97780E-06
         0.11542E-05
         0.24637E-05
         0.19466E-05
         0.20982E-05
         0.36315E-05
         0.19380E-05
         0.24786E-05
         0.13671E-05
         0.16407E-05
         0.27475E-05
         0.19849E-05
         0.80110E-06
         0.15336E-05
         0.16905E-05
         0.13457E-05
         0.17455E-05
         0.32669E-05
         0.25598E-05
         0.32567E-05
         0.18994E-05
         0.21729E-05
         0.20464E-05
         0.22703E-05
         0.17390E-05
         0.10799E-05
         0.20412E-05
         0.17073E-05
         0.17416E-05
         0.17985E-05
         0.15770E-05
         0.19277E-05
         0.24604E-05
         0.17317E-05
         0.27714E-05
         0.24248E-05
         0.10819E-05
         0.16638E-05
         0.18903E-05
         0.19996E-05
         0.19343E-05
         0.15196E-05
         0.95451E-06
         0.15737E-05
         0.20864E-05
         0.16816E-05
         0.14765E-05
         0.96700E-06
         0.16539E-05
         0.22488E-05
         0.23644E-05
         0.19100E-05
         0.11715E-05
         0.20303E-05
         0.74200E-06
         0.94855E-06
         0.87978E-06
         0.10474E-05
         0.10255E-05
         0.99555E-06
         0.10657E-05
         0.11311E-05
         0.10627E-05
         0.82472E-06
         0.67061E-06
         0.86442E-06
         0.11536E-05
         0.12697E-05
         0.12161E-05
         0.10941E-05
         0.99295E-06
         0.80625E-06
         0.67761E-06
         0.88662E-06
         0.11748E-05
         0.12140E-05
         0.97818E-06
         0.79396E-06
         0.97790E-06
         0.11542E-05
         0.24639E-05
         0.19463E-05
         0.20984E-05
         0.36333E-05
         0.19383E-05
         0.24794E-05
         0.13664E-05
         0.16398E-05
         0.27485E-05
         0.19836E-05
         0.80034E-06
         0.15334E-05
         0.16904E-05
         0.13439E-05
         0.17452E-05
         0.32679E-05
         0.25610E-05
         0.32583E-05
         0.18995E-05
         0.21732E-05
         0.20463E-05
         0.22704E-05
         0.17388E-05
         0.10798E-05
         0.20404E-05
         0.17072E-05
         0.17389E-05
         0.17967E-05
         0.15763E-05
         0.19272E-05
         0.24607E-05
         0.17315E-05
         0.27729E-05
         0.24270E-05
         0.10819E-05
         0.16635E-05
         0.18901E-05
         0.19995E-05
         0.19345E-05
         0.15197E-05
         0.95453E-06
         0.15735E-05
         0.20863E-05
         0.16814E-05
         0.14761E-05
         0.96677E-06
         0.16538E-05
         0.22488E-05
         0.23647E-05
         0.19104E-05
         0.11716E-05
         0.20313E-05
         0.74179E-06
         0.94855E-06
         0.87936E-06
         0.10475E-05
         0.10257E-05
         0.99577E-06
         0.10662E-05
         0.11319E-05
         0.10633E-05
         0.82492E-06
         0.67068E-06
         0.86446E-06
         0.11538E-05
         0.12700E-05
         0.12163E-05
         0.10941E-05
         0.99291E-06
         0.80620E-06
         0.67752E-06
         0.88657E-06
         0.11748E-05
         0.12140E-05
         0.97800E-06
         0.79380E-06
         0.97803E-06
         0.11542E-05
         0.12320E-05
         0.97306E-06
         0.10493E-05
         0.18171E-05
         0.96926E-06
         0.12399E-05
         0.68306E-06
         0.81967E-06
         0.13745E-05
         0.99152E-06
         0.39999E-06
         0.76665E-06
         0.84519E-06
         0.67148E-06
         0.87252E-06
         0.16343E-05
         0.12808E-05
         0.16296E-05
         0.94981E-06
         0.10867E-05
         0.10232E-05
         0.11353E-05
         0.86940E-06
         0.53990E-06
         0.10200E-05
         0.85360E-06
         0.86884E-06
         0.89793E-06
         0.78802E-06
         0.96354E-06
         0.12305E-05
         0.86572E-06
         0.13869E-05
         0.12141E-05
         0.54095E-06
         0.83170E-06
         0.94503E-06
         0.99975E-06
         0.96729E-06
         0.75992E-06
         0.47728E-06
         0.78670E-06
         0.10432E-05
         0.84065E-06
         0.73800E-06
         0.48334E-06
         0.82688E-06
         0.11245E-05
         0.11825E-05
         0.95534E-06
         0.58581E-06
         0.10159E-05
         0.37085E-06
         0.47429E-06
         0.43959E-06
         0.52375E-06
         0.51294E-06
         0.49796E-06
         0.53322E-06
         0.56619E-06
         0.53185E-06
         0.41252E-06
         0.33536E-06
         0.43225E-06
         0.57696E-06
         0.63509E-06
         0.60820E-06
         0.54708E-06
         0.49646E-06
         0.40310E-06
         0.33875E-06
         0.44329E-06
         0.58740E-06
         0.60700E-06
         0.48897E-06
         0.39687E-06
         0.48906E-06
         0.57710E-06
  
SCALARS                 Poissons_ratio  double 1
LOOKUP_TABLE default
         0.30000E+00
         0.30000E+00
         0.30000E+00
         0.30000E+00
         0.30000E+00
         0.30000E+00
         0.30000E+00
         0.30000E+00
         0.30000E+00
         0.30000E+00
         0.30000E+00
         0.30000E+00
         0.30000E+00
         0.30000E+00
         0.30000E+00
         0.30000E+00
         0.30000E+00
         0.30000E+00
         0.30000E+00
         0.30000E+00
         0.30000E+00
         0.30000E+00
         0.30000E+00
         0.30000E+00
         0.30000E+00
         0.30000E+00
         0.30000E+00
         0.30000E+00
         0.30000E+00
         0.30000E+00
         0.30000E+00
         0.30000E+00
         0.30000E+00
         0.30000E+00
         0.30000E+00
         0.30000E+00
         0.30000E+00
         0.30000E+00
         0.30000E+00
         0.30000E+00
         0.30000E+00
         0.30000E+00
         0.30000E+00
         0.30000E+00
         0.30000E+00
         0.30000E+00
         0.30000E+00
         0.30000E+00
         0.30000E+00
         0.30000E+00
         0.30000E+00
         0.30000E+00
         0.30000E+00
         0.30000E+00
         0.30000E+00
         0.30000E+00
         0.30000E+00
         0.30000E+00
         0.30000E+00
         0.30000E+00
         0.30000E+00
         0.30000E+00
         0.30000E+00
         0.30000E+00
         0.30000E+00
         0.30000E+00
         0.30000E+00
         0.30000E+00
         0.30000E+00
         0.30000E+00
         0.30000E+00
         0.30000E+00
         0.30000E+00
         0.30000E+00
         0.30000E+00
         0.30000E+00
         0.30000E+00
         0.30000E+00
         0.30000E+00
         0.30000E+00
         0.30000E+00
         0.30000E+00
         0.30000E+00
         0.30000E+00
         0.30000E+00
         0.30000E+00
         0.30000E+00
         0.30000E+00
         0.30000E+00
         0.30000E+00
         0.30000E+00
         0.30000E+00
         0.30000E+00
         0.30000E+00
         0.30000E+00
         0.30000E+00
         0.30000E+00
         0.30000E+00
         0.30000E+00
         0.30000E+00
         0.30000E+00
         0.30000E+00
         0.30000E+00
         0.30000E+00
         0.30000E+00
         0.30000E+00
         0.30000E+00
         0.30000E+00
         0.30000E+00
         0.30000E+00
         0.30000E+00
         0.30000E+00
         0.30000E+00
         0.30000E+00
         0.30000E+00
         0.30000E+00
         0.30000E+00
         0.30000E+00
         0.30000E+00
         0.30000E+00
         0.30000E+00
         0.30000E+00
         0.30000E+00
         0.30000E+00
         0.30000E+00
         0.30000E+00
         0.30000E+00
         0.30000E+00
         0.30000E+00
         0.30000E+00
         0.30000E+00
         0.30000E+00
         0.30000E+00
         0.30000E+00
         0.30000E+00
         0.30000E+00
         0.30000E+00
         0.30000E+00
         0.30000E+00
         0.30000E+00
         0.30000E+00
         0.30000E+00
         0.30000E+00
         0.30000E+00
         0.30000E+00
         0.30000E+00
         0.30000E+00
         0.30000E+00
         0.30000E+00
         0.30000E+00
         0.30000E+00
         0.30000E+00
         0.30000E+00
         0.30000E+00
         0.30000E+00
         0.30000E+00
         0.30000E+00
         0.30000E+00
         0.30000E+00
         0.30000E+00
         0.30000E+00
         0.30000E+00
         0.30000E+00
         0.30000E+00
         0.30000E+00
         0.30000E+00
         0.30000E+00
         0.30000E+00
         0.30000E+00
         0.30000E+00
         0.30000E+00
         0.30000E+00
         0.30000E+00
         0.30000E+00
         0.30000E+00
         0.30000E+00
         0.30000E+00
         0.30000E+00
         0.30000E+00
         0.30000E+00
         0.30000E+00
         0.30000E+00
         0.30000E+00
         0.30000E+00
         0.30000E+00
         0.30000E+00
         0.30000E+00
         0.30000E+00
         0.30000E+00
         0.30000E+00
         0.30000E+00
         0.30000E+00
         0.30000E+00
         0.30000E+00
         0.30000E+00
         0.30000E+00
         0.30000E+00
         0.30000E+00
         0.30000E+00
         0.30000E+00
         0.30000E+00
         0.30000E+00
         0.30000E+00
         0.30000E+00
         0.30000E+00
         0.30000E+00
         0.30000E+00
         0.30000E+00
         0.30000E+00
         0.30000E+00
         0.30000E+00
         0.30000E+00
         0.30000E+00
         0.30000E+00
         0.30000E+00
         0.30000E+00
         0.30000E+00
         0.30000E+00
         0.30000E+00
         0.30000E+00
         0.30000E+00
         0.30000E+00
         0.30000E+00
         0.30000E+00
         0.30000E+00
         0.30000E+00
         0.30000E+00
         0.30000E+00
         0.30000E+00
         0.30000E+00
         0.30000E+00
         0.30000E+00
         0.30000E+00
         0.30000E+00
         0.30000E+00
         0.30000E+00
         0.30000E+00
         0.30000E+00
         0.30000E+00
         0.30000E+00
         0.30000E+00
         0.30000E+00
         0.30000E+00
         0.30000E+00
         0.30000E+00
         0.30000E+00
         0.30000E+00
         0.30000E+00
         0.30000E+00
         0.30000E+00
         0.30000E+00
         0.30000E+00
         0.30000E+00
         0.30000E+00
         0.30000E+00
         0.30000E+00
         0.30000E+00
         0.30000E+00
         0.30000E+00
         0.30000E+00
         0.30000E+00
         0.30000E+00
         0.30000E+00
         0.30000E+00
         0.30000E+00
         0.30000E+00
         0.30000E+00
         0.30000E+00
         0.30000E+00
         0.30000E+00
         0.30000E+00
         0.30000E+00
         0.30000E+00
         0.30000E+00
         0.30000E+00
         0.30000E+00
         0.30000E+00
         0.30000E+00
         0.30000E+00
         0.30000E+00
         0.30000E+00
         0.30000E+00
         0.30000E+00
         0.30000E+00
         0.30000E+00
         0.30000E+00
         0.30000E+00
         0.30000E+00
         0.30000E+00
         0.30000E+00
         0.30000E+00
         0.30000E+00
         0.30000E+00
         0.30000E+00
         0.30000E+00
         0.30000E+00
         0.30000E+00
         0.30000E+00
         0.30000E+00
         0.30000E+00
         0.30000E+00
         0.30000E+00
         0.30000E+00
         0.30000E+00
         0.30000E+00
         0.30000E+00
         0.30000E+00
         0.30000E+00
         0.30000E+00
         0.30000E+00
         0.30000E+00
         0.30000E+00
         0.30000E+00
         0.30000E+00
         0.30000E+00
         0.30000E+00
         0.30000E+00
         0.30000E+00
         0.30000E+00
         0.30000E+00
         0.30000E+00
         0.30000E+00
         0.30000E+00
         0.30000E+00
         0.30000E+00
         0.30000E+00
         0.30000E+00
         0.30000E+00
         0.30000E+00
         0.30000E+00
         0.30000E+00
         0.30000E+00
         0.30000E+00
         0.30000E+00
         0.30000E+00
         0.30000E+00
         0.30000E+00
         0.30000E+00
         0.30000E+00
         0.30000E+00
         0.30000E+00
         0.30000E+00
         0.30000E+00
         0.30000E+00
         0.30000E+00
         0.30000E+00
         0.30000E+00
         0.30000E+00
         0.30000E+00
         0.30000E+00
         0.30000E+00
         0.30000E+00
         0.30000E+00
         0.30000E+00
         0.30000E+00
         0.30000E+00
         0.30000E+00
         0.30000E+00
         0.30000E+00
         0.30000E+00
         0.30000E+00
         0.30000E+00
         0.30000E+00
         0.30000E+00
         0.30000E+00
         0.30000E+00
         0.30000E+00
         0.30000E+00
         0.30000E+00
         0.30000E+00
         0.30000E+00
         0.30000E+00
         0.30000E+00
         0.30000E+00
         0.30000E+00
         0.30000E+00
         0.30000E+00
         0.30000E+00
         0.30000E+00
         0.30000E+00
         0.30000E+00
         0.30000E+00
         0.30000E+00
         0.30000E+00
         0.30000E+00
         0.30000E+00
         0.30000E+00
         0.30000E+00
         0.30000E+00
         0.30000E+00
         0.30000E+00
         0.30000E+00
         0.30000E+00
         0.30000E+00
         0.30000E+00
         0.30000E+00
         0.30000E+00
         0.30000E+00
         0.30000E+00
         0.30000E+00
         0.30000E+00
         0.30000E+00
         0.30000E+00
         0.30000E+00
         0.30000E+00
         0.30000E+00
         0.30000E+00
         0.30000E+00
         0.30000E+00
         0.30000E+00
         0.30000E+00
         0.30000E+00
         0.30000E+00
         0.30000E+00
         0.30000E+00
         0.30000E+00
         0.30000E+00
         0.30000E+00
         0.30000E+00
         0.30000E+00
         0.30000E+00
         0.30000E+00
         0.30000E+00
         0.30000E+00
         0.30000E+00
         0.30000E+00
         0.30000E+00
         0.30000E+00
         0.30000E+00
         0.30000E+00
         0.30000E+00
         0.30000E+00
         0.30000E+00
         0.30000E+00
         0.30000E+00
         0.30000E+00
         0.30000E+00
         0.30000E+00
         0.30000E+00
         0.30000E+00
         0.30000E+00
         0.30000E+00
         0.30000E+00
         0.30000E+00
         0.30000E+00
         0.30000E+00
         0.30000E+00
         0.30000E+00
         0.30000E+00
         0.30000E+00
         0.30000E+00
         0.30000E+00
         0.30000E+00
         0.30000E+00
         0.30000E+00
         0.30000E+00
         0.30000E+00
         0.30000E+00
         0.30000E+00
         0.30000E+00
         0.30000E+00
         0.30000E+00
         0.30000E+00
         0.30000E+00
         0.30000E+00
         0.30000E+00
         0.30000E+00
         0.30000E+00
         0.30000E+00
         0.30000E+00
         0.30000E+00
         0.30000E+00
         0.30000E+00
         0.30000E+00
         0.30000E+00
         0.30000E+00
         0.30000E+00
         0.30000E+00
         0.30000E+00
         0.30000E+00
         0.30000E+00
         0.30000E+00
         0.30000E+00
         0.30000E+00
         0.30000E+00
         0.30000E+00
         0.30000E+00
         0.30000E+00
         0.30000E+00
         0.30000E+00
         0.30000E+00
         0.30000E+00
         0.30000E+00
         0.30000E+00
         0.30000E+00
         0.30000E+00
         0.30000E+00
         0.30000E+00
         0.30000E+00
         0.30000E+00
         0.30000E+00
         0.30000E+00
         0.30000E+00
         0.30000E+00
         0.30000E+00
         0.30000E+00
         0.30000E+00
         0.30000E+00
         0.30000E+00
         0.30000E+00
         0.30000E+00
         0.30000E+00
         0.30000E+00
         0.30000E+00
         0.30000E+00
         0.30000E+00
         0.30000E+00
         0.30000E+00
         0.30000E+00
         0.30000E+00
         0.30000E+00
         0.30000E+00
         0.30000E+00
         0.30000E+00
         0.30000E+00
         0.30000E+00
         0.30000E+00
         0.30000E+00
         0.30000E+00
         0.30000E+00
         0.30000E+00
         0.30000E+00
         0.30000E+00
         0.30000E+00
         0.30000E+00
         0.30000E+00
         0.30000E+00
         0.30000E+00
         0.30000E+00
         0.30000E+00
         0.30000E+00
         0.30000E+00
         0.30000E+00
         0.30000E+00
         0.30000E+00
         0.30000E+00
         0.30000E+00
         0.30000E+00
         0.30000E+00
         0.30000E+00
         0.30000E+00
         0.30000E+00
         0.30000E+00
         0.30000E+00
         0.30000E+00
         0.30000E+00
         0.30000E+00
         0.30000E+00
         0.30000E+00
         0.30000E+00
         0.30000E+00
         0.30000E+00
         0.30000E+00
         0.30000E+00
         0.30000E+00
         0.30000E+00
         0.30000E+00
         0.30000E+00
         0.30000E+00
         0.30000E+00
         0.30000E+00
         0.30000E+00
         0.30000E+00
         0.30000E+00
         0.30000E+00
         0.30000E+00
         0.30000E+00
         0.30000E+00
         0.30000E+00
         0.30000E+00
         0.30000E+00
         0.30000E+00
         0.30000E+00
         0.30000E+00
         0.30000E+00
         0.30000E+00
         0.30000E+00
         0.30000E+00
         0.30000E+00
         0.30000E+00
         0.30000E+00
         0.30000E+00
         0.30000E+00
         0.30000E+00
         0.30000E+00
         0.30000E+00
         0.30000E+00
         0.30000E+00
         0.30000E+00
         0.30000E+00
         0.30000E+00
         0.30000E+00
         0.30000E+00
         0.30000E+00
         0.30000E+00
         0.30000E+00
         0.30000E+00
         0.30000E+00
         0.30000E+00
         0.30000E+00
         0.30000E+00
         0.30000E+00
         0.30000E+00
         0.30000E+00
         0.30000E+00
         0.30000E+00
         0.30000E+00
         0.30000E+00
         0.30000E+00
         0.30000E+00
         0.30000E+00
         0.30000E+00
         0.30000E+00
         0.30000E+00
         0.30000E+00
         0.30000E+00
         0.30000E+00
         0.30000E+00
         0.30000E+00
         0.30000E+00
         0.30000E+00
         0.30000E+00
         0.30000E+00
         0.30000E+00
         0.30000E+00
         0.30000E+00
         0.30000E+00
         0.30000E+00
         0.30000E+00
         0.30000E+00
         0.30000E+00
         0.30000E+00
         0.30000E+00
         0.30000E+00
         0.30000E+00
         0.30000E+00
         0.30000E+00
         0.30000E+00
         0.30000E+00
         0.30000E+00
         0.30000E+00
         0.30000E+00
         0.30000E+00
         0.30000E+00
         0.30000E+00
         0.30000E+00
         0.30000E+00
         0.30000E+00
         0.30000E+00
         0.30000E+00
         0.30000E+00
         0.30000E+00
         0.30000E+00
         0.30000E+00
         0.30000E+00
         0.30000E+00
         0.30000E+00
         0.30000E+00
         0.30000E+00
         0.30000E+00
         0.30000E+00
         0.30000E+00
         0.30000E+00
         0.30000E+00
         0.30000E+00
         0.30000E+00
         0.30000E+00
         0.30000E+00
         0.30000E+00
         0.30000E+00
         0.30000E+00
         0.30000E+00
         0.30000E+00
         0.30000E+00
         0.30000E+00
         0.30000E+00
         0.30000E+00
         0.30000E+00
         0.30000E+00
         0.30000E+00
         0.30000E+00
         0.30000E+00
         0.30000E+00
         0.30000E+00
         0.30000E+00
         0.30000E+00
         0.30000E+00
         0.30000E+00
         0.30000E+00
         0.30000E+00
         0.30000E+00
         0.30000E+00
         0.30000E+00
         0.30000E+00
         0.30000E+00
         0.30000E+00
         0.30000E+00
         0.30000E+00
         0.30000E+00
         0.30000E+00
         0.30000E+00
         0.30000E+00
         0.30000E+00
         0.30000E+00
         0.30000E+00
         0.30000E+00
         0.30000E+00
         0.30000E+00
         0.30000E+00
         0.30000E+00
         0.30000E+00
         0.30000E+00
         0.30000E+00
         0.30000E+00
         0.30000E+00
         0.30000E+00
         0.30000E+00
         0.30000E+00
         0.30000E+00
         0.30000E+00
         0.30000E+00
         0.30000E+00
         0.30000E+00
         0.30000E+00
         0.30000E+00
         0.30000E+00
         0.30000E+00
         0.30000E+00
         0.30000E+00
         0.30000E+00
         0.30000E+00
         0.30000E+00
         0.30000E+00
         0.30000E+00
         0.30000E+00
         0.30000E+00
         0.30000E+00
         0.30000E+00
         0.30000E+00
         0.30000E+00
         0.30000E+00
         0.30000E+00
         0.30000E+00
         0.30000E+00
         0.30000E+00
         0.30000E+00
         0.30000E+00
         0.30000E+00
         0.30000E+00
         0.30000E+00
         0.30000E+00
         0.30000E+00
         0.30000E+00
         0.30000E+00
         0.30000E+00
         0.30000E+00
         0.30000E+00
         0.30000E+00
         0.30000E+00
         0.30000E+00
         0.30000E+00
         0.30000E+00
         0.30000E+00
         0.30000E+00
         0.30000E+00
         0.30000E+00
         0.30000E+00
         0.30000E+00
         0.30000E+00
         0.30000E+00
         0.30000E+00
         0.30000E+00
         0.30000E+00
         0.30000E+00
         0.30000E+00
         0.30000E+00
         0.30000E+00
         0.30000E+00
         0.30000E+00
         0.30000E+00
         0.30000E+00
         0.30000E+00
         0.30000E+00
         0.30000E+00
         0.30000E+00
         0.30000E+00
         0.30000E+00
         0.30000E+00
         0.30000E+00
         0.30000E+00
         0.30000E+00
         0.30000E+00
         0.30000E+00
         0.30000E+00
         0.30000E+00
         0.30000E+00
         0.30000E+00
         0.30000E+00
         0.30000E+00
         0.30000E+00
         0.30000E+00
         0.30000E+00
         0.30000E+00
         0.30000E+00
         0.30000E+00
         0.30000E+00
         0.30000E+00
         0.30000E+00
         0.30000E+00
         0.30000E+00
         0.30000E+00
         0.30000E+00
         0.30000E+00
         0.30000E+00
         0.30000E+00
         0.30000E+00
         0.30000E+00
         0.30000E+00
         0.30000E+00
         0.30000E+00
         0.30000E+00
         0.30000E+00
         0.30000E+00
         0.30000E+00
         0.30000E+00
         0.30000E+00
         0.30000E+00
         0.30000E+00
         0.30000E+00
         0.30000E+00
         0.30000E+00
         0.30000E+00
         0.30000E+00
         0.30000E+00
         0.30000E+00
         0.30000E+00
         0.30000E+00
         0.30000E+00
         0.30000E+00
         0.30000E+00
         0.30000E+00
         0.30000E+00
         0.30000E+00
         0.30000E+00
         0.30000E+00
         0.30000E+00
         0.30000E+00
         0.30000E+00
         0.30000E+00
         0.30000E+00
         0.30000E+00
         0.30000E+00
         0.30000E+00
         0.30000E+00
         0.30000E+00
         0.30000E+00
         0.30000E+00
         0.30000E+00
         0.30000E+00
         0.30000E+00
         0.30000E+00
         0.30000E+00
         0.30000E+00
         0.30000E+00
         0.30000E+00
         0.30000E+00
         0.30000E+00
         0.30000E+00
         0.30000E+00
         0.30000E+00
         0.30000E+00
         0.30000E+00
         0.30000E+00
         0.30000E+00
         0.30000E+00
         0.30000E+00
         0.30000E+00
         0.30000E+00
         0.30000E+00
         0.30000E+00
         0.30000E+00
         0.30000E+00
         0.30000E+00
         0.30000E+00
         0.30000E+00
         0.30000E+00
         0.30000E+00
         0.30000E+00
         0.30000E+00
         0.30000E+00
         0.30000E+00
         0.30000E+00
         0.30000E+00
         0.30000E+00
         0.30000E+00
         0.30000E+00
         0.30000E+00
         0.30000E+00
         0.30000E+00
         0.30000E+00
         0.30000E+00
         0.30000E+00
         0.30000E+00
         0.30000E+00
         0.30000E+00
         0.30000E+00
         0.30000E+00
         0.30000E+00
         0.30000E+00
         0.30000E+00
         0.30000E+00
         0.30000E+00
         0.30000E+00
         0.30000E+00
         0.30000E+00
         0.30000E+00
         0.30000E+00
         0.30000E+00
         0.30000E+00
         0.30000E+00
         0.30000E+00
         0.30000E+00
         0.30000E+00
         0.30000E+00
         0.30000E+00
         0.30000E+00
         0.30000E+00
         0.30000E+00
         0.30000E+00
         0.30000E+00
         0.30000E+00
         0.30000E+00
         0.30000E+00
         0.30000E+00
         0.30000E+00
         0.30000E+00
         0.30000E+00
         0.30000E+00
         0.30000E+00
         0.30000E+00
         0.30000E+00
         0.30000E+00
         0.30000E+00
         0.30000E+00
         0.30000E+00
         0.30000E+00
         0.30000E+00
         0.30000E+00
         0.30000E+00
         0.30000E+00
         0.30000E+00
         0.30000E+00
         0.30000E+00
         0.30000E+00
         0.30000E+00
         0.30000E+00
         0.30000E+00
         0.30000E+00
         0.30000E+00
         0.30000E+00
         0.30000E+00
         0.30000E+00
         0.30000E+00
         0.30000E+00
         0.30000E+00
         0.30000E+00
         0.30000E+00
         0.30000E+00
         0.30000E+00
         0.30000E+00
         0.30000E+00
         0.30000E+00
         0.30000E+00
         0.30000E+00
         0.30000E+00
         0.30000E+00
         0.30000E+00
         0.30000E+00
         0.30000E+00
         0.30000E+00
         0.30000E+00
         0.30000E+00
         0.30000E+00
         0.30000E+00
         0.30000E+00
         0.30000E+00
         0.30000E+00
         0.30000E+00
         0.30000E+00
         0.30000E+00
         0.30000E+00
         0.30000E+00
         0.30000E+00
         0.30000E+00
         0.30000E+00
         0.30000E+00
         0.30000E+00
         0.30000E+00
         0.30000E+00
         0.30000E+00
         0.30000E+00
         0.30000E+00
         0.30000E+00
         0.30000E+00
         0.30000E+00
         0.30000E+00
         0.30000E+00
         0.30000E+00
         0.30000E+00
         0.30000E+00
         0.30000E+00
         0.30000E+00
         0.30000E+00
         0.30000E+00
         0.30000E+00
         0.30000E+00
         0.30000E+00
         0.30000E+00
         0.30000E+00
         0.30000E+00
         0.30000E+00
         0.30000E+00
         0.30000E+00
         0.30000E+00
         0.30000E+00
         0.30000E+00
         0.30000E+00
         0.30000E+00
         0.30000E+00
         0.30000E+00
         0.30000E+00
         0.30000E+00
         0.30000E+00
         0.30000E+00
         0.30000E+00
         0.30000E+00
         0.30000E+00
         0.30000E+00
         0.30000E+00
         0.30000E+00
         0.30000E+00
         0.30000E+00
         0.30000E+00
         0.30000E+00
         0.30000E+00
         0.30000E+00
         0.30000E+00
         0.30000E+00
         0.30000E+00
         0.30000E+00
         0.30000E+00
         0.30000E+00
         0.30000E+00
         0.30000E+00
         0.30000E+00
         0.30000E+00
         0.30000E+00
         0.30000E+00
         0.30000E+00
         0.30000E+00
         0.30000E+00
         0.30000E+00
         0.30000E+00
         0.30000E+00
         0.30000E+00
         0.30000E+00
         0.30000E+00
         0.30000E+00
         0.30000E+00
         0.30000E+00
         0.30000E+00
         0.30000E+00
         0.30000E+00
         0.30000E+00
         0.30000E+00
         0.30000E+00
         0.30000E+00
         0.30000E+00
         0.30000E+00
         0.30000E+00
         0.30000E+00
         0.30000E+00
         0.30000E+00
         0.30000E+00
         0.30000E+00
         0.30000E+00
         0.30000E+00
         0.30000E+00
         0.30000E+00
         0.30000E+00
         0.30000E+00
         0.30000E+00
         0.30000E+00
         0.30000E+00
         0.30000E+00
         0.30000E+00
         0.30000E+00
         0.30000E+00
         0.30000E+00
         0.30000E+00
         0.30000E+00
         0.30000E+00
         0.30000E+00
         0.30000E+00
         0.30000E+00
         0.30000E+00
         0.30000E+00
         0.30000E+00
         0.30000E+00
         0.30000E+00
         0.30000E+00
         0.30000E+00
         0.30000E+00
         0.30000E+00
         0.30000E+00
         0.30000E+00
         0.30000E+00
         0.30000E+00
         0.30000E+00
         0.30000E+00
         0.30000E+00
         0.30000E+00
         0.30000E+00
         0.30000E+00
         0.30000E+00
         0.30000E+00
         0.30000E+00
         0.30000E+00
         0.30000E+00
         0.30000E+00
         0.30000E+00
         0.30000E+00
         0.30000E+00
         0.30000E+00
         0.30000E+00
         0.30000E+00
         0.30000E+00
         0.30000E+00
         0.30000E+00
         0.30000E+00
         0.30000E+00
         0.30000E+00
         0.30000E+00
         0.30000E+00
         0.30000E+00
         0.30000E+00
         0.30000E+00
         0.30000E+00
         0.30000E+00
         0.30000E+00
         0.30000E+00
         0.30000E+00
         0.30000E+00
         0.30000E+00
         0.30000E+00
         0.30000E+00
         0.30000E+00
         0.30000E+00
         0.30000E+00
         0.30000E+00
         0.30000E+00
         0.30000E+00
         0.30000E+00
         0.30000E+00
         0.30000E+00
         0.30000E+00
         0.30000E+00
         0.30000E+00
         0.30000E+00
         0.30000E+00
         0.30000E+00
         0.30000E+00
         0.30000E+00
         0.30000E+00
         0.30000E+00
         0.30000E+00
         0.30000E+00
         0.30000E+00
         0.30000E+00
         0.30000E+00
         0.30000E+00
         0.30000E+00
         0.30000E+00
         0.30000E+00
         0.30000E+00
         0.30000E+00
         0.30000E+00
         0.30000E+00
         0.30000E+00
         0.30000E+00
         0.30000E+00
         0.30000E+00
         0.30000E+00
         0.30000E+00
         0.30000E+00
         0.30000E+00
         0.30000E+00
         0.30000E+00
         0.30000E+00
         0.30000E+00
         0.30000E+00
         0.30000E+00
         0.30000E+00
         0.30000E+00
         0.30000E+00
         0.30000E+00
         0.30000E+00
         0.30000E+00
         0.30000E+00
         0.30000E+00
         0.30000E+00
         0.30000E+00
         0.30000E+00
         0.30000E+00
         0.30000E+00
         0.30000E+00
         0.30000E+00
         0.30000E+00
         0.30000E+00
         0.30000E+00
         0.30000E+00
         0.30000E+00
         0.30000E+00
         0.30000E+00
         0.30000E+00
         0.30000E+00
         0.30000E+00
         0.30000E+00
         0.30000E+00
         0.30000E+00
         0.30000E+00
         0.30000E+00
         0.30000E+00
         0.30000E+00
         0.30000E+00
         0.30000E+00
         0.30000E+00
         0.30000E+00
         0.30000E+00
         0.30000E+00
         0.30000E+00
         0.30000E+00
         0.30000E+00
         0.30000E+00
         0.30000E+00
         0.30000E+00
         0.30000E+00
         0.30000E+00
         0.30000E+00
         0.30000E+00
         0.30000E+00
         0.30000E+00
         0.30000E+00
         0.30000E+00
         0.30000E+00
         0.30000E+00
         0.30000E+00
         0.30000E+00
         0.30000E+00
         0.30000E+00
         0.30000E+00
         0.30000E+00
         0.30000E+00
         0.30000E+00
         0.30000E+00
         0.30000E+00
         0.30000E+00
         0.30000E+00
         0.30000E+00
         0.30000E+00
         0.30000E+00
         0.30000E+00
         0.30000E+00
         0.30000E+00
         0.30000E+00
         0.30000E+00
         0.30000E+00
         0.30000E+00
         0.30000E+00
         0.30000E+00
         0.30000E+00
         0.30000E+00
         0.30000E+00
         0.30000E+00
         0.30000E+00
         0.30000E+00
         0.30000E+00
         0.30000E+00
         0.30000E+00
         0.30000E+00
         0.30000E+00
         0.30000E+00
         0.30000E+00
         0.30000E+00
         0.30000E+00
         0.30000E+00
         0.30000E+00
         0.30000E+00
         0.30000E+00
         0.30000E+00
         0.30000E+00
         0.30000E+00
         0.30000E+00
         0.30000E+00
         0.30000E+00
         0.30000E+00
         0.30000E+00
         0.30000E+00
         0.30000E+00
         0.30000E+00
         0.30000E+00
         0.30000E+00
         0.30000E+00
         0.30000E+00
         0.30000E+00
         0.30000E+00
         0.30000E+00
         0.30000E+00
         0.30000E+00
         0.30000E+00
         0.30000E+00
         0.30000E+00
         0.30000E+00
         0.30000E+00
         0.30000E+00
         0.30000E+00
         0.30000E+00
         0.30000E+00
         0.30000E+00
         0.30000E+00
         0.30000E+00
         0.30000E+00
         0.30000E+00
         0.30000E+00
         0.30000E+00
         0.30000E+00
         0.30000E+00
         0.30000E+00
         0.30000E+00
         0.30000E+00
         0.30000E+00
         0.30000E+00
         0.30000E+00
         0.30000E+00
         0.30000E+00
         0.30000E+00
         0.30000E+00
         0.30000E+00
         0.30000E+00
         0.30000E+00
         0.30000E+00
         0.30000E+00
         0.30000E+00
         0.30000E+00
         0.30000E+00
         0.30000E+00
         0.30000E+00
         0.30000E+00
         0.30000E+00
         0.30000E+00
         0.30000E+00
         0.30000E+00
         0.30000E+00
         0.30000E+00
         0.30000E+00
         0.30000E+00
         0.30000E+00
         0.30000E+00
         0.30000E+00
         0.30000E+00
         0.30000E+00
         0.30000E+00
         0.30000E+00
         0.30000E+00
         0.30000E+00
         0.30000E+00
         0.30000E+00
         0.30000E+00
         0.30000E+00
         0.30000E+00
         0.30000E+00
         0.30000E+00
         0.30000E+00
         0.30000E+00
         0.30000E+00
         0.30000E+00
         0.30000E+00
         0.30000E+00
         0.30000E+00
         0.30000E+00
         0.30000E+00
         0.30000E+00
         0.30000E+00
         0.30000E+00
         0.30000E+00
         0.30000E+00
         0.30000E+00
         0.30000E+00
         0.30000E+00
         0.30000E+00
         0.30000E+00
         0.30000E+00
         0.30000E+00
         0.30000E+00
         0.30000E+00
         0.30000E+00
         0.30000E+00
         0.30000E+00
         0.30000E+00
         0.30000E+00
         0.30000E+00
         0.30000E+00
         0.30000E+00
         0.30000E+00
         0.30000E+00
         0.30000E+00
         0.30000E+00
         0.30000E+00
         0.30000E+00
         0.30000E+00
         0.30000E+00
         0.30000E+00
         0.30000E+00
         0.30000E+00
         0.30000E+00
         0.30000E+00
         0.30000E+00
         0.30000E+00
         0.30000E+00
         0.30000E+00
         0.30000E+00
         0.30000E+00
         0.30000E+00
         0.30000E+00
         0.30000E+00
         0.30000E+00
         0.30000E+00
         0.30000E+00
         0.30000E+00
         0.30000E+00
         0.30000E+00
         0.30000E+00
         0.30000E+00
         0.30000E+00
         0.30000E+00
         0.30000E+00
         0.30000E+00
         0.30000E+00
         0.30000E+00
         0.30000E+00
         0.30000E+00
         0.30000E+00
         0.30000E+00
         0.30000E+00
         0.30000E+00
         0.30000E+00
         0.30000E+00
         0.30000E+00
         0.30000E+00
         0.30000E+00
         0.30000E+00
         0.30000E+00
         0.30000E+00
         0.30000E+00
         0.30000E+00
         0.30000E+00
         0.30000E+00
         0.30000E+00
         0.30000E+00
         0.30000E+00
         0.30000E+00
         0.30000E+00
         0.30000E+00
         0.30000E+00
         0.30000E+00
         0.30000E+00
         0.30000E+00
         0.30000E+00
         0.30000E+00
         0.30000E+00
         0.30000E+00
         0.30000E+00
         0.30000E+00
         0.30000E+00
         0.30000E+00
         0.30000E+00
         0.30000E+00
         0.30000E+00
         0.30000E+00
         0.30000E+00
         0.30000E+00
         0.30000E+00
         0.30000E+00
         0.30000E+00
         0.30000E+00
         0.30000E+00
         0.30000E+00
         0.30000E+00
         0.30000E+00
         0.30000E+00
         0.30000E+00
         0.30000E+00
         0.30000E+00
         0.30000E+00
         0.30000E+00
         0.30000E+00
         0.30000E+00
         0.30000E+00
         0.30000E+00
         0.30000E+00
         0.30000E+00
         0.30000E+00
         0.30000E+00
         0.30000E+00
         0.30000E+00
         0.30000E+00
         0.30000E+00
         0.30000E+00
         0.30000E+00
         0.30000E+00
         0.30000E+00
         0.30000E+00
         0.30000E+00
         0.30000E+00
         0.30000E+00
         0.30000E+00
         0.30000E+00
         0.30000E+00
         0.30000E+00
         0.30000E+00
         0.30000E+00
         0.30000E+00
         0.30000E+00
         0.30000E+00
         0.30000E+00
         0.30000E+00
         0.30000E+00
         0.30000E+00
         0.30000E+00
         0.30000E+00
         0.30000E+00
         0.30000E+00
         0.30000E+00
         0.30000E+00
         0.30000E+00
         0.30000E+00
         0.30000E+00
         0.30000E+00
         0.30000E+00
         0.30000E+00
         0.30000E+00
         0.30000E+00
         0.30000E+00
         0.30000E+00
         0.30000E+00
         0.30000E+00
         0.30000E+00
         0.30000E+00
         0.30000E+00
         0.30000E+00
         0.30000E+00
         0.30000E+00
         0.30000E+00
         0.30000E+00
         0.30000E+00
         0.30000E+00
         0.30000E+00
         0.30000E+00
         0.30000E+00
         0.30000E+00
         0.30000E+00
         0.30000E+00
         0.30000E+00
         0.30000E+00
         0.30000E+00
         0.30000E+00
         0.30000E+00
         0.30000E+00
         0.30000E+00
         0.30000E+00
         0.30000E+00
         0.30000E+00
         0.30000E+00
         0.30000E+00
         0.30000E+00
         0.30000E+00
         0.30000E+00
         0.30000E+00
         0.30000E+00
         0.30000E+00
         0.30000E+00
         0.30000E+00
         0.30000E+00
         0.30000E+00
         0.30000E+00
         0.30000E+00
         0.30000E+00
         0.30000E+00
         0.30000E+00
         0.30000E+00
         0.30000E+00
         0.30000E+00
         0.30000E+00
         0.30000E+00
         0.30000E+00
         0.30000E+00
         0.30000E+00
         0.30000E+00
         0.30000E+00
         0.30000E+00
         0.30000E+00
         0.30000E+00
         0.30000E+00
         0.30000E+00
         0.30000E+00
         0.30000E+00
         0.30000E+00
         0.30000E+00
         0.30000E+00
         0.30000E+00
         0.30000E+00
         0.30000E+00
         0.30000E+00
         0.30000E+00
         0.30000E+00
         0.30000E+00
         0.30000E+00
         0.30000E+00
         0.30000E+00
         0.30000E+00
         0.30000E+00
         0.30000E+00
         0.30000E+00
         0.30000E+00
         0.30000E+00
         0.30000E+00
         0.30000E+00
         0.30000E+00
         0.30000E+00
         0.30000E+00
         0.30000E+00
         0.30000E+00
         0.30000E+00
         0.30000E+00
         0.30000E+00
         0.30000E+00
         0.30000E+00
         0.30000E+00
         0.30000E+00
         0.30000E+00
         0.30000E+00
         0.30000E+00
         0.30000E+00
         0.30000E+00
         0.30000E+00
         0.30000E+00
         0.30000E+00
         0.30000E+00
         0.30000E+00
         0.30000E+00
         0.30000E+00
         0.30000E+00
         0.30000E+00
         0.30000E+00
         0.30000E+00
         0.30000E+00
         0.30000E+00
         0.30000E+00
         0.30000E+00
         0.30000E+00
         0.30000E+00
         0.30000E+00
         0.30000E+00
         0.30000E+00
         0.30000E+00
         0.30000E+00
         0.30000E+00
         0.30000E+00
         0.30000E+00
         0.30000E+00
         0.30000E+00
         0.30000E+00
         0.30000E+00
         0.30000E+00
         0.30000E+00
         0.30000E+00
         0.30000E+00
         0.30000E+00
         0.30000E+00
         0.30000E+00
         0.30000E+00
         0.30000E+00
         0.30000E+00
         0.30000E+00
         0.30000E+00
         0.30000E+00
         0.30000E+00
         0.30000E+00
         0.30000E+00
         0.30000E+00
         0.30000E+00
         0.30000E+00
         0.30000E+00
         0.30000E+00
         0.30000E+00
         0.30000E+00
         0.30000E+00
         0.30000E+00
         0.30000E+00
         0.30000E+00
         0.30000E+00
         0.30000E+00
         0.30000E+00
         0.30000E+00
         0.30000E+00
         0.30000E+00
         0.30000E+00
         0.30000E+00
         0.30000E+00
         0.30000E+00
         0.30000E+00
         0.30000E+00
         0.30000E+00
         0.30000E+00
         0.30000E+00
         0.30000E+00
         0.30000E+00
         0.30000E+00
         0.30000E+00
         0.30000E+00
         0.30000E+00
         0.30000E+00
         0.30000E+00
         0.30000E+00
         0.30000E+00
         0.30000E+00
         0.30000E+00
         0.30000E+00
         0.30000E+00
         0.30000E+00
         0.30000E+00
         0.30000E+00
         0.30000E+00
         0.30000E+00
         0.30000E+00
         0.30000E+00
         0.30000E+00
         0.30000E+00
         0.30000E+00
         0.30000E+00
         0.30000E+00
         0.30000E+00
         0.30000E+00
         0.30000E+00
         0.30000E+00
         0.30000E+00
         0.30000E+00
         0.30000E+00
         0.30000E+00
         0.30000E+00
         0.30000E+00
         0.30000E+00
         0.30000E+00
         0.30000E+00
         0.30000E+00
         0.30000E+00
         0.30000E+00
         0.30000E+00
         0.30000E+00
         0.30000E+00
         0.30000E+00
         0.30000E+00
         0.30000E+00
         0.30000E+00
         0.30000E+00
         0.30000E+00
         0.30000E+00
         0.30000E+00
         0.30000E+00
         0.30000E+00
         0.30000E+00
         0.30000E+00
         0.30000E+00
         0.30000E+00
         0.30000E+00
         0.30000E+00
         0.30000E+00
         0.30000E+00
         0.30000E+00
         0.30000E+00
         0.30000E+00
         0.30000E+00
         0.30000E+00
         0.30000E+00
         0.30000E+00
         0.30000E+00
         0.30000E+00
         0.30000E+00
         0.30000E+00
         0.30000E+00
         0.30000E+00
         0.30000E+00
         0.30000E+00
         0.30000E+00
         0.30000E+00
         0.30000E+00
         0.30000E+00
         0.30000E+00
         0.30000E+00
         0.30000E+00
         0.30000E+00
         0.30000E+00
         0.30000E+00
         0.30000E+00
         0.30000E+00
         0.30000E+00
         0.30000E+00
         0.30000E+00
         0.30000E+00
         0.30000E+00
         0.30000E+00
         0.30000E+00
         0.30000E+00
         0.30000E+00
         0.30000E+00
         0.30000E+00
         0.30000E+00
         0.30000E+00
         0.30000E+00
         0.30000E+00
         0.30000E+00
         0.30000E+00
         0.30000E+00
         0.30000E+00
         0.30000E+00
         0.30000E+00
         0.30000E+00
         0.30000E+00
         0.30000E+00
         0.30000E+00
         0.30000E+00
         0.30000E+00
         0.30000E+00
         0.30000E+00
         0.30000E+00
         0.30000E+00
         0.30000E+00
         0.30000E+00
         0.30000E+00
         0.30000E+00
         0.30000E+00
         0.30000E+00
         0.30000E+00
         0.30000E+00
         0.30000E+00
         0.30000E+00
         0.30000E+00
         0.30000E+00
         0.30000E+00
         0.30000E+00
         0.30000E+00
         0.30000E+00
         0.30000E+00
         0.30000E+00
         0.30000E+00
         0.30000E+00
         0.30000E+00
         0.30000E+00
         0.30000E+00
         0.30000E+00
         0.30000E+00
         0.30000E+00
         0.30000E+00
         0.30000E+00
         0.30000E+00
         0.30000E+00
         0.30000E+00
         0.30000E+00
         0.30000E+00
         0.30000E+00
         0.30000E+00
         0.30000E+00
         0.30000E+00
         0.30000E+00
         0.30000E+00
         0.30000E+00
         0.30000E+00
         0.30000E+00
         0.30000E+00
         0.30000E+00
         0.30000E+00
         0.30000E+00
         0.30000E+00
         0.30000E+00
         0.30000E+00
         0.30000E+00
         0.30000E+00
         0.30000E+00
         0.30000E+00
         0.30000E+00
         0.30000E+00
         0.30000E+00
         0.30000E+00
         0.30000E+00
         0.30000E+00
         0.30000E+00
         0.30000E+00
         0.30000E+00
         0.30000E+00
         0.30000E+00
         0.30000E+00
         0.30000E+00
         0.30000E+00
         0.30000E+00
         0.30000E+00
         0.30000E+00
         0.30000E+00
         0.30000E+00
         0.30000E+00
         0.30000E+00
         0.30000E+00
         0.30000E+00
         0.30000E+00
         0.30000E+00
         0.30000E+00
         0.30000E+00
         0.30000E+00
         0.30000E+00
         0.30000E+00
         0.30000E+00
         0.30000E+00
         0.30000E+00
         0.30000E+00
         0.30000E+00
         0.30000E+00
         0.30000E+00
         0.30000E+00
         0.30000E+00
         0.30000E+00
         0.30000E+00
  
SCALARS                 Youngs_modulus  double 1
LOOKUP_TABLE default
         0.78200E+11
         0.78200E+11
         0.78200E+11
         0.78200E+11
         0.78200E+11
         0.78200E+11
         0.78200E+11
         0.78200E+11
         0.78200E+11
         0.78200E+11
         0.78200E+11
         0.78200E+11
         0.78200E+11
         0.78200E+11
         0.78200E+11
         0.78200E+11
         0.78200E+11
         0.78200E+11
         0.78200E+11
         0.78200E+11
         0.78200E+11
         0.78200E+11
         0.78200E+11
         0.78200E+11
         0.78200E+11
         0.78200E+11
         0.78200E+11
         0.78200E+11
         0.78200E+11
         0.78200E+11
         0.78200E+11
         0.78200E+11
         0.78200E+11
         0.78200E+11
         0.78200E+11
         0.78200E+11
         0.78200E+11
         0.78200E+11
         0.78200E+11
         0.78200E+11
         0.78200E+11
         0.78200E+11
         0.78200E+11
         0.78200E+11
         0.78200E+11
         0.78200E+11
         0.78200E+11
         0.78200E+11
         0.78200E+11
         0.78200E+11
         0.78200E+11
         0.78200E+11
         0.78200E+11
         0.78200E+11
         0.78200E+11
         0.78200E+11
         0.78200E+11
         0.78200E+11
         0.78200E+11
         0.78200E+11
         0.78200E+11
         0.78200E+11
         0.78200E+11
         0.78200E+11
         0.78200E+11
         0.78200E+11
         0.78200E+11
         0.78200E+11
         0.78200E+11
         0.78200E+11
         0.78200E+11
         0.78200E+11
         0.78200E+11
         0.78200E+11
         0.78200E+11
         0.78200E+11
         0.78200E+11
         0.78200E+11
         0.78200E+11
         0.78200E+11
         0.78200E+11
         0.78200E+11
         0.78200E+11
         0.78200E+11
         0.78200E+11
         0.78200E+11
         0.78200E+11
         0.78200E+11
         0.78200E+11
         0.78200E+11
         0.78200E+11
         0.78200E+11
         0.78200E+11
         0.78200E+11
         0.78200E+11
         0.78200E+11
         0.78200E+11
         0.78200E+11
         0.78200E+11
         0.78200E+11
         0.78200E+11
         0.78200E+11
         0.78200E+11
         0.78200E+11
         0.78200E+11
         0.78200E+11
         0.78200E+11
         0.78200E+11
         0.78200E+11
         0.78200E+11
         0.78200E+11
         0.78200E+11
         0.78200E+11
         0.78200E+11
         0.78200E+11
         0.78200E+11
         0.78200E+11
         0.78200E+11
         0.78200E+11
         0.78200E+11
         0.78200E+11
         0.78200E+11
         0.78200E+11
         0.78200E+11
         0.78200E+11
         0.78200E+11
         0.78200E+11
         0.78200E+11
         0.78200E+11
         0.78200E+11
         0.78200E+11
         0.78200E+11
         0.78200E+11
         0.78200E+11
         0.78200E+11
         0.78200E+11
         0.78200E+11
         0.78200E+11
         0.78200E+11
         0.78200E+11
         0.78200E+11
         0.78200E+11
         0.78200E+11
         0.78200E+11
         0.78200E+11
         0.78200E+11
         0.78200E+11
         0.78200E+11
         0.78200E+11
         0.78200E+11
         0.78200E+11
         0.78200E+11
         0.78200E+11
         0.78200E+11
         0.78200E+11
         0.78200E+11
         0.78200E+11
         0.78200E+11
         0.78200E+11
         0.78200E+11
         0.78200E+11
         0.78200E+11
         0.78200E+11
         0.78200E+11
         0.78200E+11
         0.78200E+11
         0.78200E+11
         0.78200E+11
         0.78200E+11
         0.78200E+11
         0.78200E+11
         0.78200E+11
         0.78200E+11
         0.78200E+11
         0.78200E+11
         0.78200E+11
         0.78200E+11
         0.78200E+11
         0.78200E+11
         0.78200E+11
         0.78200E+11
         0.78200E+11
         0.78200E+11
         0.78200E+11
         0.78200E+11
         0.78200E+11
         0.78200E+11
         0.78200E+11
         0.78200E+11
         0.78200E+11
         0.78200E+11
         0.78200E+11
         0.78200E+11
         0.78200E+11
         0.78200E+11
         0.78200E+11
         0.78200E+11
         0.78200E+11
         0.78200E+11
         0.78200E+11
         0.78200E+11
         0.78200E+11
         0.78200E+11
         0.78200E+11
         0.78200E+11
         0.78200E+11
         0.78200E+11
         0.78200E+11
         0.78200E+11
         0.78200E+11
         0.78200E+11
         0.78200E+11
         0.78200E+11
         0.78200E+11
         0.78200E+11
         0.78200E+11
         0.78200E+11
         0.78200E+11
         0.78200E+11
         0.78200E+11
         0.78200E+11
         0.78200E+11
         0.78200E+11
         0.78200E+11
         0.78200E+11
         0.78200E+11
         0.78200E+11
         0.78200E+11
         0.78200E+11
         0.78200E+11
         0.78200E+11
         0.78200E+11
         0.78200E+11
         0.78200E+11
         0.78200E+11
         0.78200E+11
         0.78200E+11
         0.78200E+11
         0.78200E+11
         0.78200E+11
         0.78200E+11
         0.78200E+11
         0.78200E+11
         0.78200E+11
         0.78200E+11
         0.78200E+11
         0.78200E+11
         0.78200E+11
         0.78200E+11
         0.78200E+11
         0.78200E+11
         0.78200E+11
         0.78200E+11
         0.78200E+11
         0.78200E+11
         0.78200E+11
         0.78200E+11
         0.78200E+11
         0.78200E+11
         0.78200E+11
         0.78200E+11
         0.78200E+11
         0.78200E+11
         0.78200E+11
         0.78200E+11
         0.78200E+11
         0.78200E+11
         0.78200E+11
         0.78200E+11
         0.78200E+11
         0.78200E+11
         0.78200E+11
         0.78200E+11
         0.78200E+11
         0.78200E+11
         0.78200E+11
         0.78200E+11
         0.78200E+11
         0.78200E+11
         0.78200E+11
         0.78200E+11
         0.78200E+11
         0.78200E+11
         0.78200E+11
         0.78200E+11
         0.78200E+11
         0.78200E+11
         0.78200E+11
         0.78200E+11
         0.78200E+11
         0.78200E+11
         0.78200E+11
         0.78200E+11
         0.78200E+11
         0.78200E+11
         0.78200E+11
         0.78200E+11
         0.78200E+11
         0.78200E+11
         0.78200E+11
         0.78200E+11
         0.78200E+11
         0.78200E+11
         0.78200E+11
         0.78200E+11
         0.78200E+11
         0.78200E+11
         0.78200E+11
         0.78200E+11
         0.78200E+11
         0.78200E+11
         0.78200E+11
         0.78200E+11
         0.78200E+11
         0.78200E+11
         0.78200E+11
         0.78200E+11
         0.78200E+11
         0.78200E+11
         0.78200E+11
         0.78200E+11
         0.78200E+11
         0.78200E+11
         0.78200E+11
         0.78200E+11
         0.78200E+11
         0.78200E+11
         0.78200E+11
         0.78200E+11
         0.78200E+11
         0.78200E+11
         0.78200E+11
         0.78200E+11
         0.78200E+11
         0.78200E+11
         0.78200E+11
         0.78200E+11
         0.78200E+11
         0.78200E+11
         0.78200E+11
         0.78200E+11
         0.78200E+11
         0.78200E+11
         0.78200E+11
         0.78200E+11
         0.78200E+11
         0.78200E+11
         0.78200E+11
         0.78200E+11
         0.78200E+11
         0.78200E+11
         0.78200E+11
         0.78200E+11
         0.78200E+11
         0.78200E+11
         0.78200E+11
         0.78200E+11
         0.78200E+11
         0.78200E+11
         0.78200E+11
         0.78200E+11
         0.78200E+11
         0.78200E+11
         0.78200E+11
         0.78200E+11
         0.78200E+11
         0.78200E+11
         0.78200E+11
         0.78200E+11
         0.78200E+11
         0.78200E+11
         0.78200E+11
         0.78200E+11
         0.78200E+11
         0.78200E+11
         0.78200E+11
         0.78200E+11
         0.78200E+11
         0.78200E+11
         0.78200E+11
         0.78200E+11
         0.78200E+11
         0.78200E+11
         0.78200E+11
         0.78200E+11
         0.78200E+11
         0.78200E+11
         0.78200E+11
         0.78200E+11
         0.78200E+11
         0.78200E+11
         0.78200E+11
         0.78200E+11
         0.78200E+11
         0.78200E+11
         0.78200E+11
         0.78200E+11
         0.78200E+11
         0.78200E+11
         0.78200E+11
         0.78200E+11
         0.78200E+11
         0.78200E+11
         0.78200E+11
         0.78200E+11
         0.78200E+11
         0.78200E+11
         0.78200E+11
         0.78200E+11
         0.78200E+11
         0.78200E+11
         0.78200E+11
         0.78200E+11
         0.78200E+11
         0.78200E+11
         0.78200E+11
         0.78200E+11
         0.78200E+11
         0.78200E+11
         0.78200E+11
         0.78200E+11
         0.78200E+11
         0.78200E+11
         0.78200E+11
         0.78200E+11
         0.78200E+11
         0.78200E+11
         0.78200E+11
         0.78200E+11
         0.78200E+11
         0.78200E+11
         0.78200E+11
         0.78200E+11
         0.78200E+11
         0.78200E+11
         0.78200E+11
         0.78200E+11
         0.78200E+11
         0.78200E+11
         0.78200E+11
         0.78200E+11
         0.78200E+11
         0.78200E+11
         0.78200E+11
         0.78200E+11
         0.78200E+11
         0.78200E+11
         0.78200E+11
         0.78200E+11
         0.78200E+11
         0.78200E+11
         0.78200E+11
         0.78200E+11
         0.78200E+11
         0.78200E+11
         0.78200E+11
         0.78200E+11
         0.78200E+11
         0.78200E+11
         0.78200E+11
         0.78200E+11
         0.78200E+11
         0.78200E+11
         0.78200E+11
         0.78200E+11
         0.78200E+11
         0.78200E+11
         0.78200E+11
         0.78200E+11
         0.78200E+11
         0.78200E+11
         0.78200E+11
         0.78200E+11
         0.78200E+11
         0.78200E+11
         0.78200E+11
         0.78200E+11
         0.78200E+11
         0.78200E+11
         0.78200E+11
         0.78200E+11
         0.78200E+11
         0.78200E+11
         0.78200E+11
         0.78200E+11
         0.78200E+11
         0.78200E+11
         0.78200E+11
         0.78200E+11
         0.78200E+11
         0.78200E+11
         0.78200E+11
         0.78200E+11
         0.78200E+11
         0.78200E+11
         0.78200E+11
         0.78200E+11
         0.78200E+11
         0.78200E+11
         0.78200E+11
         0.78200E+11
         0.78200E+11
         0.78200E+11
         0.78200E+11
         0.78200E+11
         0.78200E+11
         0.78200E+11
         0.78200E+11
         0.78200E+11
         0.78200E+11
         0.78200E+11
         0.78200E+11
         0.78200E+11
         0.78200E+11
         0.78200E+11
         0.78200E+11
         0.78200E+11
         0.78200E+11
         0.78200E+11
         0.78200E+11
         0.78200E+11
         0.78200E+11
         0.78200E+11
         0.78200E+11
         0.78200E+11
         0.78200E+11
         0.78200E+11
         0.78200E+11
         0.78200E+11
         0.78200E+11
         0.78200E+11
         0.78200E+11
         0.78200E+11
         0.78200E+11
         0.78200E+11
         0.78200E+11
         0.78200E+11
         0.78200E+11
         0.78200E+11
         0.78200E+11
         0.78200E+11
         0.78200E+11
         0.78200E+11
         0.78200E+11
         0.78200E+11
         0.78200E+11
         0.78200E+11
         0.78200E+11
         0.78200E+11
         0.78200E+11
         0.78200E+11
         0.78200E+11
         0.78200E+11
         0.78200E+11
         0.78200E+11
         0.78200E+11
         0.78200E+11
         0.78200E+11
         0.78200E+11
         0.78200E+11
         0.78200E+11
         0.78200E+11
         0.78200E+11
         0.78200E+11
         0.78200E+11
         0.78200E+11
         0.78200E+11
         0.78200E+11
         0.78200E+11
         0.78200E+11
         0.78200E+11
         0.78200E+11
         0.78200E+11
         0.78200E+11
         0.78200E+11
         0.78200E+11
         0.78200E+11
         0.78200E+11
         0.78200E+11
         0.78200E+11
         0.78200E+11
         0.78200E+11
         0.78200E+11
         0.78200E+11
         0.78200E+11
         0.78200E+11
         0.78200E+11
         0.78200E+11
         0.78200E+11
         0.78200E+11
         0.78200E+11
         0.78200E+11
         0.78200E+11
         0.78200E+11
         0.78200E+11
         0.78200E+11
         0.78200E+11
         0.78200E+11
         0.78200E+11
         0.78200E+11
         0.78200E+11
         0.78200E+11
         0.78200E+11
         0.78200E+11
         0.78200E+11
         0.78200E+11
         0.78200E+11
         0.78200E+11
         0.78200E+11
         0.78200E+11
         0.78200E+11
         0.78200E+11
         0.78200E+11
         0.78200E+11
         0.78200E+11
         0.78200E+11
         0.78200E+11
         0.78200E+11
         0.78200E+11
         0.78200E+11
         0.78200E+11
         0.78200E+11
         0.78200E+11
         0.78200E+11
         0.78200E+11
         0.78200E+11
         0.78200E+11
         0.78200E+11
         0.78200E+11
         0.78200E+11
         0.78200E+11
         0.78200E+11
         0.78200E+11
         0.78200E+11
         0.78200E+11
         0.78200E+11
         0.78200E+11
         0.78200E+11
         0.78200E+11
         0.78200E+11
         0.78200E+11
         0.78200E+11
         0.78200E+11
         0.78200E+11
         0.78200E+11
         0.78200E+11
         0.78200E+11
         0.78200E+11
         0.78200E+11
         0.78200E+11
         0.78200E+11
         0.78200E+11
         0.78200E+11
         0.78200E+11
         0.78200E+11
         0.78200E+11
         0.78200E+11
         0.78200E+11
         0.78200E+11
         0.78200E+11
         0.78200E+11
         0.78200E+11
         0.78200E+11
         0.78200E+11
         0.78200E+11
         0.78200E+11
         0.78200E+11
         0.78200E+11
         0.78200E+11
         0.78200E+11
         0.78200E+11
         0.78200E+11
         0.78200E+11
         0.78200E+11
         0.78200E+11
         0.78200E+11
         0.78200E+11
         0.78200E+11
         0.78200E+11
         0.78200E+11
         0.78200E+11
         0.78200E+11
         0.78200E+11
         0.78200E+11
         0.78200E+11
         0.78200E+11
         0.78200E+11
         0.78200E+11
         0.78200E+11
         0.78200E+11
         0.78200E+11
         0.78200E+11
         0.78200E+11
         0.78200E+11
         0.78200E+11
         0.78200E+11
         0.78200E+11
         0.78200E+11
         0.78200E+11
         0.78200E+11
         0.78200E+11
         0.78200E+11
         0.78200E+11
         0.78200E+11
         0.78200E+11
         0.78200E+11
         0.78200E+11
         0.78200E+11
         0.78200E+11
         0.78200E+11
         0.78200E+11
         0.78200E+11
         0.78200E+11
         0.78200E+11
         0.78200E+11
         0.78200E+11
         0.78200E+11
         0.78200E+11
         0.78200E+11
         0.78200E+11
         0.78200E+11
         0.78200E+11
         0.78200E+11
         0.78200E+11
         0.78200E+11
         0.78200E+11
         0.78200E+11
         0.78200E+11
         0.78200E+11
         0.78200E+11
         0.78200E+11
         0.78200E+11
         0.78200E+11
         0.78200E+11
         0.78200E+11
         0.78200E+11
         0.78200E+11
         0.78200E+11
         0.78200E+11
         0.78200E+11
         0.78200E+11
         0.78200E+11
         0.78200E+11
         0.78200E+11
         0.78200E+11
         0.78200E+11
         0.78200E+11
         0.78200E+11
         0.78200E+11
         0.78200E+11
         0.78200E+11
         0.78200E+11
         0.78200E+11
         0.78200E+11
         0.78200E+11
         0.78200E+11
         0.78200E+11
         0.78200E+11
         0.78200E+11
         0.78200E+11
         0.78200E+11
         0.78200E+11
         0.78200E+11
         0.78200E+11
         0.78200E+11
         0.78200E+11
         0.78200E+11
         0.78200E+11
         0.78200E+11
         0.78200E+11
         0.78200E+11
         0.78200E+11
         0.78200E+11
         0.78200E+11
         0.78200E+11
         0.78200E+11
         0.78200E+11
         0.78200E+11
         0.78200E+11
         0.78200E+11
         0.78200E+11
         0.78200E+11
         0.78200E+11
         0.78200E+11
         0.78200E+11
         0.78200E+11
         0.78200E+11
         0.78200E+11
         0.78200E+11
         0.78200E+11
         0.78200E+11
         0.78200E+11
         0.78200E+11
         0.78200E+11
         0.78200E+11
         0.78200E+11
         0.78200E+11
         0.78200E+11
         0.78200E+11
         0.78200E+11
         0.78200E+11
         0.78200E+11
         0.78200E+11
         0.78200E+11
         0.78200E+11
         0.78200E+11
         0.78200E+11
         0.78200E+11
         0.78200E+11
         0.78200E+11
         0.78200E+11
         0.78200E+11
         0.78200E+11
         0.78200E+11
         0.78200E+11
         0.78200E+11
         0.78200E+11
         0.78200E+11
         0.78200E+11
         0.78200E+11
         0.78200E+11
         0.78200E+11
         0.78200E+11
         0.78200E+11
         0.78200E+11
         0.78200E+11
         0.78200E+11
         0.78200E+11
         0.78200E+11
         0.78200E+11
         0.78200E+11
         0.78200E+11
         0.78200E+11
         0.78200E+11
         0.78200E+11
         0.78200E+11
         0.78200E+11
         0.78200E+11
         0.78200E+11
         0.78200E+11
         0.78200E+11
         0.78200E+11
         0.78200E+11
         0.78200E+11
         0.78200E+11
         0.78200E+11
         0.78200E+11
         0.78200E+11
         0.78200E+11
         0.78200E+11
         0.78200E+11
         0.78200E+11
         0.78200E+11
         0.78200E+11
         0.78200E+11
         0.78200E+11
         0.78200E+11
         0.78200E+11
         0.78200E+11
         0.78200E+11
         0.78200E+11
         0.78200E+11
         0.78200E+11
         0.78200E+11
         0.78200E+11
         0.78200E+11
         0.78200E+11
         0.78200E+11
         0.78200E+11
         0.78200E+11
         0.78200E+11
         0.78200E+11
         0.78200E+11
         0.78200E+11
         0.78200E+11
         0.78200E+11
         0.78200E+11
         0.78200E+11
         0.78200E+11
         0.78200E+11
         0.78200E+11
         0.78200E+11
         0.78200E+11
         0.78200E+11
         0.78200E+11
         0.78200E+11
         0.78200E+11
         0.78200E+11
         0.78200E+11
         0.78200E+11
         0.78200E+11
         0.78200E+11
         0.78200E+11
         0.78200E+11
         0.78200E+11
         0.78200E+11
         0.78200E+11
         0.78200E+11
         0.78200E+11
         0.78200E+11
         0.78200E+11
         0.78200E+11
         0.78200E+11
         0.78200E+11
         0.78200E+11
         0.78200E+11
         0.78200E+11
         0.78200E+11
         0.78200E+11
         0.78200E+11
         0.78200E+11
         0.78200E+11
         0.78200E+11
         0.78200E+11
         0.78200E+11
         0.78200E+11
         0.78200E+11
         0.78200E+11
         0.78200E+11
         0.78200E+11
         0.78200E+11
         0.78200E+11
         0.78200E+11
         0.78200E+11
         0.78200E+11
         0.78200E+11
         0.78200E+11
         0.78200E+11
         0.78200E+11
         0.78200E+11
         0.78200E+11
         0.78200E+11
         0.78200E+11
         0.78200E+11
         0.78200E+11
         0.78200E+11
         0.78200E+11
         0.78200E+11
         0.78200E+11
         0.78200E+11
         0.78200E+11
         0.78200E+11
         0.78200E+11
         0.78200E+11
         0.78200E+11
         0.78200E+11
         0.78200E+11
         0.78200E+11
         0.78200E+11
         0.78200E+11
         0.78200E+11
         0.78200E+11
         0.78200E+11
         0.78200E+11
         0.78200E+11
         0.78200E+11
         0.78200E+11
         0.78200E+11
         0.78200E+11
         0.78200E+11
         0.78200E+11
         0.78200E+11
         0.78200E+11
         0.78200E+11
         0.78200E+11
         0.78200E+11
         0.78200E+11
         0.78200E+11
         0.78200E+11
         0.78200E+11
         0.78200E+11
         0.78200E+11
         0.78200E+11
         0.78200E+11
         0.78200E+11
         0.78200E+11
         0.78200E+11
         0.78200E+11
         0.78200E+11
         0.78200E+11
         0.78200E+11
         0.78200E+11
         0.78200E+11
         0.78200E+11
         0.78200E+11
         0.78200E+11
         0.78200E+11
         0.78200E+11
         0.78200E+11
         0.78200E+11
         0.78200E+11
         0.78200E+11
         0.78200E+11
         0.78200E+11
         0.78200E+11
         0.78200E+11
         0.78200E+11
         0.78200E+11
         0.78200E+11
         0.78200E+11
         0.78200E+11
         0.78200E+11
         0.78200E+11
         0.78200E+11
         0.78200E+11
         0.78200E+11
         0.78200E+11
         0.78200E+11
         0.78200E+11
         0.78200E+11
         0.78200E+11
         0.78200E+11
         0.78200E+11
         0.78200E+11
         0.78200E+11
         0.78200E+11
         0.78200E+11
         0.78200E+11
         0.78200E+11
         0.78200E+11
         0.78200E+11
         0.78200E+11
         0.78200E+11
         0.78200E+11
         0.78200E+11
         0.78200E+11
         0.78200E+11
         0.78200E+11
         0.78200E+11
         0.78200E+11
         0.78200E+11
         0.78200E+11
         0.78200E+11
         0.78200E+11
         0.78200E+11
         0.78200E+11
         0.78200E+11
         0.78200E+11
         0.78200E+11
         0.78200E+11
         0.78200E+11
         0.78200E+11
         0.78200E+11
         0.78200E+11
         0.78200E+11
         0.78200E+11
         0.78200E+11
         0.78200E+11
         0.78200E+11
         0.78200E+11
         0.78200E+11
         0.78200E+11
         0.78200E+11
         0.78200E+11
         0.78200E+11
         0.78200E+11
         0.78200E+11
         0.78200E+11
         0.78200E+11
         0.78200E+11
         0.78200E+11
         0.78200E+11
         0.78200E+11
         0.78200E+11
         0.78200E+11
         0.78200E+11
         0.78200E+11
         0.78200E+11
         0.78200E+11
         0.78200E+11
         0.78200E+11
         0.78200E+11
         0.78200E+11
         0.78200E+11
         0.78200E+11
         0.78200E+11
         0.78200E+11
         0.78200E+11
         0.78200E+11
         0.78200E+11
         0.78200E+11
         0.78200E+11
         0.78200E+11
         0.78200E+11
         0.78200E+11
         0.78200E+11
         0.78200E+11
         0.78200E+11
         0.78200E+11
         0.78200E+11
         0.78200E+11
         0.78200E+11
         0.78200E+11
         0.78200E+11
         0.78200E+11
         0.78200E+11
         0.78200E+11
         0.78200E+11
         0.78200E+11
         0.78200E+11
         0.78200E+11
         0.78200E+11
         0.78200E+11
         0.78200E+11
         0.78200E+11
         0.78200E+11
         0.78200E+11
         0.78200E+11
         0.78200E+11
         0.78200E+11
         0.78200E+11
         0.78200E+11
         0.78200E+11
         0.78200E+11
         0.78200E+11
         0.78200E+11
         0.78200E+11
         0.78200E+11
         0.78200E+11
         0.78200E+11
         0.78200E+11
         0.78200E+11
         0.78200E+11
         0.78200E+11
         0.78200E+11
         0.78200E+11
         0.78200E+11
         0.78200E+11
         0.78200E+11
         0.78200E+11
         0.78200E+11
         0.78200E+11
         0.78200E+11
         0.78200E+11
         0.78200E+11
         0.78200E+11
         0.78200E+11
         0.78200E+11
         0.78200E+11
         0.78200E+11
         0.78200E+11
         0.78200E+11
         0.78200E+11
         0.78200E+11
         0.78200E+11
         0.78200E+11
         0.78200E+11
         0.78200E+11
         0.78200E+11
         0.78200E+11
         0.78200E+11
         0.78200E+11
         0.78200E+11
         0.78200E+11
         0.78200E+11
         0.78200E+11
         0.78200E+11
         0.78200E+11
         0.78200E+11
         0.78200E+11
         0.78200E+11
         0.78200E+11
         0.78200E+11
         0.78200E+11
         0.78200E+11
         0.78200E+11
         0.78200E+11
         0.78200E+11
         0.78200E+11
         0.78200E+11
         0.78200E+11
         0.78200E+11
         0.78200E+11
         0.78200E+11
         0.78200E+11
         0.78200E+11
         0.78200E+11
         0.78200E+11
         0.78200E+11
         0.78200E+11
         0.78200E+11
         0.78200E+11
         0.78200E+11
         0.78200E+11
         0.78200E+11
         0.78200E+11
         0.78200E+11
         0.78200E+11
         0.78200E+11
         0.78200E+11
         0.78200E+11
         0.78200E+11
         0.78200E+11
         0.78200E+11
         0.78200E+11
         0.78200E+11
         0.78200E+11
         0.78200E+11
         0.78200E+11
         0.78200E+11
         0.78200E+11
         0.78200E+11
         0.78200E+11
         0.78200E+11
         0.78200E+11
         0.78200E+11
         0.78200E+11
         0.78200E+11
         0.78200E+11
         0.78200E+11
         0.78200E+11
         0.78200E+11
         0.78200E+11
         0.78200E+11
         0.78200E+11
         0.78200E+11
         0.78200E+11
         0.78200E+11
         0.78200E+11
         0.78200E+11
         0.78200E+11
         0.78200E+11
         0.78200E+11
         0.78200E+11
         0.78200E+11
         0.78200E+11
         0.78200E+11
         0.78200E+11
         0.78200E+11
         0.78200E+11
         0.78200E+11
         0.78200E+11
         0.78200E+11
         0.78200E+11
         0.78200E+11
         0.78200E+11
         0.78200E+11
         0.78200E+11
         0.78200E+11
         0.78200E+11
         0.78200E+11
         0.78200E+11
         0.78200E+11
         0.78200E+11
         0.78200E+11
         0.78200E+11
         0.78200E+11
         0.78200E+11
         0.78200E+11
         0.78200E+11
         0.78200E+11
         0.78200E+11
         0.78200E+11
         0.78200E+11
         0.78200E+11
         0.78200E+11
         0.78200E+11
         0.78200E+11
         0.78200E+11
         0.78200E+11
         0.78200E+11
         0.78200E+11
         0.78200E+11
         0.78200E+11
         0.78200E+11
         0.78200E+11
         0.78200E+11
         0.78200E+11
         0.78200E+11
         0.78200E+11
         0.78200E+11
         0.78200E+11
         0.78200E+11
         0.78200E+11
         0.78200E+11
         0.78200E+11
         0.78200E+11
         0.78200E+11
         0.78200E+11
         0.78200E+11
         0.78200E+11
         0.78200E+11
         0.78200E+11
         0.78200E+11
         0.78200E+11
         0.78200E+11
         0.78200E+11
         0.78200E+11
         0.78200E+11
         0.78200E+11
         0.78200E+11
         0.78200E+11
         0.78200E+11
         0.78200E+11
         0.78200E+11
         0.78200E+11
         0.78200E+11
         0.78200E+11
         0.78200E+11
         0.78200E+11
         0.78200E+11
         0.78200E+11
         0.78200E+11
         0.78200E+11
         0.78200E+11
         0.78200E+11
         0.78200E+11
         0.78200E+11
         0.78200E+11
         0.78200E+11
         0.78200E+11
         0.78200E+11
         0.78200E+11
         0.78200E+11
         0.78200E+11
         0.78200E+11
         0.78200E+11
         0.78200E+11
         0.78200E+11
         0.78200E+11
         0.78200E+11
         0.78200E+11
         0.78200E+11
         0.78200E+11
         0.78200E+11
         0.78200E+11
         0.78200E+11
         0.78200E+11
         0.78200E+11
         0.78200E+11
         0.78200E+11
         0.78200E+11
         0.78200E+11
         0.78200E+11
         0.78200E+11
         0.78200E+11
         0.78200E+11
         0.78200E+11
         0.78200E+11
         0.78200E+11
         0.78200E+11
         0.78200E+11
         0.78200E+11
         0.78200E+11
         0.78200E+11
         0.78200E+11
         0.78200E+11
         0.78200E+11
         0.78200E+11
         0.78200E+11
         0.78200E+11
         0.78200E+11
         0.78200E+11
         0.78200E+11
         0.78200E+11
         0.78200E+11
         0.78200E+11
         0.78200E+11
         0.78200E+11
         0.78200E+11
         0.78200E+11
         0.78200E+11
         0.78200E+11
         0.78200E+11
         0.78200E+11
         0.78200E+11
         0.78200E+11
         0.78200E+11
         0.78200E+11
         0.78200E+11
         0.78200E+11
         0.78200E+11
         0.78200E+11
         0.78200E+11
         0.78200E+11
         0.78200E+11
         0.78200E+11
         0.78200E+11
         0.78200E+11
         0.78200E+11
         0.78200E+11
         0.78200E+11
         0.78200E+11
         0.78200E+11
         0.78200E+11
         0.78200E+11
         0.78200E+11
         0.78200E+11
         0.78200E+11
         0.78200E+11
         0.78200E+11
         0.78200E+11
         0.78200E+11
         0.78200E+11
         0.78200E+11
         0.78200E+11
         0.78200E+11
         0.78200E+11
         0.78200E+11
         0.78200E+11
         0.78200E+11
         0.78200E+11
         0.78200E+11
         0.78200E+11
         0.78200E+11
         0.78200E+11
         0.78200E+11
         0.78200E+11
         0.78200E+11
         0.78200E+11
         0.78200E+11
         0.78200E+11
         0.78200E+11
         0.78200E+11
         0.78200E+11
         0.78200E+11
         0.78200E+11
         0.78200E+11
         0.78200E+11
         0.78200E+11
         0.78200E+11
         0.78200E+11
         0.78200E+11
         0.78200E+11
         0.78200E+11
         0.78200E+11
         0.78200E+11
         0.78200E+11
         0.78200E+11
         0.78200E+11
         0.78200E+11
         0.78200E+11
         0.78200E+11
         0.78200E+11
         0.78200E+11
         0.78200E+11
         0.78200E+11
         0.78200E+11
         0.78200E+11
         0.78200E+11
         0.78200E+11
         0.78200E+11
         0.78200E+11
         0.78200E+11
         0.78200E+11
         0.78200E+11
         0.78200E+11
         0.78200E+11
         0.78200E+11
         0.78200E+11
         0.78200E+11
         0.78200E+11
         0.78200E+11
         0.78200E+11
         0.78200E+11
         0.78200E+11
         0.78200E+11
         0.78200E+11
         0.78200E+11
         0.78200E+11
         0.78200E+11
         0.78200E+11
         0.78200E+11
         0.78200E+11
         0.78200E+11
         0.78200E+11
         0.78200E+11
         0.78200E+11
         0.78200E+11
         0.78200E+11
         0.78200E+11
         0.78200E+11
         0.78200E+11
         0.78200E+11
         0.78200E+11
         0.78200E+11
         0.78200E+11
         0.78200E+11
         0.78200E+11
         0.78200E+11
         0.78200E+11
         0.78200E+11
         0.78200E+11
         0.78200E+11
         0.78200E+11
         0.78200E+11
         0.78200E+11
         0.78200E+11
         0.78200E+11
         0.78200E+11
         0.78200E+11
         0.78200E+11
         0.78200E+11
         0.78200E+11
         0.78200E+11
         0.78200E+11
         0.78200E+11
         0.78200E+11
         0.78200E+11
         0.78200E+11
         0.78200E+11
         0.78200E+11
         0.78200E+11
         0.78200E+11
         0.78200E+11
         0.78200E+11
         0.78200E+11
         0.78200E+11
         0.78200E+11
         0.78200E+11
         0.78200E+11
         0.78200E+11
         0.78200E+11
         0.78200E+11
         0.78200E+11
         0.78200E+11
         0.78200E+11
         0.78200E+11
         0.78200E+11
         0.78200E+11
         0.78200E+11
         0.78200E+11
         0.78200E+11
         0.78200E+11
         0.78200E+11
         0.78200E+11
         0.78200E+11
         0.78200E+11
         0.78200E+11
         0.78200E+11
         0.78200E+11
         0.78200E+11
         0.78200E+11
         0.78200E+11
         0.78200E+11
         0.78200E+11
         0.78200E+11
         0.78200E+11
         0.78200E+11
         0.78200E+11
         0.78200E+11
         0.78200E+11
         0.78200E+11
         0.78200E+11
         0.78200E+11
         0.78200E+11
         0.78200E+11
         0.78200E+11
         0.78200E+11
         0.78200E+11
         0.78200E+11
         0.78200E+11
         0.78200E+11
         0.78200E+11
         0.78200E+11
         0.78200E+11
         0.78200E+11
         0.78200E+11
         0.78200E+11
         0.78200E+11
         0.78200E+11
         0.78200E+11
         0.78200E+11
         0.78200E+11
         0.78200E+11
         0.78200E+11
         0.78200E+11
         0.78200E+11
         0.78200E+11
         0.78200E+11
         0.78200E+11
         0.78200E+11
         0.78200E+11
         0.78200E+11
         0.78200E+11
         0.78200E+11
         0.78200E+11
         0.78200E+11
         0.78200E+11
         0.78200E+11
         0.78200E+11
         0.78200E+11
         0.78200E+11
         0.78200E+11
         0.78200E+11
         0.78200E+11
         0.78200E+11
         0.78200E+11
         0.78200E+11
         0.78200E+11
         0.78200E+11
         0.78200E+11
         0.78200E+11
         0.78200E+11
         0.78200E+11
         0.78200E+11
         0.78200E+11
         0.78200E+11
         0.78200E+11
         0.78200E+11
         0.78200E+11
         0.78200E+11
         0.78200E+11
         0.78200E+11
         0.78200E+11
         0.78200E+11
         0.78200E+11
         0.78200E+11
         0.78200E+11
         0.78200E+11
         0.78200E+11
         0.78200E+11
         0.78200E+11
         0.78200E+11
         0.78200E+11
         0.78200E+11
         0.78200E+11
         0.78200E+11
         0.78200E+11
         0.78200E+11
         0.78200E+11
         0.78200E+11
         0.78200E+11
         0.78200E+11
         0.78200E+11
         0.78200E+11
         0.78200E+11
         0.78200E+11
         0.78200E+11
         0.78200E+11
         0.78200E+11
         0.78200E+11
         0.78200E+11
         0.78200E+11
         0.78200E+11
         0.78200E+11
         0.78200E+11
         0.78200E+11
         0.78200E+11
         0.78200E+11
         0.78200E+11
         0.78200E+11
         0.78200E+11
         0.78200E+11
         0.78200E+11
         0.78200E+11
         0.78200E+11
         0.78200E+11
         0.78200E+11
         0.78200E+11
         0.78200E+11
         0.78200E+11
         0.78200E+11
         0.78200E+11
         0.78200E+11
         0.78200E+11
         0.78200E+11
         0.78200E+11
         0.78200E+11
         0.78200E+11
         0.78200E+11
         0.78200E+11
         0.78200E+11
         0.78200E+11
         0.78200E+11
         0.78200E+11
         0.78200E+11
         0.78200E+11
         0.78200E+11
         0.78200E+11
         0.78200E+11
         0.78200E+11
         0.78200E+11
         0.78200E+11
         0.78200E+11
         0.78200E+11
         0.78200E+11
         0.78200E+11
         0.78200E+11
         0.78200E+11
         0.78200E+11
         0.78200E+11
         0.78200E+11
         0.78200E+11
         0.78200E+11
         0.78200E+11
         0.78200E+11
         0.78200E+11
         0.78200E+11
         0.78200E+11
         0.78200E+11
         0.78200E+11
         0.78200E+11
         0.78200E+11
         0.78200E+11
         0.78200E+11
         0.78200E+11
         0.78200E+11
         0.78200E+11
         0.78200E+11
         0.78200E+11
         0.78200E+11
         0.78200E+11
         0.78200E+11
         0.78200E+11
         0.78200E+11
         0.78200E+11
         0.78200E+11
         0.78200E+11
         0.78200E+11
         0.78200E+11
         0.78200E+11
         0.78200E+11
         0.78200E+11
         0.78200E+11
         0.78200E+11
         0.78200E+11
         0.78200E+11
         0.78200E+11
         0.78200E+11
         0.78200E+11
         0.78200E+11
         0.78200E+11
         0.78200E+11
         0.78200E+11
         0.78200E+11
         0.78200E+11
         0.78200E+11
         0.78200E+11
         0.78200E+11
         0.78200E+11
         0.78200E+11
         0.78200E+11
         0.78200E+11
         0.78200E+11
         0.78200E+11
         0.78200E+11
         0.78200E+11
         0.78200E+11
         0.78200E+11
         0.78200E+11
         0.78200E+11
         0.78200E+11
         0.78200E+11
         0.78200E+11
         0.78200E+11
         0.78200E+11
         0.78200E+11
         0.78200E+11
         0.78200E+11
         0.78200E+11
         0.78200E+11
         0.78200E+11
         0.78200E+11
         0.78200E+11
         0.78200E+11
         0.78200E+11
         0.78200E+11
         0.78200E+11
         0.78200E+11
         0.78200E+11
         0.78200E+11
         0.78200E+11
         0.78200E+11
         0.78200E+11
         0.78200E+11
         0.78200E+11
         0.78200E+11
         0.78200E+11
         0.78200E+11
         0.78200E+11
         0.78200E+11
         0.78200E+11
         0.78200E+11
         0.78200E+11
         0.78200E+11
         0.78200E+11
         0.78200E+11
         0.78200E+11
         0.78200E+11
         0.78200E+11
         0.78200E+11
         0.78200E+11
         0.78200E+11
         0.78200E+11
         0.78200E+11
         0.78200E+11
         0.78200E+11
         0.78200E+11
         0.78200E+11
         0.78200E+11
         0.78200E+11
         0.78200E+11
         0.78200E+11
         0.78200E+11
         0.78200E+11
         0.78200E+11
         0.78200E+11
         0.78200E+11
         0.78200E+11
         0.78200E+11
         0.78200E+11
         0.78200E+11
         0.78200E+11
         0.78200E+11
         0.78200E+11
         0.78200E+11
         0.78200E+11
         0.78200E+11
         0.78200E+11
         0.78200E+11
         0.78200E+11
         0.78200E+11
         0.78200E+11
         0.78200E+11
         0.78200E+11
         0.78200E+11
         0.78200E+11
         0.78200E+11
         0.78200E+11
         0.78200E+11
         0.78200E+11
         0.78200E+11
         0.78200E+11
         0.78200E+11
         0.78200E+11
         0.78200E+11
         0.78200E+11
         0.78200E+11
         0.78200E+11
         0.78200E+11
         0.78200E+11
         0.78200E+11
         0.78200E+11
         0.78200E+11
         0.78200E+11
         0.78200E+11
         0.78200E+11
         0.78200E+11
         0.78200E+11
         0.78200E+11
         0.78200E+11
         0.78200E+11
         0.78200E+11
         0.78200E+11
         0.78200E+11
         0.78200E+11
         0.78200E+11
         0.78200E+11
         0.78200E+11
         0.78200E+11
         0.78200E+11
         0.78200E+11
         0.78200E+11
         0.78200E+11
         0.78200E+11
         0.78200E+11
         0.78200E+11
         0.78200E+11
         0.78200E+11
         0.78200E+11
         0.78200E+11
         0.78200E+11
         0.78200E+11
         0.78200E+11
         0.78200E+11
         0.78200E+11
         0.78200E+11
         0.78200E+11
         0.78200E+11
         0.78200E+11
         0.78200E+11
         0.78200E+11
         0.78200E+11
         0.78200E+11
         0.78200E+11
         0.78200E+11
         0.78200E+11
         0.78200E+11
         0.78200E+11
         0.78200E+11
         0.78200E+11
         0.78200E+11
         0.78200E+11
         0.78200E+11
         0.78200E+11
         0.78200E+11
         0.78200E+11
         0.78200E+11
         0.78200E+11
         0.78200E+11
         0.78200E+11
         0.78200E+11
         0.78200E+11
         0.78200E+11
         0.78200E+11
         0.78200E+11
         0.78200E+11
         0.78200E+11
         0.78200E+11
         0.78200E+11
         0.78200E+11
         0.78200E+11
         0.78200E+11
         0.78200E+11
         0.78200E+11
         0.78200E+11
         0.78200E+11
         0.78200E+11
         0.78200E+11
         0.78200E+11
         0.78200E+11
         0.78200E+11
         0.78200E+11
         0.78200E+11
         0.78200E+11
         0.78200E+11
         0.78200E+11
         0.78200E+11
         0.78200E+11
         0.78200E+11
         0.78200E+11
         0.78200E+11
         0.78200E+11
         0.78200E+11
         0.78200E+11
         0.78200E+11
         0.78200E+11
         0.78200E+11
         0.78200E+11
         0.78200E+11
         0.78200E+11
         0.78200E+11
         0.78200E+11
         0.78200E+11
         0.78200E+11
         0.78200E+11
         0.78200E+11
         0.78200E+11
         0.78200E+11
         0.78200E+11
         0.78200E+11
         0.78200E+11
         0.78200E+11
         0.78200E+11
         0.78200E+11
         0.78200E+11
         0.78200E+11
         0.78200E+11
         0.78200E+11
  
SCALARS                        density  double 1
LOOKUP_TABLE default
         0.27000E+04
         0.27000E+04
         0.27000E+04
         0.27000E+04
         0.27000E+04
         0.27000E+04
         0.27000E+04
         0.27000E+04
         0.27000E+04
         0.27000E+04
         0.27000E+04
         0.27000E+04
         0.27000E+04
         0.27000E+04
         0.27000E+04
         0.27000E+04
         0.27000E+04
         0.27000E+04
         0.27000E+04
         0.27000E+04
         0.27000E+04
         0.27000E+04
         0.27000E+04
         0.27000E+04
         0.27000E+04
         0.27000E+04
         0.27000E+04
         0.27000E+04
         0.27000E+04
         0.27000E+04
         0.27000E+04
         0.27000E+04
         0.27000E+04
         0.27000E+04
         0.27000E+04
         0.27000E+04
         0.27000E+04
         0.27000E+04
         0.27000E+04
         0.27000E+04
         0.27000E+04
         0.27000E+04
         0.27000E+04
         0.27000E+04
         0.27000E+04
         0.27000E+04
         0.27000E+04
         0.27000E+04
         0.27000E+04
         0.27000E+04
         0.27000E+04
         0.27000E+04
         0.27000E+04
         0.27000E+04
         0.27000E+04
         0.27000E+04
         0.27000E+04
         0.27000E+04
         0.27000E+04
         0.27000E+04
         0.27000E+04
         0.27000E+04
         0.27000E+04
         0.27000E+04
         0.27000E+04
         0.27000E+04
         0.27000E+04
         0.27000E+04
         0.27000E+04
         0.27000E+04
         0.27000E+04
         0.27000E+04
         0.27000E+04
         0.27000E+04
         0.27000E+04
         0.27000E+04
         0.27000E+04
         0.27000E+04
         0.27000E+04
         0.27000E+04
         0.27000E+04
         0.27000E+04
         0.27000E+04
         0.27000E+04
         0.27000E+04
         0.27000E+04
         0.27000E+04
         0.27000E+04
         0.27000E+04
         0.27000E+04
         0.27000E+04
         0.27000E+04
         0.27000E+04
         0.27000E+04
         0.27000E+04
         0.27000E+04
         0.27000E+04
         0.27000E+04
         0.27000E+04
         0.27000E+04
         0.27000E+04
         0.27000E+04
         0.27000E+04
         0.27000E+04
         0.27000E+04
         0.27000E+04
         0.27000E+04
         0.27000E+04
         0.27000E+04
         0.27000E+04
         0.27000E+04
         0.27000E+04
         0.27000E+04
         0.27000E+04
         0.27000E+04
         0.27000E+04
         0.27000E+04
         0.27000E+04
         0.27000E+04
         0.27000E+04
         0.27000E+04
         0.27000E+04
         0.27000E+04
         0.27000E+04
         0.27000E+04
         0.27000E+04
         0.27000E+04
         0.27000E+04
         0.27000E+04
         0.27000E+04
         0.27000E+04
         0.27000E+04
         0.27000E+04
         0.27000E+04
         0.27000E+04
         0.27000E+04
         0.27000E+04
         0.27000E+04
         0.27000E+04
         0.27000E+04
         0.27000E+04
         0.27000E+04
         0.27000E+04
         0.27000E+04
         0.27000E+04
         0.27000E+04
         0.27000E+04
         0.27000E+04
         0.27000E+04
         0.27000E+04
         0.27000E+04
         0.27000E+04
         0.27000E+04
         0.27000E+04
         0.27000E+04
         0.27000E+04
         0.27000E+04
         0.27000E+04
         0.27000E+04
         0.27000E+04
         0.27000E+04
         0.27000E+04
         0.27000E+04
         0.27000E+04
         0.27000E+04
         0.27000E+04
         0.27000E+04
         0.27000E+04
         0.27000E+04
         0.27000E+04
         0.27000E+04
         0.27000E+04
         0.27000E+04
         0.27000E+04
         0.27000E+04
         0.27000E+04
         0.27000E+04
         0.27000E+04
         0.27000E+04
         0.27000E+04
         0.27000E+04
         0.27000E+04
         0.27000E+04
         0.27000E+04
         0.27000E+04
         0.27000E+04
         0.27000E+04
         0.27000E+04
         0.27000E+04
         0.27000E+04
         0.27000E+04
         0.27000E+04
         0.27000E+04
         0.27000E+04
         0.27000E+04
         0.27000E+04
         0.27000E+04
         0.27000E+04
         0.27000E+04
         0.27000E+04
         0.27000E+04
         0.27000E+04
         0.27000E+04
         0.27000E+04
         0.27000E+04
         0.27000E+04
         0.27000E+04
         0.27000E+04
         0.27000E+04
         0.27000E+04
         0.27000E+04
         0.27000E+04
         0.27000E+04
         0.27000E+04
         0.27000E+04
         0.27000E+04
         0.27000E+04
         0.27000E+04
         0.27000E+04
         0.27000E+04
         0.27000E+04
         0.27000E+04
         0.27000E+04
         0.27000E+04
         0.27000E+04
         0.27000E+04
         0.27000E+04
         0.27000E+04
         0.27000E+04
         0.27000E+04
         0.27000E+04
         0.27000E+04
         0.27000E+04
         0.27000E+04
         0.27000E+04
         0.27000E+04
         0.27000E+04
         0.27000E+04
         0.27000E+04
         0.27000E+04
         0.27000E+04
         0.27000E+04
         0.27000E+04
         0.27000E+04
         0.27000E+04
         0.27000E+04
         0.27000E+04
         0.27000E+04
         0.27000E+04
         0.27000E+04
         0.27000E+04
         0.27000E+04
         0.27000E+04
         0.27000E+04
         0.27000E+04
         0.27000E+04
         0.27000E+04
         0.27000E+04
         0.27000E+04
         0.27000E+04
         0.27000E+04
         0.27000E+04
         0.27000E+04
         0.27000E+04
         0.27000E+04
         0.27000E+04
         0.27000E+04
         0.27000E+04
         0.27000E+04
         0.27000E+04
         0.27000E+04
         0.27000E+04
         0.27000E+04
         0.27000E+04
         0.27000E+04
         0.27000E+04
         0.27000E+04
         0.27000E+04
         0.27000E+04
         0.27000E+04
         0.27000E+04
         0.27000E+04
         0.27000E+04
         0.27000E+04
         0.27000E+04
         0.27000E+04
         0.27000E+04
         0.27000E+04
         0.27000E+04
         0.27000E+04
         0.27000E+04
         0.27000E+04
         0.27000E+04
         0.27000E+04
         0.27000E+04
         0.27000E+04
         0.27000E+04
         0.27000E+04
         0.27000E+04
         0.27000E+04
         0.27000E+04
         0.27000E+04
         0.27000E+04
         0.27000E+04
         0.27000E+04
         0.27000E+04
         0.27000E+04
         0.27000E+04
         0.27000E+04
         0.27000E+04
         0.27000E+04
         0.27000E+04
         0.27000E+04
         0.27000E+04
         0.27000E+04
         0.27000E+04
         0.27000E+04
         0.27000E+04
         0.27000E+04
         0.27000E+04
         0.27000E+04
         0.27000E+04
         0.27000E+04
         0.27000E+04
         0.27000E+04
         0.27000E+04
         0.27000E+04
         0.27000E+04
         0.27000E+04
         0.27000E+04
         0.27000E+04
         0.27000E+04
         0.27000E+04
         0.27000E+04
         0.27000E+04
         0.27000E+04
         0.27000E+04
         0.27000E+04
         0.27000E+04
         0.27000E+04
         0.27000E+04
         0.27000E+04
         0.27000E+04
         0.27000E+04
         0.27000E+04
         0.27000E+04
         0.27000E+04
         0.27000E+04
         0.27000E+04
         0.27000E+04
         0.27000E+04
         0.27000E+04
         0.27000E+04
         0.27000E+04
         0.27000E+04
         0.27000E+04
         0.27000E+04
         0.27000E+04
         0.27000E+04
         0.27000E+04
         0.27000E+04
         0.27000E+04
         0.27000E+04
         0.27000E+04
         0.27000E+04
         0.27000E+04
         0.27000E+04
         0.27000E+04
         0.27000E+04
         0.27000E+04
         0.27000E+04
         0.27000E+04
         0.27000E+04
         0.27000E+04
         0.27000E+04
         0.27000E+04
         0.27000E+04
         0.27000E+04
         0.27000E+04
         0.27000E+04
         0.27000E+04
         0.27000E+04
         0.27000E+04
         0.27000E+04
         0.27000E+04
         0.27000E+04
         0.27000E+04
         0.27000E+04
         0.27000E+04
         0.27000E+04
         0.27000E+04
         0.27000E+04
         0.27000E+04
         0.27000E+04
         0.27000E+04
         0.27000E+04
         0.27000E+04
         0.27000E+04
         0.27000E+04
         0.27000E+04
         0.27000E+04
         0.27000E+04
         0.27000E+04
         0.27000E+04
         0.27000E+04
         0.27000E+04
         0.27000E+04
         0.27000E+04
         0.27000E+04
         0.27000E+04
         0.27000E+04
         0.27000E+04
         0.27000E+04
         0.27000E+04
         0.27000E+04
         0.27000E+04
         0.27000E+04
         0.27000E+04
         0.27000E+04
         0.27000E+04
         0.27000E+04
         0.27000E+04
         0.27000E+04
         0.27000E+04
         0.27000E+04
         0.27000E+04
         0.27000E+04
         0.27000E+04
         0.27000E+04
         0.27000E+04
         0.27000E+04
         0.27000E+04
         0.27000E+04
         0.27000E+04
         0.27000E+04
         0.27000E+04
         0.27000E+04
         0.27000E+04
         0.27000E+04
         0.27000E+04
         0.27000E+04
         0.27000E+04
         0.27000E+04
         0.27000E+04
         0.27000E+04
         0.27000E+04
         0.27000E+04
         0.27000E+04
         0.27000E+04
         0.27000E+04
         0.27000E+04
         0.27000E+04
         0.27000E+04
         0.27000E+04
         0.27000E+04
         0.27000E+04
         0.27000E+04
         0.27000E+04
         0.27000E+04
         0.27000E+04
         0.27000E+04
         0.27000E+04
         0.27000E+04
         0.27000E+04
         0.27000E+04
         0.27000E+04
         0.27000E+04
         0.27000E+04
         0.27000E+04
         0.27000E+04
         0.27000E+04
         0.27000E+04
         0.27000E+04
         0.27000E+04
         0.27000E+04
         0.27000E+04
         0.27000E+04
         0.27000E+04
         0.27000E+04
         0.27000E+04
         0.27000E+04
         0.27000E+04
         0.27000E+04
         0.27000E+04
         0.27000E+04
         0.27000E+04
         0.27000E+04
         0.27000E+04
         0.27000E+04
         0.27000E+04
         0.27000E+04
         0.27000E+04
         0.27000E+04
         0.27000E+04
         0.27000E+04
         0.27000E+04
         0.27000E+04
         0.27000E+04
         0.27000E+04
         0.27000E+04
         0.27000E+04
         0.27000E+04
         0.27000E+04
         0.27000E+04
         0.27000E+04
         0.27000E+04
         0.27000E+04
         0.27000E+04
         0.27000E+04
         0.27000E+04
         0.27000E+04
         0.27000E+04
         0.27000E+04
         0.27000E+04
         0.27000E+04
         0.27000E+04
         0.27000E+04
         0.27000E+04
         0.27000E+04
         0.27000E+04
         0.27000E+04
         0.27000E+04
         0.27000E+04
         0.27000E+04
         0.27000E+04
         0.27000E+04
         0.27000E+04
         0.27000E+04
         0.27000E+04
         0.27000E+04
         0.27000E+04
         0.27000E+04
         0.27000E+04
         0.27000E+04
         0.27000E+04
         0.27000E+04
         0.27000E+04
         0.27000E+04
         0.27000E+04
         0.27000E+04
         0.27000E+04
         0.27000E+04
         0.27000E+04
         0.27000E+04
         0.27000E+04
         0.27000E+04
         0.27000E+04
         0.27000E+04
         0.27000E+04
         0.27000E+04
         0.27000E+04
         0.27000E+04
         0.27000E+04
         0.27000E+04
         0.27000E+04
         0.27000E+04
         0.27000E+04
         0.27000E+04
         0.27000E+04
         0.27000E+04
         0.27000E+04
         0.27000E+04
         0.27000E+04
         0.27000E+04
         0.27000E+04
         0.27000E+04
         0.27000E+04
         0.27000E+04
         0.27000E+04
         0.27000E+04
         0.27000E+04
         0.27000E+04
         0.27000E+04
         0.27000E+04
         0.27000E+04
         0.27000E+04
         0.27000E+04
         0.27000E+04
         0.27000E+04
         0.27000E+04
         0.27000E+04
         0.27000E+04
         0.27000E+04
         0.27000E+04
         0.27000E+04
         0.27000E+04
         0.27000E+04
         0.27000E+04
         0.27000E+04
         0.27000E+04
         0.27000E+04
         0.27000E+04
         0.27000E+04
         0.27000E+04
         0.27000E+04
         0.27000E+04
         0.27000E+04
         0.27000E+04
         0.27000E+04
         0.27000E+04
         0.27000E+04
         0.27000E+04
         0.27000E+04
         0.27000E+04
         0.27000E+04
         0.27000E+04
         0.27000E+04
         0.27000E+04
         0.27000E+04
         0.27000E+04
         0.27000E+04
         0.27000E+04
         0.27000E+04
         0.27000E+04
         0.27000E+04
         0.27000E+04
         0.27000E+04
         0.27000E+04
         0.27000E+04
         0.27000E+04
         0.27000E+04
         0.27000E+04
         0.27000E+04
         0.27000E+04
         0.27000E+04
         0.27000E+04
         0.27000E+04
         0.27000E+04
         0.27000E+04
         0.27000E+04
         0.27000E+04
         0.27000E+04
         0.27000E+04
         0.27000E+04
         0.27000E+04
         0.27000E+04
         0.27000E+04
         0.27000E+04
         0.27000E+04
         0.27000E+04
         0.27000E+04
         0.27000E+04
         0.27000E+04
         0.27000E+04
         0.27000E+04
         0.27000E+04
         0.27000E+04
         0.27000E+04
         0.27000E+04
         0.27000E+04
         0.27000E+04
         0.27000E+04
         0.27000E+04
         0.27000E+04
         0.27000E+04
         0.27000E+04
         0.27000E+04
         0.27000E+04
         0.27000E+04
         0.27000E+04
         0.27000E+04
         0.27000E+04
         0.27000E+04
         0.27000E+04
         0.27000E+04
         0.27000E+04
         0.27000E+04
         0.27000E+04
         0.27000E+04
         0.27000E+04
         0.27000E+04
         0.27000E+04
         0.27000E+04
         0.27000E+04
         0.27000E+04
         0.27000E+04
         0.27000E+04
         0.27000E+04
         0.27000E+04
         0.27000E+04
         0.27000E+04
         0.27000E+04
         0.27000E+04
         0.27000E+04
         0.27000E+04
         0.27000E+04
         0.27000E+04
         0.27000E+04
         0.27000E+04
         0.27000E+04
         0.27000E+04
         0.27000E+04
         0.27000E+04
         0.27000E+04
         0.27000E+04
         0.27000E+04
         0.27000E+04
         0.27000E+04
         0.27000E+04
         0.27000E+04
         0.27000E+04
         0.27000E+04
         0.27000E+04
         0.27000E+04
         0.27000E+04
         0.27000E+04
         0.27000E+04
         0.27000E+04
         0.27000E+04
         0.27000E+04
         0.27000E+04
         0.27000E+04
         0.27000E+04
         0.27000E+04
         0.27000E+04
         0.27000E+04
         0.27000E+04
         0.27000E+04
         0.27000E+04
         0.27000E+04
         0.27000E+04
         0.27000E+04
         0.27000E+04
         0.27000E+04
         0.27000E+04
         0.27000E+04
         0.27000E+04
         0.27000E+04
         0.27000E+04
         0.27000E+04
         0.27000E+04
         0.27000E+04
         0.27000E+04
         0.27000E+04
         0.27000E+04
         0.27000E+04
         0.27000E+04
         0.27000E+04
         0.27000E+04
         0.27000E+04
         0.27000E+04
         0.27000E+04
         0.27000E+04
         0.27000E+04
         0.27000E+04
         0.27000E+04
         0.27000E+04
         0.27000E+04
         0.27000E+04
         0.27000E+04
         0.27000E+04
         0.27000E+04
         0.27000E+04
         0.27000E+04
         0.27000E+04
         0.27000E+04
         0.27000E+04
         0.27000E+04
         0.27000E+04
         0.27000E+04
         0.27000E+04
         0.27000E+04
         0.27000E+04
         0.27000E+04
         0.27000E+04
         0.27000E+04
         0.27000E+04
         0.27000E+04
         0.27000E+04
         0.27000E+04
         0.27000E+04
         0.27000E+04
         0.27000E+04
         0.27000E+04
         0.27000E+04
         0.27000E+04
         0.27000E+04
         0.27000E+04
         0.27000E+04
         0.27000E+04
         0.27000E+04
         0.27000E+04
         0.27000E+04
         0.27000E+04
         0.27000E+04
         0.27000E+04
         0.27000E+04
         0.27000E+04
         0.27000E+04
         0.27000E+04
         0.27000E+04
         0.27000E+04
         0.27000E+04
         0.27000E+04
         0.27000E+04
         0.27000E+04
         0.27000E+04
         0.27000E+04
         0.27000E+04
         0.27000E+04
         0.27000E+04
         0.27000E+04
         0.27000E+04
         0.27000E+04
         0.27000E+04
         0.27000E+04
         0.27000E+04
         0.27000E+04
         0.27000E+04
         0.27000E+04
         0.27000E+04
         0.27000E+04
         0.27000E+04
         0.27000E+04
         0.27000E+04
         0.27000E+04
         0.27000E+04
         0.27000E+04
         0.27000E+04
         0.27000E+04
         0.27000E+04
         0.27000E+04
         0.27000E+04
         0.27000E+04
         0.27000E+04
         0.27000E+04
         0.27000E+04
         0.27000E+04
         0.27000E+04
         0.27000E+04
         0.27000E+04
         0.27000E+04
         0.27000E+04
         0.27000E+04
         0.27000E+04
         0.27000E+04
         0.27000E+04
         0.27000E+04
         0.27000E+04
         0.27000E+04
         0.27000E+04
         0.27000E+04
         0.27000E+04
         0.27000E+04
         0.27000E+04
         0.27000E+04
         0.27000E+04
         0.27000E+04
         0.27000E+04
         0.27000E+04
         0.27000E+04
         0.27000E+04
         0.27000E+04
         0.27000E+04
         0.27000E+04
         0.27000E+04
         0.27000E+04
         0.27000E+04
         0.27000E+04
         0.27000E+04
         0.27000E+04
         0.27000E+04
         0.27000E+04
         0.27000E+04
         0.27000E+04
         0.27000E+04
         0.27000E+04
         0.27000E+04
         0.27000E+04
         0.27000E+04
         0.27000E+04
         0.27000E+04
         0.27000E+04
         0.27000E+04
         0.27000E+04
         0.27000E+04
         0.27000E+04
         0.27000E+04
         0.27000E+04
         0.27000E+04
         0.27000E+04
         0.27000E+04
         0.27000E+04
         0.27000E+04
         0.27000E+04
         0.27000E+04
         0.27000E+04
         0.27000E+04
         0.27000E+04
         0.27000E+04
         0.27000E+04
         0.27000E+04
         0.27000E+04
         0.27000E+04
         0.27000E+04
         0.27000E+04
         0.27000E+04
         0.27000E+04
         0.27000E+04
         0.27000E+04
         0.27000E+04
         0.27000E+04
         0.27000E+04
         0.27000E+04
         0.27000E+04
         0.27000E+04
         0.27000E+04
         0.27000E+04
         0.27000E+04
         0.27000E+04
         0.27000E+04
         0.27000E+04
         0.27000E+04
         0.27000E+04
         0.27000E+04
         0.27000E+04
         0.27000E+04
         0.27000E+04
         0.27000E+04
         0.27000E+04
         0.27000E+04
         0.27000E+04
         0.27000E+04
         0.27000E+04
         0.27000E+04
         0.27000E+04
         0.27000E+04
         0.27000E+04
         0.27000E+04
         0.27000E+04
         0.27000E+04
         0.27000E+04
         0.27000E+04
         0.27000E+04
         0.27000E+04
         0.27000E+04
         0.27000E+04
         0.27000E+04
         0.27000E+04
         0.27000E+04
         0.27000E+04
         0.27000E+04
         0.27000E+04
         0.27000E+04
         0.27000E+04
         0.27000E+04
         0.27000E+04
         0.27000E+04
         0.27000E+04
         0.27000E+04
         0.27000E+04
         0.27000E+04
         0.27000E+04
         0.27000E+04
         0.27000E+04
         0.27000E+04
         0.27000E+04
         0.27000E+04
         0.27000E+04
         0.27000E+04
         0.27000E+04
         0.27000E+04
         0.27000E+04
         0.27000E+04
         0.27000E+04
         0.27000E+04
         0.27000E+04
         0.27000E+04
         0.27000E+04
         0.27000E+04
         0.27000E+04
         0.27000E+04
         0.27000E+04
         0.27000E+04
         0.27000E+04
         0.27000E+04
         0.27000E+04
         0.27000E+04
         0.27000E+04
         0.27000E+04
         0.27000E+04
         0.27000E+04
         0.27000E+04
         0.27000E+04
         0.27000E+04
         0.27000E+04
         0.27000E+04
         0.27000E+04
         0.27000E+04
         0.27000E+04
         0.27000E+04
         0.27000E+04
         0.27000E+04
         0.27000E+04
         0.27000E+04
         0.27000E+04
         0.27000E+04
         0.27000E+04
         0.27000E+04
         0.27000E+04
         0.27000E+04
         0.27000E+04
         0.27000E+04
         0.27000E+04
         0.27000E+04
         0.27000E+04
         0.27000E+04
         0.27000E+04
         0.27000E+04
         0.27000E+04
         0.27000E+04
         0.27000E+04
         0.27000E+04
         0.27000E+04
         0.27000E+04
         0.27000E+04
         0.27000E+04
         0.27000E+04
         0.27000E+04
         0.27000E+04
         0.27000E+04
         0.27000E+04
         0.27000E+04
         0.27000E+04
         0.27000E+04
         0.27000E+04
         0.27000E+04
         0.27000E+04
         0.27000E+04
         0.27000E+04
         0.27000E+04
         0.27000E+04
         0.27000E+04
         0.27000E+04
         0.27000E+04
         0.27000E+04
         0.27000E+04
         0.27000E+04
         0.27000E+04
         0.27000E+04
         0.27000E+04
         0.27000E+04
         0.27000E+04
         0.27000E+04
         0.27000E+04
         0.27000E+04
         0.27000E+04
         0.27000E+04
         0.27000E+04
         0.27000E+04
         0.27000E+04
         0.27000E+04
         0.27000E+04
         0.27000E+04
         0.27000E+04
         0.27000E+04
         0.27000E+04
         0.27000E+04
         0.27000E+04
         0.27000E+04
         0.27000E+04
         0.27000E+04
         0.27000E+04
         0.27000E+04
         0.27000E+04
         0.27000E+04
         0.27000E+04
         0.27000E+04
         0.27000E+04
         0.27000E+04
         0.27000E+04
         0.27000E+04
         0.27000E+04
         0.27000E+04
         0.27000E+04
         0.27000E+04
         0.27000E+04
         0.27000E+04
         0.27000E+04
         0.27000E+04
         0.27000E+04
         0.27000E+04
         0.27000E+04
         0.27000E+04
         0.27000E+04
         0.27000E+04
         0.27000E+04
         0.27000E+04
         0.27000E+04
         0.27000E+04
         0.27000E+04
         0.27000E+04
         0.27000E+04
         0.27000E+04
         0.27000E+04
         0.27000E+04
         0.27000E+04
         0.27000E+04
         0.27000E+04
         0.27000E+04
         0.27000E+04
         0.27000E+04
         0.27000E+04
         0.27000E+04
         0.27000E+04
         0.27000E+04
         0.27000E+04
         0.27000E+04
         0.27000E+04
         0.27000E+04
         0.27000E+04
         0.27000E+04
         0.27000E+04
         0.27000E+04
         0.27000E+04
         0.27000E+04
         0.27000E+04
         0.27000E+04
         0.27000E+04
         0.27000E+04
         0.27000E+04
         0.27000E+04
         0.27000E+04
         0.27000E+04
         0.27000E+04
         0.27000E+04
         0.27000E+04
         0.27000E+04
         0.27000E+04
         0.27000E+04
         0.27000E+04
         0.27000E+04
         0.27000E+04
         0.27000E+04
         0.27000E+04
         0.27000E+04
         0.27000E+04
         0.27000E+04
         0.27000E+04
         0.27000E+04
         0.27000E+04
         0.27000E+04
         0.27000E+04
         0.27000E+04
         0.27000E+04
         0.27000E+04
         0.27000E+04
         0.27000E+04
         0.27000E+04
         0.27000E+04
         0.27000E+04
         0.27000E+04
         0.27000E+04
         0.27000E+04
         0.27000E+04
         0.27000E+04
         0.27000E+04
         0.27000E+04
         0.27000E+04
         0.27000E+04
         0.27000E+04
         0.27000E+04
         0.27000E+04
         0.27000E+04
         0.27000E+04
         0.27000E+04
         0.27000E+04
         0.27000E+04
         0.27000E+04
         0.27000E+04
         0.27000E+04
         0.27000E+04
         0.27000E+04
         0.27000E+04
         0.27000E+04
         0.27000E+04
         0.27000E+04
         0.27000E+04
         0.27000E+04
         0.27000E+04
         0.27000E+04
         0.27000E+04
         0.27000E+04
         0.27000E+04
         0.27000E+04
         0.27000E+04
         0.27000E+04
         0.27000E+04
         0.27000E+04
         0.27000E+04
         0.27000E+04
         0.27000E+04
         0.27000E+04
         0.27000E+04
         0.27000E+04
         0.27000E+04
         0.27000E+04
         0.27000E+04
         0.27000E+04
         0.27000E+04
         0.27000E+04
         0.27000E+04
         0.27000E+04
         0.27000E+04
         0.27000E+04
         0.27000E+04
         0.27000E+04
         0.27000E+04
         0.27000E+04
         0.27000E+04
         0.27000E+04
         0.27000E+04
         0.27000E+04
         0.27000E+04
         0.27000E+04
         0.27000E+04
         0.27000E+04
         0.27000E+04
         0.27000E+04
         0.27000E+04
         0.27000E+04
         0.27000E+04
         0.27000E+04
         0.27000E+04
         0.27000E+04
         0.27000E+04
         0.27000E+04
         0.27000E+04
         0.27000E+04
         0.27000E+04
         0.27000E+04
         0.27000E+04
         0.27000E+04
         0.27000E+04
         0.27000E+04
         0.27000E+04
         0.27000E+04
         0.27000E+04
         0.27000E+04
         0.27000E+04
         0.27000E+04
         0.27000E+04
         0.27000E+04
         0.27000E+04
         0.27000E+04
         0.27000E+04
         0.27000E+04
         0.27000E+04
         0.27000E+04
         0.27000E+04
         0.27000E+04
         0.27000E+04
         0.27000E+04
         0.27000E+04
         0.27000E+04
         0.27000E+04
         0.27000E+04
         0.27000E+04
         0.27000E+04
         0.27000E+04
         0.27000E+04
         0.27000E+04
         0.27000E+04
         0.27000E+04
         0.27000E+04
         0.27000E+04
         0.27000E+04
         0.27000E+04
         0.27000E+04
         0.27000E+04
         0.27000E+04
         0.27000E+04
         0.27000E+04
         0.27000E+04
         0.27000E+04
         0.27000E+04
         0.27000E+04
         0.27000E+04
         0.27000E+04
         0.27000E+04
         0.27000E+04
         0.27000E+04
         0.27000E+04
         0.27000E+04
         0.27000E+04
         0.27000E+04
         0.27000E+04
         0.27000E+04
         0.27000E+04
         0.27000E+04
         0.27000E+04
         0.27000E+04
         0.27000E+04
         0.27000E+04
         0.27000E+04
         0.27000E+04
         0.27000E+04
         0.27000E+04
         0.27000E+04
         0.27000E+04
         0.27000E+04
         0.27000E+04
         0.27000E+04
         0.27000E+04
         0.27000E+04
         0.27000E+04
         0.27000E+04
         0.27000E+04
         0.27000E+04
         0.27000E+04
         0.27000E+04
         0.27000E+04
         0.27000E+04
         0.27000E+04
         0.27000E+04
         0.27000E+04
         0.27000E+04
         0.27000E+04
         0.27000E+04
         0.27000E+04
         0.27000E+04
         0.27000E+04
         0.27000E+04
         0.27000E+04
         0.27000E+04
         0.27000E+04
         0.27000E+04
         0.27000E+04
         0.27000E+04
         0.27000E+04
         0.27000E+04
         0.27000E+04
         0.27000E+04
         0.27000E+04
         0.27000E+04
         0.27000E+04
         0.27000E+04
         0.27000E+04
         0.27000E+04
         0.27000E+04
         0.27000E+04
         0.27000E+04
         0.27000E+04
         0.27000E+04
         0.27000E+04
         0.27000E+04
         0.27000E+04
         0.27000E+04
         0.27000E+04
         0.27000E+04
         0.27000E+04
         0.27000E+04
         0.27000E+04
         0.27000E+04
         0.27000E+04
         0.27000E+04
         0.27000E+04
         0.27000E+04
         0.27000E+04
         0.27000E+04
         0.27000E+04
         0.27000E+04
         0.27000E+04
         0.27000E+04
         0.27000E+04
         0.27000E+04
         0.27000E+04
         0.27000E+04
         0.27000E+04
         0.27000E+04
         0.27000E+04
         0.27000E+04
         0.27000E+04
         0.27000E+04
         0.27000E+04
         0.27000E+04
         0.27000E+04
         0.27000E+04
         0.27000E+04
         0.27000E+04
         0.27000E+04
         0.27000E+04
         0.27000E+04
         0.27000E+04
         0.27000E+04
         0.27000E+04
         0.27000E+04
         0.27000E+04
         0.27000E+04
         0.27000E+04
         0.27000E+04
         0.27000E+04
         0.27000E+04
         0.27000E+04
         0.27000E+04
         0.27000E+04
         0.27000E+04
         0.27000E+04
         0.27000E+04
         0.27000E+04
         0.27000E+04
         0.27000E+04
         0.27000E+04
         0.27000E+04
         0.27000E+04
         0.27000E+04
         0.27000E+04
         0.27000E+04
         0.27000E+04
         0.27000E+04
         0.27000E+04
         0.27000E+04
         0.27000E+04
         0.27000E+04
         0.27000E+04
         0.27000E+04
         0.27000E+04
         0.27000E+04
         0.27000E+04
         0.27000E+04
         0.27000E+04
         0.27000E+04
         0.27000E+04
         0.27000E+04
         0.27000E+04
         0.27000E+04
         0.27000E+04
         0.27000E+04
         0.27000E+04
         0.27000E+04
         0.27000E+04
         0.27000E+04
         0.27000E+04
         0.27000E+04
         0.27000E+04
         0.27000E+04
         0.27000E+04
         0.27000E+04
         0.27000E+04
         0.27000E+04
         0.27000E+04
         0.27000E+04
         0.27000E+04
         0.27000E+04
         0.27000E+04
         0.27000E+04
         0.27000E+04
         0.27000E+04
         0.27000E+04
         0.27000E+04
         0.27000E+04
         0.27000E+04
         0.27000E+04
         0.27000E+04
         0.27000E+04
         0.27000E+04
         0.27000E+04
         0.27000E+04
         0.27000E+04
         0.27000E+04
         0.27000E+04
         0.27000E+04
         0.27000E+04
         0.27000E+04
         0.27000E+04
         0.27000E+04
         0.27000E+04
         0.27000E+04
         0.27000E+04
         0.27000E+04
         0.27000E+04
         0.27000E+04
         0.27000E+04
         0.27000E+04
         0.27000E+04
         0.27000E+04
         0.27000E+04
         0.27000E+04
         0.27000E+04
         0.27000E+04
         0.27000E+04
         0.27000E+04
         0.27000E+04
         0.27000E+04
         0.27000E+04
         0.27000E+04
         0.27000E+04
         0.27000E+04
         0.27000E+04
         0.27000E+04
         0.27000E+04
         0.27000E+04
         0.27000E+04
         0.27000E+04
         0.27000E+04
         0.27000E+04
         0.27000E+04
         0.27000E+04
         0.27000E+04
         0.27000E+04
         0.27000E+04
         0.27000E+04
         0.27000E+04
         0.27000E+04
         0.27000E+04
         0.27000E+04
         0.27000E+04
         0.27000E+04
         0.27000E+04
         0.27000E+04
         0.27000E+04
         0.27000E+04
         0.27000E+04
         0.27000E+04
         0.27000E+04
         0.27000E+04
         0.27000E+04
         0.27000E+04
         0.27000E+04
         0.27000E+04
         0.27000E+04
         0.27000E+04
         0.27000E+04
         0.27000E+04
         0.27000E+04
         0.27000E+04
         0.27000E+04
         0.27000E+04
         0.27000E+04
         0.27000E+04
         0.27000E+04
         0.27000E+04
         0.27000E+04
         0.27000E+04
         0.27000E+04
         0.27000E+04
         0.27000E+04
         0.27000E+04
         0.27000E+04
         0.27000E+04
         0.27000E+04
         0.27000E+04
         0.27000E+04
         0.27000E+04
         0.27000E+04
         0.27000E+04
         0.27000E+04
         0.27000E+04
         0.27000E+04
         0.27000E+04
         0.27000E+04
         0.27000E+04
         0.27000E+04
         0.27000E+04
         0.27000E+04
         0.27000E+04
         0.27000E+04
         0.27000E+04
         0.27000E+04
         0.27000E+04
         0.27000E+04
         0.27000E+04
         0.27000E+04
         0.27000E+04
         0.27000E+04
         0.27000E+04
         0.27000E+04
         0.27000E+04
         0.27000E+04
         0.27000E+04
         0.27000E+04
         0.27000E+04
         0.27000E+04
         0.27000E+04
         0.27000E+04
         0.27000E+04
         0.27000E+04
         0.27000E+04
         0.27000E+04
         0.27000E+04
         0.27000E+04
         0.27000E+04
         0.27000E+04
         0.27000E+04
         0.27000E+04
         0.27000E+04
         0.27000E+04
         0.27000E+04
         0.27000E+04
         0.27000E+04
         0.27000E+04
         0.27000E+04
         0.27000E+04
         0.27000E+04
         0.27000E+04
         0.27000E+04
         0.27000E+04
         0.27000E+04
         0.27000E+04
         0.27000E+04
         0.27000E+04
         0.27000E+04
         0.27000E+04
         0.27000E+04
         0.27000E+04
         0.27000E+04
         0.27000E+04
         0.27000E+04
         0.27000E+04
         0.27000E+04
         0.27000E+04
         0.27000E+04
         0.27000E+04
         0.27000E+04
         0.27000E+04
         0.27000E+04
         0.27000E+04
         0.27000E+04
         0.27000E+04
         0.27000E+04
         0.27000E+04
         0.27000E+04
         0.27000E+04
         0.27000E+04
         0.27000E+04
         0.27000E+04
         0.27000E+04
         0.27000E+04
         0.27000E+04
         0.27000E+04
         0.27000E+04
         0.27000E+04
         0.27000E+04
         0.27000E+04
         0.27000E+04
         0.27000E+04
         0.27000E+04
         0.27000E+04
         0.27000E+04
         0.27000E+04
         0.27000E+04
         0.27000E+04
         0.27000E+04
         0.27000E+04
         0.27000E+04
         0.27000E+04
         0.27000E+04
         0.27000E+04
         0.27000E+04
         0.27000E+04
         0.27000E+04
         0.27000E+04
         0.27000E+04
         0.27000E+04
         0.27000E+04
         0.27000E+04
         0.27000E+04
         0.27000E+04
         0.27000E+04
         0.27000E+04
         0.27000E+04
         0.27000E+04
         0.27000E+04
         0.27000E+04
         0.27000E+04
         0.27000E+04
         0.27000E+04
         0.27000E+04
         0.27000E+04
         0.27000E+04
         0.27000E+04
         0.27000E+04
         0.27000E+04
         0.27000E+04
         0.27000E+04
         0.27000E+04
         0.27000E+04
         0.27000E+04
         0.27000E+04
         0.27000E+04
         0.27000E+04
         0.27000E+04
         0.27000E+04
         0.27000E+04
         0.27000E+04
         0.27000E+04
         0.27000E+04
         0.27000E+04
         0.27000E+04
         0.27000E+04
         0.27000E+04
         0.27000E+04
         0.27000E+04
         0.27000E+04
         0.27000E+04
         0.27000E+04
         0.27000E+04
         0.27000E+04
         0.27000E+04
         0.27000E+04
         0.27000E+04
         0.27000E+04
         0.27000E+04
         0.27000E+04
         0.27000E+04
         0.27000E+04
         0.27000E+04
         0.27000E+04
         0.27000E+04
         0.27000E+04
         0.27000E+04
         0.27000E+04
         0.27000E+04
         0.27000E+04
         0.27000E+04
         0.27000E+04
         0.27000E+04
         0.27000E+04
         0.27000E+04
         0.27000E+04
         0.27000E+04
         0.27000E+04
         0.27000E+04
         0.27000E+04
         0.27000E+04
         0.27000E+04
         0.27000E+04
         0.27000E+04
         0.27000E+04
         0.27000E+04
         0.27000E+04
         0.27000E+04
         0.27000E+04
         0.27000E+04
         0.27000E+04
         0.27000E+04
         0.27000E+04
         0.27000E+04
         0.27000E+04
         0.27000E+04
         0.27000E+04
         0.27000E+04
         0.27000E+04
         0.27000E+04
         0.27000E+04
         0.27000E+04
         0.27000E+04
         0.27000E+04
         0.27000E+04
         0.27000E+04
         0.27000E+04
         0.27000E+04
         0.27000E+04
         0.27000E+04
         0.27000E+04
         0.27000E+04
         0.27000E+04
         0.27000E+04
         0.27000E+04
         0.27000E+04
         0.27000E+04
         0.27000E+04
         0.27000E+04
         0.27000E+04
         0.27000E+04
         0.27000E+04
         0.27000E+04
         0.27000E+04
         0.27000E+04
         0.27000E+04
         0.27000E+04
         0.27000E+04
         0.27000E+04
         0.27000E+04
         0.27000E+04
         0.27000E+04
         0.27000E+04
         0.27000E+04
         0.27000E+04
         0.27000E+04
         0.27000E+04
         0.27000E+04
         0.27000E+04
         0.27000E+04
         0.27000E+04
         0.27000E+04
         0.27000E+04
         0.27000E+04
         0.27000E+04
         0.27000E+04
         0.27000E+04
         0.27000E+04
         0.27000E+04
         0.27000E+04
         0.27000E+04
         0.27000E+04
         0.27000E+04
         0.27000E+04
         0.27000E+04
         0.27000E+04
         0.27000E+04
         0.27000E+04
         0.27000E+04
         0.27000E+04
         0.27000E+04
         0.27000E+04
         0.27000E+04
         0.27000E+04
         0.27000E+04
         0.27000E+04
         0.27000E+04
         0.27000E+04
         0.27000E+04
         0.27000E+04
         0.27000E+04
         0.27000E+04
         0.27000E+04
         0.27000E+04
         0.27000E+04
         0.27000E+04
         0.27000E+04
         0.27000E+04
         0.27000E+04
         0.27000E+04
         0.27000E+04
         0.27000E+04
         0.27000E+04
         0.27000E+04
         0.27000E+04
         0.27000E+04
         0.27000E+04
         0.27000E+04
         0.27000E+04
         0.27000E+04
         0.27000E+04
         0.27000E+04
         0.27000E+04
         0.27000E+04
         0.27000E+04
         0.27000E+04
         0.27000E+04
         0.27000E+04
         0.27000E+04
         0.27000E+04
         0.27000E+04
         0.27000E+04
         0.27000E+04
         0.27000E+04
         0.27000E+04
         0.27000E+04
         0.27000E+04
         0.27000E+04
         0.27000E+04
         0.27000E+04
         0.27000E+04
         0.27000E+04
         0.27000E+04
         0.27000E+04
         0.27000E+04
         0.27000E+04
         0.27000E+04
         0.27000E+04
         0.27000E+04
         0.27000E+04
         0.27000E+04
         0.27000E+04
         0.27000E+04
         0.27000E+04
         0.27000E+04
         0.27000E+04
         0.27000E+04
         0.27000E+04
         0.27000E+04
         0.27000E+04
         0.27000E+04
         0.27000E+04
         0.27000E+04
         0.27000E+04
         0.27000E+04
         0.27000E+04
         0.27000E+04
         0.27000E+04
         0.27000E+04
         0.27000E+04
         0.27000E+04
         0.27000E+04
         0.27000E+04
         0.27000E+04
         0.27000E+04
         0.27000E+04
         0.27000E+04
         0.27000E+04
         0.27000E+04
         0.27000E+04
         0.27000E+04
         0.27000E+04
         0.27000E+04
         0.27000E+04
         0.27000E+04
         0.27000E+04
         0.27000E+04
         0.27000E+04
         0.27000E+04
         0.27000E+04
         0.27000E+04
         0.27000E+04
         0.27000E+04
         0.27000E+04
         0.27000E+04
         0.27000E+04
         0.27000E+04
         0.27000E+04
         0.27000E+04
         0.27000E+04
         0.27000E+04
         0.27000E+04
         0.27000E+04
         0.27000E+04
         0.27000E+04
         0.27000E+04
         0.27000E+04
         0.27000E+04
         0.27000E+04
         0.27000E+04
         0.27000E+04
         0.27000E+04
         0.27000E+04
         0.27000E+04
         0.27000E+04
         0.27000E+04
         0.27000E+04
         0.27000E+04
         0.27000E+04
         0.27000E+04
         0.27000E+04
         0.27000E+04
         0.27000E+04
         0.27000E+04
         0.27000E+04
         0.27000E+04
         0.27000E+04
         0.27000E+04
         0.27000E+04
         0.27000E+04
         0.27000E+04
         0.27000E+04
         0.27000E+04
         0.27000E+04
         0.27000E+04
         0.27000E+04
