# vtk DataFile Version 2.0
               (MEGA VTK FILE)
ASCII
DATASET UNSTRUCTURED_GRID
POINTS       1950    double
  0.10378E-02  0.67292E-03 -0.10771E-01
  0.17452E-02  0.12308E-02 -0.10771E-01
  0.23177E-02  0.59151E-03 -0.10771E-01
  0.16698E-02 -0.33775E-03 -0.10771E-01
  0.10379E-02  0.67237E-03 -0.11750E-01
  0.17453E-02  0.12301E-02 -0.11750E-01
  0.23178E-02  0.59098E-03 -0.11750E-01
  0.16700E-02 -0.33851E-03 -0.11750E-01
  0.30377E-02  0.14882E-03 -0.10771E-01
  0.27791E-02 -0.67643E-03 -0.10771E-01
  0.30377E-02  0.14846E-03 -0.11750E-01
  0.27788E-02 -0.67692E-03 -0.11750E-01
  0.12850E-02  0.18412E-02 -0.10771E-01
  0.65139E-03  0.14576E-02 -0.10771E-01
  0.12851E-02  0.18410E-02 -0.11750E-01
  0.65164E-03  0.14566E-02 -0.11750E-01
  0.12757E-03  0.29933E-03 -0.10771E-01
 -0.12822E-03  0.11672E-02 -0.10771E-01
  0.12783E-03  0.29819E-03 -0.11750E-01
 -0.12804E-03  0.11655E-02 -0.11750E-01
  0.94500E-03  0.22748E-02 -0.10771E-01
  0.11327E-02  0.28286E-02 -0.10771E-01
  0.17490E-02  0.24238E-02 -0.10771E-01
  0.94533E-03  0.22746E-02 -0.11750E-01
  0.11330E-02  0.28291E-02 -0.11750E-01
  0.17494E-02  0.24236E-02 -0.11750E-01
  0.40588E-03  0.21685E-02 -0.10771E-01
  0.39779E-03  0.29366E-02 -0.10771E-01
  0.40594E-03  0.21684E-02 -0.11750E-01
  0.39781E-03  0.29369E-02 -0.11750E-01
 -0.76303E-03 -0.10033E-02 -0.10771E-01
 -0.86604E-03  0.78969E-04 -0.10771E-01
  0.46119E-03 -0.70318E-03 -0.10771E-01
 -0.76268E-03 -0.10032E-02 -0.11750E-01
 -0.86593E-03  0.78160E-04 -0.11750E-01
  0.46164E-03 -0.70391E-03 -0.11750E-01
 -0.18300E-02 -0.71196E-03 -0.10771E-01
 -0.18440E-02  0.82749E-04 -0.10771E-01
 -0.18297E-02 -0.71210E-03 -0.11750E-01
 -0.18441E-02  0.82626E-04 -0.11750E-01
 -0.27238E-02 -0.77865E-03 -0.10771E-01
 -0.28028E-02  0.40713E-04 -0.10771E-01
 -0.27238E-02 -0.77882E-03 -0.11750E-01
 -0.28031E-02  0.40439E-04 -0.11750E-01
 -0.25365E-02 -0.15195E-02 -0.10771E-01
 -0.19287E-02 -0.13230E-02 -0.10771E-01
 -0.25363E-02 -0.15195E-02 -0.11750E-01
 -0.19283E-02 -0.13231E-02 -0.11750E-01
 -0.99363E-03  0.98847E-03 -0.10771E-01
 -0.99377E-03  0.98712E-03 -0.11750E-01
 -0.14380E-02 -0.17325E-02 -0.10771E-01
 -0.14377E-02 -0.17325E-02 -0.11750E-01
 -0.31574E-03  0.20220E-02 -0.10771E-01
 -0.31594E-03  0.20217E-02 -0.11750E-01
 -0.11068E-02  0.18615E-02 -0.10771E-01
 -0.11071E-02  0.18616E-02 -0.11750E-01
 -0.18845E-02  0.17175E-02 -0.10771E-01
 -0.18713E-02  0.90940E-03 -0.10771E-01
 -0.18846E-02  0.17175E-02 -0.11750E-01
 -0.18714E-02  0.90916E-03 -0.11750E-01
 -0.15871E-03 -0.19800E-02 -0.10771E-01
 -0.94089E-03 -0.23489E-02 -0.10771E-01
 -0.15844E-03 -0.19800E-02 -0.11750E-01
 -0.94029E-03 -0.23489E-02 -0.11750E-01
  0.78856E-03 -0.17074E-02 -0.10771E-01
  0.78922E-03 -0.17074E-02 -0.11750E-01
  0.17211E-02 -0.14894E-02 -0.10771E-01
  0.17211E-02 -0.14892E-02 -0.11750E-01
  0.32050E-02  0.76036E-03 -0.10771E-01
  0.28046E-02  0.12477E-02 -0.10771E-01
  0.32047E-02  0.75936E-03 -0.11750E-01
  0.28047E-02  0.12473E-02 -0.11750E-01
  0.23059E-02  0.18665E-02 -0.10771E-01
  0.23060E-02  0.18664E-02 -0.11750E-01
 -0.40614E-03  0.29038E-02 -0.10771E-01
 -0.40627E-03  0.29049E-02 -0.11750E-01
 -0.12092E-02  0.27207E-02 -0.10771E-01
 -0.12092E-02  0.27212E-02 -0.11750E-01
 -0.19448E-02  0.24642E-02 -0.10771E-01
 -0.19448E-02  0.24645E-02 -0.11750E-01
 -0.25029E-02  0.22359E-02 -0.10771E-01
 -0.26371E-02  0.16503E-02 -0.10771E-01
 -0.25029E-02  0.22359E-02 -0.11750E-01
 -0.26372E-02  0.16503E-02 -0.11750E-01
 -0.27671E-02  0.87493E-03 -0.10771E-01
 -0.27674E-02  0.87466E-03 -0.11750E-01
 -0.21123E-02 -0.21373E-02 -0.10771E-01
 -0.21122E-02 -0.21373E-02 -0.11750E-01
 -0.16087E-02 -0.26931E-02 -0.10771E-01
 -0.16087E-02 -0.26931E-02 -0.11750E-01
 -0.11939E-02 -0.31291E-02 -0.10771E-01
 -0.58641E-03 -0.30382E-02 -0.10771E-01
 -0.11937E-02 -0.31291E-02 -0.11750E-01
 -0.58606E-03 -0.30382E-02 -0.11750E-01
  0.20912E-03 -0.28748E-02 -0.10771E-01
  0.20952E-03 -0.28748E-02 -0.11750E-01
  0.10586E-02 -0.26423E-02 -0.10771E-01
  0.10589E-02 -0.26420E-02 -0.11750E-01
  0.18413E-02 -0.23707E-02 -0.10771E-01
  0.18413E-02 -0.23705E-02 -0.11750E-01
  0.24544E-02 -0.21445E-02 -0.10771E-01
  0.26022E-02 -0.15105E-02 -0.10771E-01
  0.24543E-02 -0.21439E-02 -0.11750E-01
  0.26021E-02 -0.15106E-02 -0.11750E-01
  0.37964E-02  0.93572E-03 -0.10771E-01
  0.39100E-02  0.00000E+00 -0.10771E-01
  0.37964E-02  0.93572E-03 -0.11750E-01
  0.39100E-02  0.00000E+00 -0.11750E-01
  0.34621E-02  0.18171E-02 -0.10771E-01
  0.34621E-02  0.18171E-02 -0.11750E-01
  0.29267E-02  0.25928E-02 -0.10771E-01
  0.29267E-02  0.25928E-02 -0.11750E-01
  0.22211E-02  0.32179E-02 -0.10771E-01
  0.22211E-02  0.32179E-02 -0.11750E-01
  0.13865E-02  0.36559E-02 -0.10771E-01
  0.13865E-02  0.36559E-02 -0.11750E-01
  0.47130E-03  0.38815E-02 -0.10771E-01
  0.47130E-03  0.38815E-02 -0.11750E-01
 -0.47130E-03  0.38815E-02 -0.10771E-01
 -0.47130E-03  0.38815E-02 -0.11750E-01
 -0.13865E-02  0.36559E-02 -0.10771E-01
 -0.13865E-02  0.36559E-02 -0.11750E-01
 -0.22211E-02  0.32179E-02 -0.10771E-01
 -0.22211E-02  0.32179E-02 -0.11750E-01
 -0.29267E-02  0.25928E-02 -0.10771E-01
 -0.29267E-02  0.25928E-02 -0.11750E-01
 -0.34621E-02  0.18171E-02 -0.10771E-01
 -0.34621E-02  0.18171E-02 -0.11750E-01
 -0.37964E-02  0.93572E-03 -0.10771E-01
 -0.37964E-02  0.93572E-03 -0.11750E-01
 -0.39100E-02  0.22152E-17 -0.10771E-01
 -0.39100E-02 -0.47884E-18 -0.11750E-01
 -0.37964E-02 -0.93572E-03 -0.10771E-01
 -0.37964E-02 -0.93572E-03 -0.11750E-01
 -0.34621E-02 -0.18171E-02 -0.10771E-01
 -0.34621E-02 -0.18171E-02 -0.11750E-01
 -0.29267E-02 -0.25928E-02 -0.10771E-01
 -0.29267E-02 -0.25928E-02 -0.11750E-01
 -0.22211E-02 -0.32179E-02 -0.10771E-01
 -0.22211E-02 -0.32179E-02 -0.11750E-01
 -0.13865E-02 -0.36559E-02 -0.10771E-01
 -0.13865E-02 -0.36559E-02 -0.11750E-01
 -0.47130E-03 -0.38815E-02 -0.10771E-01
 -0.47130E-03 -0.38815E-02 -0.11750E-01
  0.47130E-03 -0.38815E-02 -0.10771E-01
  0.47130E-03 -0.38815E-02 -0.11750E-01
  0.13865E-02 -0.36559E-02 -0.10771E-01
  0.13865E-02 -0.36559E-02 -0.11750E-01
  0.22211E-02 -0.32179E-02 -0.10771E-01
  0.22211E-02 -0.32179E-02 -0.11750E-01
  0.29267E-02 -0.25928E-02 -0.10771E-01
  0.29267E-02 -0.25928E-02 -0.11750E-01
  0.34621E-02 -0.18171E-02 -0.10771E-01
  0.34621E-02 -0.18171E-02 -0.11750E-01
  0.37964E-02 -0.93572E-03 -0.10771E-01
  0.37964E-02 -0.93572E-03 -0.11750E-01
  0.10376E-02  0.67348E-03 -0.97917E-02
  0.17450E-02  0.12314E-02 -0.97917E-02
  0.23175E-02  0.59203E-03 -0.97917E-02
  0.16696E-02 -0.33700E-03 -0.97917E-02
  0.30377E-02  0.14918E-03 -0.97917E-02
  0.27795E-02 -0.67594E-03 -0.97917E-02
  0.12849E-02  0.18414E-02 -0.97917E-02
  0.65115E-03  0.14586E-02 -0.97917E-02
  0.12731E-03  0.30048E-03 -0.97917E-02
 -0.12841E-03  0.11690E-02 -0.97917E-02
  0.94467E-03  0.22749E-02 -0.97917E-02
  0.11323E-02  0.28282E-02 -0.97917E-02
  0.17487E-02  0.24239E-02 -0.97917E-02
  0.40583E-03  0.21685E-02 -0.97917E-02
  0.39777E-03  0.29364E-02 -0.97917E-02
 -0.76338E-03 -0.10035E-02 -0.97917E-02
 -0.86615E-03  0.79778E-04 -0.97917E-02
  0.46074E-03 -0.70245E-03 -0.97917E-02
 -0.18303E-02 -0.71182E-03 -0.97917E-02
 -0.18439E-02  0.82873E-04 -0.97917E-02
 -0.27238E-02 -0.77848E-03 -0.97917E-02
 -0.28025E-02  0.40986E-04 -0.97917E-02
 -0.25366E-02 -0.15194E-02 -0.97917E-02
 -0.19292E-02 -0.13228E-02 -0.97917E-02
 -0.99349E-03  0.98983E-03 -0.97917E-02
 -0.14384E-02 -0.17324E-02 -0.97917E-02
 -0.31554E-03  0.20223E-02 -0.97917E-02
 -0.11064E-02  0.18614E-02 -0.97917E-02
 -0.18845E-02  0.17175E-02 -0.97917E-02
 -0.18712E-02  0.90964E-03 -0.97917E-02
 -0.15899E-03 -0.19800E-02 -0.97917E-02
 -0.94149E-03 -0.23489E-02 -0.97917E-02
  0.78790E-03 -0.17074E-02 -0.97917E-02
  0.17210E-02 -0.14896E-02 -0.97917E-02
  0.32053E-02  0.76137E-03 -0.97917E-02
  0.28046E-02  0.12481E-02 -0.97917E-02
  0.23058E-02  0.18665E-02 -0.97917E-02
 -0.40600E-03  0.29027E-02 -0.97917E-02
 -0.12092E-02  0.27202E-02 -0.97917E-02
 -0.19447E-02  0.24640E-02 -0.97917E-02
 -0.25028E-02  0.22359E-02 -0.97917E-02
 -0.26370E-02  0.16503E-02 -0.97917E-02
 -0.27668E-02  0.87519E-03 -0.97917E-02
 -0.21125E-02 -0.21373E-02 -0.97917E-02
 -0.16088E-02 -0.26932E-02 -0.97917E-02
 -0.11940E-02 -0.31291E-02 -0.97917E-02
 -0.58676E-03 -0.30382E-02 -0.97917E-02
  0.20871E-03 -0.28748E-02 -0.97917E-02
  0.10583E-02 -0.26426E-02 -0.97917E-02
  0.18413E-02 -0.23709E-02 -0.97917E-02
  0.24545E-02 -0.21450E-02 -0.97917E-02
  0.26022E-02 -0.15104E-02 -0.97917E-02
  0.37964E-02  0.93572E-03 -0.97917E-02
  0.39100E-02  0.00000E+00 -0.97917E-02
  0.34621E-02  0.18171E-02 -0.97917E-02
  0.29267E-02  0.25928E-02 -0.97917E-02
  0.22211E-02  0.32179E-02 -0.97917E-02
  0.13865E-02  0.36559E-02 -0.97917E-02
  0.47130E-03  0.38815E-02 -0.97917E-02
 -0.47130E-03  0.38815E-02 -0.97917E-02
 -0.13865E-02  0.36559E-02 -0.97917E-02
 -0.22211E-02  0.32179E-02 -0.97917E-02
 -0.29267E-02  0.25928E-02 -0.97917E-02
 -0.34621E-02  0.18171E-02 -0.97917E-02
 -0.37964E-02  0.93572E-03 -0.97917E-02
 -0.39100E-02 -0.47884E-18 -0.97917E-02
 -0.37964E-02 -0.93572E-03 -0.97917E-02
 -0.34621E-02 -0.18171E-02 -0.97917E-02
 -0.29267E-02 -0.25928E-02 -0.97917E-02
 -0.22211E-02 -0.32179E-02 -0.97917E-02
 -0.13865E-02 -0.36559E-02 -0.97917E-02
 -0.47130E-03 -0.38815E-02 -0.97917E-02
  0.47130E-03 -0.38815E-02 -0.97917E-02
  0.13865E-02 -0.36559E-02 -0.97917E-02
  0.22211E-02 -0.32179E-02 -0.97917E-02
  0.29267E-02 -0.25928E-02 -0.97917E-02
  0.34621E-02 -0.18171E-02 -0.97917E-02
  0.37964E-02 -0.93572E-03 -0.97917E-02
  0.10375E-02  0.67403E-03 -0.88125E-02
  0.17448E-02  0.12321E-02 -0.88125E-02
  0.23174E-02  0.59255E-03 -0.88125E-02
  0.16694E-02 -0.33624E-03 -0.88125E-02
  0.30377E-02  0.14955E-03 -0.88125E-02
  0.27798E-02 -0.67544E-03 -0.88125E-02
  0.12848E-02  0.18415E-02 -0.88125E-02
  0.65090E-03  0.14596E-02 -0.88125E-02
  0.12705E-03  0.30163E-03 -0.88125E-02
 -0.12859E-03  0.11707E-02 -0.88125E-02
  0.94434E-03  0.22750E-02 -0.88125E-02
  0.11320E-02  0.28277E-02 -0.88125E-02
  0.17483E-02  0.24241E-02 -0.88125E-02
  0.40577E-03  0.21685E-02 -0.88125E-02
  0.39776E-03  0.29361E-02 -0.88125E-02
 -0.76374E-03 -0.10036E-02 -0.88125E-02
 -0.86626E-03  0.80588E-04 -0.88125E-02
  0.46029E-03 -0.70173E-03 -0.88125E-02
 -0.18306E-02 -0.71168E-03 -0.88125E-02
 -0.18438E-02  0.82996E-04 -0.88125E-02
 -0.27238E-02 -0.77831E-03 -0.88125E-02
 -0.28022E-02  0.41259E-04 -0.88125E-02
 -0.25368E-02 -0.15194E-02 -0.88125E-02
 -0.19296E-02 -0.13227E-02 -0.88125E-02
 -0.99334E-03  0.99119E-03 -0.88125E-02
 -0.14387E-02 -0.17324E-02 -0.88125E-02
 -0.31534E-03  0.20226E-02 -0.88125E-02
 -0.11061E-02  0.18613E-02 -0.88125E-02
 -0.18844E-02  0.17175E-02 -0.88125E-02
 -0.18710E-02  0.90988E-03 -0.88125E-02
 -0.15926E-03 -0.19801E-02 -0.88125E-02
 -0.94209E-03 -0.23490E-02 -0.88125E-02
  0.78724E-03 -0.17074E-02 -0.88125E-02
  0.17210E-02 -0.14899E-02 -0.88125E-02
  0.32056E-02  0.76237E-03 -0.88125E-02
  0.28046E-02  0.12485E-02 -0.88125E-02
  0.23057E-02  0.18666E-02 -0.88125E-02
 -0.40586E-03  0.29017E-02 -0.88125E-02
 -0.12092E-02  0.27198E-02 -0.88125E-02
 -0.19447E-02  0.24638E-02 -0.88125E-02
 -0.25028E-02  0.22359E-02 -0.88125E-02
 -0.26369E-02  0.16503E-02 -0.88125E-02
 -0.27665E-02  0.87545E-03 -0.88125E-02
 -0.21126E-02 -0.21374E-02 -0.88125E-02
 -0.16088E-02 -0.26932E-02 -0.88125E-02
 -0.11941E-02 -0.31291E-02 -0.88125E-02
 -0.58711E-03 -0.30382E-02 -0.88125E-02
  0.20830E-03 -0.28748E-02 -0.88125E-02
  0.10580E-02 -0.26428E-02 -0.88125E-02
  0.18414E-02 -0.23711E-02 -0.88125E-02
  0.24546E-02 -0.21456E-02 -0.88125E-02
  0.26023E-02 -0.15103E-02 -0.88125E-02
  0.37964E-02  0.93572E-03 -0.88125E-02
  0.39100E-02  0.00000E+00 -0.88125E-02
  0.34621E-02  0.18171E-02 -0.88125E-02
  0.29267E-02  0.25928E-02 -0.88125E-02
  0.22211E-02  0.32179E-02 -0.88125E-02
  0.13865E-02  0.36559E-02 -0.88125E-02
  0.47130E-03  0.38815E-02 -0.88125E-02
 -0.47130E-03  0.38815E-02 -0.88125E-02
 -0.13865E-02  0.36559E-02 -0.88125E-02
 -0.22211E-02  0.32179E-02 -0.88125E-02
 -0.29267E-02  0.25928E-02 -0.88125E-02
 -0.34621E-02  0.18171E-02 -0.88125E-02
 -0.37964E-02  0.93572E-03 -0.88125E-02
 -0.39100E-02  0.39516E-17 -0.88125E-02
 -0.37964E-02 -0.93572E-03 -0.88125E-02
 -0.34621E-02 -0.18171E-02 -0.88125E-02
 -0.29267E-02 -0.25928E-02 -0.88125E-02
 -0.22211E-02 -0.32179E-02 -0.88125E-02
 -0.13865E-02 -0.36559E-02 -0.88125E-02
 -0.47130E-03 -0.38815E-02 -0.88125E-02
  0.47130E-03 -0.38815E-02 -0.88125E-02
  0.13865E-02 -0.36559E-02 -0.88125E-02
  0.22211E-02 -0.32179E-02 -0.88125E-02
  0.29267E-02 -0.25928E-02 -0.88125E-02
  0.34621E-02 -0.18171E-02 -0.88125E-02
  0.37964E-02 -0.93572E-03 -0.88125E-02
  0.10374E-02  0.67459E-03 -0.78333E-02
  0.17446E-02  0.12328E-02 -0.78333E-02
  0.23173E-02  0.59308E-03 -0.78333E-02
  0.16692E-02 -0.33549E-03 -0.78333E-02
  0.30376E-02  0.14991E-03 -0.78333E-02
  0.27801E-02 -0.67495E-03 -0.78333E-02
  0.12847E-02  0.18417E-02 -0.78333E-02
  0.65065E-03  0.14606E-02 -0.78333E-02
  0.12678E-03  0.30278E-03 -0.78333E-02
 -0.12878E-03  0.11725E-02 -0.78333E-02
  0.94401E-03  0.22752E-02 -0.78333E-02
  0.11316E-02  0.28273E-02 -0.78333E-02
  0.17479E-02  0.24242E-02 -0.78333E-02
  0.40572E-03  0.21686E-02 -0.78333E-02
  0.39774E-03  0.29359E-02 -0.78333E-02
 -0.76409E-03 -0.10038E-02 -0.78333E-02
 -0.86637E-03  0.81397E-04 -0.78333E-02
  0.45985E-03 -0.70100E-03 -0.78333E-02
 -0.18309E-02 -0.71154E-03 -0.78333E-02
 -0.18437E-02  0.83120E-04 -0.78333E-02
 -0.27237E-02 -0.77814E-03 -0.78333E-02
 -0.28020E-02  0.41533E-04 -0.78333E-02
 -0.25369E-02 -0.15193E-02 -0.78333E-02
 -0.19300E-02 -0.13227E-02 -0.78333E-02
 -0.99320E-03  0.99254E-03 -0.78333E-02
 -0.14391E-02 -0.17324E-02 -0.78333E-02
 -0.31514E-03  0.20228E-02 -0.78333E-02
 -0.11057E-02  0.18611E-02 -0.78333E-02
 -0.18844E-02  0.17175E-02 -0.78333E-02
 -0.18709E-02  0.91012E-03 -0.78333E-02
 -0.15954E-03 -0.19801E-02 -0.78333E-02
 -0.94269E-03 -0.23490E-02 -0.78333E-02
  0.78658E-03 -0.17074E-02 -0.78333E-02
  0.17209E-02 -0.14901E-02 -0.78333E-02
  0.32060E-02  0.76338E-03 -0.78333E-02
  0.28046E-02  0.12490E-02 -0.78333E-02
  0.23056E-02  0.18666E-02 -0.78333E-02
 -0.40572E-03  0.29006E-02 -0.78333E-02
 -0.12092E-02  0.27193E-02 -0.78333E-02
 -0.19446E-02  0.24636E-02 -0.78333E-02
 -0.25028E-02  0.22359E-02 -0.78333E-02
 -0.26368E-02  0.16503E-02 -0.78333E-02
 -0.27662E-02  0.87571E-03 -0.78333E-02
 -0.21128E-02 -0.21374E-02 -0.78333E-02
 -0.16088E-02 -0.26932E-02 -0.78333E-02
 -0.11942E-02 -0.31291E-02 -0.78333E-02
 -0.58746E-03 -0.30382E-02 -0.78333E-02
  0.20790E-03 -0.28748E-02 -0.78333E-02
  0.10577E-02 -0.26431E-02 -0.78333E-02
  0.18414E-02 -0.23713E-02 -0.78333E-02
  0.24548E-02 -0.21461E-02 -0.78333E-02
  0.26024E-02 -0.15102E-02 -0.78333E-02
  0.37964E-02  0.93572E-03 -0.78333E-02
  0.39100E-02  0.00000E+00 -0.78333E-02
  0.34621E-02  0.18171E-02 -0.78333E-02
  0.29267E-02  0.25928E-02 -0.78333E-02
  0.22211E-02  0.32179E-02 -0.78333E-02
  0.13865E-02  0.36559E-02 -0.78333E-02
  0.47130E-03  0.38815E-02 -0.78333E-02
 -0.47130E-03  0.38815E-02 -0.78333E-02
 -0.13865E-02  0.36559E-02 -0.78333E-02
 -0.22211E-02  0.32179E-02 -0.78333E-02
 -0.29267E-02  0.25928E-02 -0.78333E-02
 -0.34621E-02  0.18171E-02 -0.78333E-02
 -0.37964E-02  0.93572E-03 -0.78333E-02
 -0.39100E-02 -0.47884E-18 -0.78333E-02
 -0.37964E-02 -0.93572E-03 -0.78333E-02
 -0.34621E-02 -0.18171E-02 -0.78333E-02
 -0.29267E-02 -0.25928E-02 -0.78333E-02
 -0.22211E-02 -0.32179E-02 -0.78333E-02
 -0.13865E-02 -0.36559E-02 -0.78333E-02
 -0.47130E-03 -0.38815E-02 -0.78333E-02
  0.47130E-03 -0.38815E-02 -0.78333E-02
  0.13865E-02 -0.36559E-02 -0.78333E-02
  0.22211E-02 -0.32179E-02 -0.78333E-02
  0.29267E-02 -0.25928E-02 -0.78333E-02
  0.34621E-02 -0.18171E-02 -0.78333E-02
  0.37964E-02 -0.93572E-03 -0.78333E-02
  0.10373E-02  0.67514E-03 -0.68542E-02
  0.17445E-02  0.12334E-02 -0.68542E-02
  0.23172E-02  0.59360E-03 -0.68542E-02
  0.16689E-02 -0.33474E-03 -0.68542E-02
  0.30376E-02  0.15027E-03 -0.68542E-02
  0.27805E-02 -0.67446E-03 -0.68542E-02
  0.12846E-02  0.18419E-02 -0.68542E-02
  0.65041E-03  0.14616E-02 -0.68542E-02
  0.12652E-03  0.30393E-03 -0.68542E-02
 -0.12896E-03  0.11742E-02 -0.68542E-02
  0.94367E-03  0.22753E-02 -0.68542E-02
  0.11313E-02  0.28269E-02 -0.68542E-02
  0.17475E-02  0.24244E-02 -0.68542E-02
  0.40566E-03  0.21686E-02 -0.68542E-02
  0.39772E-03  0.29356E-02 -0.68542E-02
 -0.76444E-03 -0.10039E-02 -0.68542E-02
 -0.86648E-03  0.82206E-04 -0.68542E-02
  0.45940E-03 -0.70028E-03 -0.68542E-02
 -0.18312E-02 -0.71140E-03 -0.68542E-02
 -0.18436E-02  0.83243E-04 -0.68542E-02
 -0.27237E-02 -0.77797E-03 -0.68542E-02
 -0.28017E-02  0.41806E-04 -0.68542E-02
 -0.25371E-02 -0.15193E-02 -0.68542E-02
 -0.19305E-02 -0.13226E-02 -0.68542E-02
 -0.99305E-03  0.99390E-03 -0.68542E-02
 -0.14394E-02 -0.17323E-02 -0.68542E-02
 -0.31494E-03  0.20231E-02 -0.68542E-02
 -0.11054E-02  0.18610E-02 -0.68542E-02
 -0.18843E-02  0.17175E-02 -0.68542E-02
 -0.18708E-02  0.91036E-03 -0.68542E-02
 -0.15981E-03 -0.19801E-02 -0.68542E-02
 -0.94328E-03 -0.23490E-02 -0.68542E-02
  0.78592E-03 -0.17074E-02 -0.68542E-02
  0.17209E-02 -0.14904E-02 -0.68542E-02
  0.32063E-02  0.76439E-03 -0.68542E-02
  0.28045E-02  0.12494E-02 -0.68542E-02
  0.23055E-02  0.18666E-02 -0.68542E-02
 -0.40558E-03  0.28995E-02 -0.68542E-02
 -0.12092E-02  0.27188E-02 -0.68542E-02
 -0.19446E-02  0.24633E-02 -0.68542E-02
 -0.25027E-02  0.22359E-02 -0.68542E-02
 -0.26367E-02  0.16503E-02 -0.68542E-02
 -0.27658E-02  0.87597E-03 -0.68542E-02
 -0.21129E-02 -0.21374E-02 -0.68542E-02
 -0.16089E-02 -0.26932E-02 -0.68542E-02
 -0.11943E-02 -0.31291E-02 -0.68542E-02
 -0.58781E-03 -0.30382E-02 -0.68542E-02
  0.20749E-03 -0.28748E-02 -0.68542E-02
  0.10574E-02 -0.26434E-02 -0.68542E-02
  0.18415E-02 -0.23715E-02 -0.68542E-02
  0.24549E-02 -0.21467E-02 -0.68542E-02
  0.26025E-02 -0.15101E-02 -0.68542E-02
  0.37964E-02  0.93572E-03 -0.68542E-02
  0.39100E-02  0.00000E+00 -0.68542E-02
  0.34621E-02  0.18171E-02 -0.68542E-02
  0.29267E-02  0.25928E-02 -0.68542E-02
  0.22211E-02  0.32179E-02 -0.68542E-02
  0.13865E-02  0.36559E-02 -0.68542E-02
  0.47130E-03  0.38815E-02 -0.68542E-02
 -0.47130E-03  0.38815E-02 -0.68542E-02
 -0.13865E-02  0.36559E-02 -0.68542E-02
 -0.22211E-02  0.32179E-02 -0.68542E-02
 -0.29267E-02  0.25928E-02 -0.68542E-02
 -0.34621E-02  0.18171E-02 -0.68542E-02
 -0.37964E-02  0.93572E-03 -0.68542E-02
 -0.39100E-02 -0.47884E-18 -0.68542E-02
 -0.37964E-02 -0.93572E-03 -0.68542E-02
 -0.34621E-02 -0.18171E-02 -0.68542E-02
 -0.29267E-02 -0.25928E-02 -0.68542E-02
 -0.22211E-02 -0.32179E-02 -0.68542E-02
 -0.13865E-02 -0.36559E-02 -0.68542E-02
 -0.47130E-03 -0.38815E-02 -0.68542E-02
  0.47130E-03 -0.38815E-02 -0.68542E-02
  0.13865E-02 -0.36559E-02 -0.68542E-02
  0.22211E-02 -0.32179E-02 -0.68542E-02
  0.29267E-02 -0.25928E-02 -0.68542E-02
  0.34621E-02 -0.18171E-02 -0.68542E-02
  0.37964E-02 -0.93572E-03 -0.68542E-02
  0.10372E-02  0.67570E-03 -0.58750E-02
  0.17443E-02  0.12341E-02 -0.58750E-02
  0.23171E-02  0.59412E-03 -0.58750E-02
  0.16687E-02 -0.33398E-03 -0.58750E-02
  0.30376E-02  0.15064E-03 -0.58750E-02
  0.27808E-02 -0.67396E-03 -0.58750E-02
  0.12845E-02  0.18421E-02 -0.58750E-02
  0.65016E-03  0.14626E-02 -0.58750E-02
  0.12626E-03  0.30507E-03 -0.58750E-02
 -0.12915E-03  0.11760E-02 -0.58750E-02
  0.94334E-03  0.22754E-02 -0.58750E-02
  0.11310E-02  0.28264E-02 -0.58750E-02
  0.17471E-02  0.24245E-02 -0.58750E-02
  0.40561E-03  0.21686E-02 -0.58750E-02
  0.39770E-03  0.29353E-02 -0.58750E-02
 -0.76480E-03 -0.10040E-02 -0.58750E-02
 -0.86659E-03  0.83015E-04 -0.58750E-02
  0.45895E-03 -0.69955E-03 -0.58750E-02
 -0.18315E-02 -0.71126E-03 -0.58750E-02
 -0.18435E-02  0.83367E-04 -0.58750E-02
 -0.27237E-02 -0.77780E-03 -0.58750E-02
 -0.28014E-02  0.42080E-04 -0.58750E-02
 -0.25372E-02 -0.15192E-02 -0.58750E-02
 -0.19309E-02 -0.13224E-02 -0.58750E-02
 -0.99291E-03  0.99526E-03 -0.58750E-02
 -0.14398E-02 -0.17323E-02 -0.58750E-02
 -0.31474E-03  0.20234E-02 -0.58750E-02
 -0.11051E-02  0.18609E-02 -0.58750E-02
 -0.18843E-02  0.17175E-02 -0.58750E-02
 -0.18706E-02  0.91060E-03 -0.58750E-02
 -0.16009E-03 -0.19801E-02 -0.58750E-02
 -0.94388E-03 -0.23490E-02 -0.58750E-02
  0.78526E-03 -0.17074E-02 -0.58750E-02
  0.17208E-02 -0.14906E-02 -0.58750E-02
  0.32066E-02  0.76539E-03 -0.58750E-02
  0.28045E-02  0.12498E-02 -0.58750E-02
  0.23053E-02  0.18667E-02 -0.58750E-02
 -0.40545E-03  0.28984E-02 -0.58750E-02
 -0.12092E-02  0.27184E-02 -0.58750E-02
 -0.19446E-02  0.24631E-02 -0.58750E-02
 -0.25027E-02  0.22359E-02 -0.58750E-02
 -0.26366E-02  0.16503E-02 -0.58750E-02
 -0.27655E-02  0.87623E-03 -0.58750E-02
 -0.21130E-02 -0.21374E-02 -0.58750E-02
 -0.16089E-02 -0.26932E-02 -0.58750E-02
 -0.11944E-02 -0.31291E-02 -0.58750E-02
 -0.58816E-03 -0.30382E-02 -0.58750E-02
  0.20709E-03 -0.28748E-02 -0.58750E-02
  0.10571E-02 -0.26436E-02 -0.58750E-02
  0.18415E-02 -0.23717E-02 -0.58750E-02
  0.24550E-02 -0.21472E-02 -0.58750E-02
  0.26025E-02 -0.15100E-02 -0.58750E-02
  0.37964E-02  0.93572E-03 -0.58750E-02
  0.39100E-02  0.00000E+00 -0.58750E-02
  0.34621E-02  0.18171E-02 -0.58750E-02
  0.29267E-02  0.25928E-02 -0.58750E-02
  0.22211E-02  0.32179E-02 -0.58750E-02
  0.13865E-02  0.36559E-02 -0.58750E-02
  0.47130E-03  0.38815E-02 -0.58750E-02
 -0.47130E-03  0.38815E-02 -0.58750E-02
 -0.13865E-02  0.36559E-02 -0.58750E-02
 -0.22211E-02  0.32179E-02 -0.58750E-02
 -0.29267E-02  0.25928E-02 -0.58750E-02
 -0.34621E-02  0.18171E-02 -0.58750E-02
 -0.37964E-02  0.93572E-03 -0.58750E-02
 -0.39100E-02 -0.47884E-18 -0.58750E-02
 -0.37964E-02 -0.93572E-03 -0.58750E-02
 -0.34621E-02 -0.18171E-02 -0.58750E-02
 -0.29267E-02 -0.25928E-02 -0.58750E-02
 -0.22211E-02 -0.32179E-02 -0.58750E-02
 -0.13865E-02 -0.36559E-02 -0.58750E-02
 -0.47130E-03 -0.38815E-02 -0.58750E-02
  0.47130E-03 -0.38815E-02 -0.58750E-02
  0.13865E-02 -0.36559E-02 -0.58750E-02
  0.22211E-02 -0.32179E-02 -0.58750E-02
  0.29267E-02 -0.25928E-02 -0.58750E-02
  0.34621E-02 -0.18171E-02 -0.58750E-02
  0.37964E-02 -0.93572E-03 -0.58750E-02
  0.10371E-02  0.67625E-03 -0.48958E-02
  0.17441E-02  0.12348E-02 -0.48958E-02
  0.23169E-02  0.59465E-03 -0.48958E-02
  0.16685E-02 -0.33323E-03 -0.48958E-02
  0.30376E-02  0.15100E-03 -0.48958E-02
  0.27812E-02 -0.67347E-03 -0.48958E-02
  0.12844E-02  0.18423E-02 -0.48958E-02
  0.64992E-03  0.14636E-02 -0.48958E-02
  0.12600E-03  0.30622E-03 -0.48958E-02
 -0.12933E-03  0.11777E-02 -0.48958E-02
  0.94301E-03  0.22755E-02 -0.48958E-02
  0.11306E-02  0.28260E-02 -0.48958E-02
  0.17467E-02  0.24247E-02 -0.48958E-02
  0.40556E-03  0.21687E-02 -0.48958E-02
  0.39769E-03  0.29351E-02 -0.48958E-02
 -0.76515E-03 -0.10042E-02 -0.48958E-02
 -0.86670E-03  0.83825E-04 -0.48958E-02
  0.45850E-03 -0.69882E-03 -0.48958E-02
 -0.18318E-02 -0.71112E-03 -0.48958E-02
 -0.18434E-02  0.83490E-04 -0.48958E-02
 -0.27236E-02 -0.77763E-03 -0.48958E-02
 -0.28011E-02  0.42353E-04 -0.48958E-02
 -0.25374E-02 -0.15192E-02 -0.48958E-02
 -0.19313E-02 -0.13223E-02 -0.48958E-02
 -0.99277E-03  0.99661E-03 -0.48958E-02
 -0.14401E-02 -0.17322E-02 -0.48958E-02
 -0.31454E-03  0.20237E-02 -0.48958E-02
 -0.11047E-02  0.18607E-02 -0.48958E-02
 -0.18842E-02  0.17175E-02 -0.48958E-02
 -0.18705E-02  0.91084E-03 -0.48958E-02
 -0.16036E-03 -0.19801E-02 -0.48958E-02
 -0.94448E-03 -0.23491E-02 -0.48958E-02
  0.78460E-03 -0.17074E-02 -0.48958E-02
  0.17208E-02 -0.14909E-02 -0.48958E-02
  0.32070E-02  0.76640E-03 -0.48958E-02
  0.28045E-02  0.12503E-02 -0.48958E-02
  0.23052E-02  0.18667E-02 -0.48958E-02
 -0.40531E-03  0.28974E-02 -0.48958E-02
 -0.12092E-02  0.27179E-02 -0.48958E-02
 -0.19445E-02  0.24629E-02 -0.48958E-02
 -0.25027E-02  0.22359E-02 -0.48958E-02
 -0.26366E-02  0.16503E-02 -0.48958E-02
 -0.27652E-02  0.87650E-03 -0.48958E-02
 -0.21132E-02 -0.21374E-02 -0.48958E-02
 -0.16090E-02 -0.26933E-02 -0.48958E-02
 -0.11946E-02 -0.31291E-02 -0.48958E-02
 -0.58851E-03 -0.30382E-02 -0.48958E-02
  0.20668E-03 -0.28749E-02 -0.48958E-02
  0.10567E-02 -0.26439E-02 -0.48958E-02
  0.18416E-02 -0.23719E-02 -0.48958E-02
  0.24551E-02 -0.21478E-02 -0.48958E-02
  0.26026E-02 -0.15099E-02 -0.48958E-02
  0.37964E-02  0.93572E-03 -0.48958E-02
  0.39100E-02  0.00000E+00 -0.48958E-02
  0.34621E-02  0.18171E-02 -0.48958E-02
  0.29267E-02  0.25928E-02 -0.48958E-02
  0.22211E-02  0.32179E-02 -0.48958E-02
  0.13865E-02  0.36559E-02 -0.48958E-02
  0.47130E-03  0.38815E-02 -0.48958E-02
 -0.47130E-03  0.38815E-02 -0.48958E-02
 -0.13865E-02  0.36559E-02 -0.48958E-02
 -0.22211E-02  0.32179E-02 -0.48958E-02
 -0.29267E-02  0.25928E-02 -0.48958E-02
 -0.34621E-02  0.18171E-02 -0.48958E-02
 -0.37964E-02  0.93572E-03 -0.48958E-02
 -0.39100E-02 -0.47884E-18 -0.48958E-02
 -0.37964E-02 -0.93572E-03 -0.48958E-02
 -0.34621E-02 -0.18171E-02 -0.48958E-02
 -0.29267E-02 -0.25928E-02 -0.48958E-02
 -0.22211E-02 -0.32179E-02 -0.48958E-02
 -0.13865E-02 -0.36559E-02 -0.48958E-02
 -0.47130E-03 -0.38815E-02 -0.48958E-02
  0.47130E-03 -0.38815E-02 -0.48958E-02
  0.13865E-02 -0.36559E-02 -0.48958E-02
  0.22211E-02 -0.32179E-02 -0.48958E-02
  0.29267E-02 -0.25928E-02 -0.48958E-02
  0.34621E-02 -0.18171E-02 -0.48958E-02
  0.37964E-02 -0.93572E-03 -0.48958E-02
  0.10370E-02  0.67680E-03 -0.39167E-02
  0.17439E-02  0.12354E-02 -0.39167E-02
  0.23168E-02  0.59517E-03 -0.39167E-02
  0.16683E-02 -0.33247E-03 -0.39167E-02
  0.30375E-02  0.15136E-03 -0.39167E-02
  0.27815E-02 -0.67298E-03 -0.39167E-02
  0.12843E-02  0.18425E-02 -0.39167E-02
  0.64967E-03  0.14646E-02 -0.39167E-02
  0.12573E-03  0.30737E-03 -0.39167E-02
 -0.12952E-03  0.11795E-02 -0.39167E-02
  0.94268E-03  0.22757E-02 -0.39167E-02
  0.11303E-02  0.28255E-02 -0.39167E-02
  0.17463E-02  0.24248E-02 -0.39167E-02
  0.40550E-03  0.21687E-02 -0.39167E-02
  0.39767E-03  0.29348E-02 -0.39167E-02
 -0.76551E-03 -0.10043E-02 -0.39167E-02
 -0.86680E-03  0.84634E-04 -0.39167E-02
  0.45806E-03 -0.69810E-03 -0.39167E-02
 -0.18321E-02 -0.71098E-03 -0.39167E-02
 -0.18433E-02  0.83614E-04 -0.39167E-02
 -0.27236E-02 -0.77746E-03 -0.39167E-02
 -0.28009E-02  0.42626E-04 -0.39167E-02
 -0.25375E-02 -0.15191E-02 -0.39167E-02
 -0.19317E-02 -0.13223E-02 -0.39167E-02
 -0.99262E-03  0.99797E-03 -0.39167E-02
 -0.14405E-02 -0.17322E-02 -0.39167E-02
 -0.31434E-03  0.20240E-02 -0.39167E-02
 -0.11044E-02  0.18606E-02 -0.39167E-02
 -0.18842E-02  0.17175E-02 -0.39167E-02
 -0.18704E-02  0.91108E-03 -0.39167E-02
 -0.16064E-03 -0.19802E-02 -0.39167E-02
 -0.94508E-03 -0.23491E-02 -0.39167E-02
  0.78394E-03 -0.17074E-02 -0.39167E-02
  0.17208E-02 -0.14911E-02 -0.39167E-02
  0.32073E-02  0.76740E-03 -0.39167E-02
  0.28045E-02  0.12507E-02 -0.39167E-02
  0.23051E-02  0.18668E-02 -0.39167E-02
 -0.40517E-03  0.28963E-02 -0.39167E-02
 -0.12092E-02  0.27174E-02 -0.39167E-02
 -0.19445E-02  0.24627E-02 -0.39167E-02
 -0.25026E-02  0.22358E-02 -0.39167E-02
 -0.26365E-02  0.16503E-02 -0.39167E-02
 -0.27649E-02  0.87676E-03 -0.39167E-02
 -0.21133E-02 -0.21374E-02 -0.39167E-02
 -0.16090E-02 -0.26933E-02 -0.39167E-02
 -0.11947E-02 -0.31291E-02 -0.39167E-02
 -0.58886E-03 -0.30382E-02 -0.39167E-02
  0.20627E-03 -0.28749E-02 -0.39167E-02
  0.10564E-02 -0.26442E-02 -0.39167E-02
  0.18416E-02 -0.23721E-02 -0.39167E-02
  0.24553E-02 -0.21483E-02 -0.39167E-02
  0.26027E-02 -0.15097E-02 -0.39167E-02
  0.37964E-02  0.93572E-03 -0.39167E-02
  0.39100E-02  0.00000E+00 -0.39167E-02
  0.34621E-02  0.18171E-02 -0.39167E-02
  0.29267E-02  0.25928E-02 -0.39167E-02
  0.22211E-02  0.32179E-02 -0.39167E-02
  0.13865E-02  0.36559E-02 -0.39167E-02
  0.47130E-03  0.38815E-02 -0.39167E-02
 -0.47130E-03  0.38815E-02 -0.39167E-02
 -0.13865E-02  0.36559E-02 -0.39167E-02
 -0.22211E-02  0.32179E-02 -0.39167E-02
 -0.29267E-02  0.25928E-02 -0.39167E-02
 -0.34621E-02  0.18171E-02 -0.39167E-02
 -0.37964E-02  0.93572E-03 -0.39167E-02
 -0.39100E-02 -0.47884E-18 -0.39167E-02
 -0.37964E-02 -0.93572E-03 -0.39167E-02
 -0.34621E-02 -0.18171E-02 -0.39167E-02
 -0.29267E-02 -0.25928E-02 -0.39167E-02
 -0.22211E-02 -0.32179E-02 -0.39167E-02
 -0.13865E-02 -0.36559E-02 -0.39167E-02
 -0.47130E-03 -0.38815E-02 -0.39167E-02
  0.47130E-03 -0.38815E-02 -0.39167E-02
  0.13865E-02 -0.36559E-02 -0.39167E-02
  0.22211E-02 -0.32179E-02 -0.39167E-02
  0.29267E-02 -0.25928E-02 -0.39167E-02
  0.34621E-02 -0.18171E-02 -0.39167E-02
  0.37964E-02 -0.93572E-03 -0.39167E-02
  0.10368E-02  0.67736E-03 -0.29375E-02
  0.17438E-02  0.12361E-02 -0.29375E-02
  0.23167E-02  0.59570E-03 -0.29375E-02
  0.16681E-02 -0.33172E-03 -0.29375E-02
  0.30375E-02  0.15173E-03 -0.29375E-02
  0.27819E-02 -0.67248E-03 -0.29375E-02
  0.12842E-02  0.18427E-02 -0.29375E-02
  0.64943E-03  0.14656E-02 -0.29375E-02
  0.12547E-03  0.30852E-03 -0.29375E-02
 -0.12970E-03  0.11812E-02 -0.29375E-02
  0.94235E-03  0.22758E-02 -0.29375E-02
  0.11300E-02  0.28251E-02 -0.29375E-02
  0.17459E-02  0.24249E-02 -0.29375E-02
  0.40545E-03  0.21688E-02 -0.29375E-02
  0.39766E-03  0.29345E-02 -0.29375E-02
 -0.76586E-03 -0.10044E-02 -0.29375E-02
 -0.86691E-03  0.85443E-04 -0.29375E-02
  0.45761E-03 -0.69737E-03 -0.29375E-02
 -0.18324E-02 -0.71084E-03 -0.29375E-02
 -0.18432E-02  0.83737E-04 -0.29375E-02
 -0.27236E-02 -0.77729E-03 -0.29375E-02
 -0.28006E-02  0.42899E-04 -0.29375E-02
 -0.25377E-02 -0.15191E-02 -0.29375E-02
 -0.19322E-02 -0.13222E-02 -0.29375E-02
 -0.99248E-03  0.99932E-03 -0.29375E-02
 -0.14408E-02 -0.17322E-02 -0.29375E-02
 -0.31414E-03  0.20243E-02 -0.29375E-02
 -0.11040E-02  0.18605E-02 -0.29375E-02
 -0.18841E-02  0.17175E-02 -0.29375E-02
 -0.18703E-02  0.91132E-03 -0.29375E-02
 -0.16091E-03 -0.19802E-02 -0.29375E-02
 -0.94568E-03 -0.23491E-02 -0.29375E-02
  0.78328E-03 -0.17074E-02 -0.29375E-02
  0.17207E-02 -0.14914E-02 -0.29375E-02
  0.32076E-02  0.76841E-03 -0.29375E-02
  0.28044E-02  0.12511E-02 -0.29375E-02
  0.23050E-02  0.18668E-02 -0.29375E-02
 -0.40503E-03  0.28952E-02 -0.29375E-02
 -0.12092E-02  0.27170E-02 -0.29375E-02
 -0.19445E-02  0.24624E-02 -0.29375E-02
 -0.25026E-02  0.22358E-02 -0.29375E-02
 -0.26364E-02  0.16503E-02 -0.29375E-02
 -0.27646E-02  0.87702E-03 -0.29375E-02
 -0.21134E-02 -0.21374E-02 -0.29375E-02
 -0.16091E-02 -0.26933E-02 -0.29375E-02
 -0.11948E-02 -0.31291E-02 -0.29375E-02
 -0.58921E-03 -0.30382E-02 -0.29375E-02
  0.20587E-03 -0.28749E-02 -0.29375E-02
  0.10561E-02 -0.26444E-02 -0.29375E-02
  0.18416E-02 -0.23723E-02 -0.29375E-02
  0.24554E-02 -0.21489E-02 -0.29375E-02
  0.26027E-02 -0.15096E-02 -0.29375E-02
  0.37964E-02  0.93572E-03 -0.29375E-02
  0.39100E-02  0.00000E+00 -0.29375E-02
  0.34621E-02  0.18171E-02 -0.29375E-02
  0.29267E-02  0.25928E-02 -0.29375E-02
  0.22211E-02  0.32179E-02 -0.29375E-02
  0.13865E-02  0.36559E-02 -0.29375E-02
  0.47130E-03  0.38815E-02 -0.29375E-02
 -0.47130E-03  0.38815E-02 -0.29375E-02
 -0.13865E-02  0.36559E-02 -0.29375E-02
 -0.22211E-02  0.32179E-02 -0.29375E-02
 -0.29267E-02  0.25928E-02 -0.29375E-02
 -0.34621E-02  0.18171E-02 -0.29375E-02
 -0.37964E-02  0.93572E-03 -0.29375E-02
 -0.39100E-02 -0.47884E-18 -0.29375E-02
 -0.37964E-02 -0.93572E-03 -0.29375E-02
 -0.34621E-02 -0.18171E-02 -0.29375E-02
 -0.29267E-02 -0.25928E-02 -0.29375E-02
 -0.22211E-02 -0.32179E-02 -0.29375E-02
 -0.13865E-02 -0.36559E-02 -0.29375E-02
 -0.47130E-03 -0.38815E-02 -0.29375E-02
  0.47130E-03 -0.38815E-02 -0.29375E-02
  0.13865E-02 -0.36559E-02 -0.29375E-02
  0.22211E-02 -0.32179E-02 -0.29375E-02
  0.29267E-02 -0.25928E-02 -0.29375E-02
  0.34621E-02 -0.18171E-02 -0.29375E-02
  0.37964E-02 -0.93572E-03 -0.29375E-02
  0.10367E-02  0.67791E-03 -0.19583E-02
  0.17436E-02  0.12368E-02 -0.19583E-02
  0.23166E-02  0.59622E-03 -0.19583E-02
  0.16679E-02 -0.33096E-03 -0.19583E-02
  0.30375E-02  0.15209E-03 -0.19583E-02
  0.27822E-02 -0.67199E-03 -0.19583E-02
  0.12841E-02  0.18429E-02 -0.19583E-02
  0.64918E-03  0.14666E-02 -0.19583E-02
  0.12521E-03  0.30967E-03 -0.19583E-02
 -0.12989E-03  0.11830E-02 -0.19583E-02
  0.94202E-03  0.22759E-02 -0.19583E-02
  0.11296E-02  0.28247E-02 -0.19583E-02
  0.17455E-02  0.24251E-02 -0.19583E-02
  0.40539E-03  0.21688E-02 -0.19583E-02
  0.39764E-03  0.29343E-02 -0.19583E-02
 -0.76621E-03 -0.10046E-02 -0.19583E-02
 -0.86702E-03  0.86253E-04 -0.19583E-02
  0.45716E-03 -0.69665E-03 -0.19583E-02
 -0.18326E-02 -0.71070E-03 -0.19583E-02
 -0.18431E-02  0.83861E-04 -0.19583E-02
 -0.27235E-02 -0.77712E-03 -0.19583E-02
 -0.28003E-02  0.43173E-04 -0.19583E-02
 -0.25379E-02 -0.15190E-02 -0.19583E-02
 -0.19326E-02 -0.13220E-02 -0.19583E-02
 -0.99233E-03  0.10007E-02 -0.19583E-02
 -0.14412E-02 -0.17321E-02 -0.19583E-02
 -0.31394E-03  0.20245E-02 -0.19583E-02
 -0.11037E-02  0.18603E-02 -0.19583E-02
 -0.18841E-02  0.17175E-02 -0.19583E-02
 -0.18701E-02  0.91156E-03 -0.19583E-02
 -0.16119E-03 -0.19802E-02 -0.19583E-02
 -0.94628E-03 -0.23491E-02 -0.19583E-02
  0.78262E-03 -0.17074E-02 -0.19583E-02
  0.17207E-02 -0.14916E-02 -0.19583E-02
  0.32079E-02  0.76941E-03 -0.19583E-02
  0.28044E-02  0.12515E-02 -0.19583E-02
  0.23049E-02  0.18668E-02 -0.19583E-02
 -0.40490E-03  0.28942E-02 -0.19583E-02
 -0.12093E-02  0.27165E-02 -0.19583E-02
 -0.19444E-02  0.24622E-02 -0.19583E-02
 -0.25026E-02  0.22358E-02 -0.19583E-02
 -0.26363E-02  0.16503E-02 -0.19583E-02
 -0.27643E-02  0.87728E-03 -0.19583E-02
 -0.21136E-02 -0.21374E-02 -0.19583E-02
 -0.16091E-02 -0.26933E-02 -0.19583E-02
 -0.11949E-02 -0.31291E-02 -0.19583E-02
 -0.58956E-03 -0.30382E-02 -0.19583E-02
  0.20546E-03 -0.28749E-02 -0.19583E-02
  0.10558E-02 -0.26447E-02 -0.19583E-02
  0.18417E-02 -0.23725E-02 -0.19583E-02
  0.24555E-02 -0.21494E-02 -0.19583E-02
  0.26028E-02 -0.15095E-02 -0.19583E-02
  0.37964E-02  0.93572E-03 -0.19583E-02
  0.39100E-02  0.00000E+00 -0.19583E-02
  0.34621E-02  0.18171E-02 -0.19583E-02
  0.29267E-02  0.25928E-02 -0.19583E-02
  0.22211E-02  0.32179E-02 -0.19583E-02
  0.13865E-02  0.36559E-02 -0.19583E-02
  0.47130E-03  0.38815E-02 -0.19583E-02
 -0.47130E-03  0.38815E-02 -0.19583E-02
 -0.13865E-02  0.36559E-02 -0.19583E-02
 -0.22211E-02  0.32179E-02 -0.19583E-02
 -0.29267E-02  0.25928E-02 -0.19583E-02
 -0.34621E-02  0.18171E-02 -0.19583E-02
 -0.37964E-02  0.93572E-03 -0.19583E-02
 -0.39100E-02 -0.47884E-18 -0.19583E-02
 -0.37964E-02 -0.93572E-03 -0.19583E-02
 -0.34621E-02 -0.18171E-02 -0.19583E-02
 -0.29267E-02 -0.25928E-02 -0.19583E-02
 -0.22211E-02 -0.32179E-02 -0.19583E-02
 -0.13865E-02 -0.36559E-02 -0.19583E-02
 -0.47130E-03 -0.38815E-02 -0.19583E-02
  0.47130E-03 -0.38815E-02 -0.19583E-02
  0.13865E-02 -0.36559E-02 -0.19583E-02
  0.22211E-02 -0.32179E-02 -0.19583E-02
  0.29267E-02 -0.25928E-02 -0.19583E-02
  0.34621E-02 -0.18171E-02 -0.19583E-02
  0.37964E-02 -0.93572E-03 -0.19583E-02
  0.10366E-02  0.67847E-03 -0.97917E-03
  0.17434E-02  0.12374E-02 -0.97917E-03
  0.23164E-02  0.59674E-03 -0.97917E-03
  0.16677E-02 -0.33021E-03 -0.97917E-03
  0.30375E-02  0.15245E-03 -0.97917E-03
  0.27825E-02 -0.67150E-03 -0.97917E-03
  0.12840E-02  0.18430E-02 -0.97917E-03
  0.64894E-03  0.14676E-02 -0.97917E-03
  0.12495E-03  0.31081E-03 -0.97917E-03
 -0.13007E-03  0.11847E-02 -0.97917E-03
  0.94169E-03  0.22761E-02 -0.97917E-03
  0.11293E-02  0.28242E-02 -0.97917E-03
  0.17451E-02  0.24252E-02 -0.97917E-03
  0.40534E-03  0.21688E-02 -0.97917E-03
  0.39762E-03  0.29340E-02 -0.97917E-03
 -0.76657E-03 -0.10047E-02 -0.97917E-03
 -0.86713E-03  0.87062E-04 -0.97917E-03
  0.45671E-03 -0.69592E-03 -0.97917E-03
 -0.18329E-02 -0.71056E-03 -0.97917E-03
 -0.18430E-02  0.83985E-04 -0.97917E-03
 -0.27235E-02 -0.77695E-03 -0.97917E-03
 -0.28001E-02  0.43446E-04 -0.97917E-03
 -0.25380E-02 -0.15190E-02 -0.97917E-03
 -0.19330E-02 -0.13219E-02 -0.97917E-03
 -0.99219E-03  0.10020E-02 -0.97917E-03
 -0.14415E-02 -0.17321E-02 -0.97917E-03
 -0.31374E-03  0.20248E-02 -0.97917E-03
 -0.11033E-02  0.18602E-02 -0.97917E-03
 -0.18840E-02  0.17175E-02 -0.97917E-03
 -0.18700E-02  0.91180E-03 -0.97917E-03
 -0.16146E-03 -0.19803E-02 -0.97917E-03
 -0.94687E-03 -0.23491E-02 -0.97917E-03
  0.78195E-03 -0.17073E-02 -0.97917E-03
  0.17207E-02 -0.14919E-02 -0.97917E-03
  0.32083E-02  0.77042E-03 -0.97917E-03
  0.28044E-02  0.12520E-02 -0.97917E-03
  0.23048E-02  0.18669E-02 -0.97917E-03
 -0.40476E-03  0.28931E-02 -0.97917E-03
 -0.12093E-02  0.27160E-02 -0.97917E-03
 -0.19444E-02  0.24620E-02 -0.97917E-03
 -0.25026E-02  0.22358E-02 -0.97917E-03
 -0.26362E-02  0.16503E-02 -0.97917E-03
 -0.27640E-02  0.87754E-03 -0.97917E-03
 -0.21137E-02 -0.21374E-02 -0.97917E-03
 -0.16091E-02 -0.26933E-02 -0.97917E-03
 -0.11950E-02 -0.31291E-02 -0.97917E-03
 -0.58991E-03 -0.30382E-02 -0.97917E-03
  0.20505E-03 -0.28749E-02 -0.97917E-03
  0.10555E-02 -0.26450E-02 -0.97917E-03
  0.18417E-02 -0.23727E-02 -0.97917E-03
  0.24556E-02 -0.21500E-02 -0.97917E-03
  0.26029E-02 -0.15094E-02 -0.97917E-03
  0.37964E-02  0.93572E-03 -0.97917E-03
  0.39100E-02  0.00000E+00 -0.97917E-03
  0.34621E-02  0.18171E-02 -0.97917E-03
  0.29267E-02  0.25928E-02 -0.97917E-03
  0.22211E-02  0.32179E-02 -0.97917E-03
  0.13865E-02  0.36559E-02 -0.97917E-03
  0.47130E-03  0.38815E-02 -0.97917E-03
 -0.47130E-03  0.38815E-02 -0.97917E-03
 -0.13865E-02  0.36559E-02 -0.97917E-03
 -0.22211E-02  0.32179E-02 -0.97917E-03
 -0.29267E-02  0.25928E-02 -0.97917E-03
 -0.34621E-02  0.18171E-02 -0.97917E-03
 -0.37964E-02  0.93572E-03 -0.97917E-03
 -0.39100E-02  0.39516E-17 -0.97917E-03
 -0.37964E-02 -0.93572E-03 -0.97917E-03
 -0.34621E-02 -0.18171E-02 -0.97917E-03
 -0.29267E-02 -0.25928E-02 -0.97917E-03
 -0.22211E-02 -0.32179E-02 -0.97917E-03
 -0.13865E-02 -0.36559E-02 -0.97917E-03
 -0.47130E-03 -0.38815E-02 -0.97917E-03
  0.47130E-03 -0.38815E-02 -0.97917E-03
  0.13865E-02 -0.36559E-02 -0.97917E-03
  0.22211E-02 -0.32179E-02 -0.97917E-03
  0.29267E-02 -0.25928E-02 -0.97917E-03
  0.34621E-02 -0.18171E-02 -0.97917E-03
  0.37964E-02 -0.93572E-03 -0.97917E-03
  0.10365E-02  0.67902E-03  0.38917E-18
  0.17432E-02  0.12381E-02  0.44621E-18
  0.23163E-02  0.59727E-03  0.34485E-18
  0.16675E-02 -0.32945E-03  0.23671E-18
  0.30374E-02  0.15282E-03  0.26613E-18
  0.27829E-02 -0.67100E-03  0.16162E-18
  0.12839E-02  0.18432E-02  0.53980E-18
  0.64869E-03  0.14686E-02  0.50579E-18
  0.12468E-03  0.31196E-03  0.36337E-18
 -0.13026E-03  0.11865E-02  0.48798E-18
  0.94135E-03  0.22762E-02  0.60712E-18
  0.11289E-02  0.28238E-02  0.67611E-18
  0.17447E-02  0.24254E-02  0.60634E-18
  0.40528E-03  0.21688E-02  0.60658E-18
  0.39760E-03  0.29337E-02  0.70997E-18
 -0.76692E-03 -0.10049E-02  0.20892E-18
 -0.86724E-03  0.87871E-04  0.35894E-18
  0.45626E-03 -0.69519E-03  0.21887E-18
 -0.18332E-02 -0.71042E-03  0.27638E-18
 -0.18430E-02  0.84108E-04  0.38382E-18
 -0.27235E-02 -0.77678E-03  0.29058E-18
 -0.27998E-02  0.43720E-04  0.40326E-18
 -0.25382E-02 -0.15189E-02  0.18564E-18
 -0.19334E-02 -0.13219E-02  0.19650E-18
 -0.99205E-03  0.10034E-02  0.48570E-18
 -0.14419E-02 -0.17320E-02  0.12837E-18
 -0.31354E-03  0.20251E-02  0.60589E-18
 -0.11030E-02  0.18601E-02  0.60416E-18
 -0.18840E-02  0.17175E-02  0.60524E-18
 -0.18699E-02  0.91204E-03  0.49621E-18
 -0.16174E-03 -0.19803E-02  0.61582E-19
 -0.94747E-03 -0.23492E-02  0.32255E-19
  0.78129E-03 -0.17073E-02  0.73874E-19
  0.17206E-02 -0.14921E-02  0.78478E-19
  0.32086E-02  0.77142E-03  0.34514E-18
  0.28044E-02  0.12524E-02  0.42054E-18
  0.23047E-02  0.18669E-02  0.51644E-18
 -0.40462E-03  0.28920E-02  0.72521E-18
 -0.12093E-02  0.27155E-02  0.72233E-18
 -0.19444E-02  0.24618E-02  0.70722E-18
 -0.25025E-02  0.22358E-02  0.69126E-18
 -0.26361E-02  0.16503E-02  0.61573E-18
 -0.27637E-02  0.87781E-03  0.51484E-18
 -0.21139E-02 -0.21374E-02  0.91170E-19
 -0.16092E-02 -0.26934E-02  0.30347E-20
 -0.11951E-02 -0.31291E-02 -0.66516E-19
 -0.59025E-03 -0.30382E-02 -0.69988E-19
  0.20465E-03 -0.28749E-02 -0.68643E-19
  0.10552E-02 -0.26452E-02 -0.59779E-19
  0.18418E-02 -0.23729E-02 -0.43507E-19
  0.24558E-02 -0.21505E-02 -0.29471E-19
  0.26030E-02 -0.15093E-02  0.53205E-19
  0.37964E-02  0.93572E-03  0.86819E-18
  0.39100E-02  0.00000E+00  0.00000E+00
  0.34621E-02  0.18171E-02  0.86819E-18
  0.29267E-02  0.25928E-02  0.86819E-18
  0.22211E-02  0.32179E-02  0.00000E+00
  0.13865E-02  0.36559E-02  0.00000E+00
  0.47130E-03  0.38815E-02  0.00000E+00
 -0.47130E-03  0.38815E-02  0.17364E-17
 -0.13865E-02  0.36559E-02  0.17364E-17
 -0.22211E-02  0.32179E-02  0.17364E-17
 -0.29267E-02  0.25928E-02  0.43410E-18
 -0.34621E-02  0.18171E-02  0.43410E-18
 -0.37964E-02  0.93572E-03  0.43410E-18
 -0.39100E-02 -0.47884E-18  0.00000E+00
 -0.37964E-02 -0.93572E-03  0.00000E+00
 -0.34621E-02 -0.18171E-02  0.00000E+00
 -0.29267E-02 -0.25928E-02  0.00000E+00
 -0.22211E-02 -0.32179E-02  0.00000E+00
 -0.13865E-02 -0.36559E-02  0.21705E-18
 -0.47130E-03 -0.38815E-02 -0.21705E-18
  0.47130E-03 -0.38815E-02  0.00000E+00
  0.13865E-02 -0.36559E-02  0.00000E+00
  0.22211E-02 -0.32179E-02  0.00000E+00
  0.29267E-02 -0.25928E-02 -0.32557E-18
  0.34621E-02 -0.18171E-02  0.54262E-19
  0.37964E-02 -0.93572E-03 -0.40697E-18
  0.10364E-02  0.67958E-03  0.97917E-03
  0.17430E-02  0.12387E-02  0.97917E-03
  0.23162E-02  0.59779E-03  0.97917E-03
  0.16672E-02 -0.32870E-03  0.97917E-03
  0.30374E-02  0.15318E-03  0.97917E-03
  0.27832E-02 -0.67051E-03  0.97917E-03
  0.12838E-02  0.18434E-02  0.97917E-03
  0.64845E-03  0.14696E-02  0.97917E-03
  0.12442E-03  0.31311E-03  0.97917E-03
 -0.13044E-03  0.11882E-02  0.97917E-03
  0.94102E-03  0.22763E-02  0.97917E-03
  0.11286E-02  0.28233E-02  0.97917E-03
  0.17443E-02  0.24255E-02  0.97917E-03
  0.40523E-03  0.21689E-02  0.97917E-03
  0.39759E-03  0.29335E-02  0.97917E-03
 -0.76727E-03 -0.10050E-02  0.97917E-03
 -0.86735E-03  0.88681E-04  0.97917E-03
  0.45582E-03 -0.69447E-03  0.97917E-03
 -0.18335E-02 -0.71028E-03  0.97917E-03
 -0.18429E-02  0.84232E-04  0.97917E-03
 -0.27235E-02 -0.77661E-03  0.97917E-03
 -0.27995E-02  0.43993E-04  0.97917E-03
 -0.25383E-02 -0.15189E-02  0.97917E-03
 -0.19339E-02 -0.13218E-02  0.97917E-03
 -0.99190E-03  0.10048E-02  0.97917E-03
 -0.14422E-02 -0.17320E-02  0.97917E-03
 -0.31334E-03  0.20254E-02  0.97917E-03
 -0.11026E-02  0.18599E-02  0.97917E-03
 -0.18839E-02  0.17175E-02  0.97917E-03
 -0.18697E-02  0.91228E-03  0.97917E-03
 -0.16201E-03 -0.19803E-02  0.97917E-03
 -0.94807E-03 -0.23492E-02  0.97917E-03
  0.78063E-03 -0.17073E-02  0.97917E-03
  0.17206E-02 -0.14923E-02  0.97917E-03
  0.32089E-02  0.77243E-03  0.97917E-03
  0.28043E-02  0.12528E-02  0.97917E-03
  0.23046E-02  0.18670E-02  0.97917E-03
 -0.40448E-03  0.28910E-02  0.97917E-03
 -0.12093E-02  0.27151E-02  0.97917E-03
 -0.19443E-02  0.24615E-02  0.97917E-03
 -0.25025E-02  0.22358E-02  0.97917E-03
 -0.26360E-02  0.16503E-02  0.97917E-03
 -0.27633E-02  0.87807E-03  0.97917E-03
 -0.21140E-02 -0.21374E-02  0.97917E-03
 -0.16092E-02 -0.26934E-02  0.97917E-03
 -0.11953E-02 -0.31291E-02  0.97917E-03
 -0.59060E-03 -0.30382E-02  0.97917E-03
  0.20424E-03 -0.28749E-02  0.97917E-03
  0.10549E-02 -0.26455E-02  0.97917E-03
  0.18418E-02 -0.23732E-02  0.97917E-03
  0.24559E-02 -0.21511E-02  0.97917E-03
  0.26030E-02 -0.15092E-02  0.97917E-03
  0.37964E-02  0.93572E-03  0.97917E-03
  0.39100E-02  0.00000E+00  0.97917E-03
  0.34621E-02  0.18171E-02  0.97917E-03
  0.29267E-02  0.25928E-02  0.97917E-03
  0.22211E-02  0.32179E-02  0.97917E-03
  0.13865E-02  0.36559E-02  0.97917E-03
  0.47130E-03  0.38815E-02  0.97917E-03
 -0.47130E-03  0.38815E-02  0.97917E-03
 -0.13865E-02  0.36559E-02  0.97917E-03
 -0.22211E-02  0.32179E-02  0.97917E-03
 -0.29267E-02  0.25928E-02  0.97917E-03
 -0.34621E-02  0.18171E-02  0.97917E-03
 -0.37964E-02  0.93572E-03  0.97917E-03
 -0.39100E-02  0.22152E-17  0.97917E-03
 -0.37964E-02 -0.93572E-03  0.97917E-03
 -0.34621E-02 -0.18171E-02  0.97917E-03
 -0.29267E-02 -0.25928E-02  0.97917E-03
 -0.22211E-02 -0.32179E-02  0.97917E-03
 -0.13865E-02 -0.36559E-02  0.97917E-03
 -0.47130E-03 -0.38815E-02  0.97917E-03
  0.47130E-03 -0.38815E-02  0.97917E-03
  0.13865E-02 -0.36559E-02  0.97917E-03
  0.22211E-02 -0.32179E-02  0.97917E-03
  0.29267E-02 -0.25928E-02  0.97917E-03
  0.34621E-02 -0.18171E-02  0.97917E-03
  0.37964E-02 -0.93572E-03  0.97917E-03
  0.10363E-02  0.68013E-03  0.19583E-02
  0.17429E-02  0.12394E-02  0.19583E-02
  0.23161E-02  0.59831E-03  0.19583E-02
  0.16670E-02 -0.32794E-03  0.19583E-02
  0.30374E-02  0.15354E-03  0.19583E-02
  0.27836E-02 -0.67002E-03  0.19583E-02
  0.12837E-02  0.18436E-02  0.19583E-02
  0.64820E-03  0.14706E-02  0.19583E-02
  0.12416E-03  0.31426E-03  0.19583E-02
 -0.13063E-03  0.11900E-02  0.19583E-02
  0.94069E-03  0.22765E-02  0.19583E-02
  0.11282E-02  0.28229E-02  0.19583E-02
  0.17439E-02  0.24257E-02  0.19583E-02
  0.40518E-03  0.21689E-02  0.19583E-02
  0.39757E-03  0.29332E-02  0.19583E-02
 -0.76763E-03 -0.10051E-02  0.19583E-02
 -0.86746E-03  0.89490E-04  0.19583E-02
  0.45537E-03 -0.69374E-03  0.19583E-02
 -0.18338E-02 -0.71013E-03  0.19583E-02
 -0.18428E-02  0.84355E-04  0.19583E-02
 -0.27234E-02 -0.77644E-03  0.19583E-02
 -0.27992E-02  0.44266E-04  0.19583E-02
 -0.25385E-02 -0.15188E-02  0.19583E-02
 -0.19343E-02 -0.13216E-02  0.19583E-02
 -0.99176E-03  0.10061E-02  0.19583E-02
 -0.14425E-02 -0.17320E-02  0.19583E-02
 -0.31314E-03  0.20257E-02  0.19583E-02
 -0.11023E-02  0.18598E-02  0.19583E-02
 -0.18839E-02  0.17175E-02  0.19583E-02
 -0.18696E-02  0.91252E-03  0.19583E-02
 -0.16229E-03 -0.19803E-02  0.19583E-02
 -0.94867E-03 -0.23492E-02  0.19583E-02
  0.77997E-03 -0.17073E-02  0.19583E-02
  0.17205E-02 -0.14926E-02  0.19583E-02
  0.32092E-02  0.77343E-03  0.19583E-02
  0.28043E-02  0.12533E-02  0.19583E-02
  0.23044E-02  0.18670E-02  0.19583E-02
 -0.40434E-03  0.28899E-02  0.19583E-02
 -0.12093E-02  0.27146E-02  0.19583E-02
 -0.19443E-02  0.24613E-02  0.19583E-02
 -0.25025E-02  0.22358E-02  0.19583E-02
 -0.26359E-02  0.16503E-02  0.19583E-02
 -0.27630E-02  0.87833E-03  0.19583E-02
 -0.21141E-02 -0.21374E-02  0.19583E-02
 -0.16093E-02 -0.26934E-02  0.19583E-02
 -0.11954E-02 -0.31291E-02  0.19583E-02
 -0.59095E-03 -0.30382E-02  0.19583E-02
  0.20384E-03 -0.28750E-02  0.19583E-02
  0.10546E-02 -0.26458E-02  0.19583E-02
  0.18419E-02 -0.23734E-02  0.19583E-02
  0.24560E-02 -0.21516E-02  0.19583E-02
  0.26031E-02 -0.15091E-02  0.19583E-02
  0.37964E-02  0.93572E-03  0.19583E-02
  0.39100E-02  0.00000E+00  0.19583E-02
  0.34621E-02  0.18171E-02  0.19583E-02
  0.29267E-02  0.25928E-02  0.19583E-02
  0.22211E-02  0.32179E-02  0.19583E-02
  0.13865E-02  0.36559E-02  0.19583E-02
  0.47130E-03  0.38815E-02  0.19583E-02
 -0.47130E-03  0.38815E-02  0.19583E-02
 -0.13865E-02  0.36559E-02  0.19583E-02
 -0.22211E-02  0.32179E-02  0.19583E-02
 -0.29267E-02  0.25928E-02  0.19583E-02
 -0.34621E-02  0.18171E-02  0.19583E-02
 -0.37964E-02  0.93572E-03  0.19583E-02
 -0.39100E-02 -0.47884E-18  0.19583E-02
 -0.37964E-02 -0.93572E-03  0.19583E-02
 -0.34621E-02 -0.18171E-02  0.19583E-02
 -0.29267E-02 -0.25928E-02  0.19583E-02
 -0.22211E-02 -0.32179E-02  0.19583E-02
 -0.13865E-02 -0.36559E-02  0.19583E-02
 -0.47130E-03 -0.38815E-02  0.19583E-02
  0.47130E-03 -0.38815E-02  0.19583E-02
  0.13865E-02 -0.36559E-02  0.19583E-02
  0.22211E-02 -0.32179E-02  0.19583E-02
  0.29267E-02 -0.25928E-02  0.19583E-02
  0.34621E-02 -0.18171E-02  0.19583E-02
  0.37964E-02 -0.93572E-03  0.19583E-02
  0.10362E-02  0.68068E-03  0.29375E-02
  0.17427E-02  0.12401E-02  0.29375E-02
  0.23160E-02  0.59884E-03  0.29375E-02
  0.16668E-02 -0.32719E-03  0.29375E-02
  0.30373E-02  0.15391E-03  0.29375E-02
  0.27839E-02 -0.66953E-03  0.29375E-02
  0.12836E-02  0.18438E-02  0.29375E-02
  0.64796E-03  0.14716E-02  0.29375E-02
  0.12390E-03  0.31541E-03  0.29375E-02
 -0.13082E-03  0.11917E-02  0.29375E-02
  0.94036E-03  0.22766E-02  0.29375E-02
  0.11279E-02  0.28225E-02  0.29375E-02
  0.17435E-02  0.24258E-02  0.29375E-02
  0.40512E-03  0.21690E-02  0.29375E-02
  0.39755E-03  0.29330E-02  0.29375E-02
 -0.76798E-03 -0.10053E-02  0.29375E-02
 -0.86756E-03  0.90299E-04  0.29375E-02
  0.45492E-03 -0.69302E-03  0.29375E-02
 -0.18341E-02 -0.70999E-03  0.29375E-02
 -0.18427E-02  0.84479E-04  0.29375E-02
 -0.27234E-02 -0.77627E-03  0.29375E-02
 -0.27990E-02  0.44540E-04  0.29375E-02
 -0.25386E-02 -0.15188E-02  0.29375E-02
 -0.19347E-02 -0.13215E-02  0.29375E-02
 -0.99161E-03  0.10075E-02  0.29375E-02
 -0.14429E-02 -0.17319E-02  0.29375E-02
 -0.31294E-03  0.20260E-02  0.29375E-02
 -0.11019E-02  0.18597E-02  0.29375E-02
 -0.18838E-02  0.17175E-02  0.29375E-02
 -0.18695E-02  0.91276E-03  0.29375E-02
 -0.16256E-03 -0.19804E-02  0.29375E-02
 -0.94927E-03 -0.23493E-02  0.29375E-02
  0.77931E-03 -0.17073E-02  0.29375E-02
  0.17205E-02 -0.14928E-02  0.29375E-02
  0.32096E-02  0.77444E-03  0.29375E-02
  0.28043E-02  0.12537E-02  0.29375E-02
  0.23043E-02  0.18670E-02  0.29375E-02
 -0.40420E-03  0.28888E-02  0.29375E-02
 -0.12093E-02  0.27141E-02  0.29375E-02
 -0.19443E-02  0.24611E-02  0.29375E-02
 -0.25024E-02  0.22358E-02  0.29375E-02
 -0.26358E-02  0.16503E-02  0.29375E-02
 -0.27627E-02  0.87859E-03  0.29375E-02
 -0.21143E-02 -0.21374E-02  0.29375E-02
 -0.16093E-02 -0.26934E-02  0.29375E-02
 -0.11955E-02 -0.31291E-02  0.29375E-02
 -0.59130E-03 -0.30382E-02  0.29375E-02
  0.20343E-03 -0.28750E-02  0.29375E-02
  0.10543E-02 -0.26460E-02  0.29375E-02
  0.18419E-02 -0.23736E-02  0.29375E-02
  0.24561E-02 -0.21521E-02  0.29375E-02
  0.26032E-02 -0.15090E-02  0.29375E-02
  0.37964E-02  0.93572E-03  0.29375E-02
  0.39100E-02  0.00000E+00  0.29375E-02
  0.34621E-02  0.18171E-02  0.29375E-02
  0.29267E-02  0.25928E-02  0.29375E-02
  0.22211E-02  0.32179E-02  0.29375E-02
  0.13865E-02  0.36559E-02  0.29375E-02
  0.47130E-03  0.38815E-02  0.29375E-02
 -0.47130E-03  0.38815E-02  0.29375E-02
 -0.13865E-02  0.36559E-02  0.29375E-02
 -0.22211E-02  0.32179E-02  0.29375E-02
 -0.29267E-02  0.25928E-02  0.29375E-02
 -0.34621E-02  0.18171E-02  0.29375E-02
 -0.37964E-02  0.93572E-03  0.29375E-02
 -0.39100E-02  0.22152E-17  0.29375E-02
 -0.37964E-02 -0.93572E-03  0.29375E-02
 -0.34621E-02 -0.18171E-02  0.29375E-02
 -0.29267E-02 -0.25928E-02  0.29375E-02
 -0.22211E-02 -0.32179E-02  0.29375E-02
 -0.13865E-02 -0.36559E-02  0.29375E-02
 -0.47130E-03 -0.38815E-02  0.29375E-02
  0.47130E-03 -0.38815E-02  0.29375E-02
  0.13865E-02 -0.36559E-02  0.29375E-02
  0.22211E-02 -0.32179E-02  0.29375E-02
  0.29267E-02 -0.25928E-02  0.29375E-02
  0.34621E-02 -0.18171E-02  0.29375E-02
  0.37964E-02 -0.93572E-03  0.29375E-02
  0.10360E-02  0.68124E-03  0.39167E-02
  0.17425E-02  0.12407E-02  0.39167E-02
  0.23158E-02  0.59936E-03  0.39167E-02
  0.16666E-02 -0.32643E-03  0.39167E-02
  0.30373E-02  0.15427E-03  0.39167E-02
  0.27842E-02 -0.66903E-03  0.39167E-02
  0.12835E-02  0.18440E-02  0.39167E-02
  0.64771E-03  0.14727E-02  0.39167E-02
  0.12363E-03  0.31656E-03  0.39167E-02
 -0.13100E-03  0.11935E-02  0.39167E-02
  0.94003E-03  0.22767E-02  0.39167E-02
  0.11276E-02  0.28220E-02  0.39167E-02
  0.17432E-02  0.24260E-02  0.39167E-02
  0.40507E-03  0.21690E-02  0.39167E-02
  0.39754E-03  0.29327E-02  0.39167E-02
 -0.76834E-03 -0.10054E-02  0.39167E-02
 -0.86767E-03  0.91108E-04  0.39167E-02
  0.45447E-03 -0.69229E-03  0.39167E-02
 -0.18344E-02 -0.70985E-03  0.39167E-02
 -0.18426E-02  0.84602E-04  0.39167E-02
 -0.27234E-02 -0.77610E-03  0.39167E-02
 -0.27987E-02  0.44813E-04  0.39167E-02
 -0.25388E-02 -0.15187E-02  0.39167E-02
 -0.19352E-02 -0.13215E-02  0.39167E-02
 -0.99147E-03  0.10088E-02  0.39167E-02
 -0.14433E-02 -0.17319E-02  0.39167E-02
 -0.31274E-03  0.20262E-02  0.39167E-02
 -0.11016E-02  0.18595E-02  0.39167E-02
 -0.18838E-02  0.17175E-02  0.39167E-02
 -0.18694E-02  0.91300E-03  0.39167E-02
 -0.16284E-03 -0.19804E-02  0.39167E-02
 -0.94986E-03 -0.23493E-02  0.39167E-02
  0.77865E-03 -0.17073E-02  0.39167E-02
  0.17205E-02 -0.14931E-02  0.39167E-02
  0.32099E-02  0.77544E-03  0.39167E-02
  0.28042E-02  0.12541E-02  0.39167E-02
  0.23042E-02  0.18671E-02  0.39167E-02
 -0.40407E-03  0.28877E-02  0.39167E-02
 -0.12093E-02  0.27137E-02  0.39167E-02
 -0.19442E-02  0.24609E-02  0.39167E-02
 -0.25024E-02  0.22358E-02  0.39167E-02
 -0.26358E-02  0.16503E-02  0.39167E-02
 -0.27624E-02  0.87885E-03  0.39167E-02
 -0.21144E-02 -0.21374E-02  0.39167E-02
 -0.16094E-02 -0.26934E-02  0.39167E-02
 -0.11956E-02 -0.31291E-02  0.39167E-02
 -0.59165E-03 -0.30382E-02  0.39167E-02
  0.20302E-03 -0.28750E-02  0.39167E-02
  0.10540E-02 -0.26463E-02  0.39167E-02
  0.18419E-02 -0.23738E-02  0.39167E-02
  0.24563E-02 -0.21527E-02  0.39167E-02
  0.26033E-02 -0.15088E-02  0.39167E-02
  0.37964E-02  0.93572E-03  0.39167E-02
  0.39100E-02  0.00000E+00  0.39167E-02
  0.34621E-02  0.18171E-02  0.39167E-02
  0.29267E-02  0.25928E-02  0.39167E-02
  0.22211E-02  0.32179E-02  0.39167E-02
  0.13865E-02  0.36559E-02  0.39167E-02
  0.47130E-03  0.38815E-02  0.39167E-02
 -0.47130E-03  0.38815E-02  0.39167E-02
 -0.13865E-02  0.36559E-02  0.39167E-02
 -0.22211E-02  0.32179E-02  0.39167E-02
 -0.29267E-02  0.25928E-02  0.39167E-02
 -0.34621E-02  0.18171E-02  0.39167E-02
 -0.37964E-02  0.93572E-03  0.39167E-02
 -0.39100E-02 -0.47884E-18  0.39167E-02
 -0.37964E-02 -0.93572E-03  0.39167E-02
 -0.34621E-02 -0.18171E-02  0.39167E-02
 -0.29267E-02 -0.25928E-02  0.39167E-02
 -0.22211E-02 -0.32179E-02  0.39167E-02
 -0.13865E-02 -0.36559E-02  0.39167E-02
 -0.47130E-03 -0.38815E-02  0.39167E-02
  0.47130E-03 -0.38815E-02  0.39167E-02
  0.13865E-02 -0.36559E-02  0.39167E-02
  0.22211E-02 -0.32179E-02  0.39167E-02
  0.29267E-02 -0.25928E-02  0.39167E-02
  0.34621E-02 -0.18171E-02  0.39167E-02
  0.37964E-02 -0.93572E-03  0.39167E-02
  0.10359E-02  0.68179E-03  0.48958E-02
  0.17423E-02  0.12414E-02  0.48958E-02
  0.23157E-02  0.59988E-03  0.48958E-02
  0.16664E-02 -0.32568E-03  0.48958E-02
  0.30373E-02  0.15463E-03  0.48958E-02
  0.27846E-02 -0.66854E-03  0.48958E-02
  0.12834E-02  0.18442E-02  0.48958E-02
  0.64747E-03  0.14736E-02  0.48958E-02
  0.12337E-03  0.31770E-03  0.48958E-02
 -0.13118E-03  0.11952E-02  0.48958E-02
  0.93970E-03  0.22768E-02  0.48958E-02
  0.11272E-02  0.28216E-02  0.48958E-02
  0.17428E-02  0.24261E-02  0.48958E-02
  0.40501E-03  0.21690E-02  0.48958E-02
  0.39752E-03  0.29324E-02  0.48958E-02
 -0.76869E-03 -0.10056E-02  0.48958E-02
 -0.86778E-03  0.91918E-04  0.48958E-02
  0.45402E-03 -0.69156E-03  0.48958E-02
 -0.18347E-02 -0.70971E-03  0.48958E-02
 -0.18425E-02  0.84726E-04  0.48958E-02
 -0.27234E-02 -0.77593E-03  0.48958E-02
 -0.27984E-02  0.45086E-04  0.48958E-02
 -0.25389E-02 -0.15187E-02  0.48958E-02
 -0.19356E-02 -0.13213E-02  0.48958E-02
 -0.99133E-03  0.10102E-02  0.48958E-02
 -0.14436E-02 -0.17318E-02  0.48958E-02
 -0.31254E-03  0.20265E-02  0.48958E-02
 -0.11013E-02  0.18594E-02  0.48958E-02
 -0.18837E-02  0.17175E-02  0.48958E-02
 -0.18692E-02  0.91324E-03  0.48958E-02
 -0.16311E-03 -0.19804E-02  0.48958E-02
 -0.95046E-03 -0.23493E-02  0.48958E-02
  0.77799E-03 -0.17073E-02  0.48958E-02
  0.17204E-02 -0.14933E-02  0.48958E-02
  0.32102E-02  0.77645E-03  0.48958E-02
  0.28042E-02  0.12545E-02  0.48958E-02
  0.23041E-02  0.18671E-02  0.48958E-02
 -0.40393E-03  0.28867E-02  0.48958E-02
 -0.12093E-02  0.27132E-02  0.48958E-02
 -0.19442E-02  0.24606E-02  0.48958E-02
 -0.25024E-02  0.22358E-02  0.48958E-02
 -0.26357E-02  0.16503E-02  0.48958E-02
 -0.27621E-02  0.87912E-03  0.48958E-02
 -0.21146E-02 -0.21374E-02  0.48958E-02
 -0.16094E-02 -0.26935E-02  0.48958E-02
 -0.11957E-02 -0.31291E-02  0.48958E-02
 -0.59200E-03 -0.30381E-02  0.48958E-02
  0.20262E-03 -0.28750E-02  0.48958E-02
  0.10536E-02 -0.26466E-02  0.48958E-02
  0.18420E-02 -0.23740E-02  0.48958E-02
  0.24564E-02 -0.21533E-02  0.48958E-02
  0.26033E-02 -0.15087E-02  0.48958E-02
  0.37964E-02  0.93572E-03  0.48958E-02
  0.39100E-02  0.00000E+00  0.48958E-02
  0.34621E-02  0.18171E-02  0.48958E-02
  0.29267E-02  0.25928E-02  0.48958E-02
  0.22211E-02  0.32179E-02  0.48958E-02
  0.13865E-02  0.36559E-02  0.48958E-02
  0.47130E-03  0.38815E-02  0.48958E-02
 -0.47130E-03  0.38815E-02  0.48958E-02
 -0.13865E-02  0.36559E-02  0.48958E-02
 -0.22211E-02  0.32179E-02  0.48958E-02
 -0.29267E-02  0.25928E-02  0.48958E-02
 -0.34621E-02  0.18171E-02  0.48958E-02
 -0.37964E-02  0.93572E-03  0.48958E-02
 -0.39100E-02 -0.47884E-18  0.48958E-02
 -0.37964E-02 -0.93572E-03  0.48958E-02
 -0.34621E-02 -0.18171E-02  0.48958E-02
 -0.29267E-02 -0.25928E-02  0.48958E-02
 -0.22211E-02 -0.32179E-02  0.48958E-02
 -0.13865E-02 -0.36559E-02  0.48958E-02
 -0.47130E-03 -0.38815E-02  0.48958E-02
  0.47130E-03 -0.38815E-02  0.48958E-02
  0.13865E-02 -0.36559E-02  0.48958E-02
  0.22211E-02 -0.32179E-02  0.48958E-02
  0.29267E-02 -0.25928E-02  0.48958E-02
  0.34621E-02 -0.18171E-02  0.48958E-02
  0.37964E-02 -0.93572E-03  0.48958E-02
  0.10358E-02  0.68235E-03  0.58750E-02
  0.17422E-02  0.12421E-02  0.58750E-02
  0.23156E-02  0.60041E-03  0.58750E-02
  0.16662E-02 -0.32493E-03  0.58750E-02
  0.30373E-02  0.15500E-03  0.58750E-02
  0.27849E-02 -0.66805E-03  0.58750E-02
  0.12833E-02  0.18444E-02  0.58750E-02
  0.64722E-03  0.14747E-02  0.58750E-02
  0.12311E-03  0.31885E-03  0.58750E-02
 -0.13137E-03  0.11970E-02  0.58750E-02
  0.93937E-03  0.22770E-02  0.58750E-02
  0.11269E-02  0.28211E-02  0.58750E-02
  0.17424E-02  0.24262E-02  0.58750E-02
  0.40496E-03  0.21691E-02  0.58750E-02
  0.39750E-03  0.29322E-02  0.58750E-02
 -0.76904E-03 -0.10057E-02  0.58750E-02
 -0.86789E-03  0.92727E-04  0.58750E-02
  0.45358E-03 -0.69084E-03  0.58750E-02
 -0.18350E-02 -0.70957E-03  0.58750E-02
 -0.18424E-02  0.84849E-04  0.58750E-02
 -0.27233E-02 -0.77576E-03  0.58750E-02
 -0.27981E-02  0.45359E-04  0.58750E-02
 -0.25391E-02 -0.15186E-02  0.58750E-02
 -0.19360E-02 -0.13212E-02  0.58750E-02
 -0.99118E-03  0.10115E-02  0.58750E-02
 -0.14440E-02 -0.17318E-02  0.58750E-02
 -0.31234E-03  0.20268E-02  0.58750E-02
 -0.11009E-02  0.18593E-02  0.58750E-02
 -0.18836E-02  0.17175E-02  0.58750E-02
 -0.18691E-02  0.91347E-03  0.58750E-02
 -0.16339E-03 -0.19804E-02  0.58750E-02
 -0.95106E-03 -0.23493E-02  0.58750E-02
  0.77733E-03 -0.17073E-02  0.58750E-02
  0.17204E-02 -0.14936E-02  0.58750E-02
  0.32105E-02  0.77745E-03  0.58750E-02
  0.28042E-02  0.12550E-02  0.58750E-02
  0.23040E-02  0.18671E-02  0.58750E-02
 -0.40379E-03  0.28856E-02  0.58750E-02
 -0.12093E-02  0.27127E-02  0.58750E-02
 -0.19441E-02  0.24604E-02  0.58750E-02
 -0.25023E-02  0.22358E-02  0.58750E-02
 -0.26356E-02  0.16503E-02  0.58750E-02
 -0.27618E-02  0.87938E-03  0.58750E-02
 -0.21147E-02 -0.21374E-02  0.58750E-02
 -0.16094E-02 -0.26935E-02  0.58750E-02
 -0.11958E-02 -0.31291E-02  0.58750E-02
 -0.59235E-03 -0.30381E-02  0.58750E-02
  0.20221E-03 -0.28750E-02  0.58750E-02
  0.10533E-02 -0.26468E-02  0.58750E-02
  0.18420E-02 -0.23742E-02  0.58750E-02
  0.24565E-02 -0.21538E-02  0.58750E-02
  0.26034E-02 -0.15086E-02  0.58750E-02
  0.37964E-02  0.93572E-03  0.58750E-02
  0.39100E-02  0.00000E+00  0.58750E-02
  0.34621E-02  0.18171E-02  0.58750E-02
  0.29267E-02  0.25928E-02  0.58750E-02
  0.22211E-02  0.32179E-02  0.58750E-02
  0.13865E-02  0.36559E-02  0.58750E-02
  0.47130E-03  0.38815E-02  0.58750E-02
 -0.47130E-03  0.38815E-02  0.58750E-02
 -0.13865E-02  0.36559E-02  0.58750E-02
 -0.22211E-02  0.32179E-02  0.58750E-02
 -0.29267E-02  0.25928E-02  0.58750E-02
 -0.34621E-02  0.18171E-02  0.58750E-02
 -0.37964E-02  0.93572E-03  0.58750E-02
 -0.39100E-02 -0.47884E-18  0.58750E-02
 -0.37964E-02 -0.93572E-03  0.58750E-02
 -0.34621E-02 -0.18171E-02  0.58750E-02
 -0.29267E-02 -0.25928E-02  0.58750E-02
 -0.22211E-02 -0.32179E-02  0.58750E-02
 -0.13865E-02 -0.36559E-02  0.58750E-02
 -0.47130E-03 -0.38815E-02  0.58750E-02
  0.47130E-03 -0.38815E-02  0.58750E-02
  0.13865E-02 -0.36559E-02  0.58750E-02
  0.22211E-02 -0.32179E-02  0.58750E-02
  0.29267E-02 -0.25928E-02  0.58750E-02
  0.34621E-02 -0.18171E-02  0.58750E-02
  0.37964E-02 -0.93572E-03  0.58750E-02
  0.10357E-02  0.68290E-03  0.68542E-02
  0.17420E-02  0.12427E-02  0.68542E-02
  0.23155E-02  0.60093E-03  0.68542E-02
  0.16660E-02 -0.32417E-03  0.68542E-02
  0.30372E-02  0.15536E-03  0.68542E-02
  0.27853E-02 -0.66755E-03  0.68542E-02
  0.12832E-02  0.18445E-02  0.68542E-02
  0.64698E-03  0.14757E-02  0.68542E-02
  0.12285E-03  0.32000E-03  0.68542E-02
 -0.13155E-03  0.11987E-02  0.68542E-02
  0.93903E-03  0.22771E-02  0.68542E-02
  0.11266E-02  0.28207E-02  0.68542E-02
  0.17420E-02  0.24264E-02  0.68542E-02
  0.40490E-03  0.21691E-02  0.68542E-02
  0.39749E-03  0.29319E-02  0.68542E-02
 -0.76940E-03 -0.10058E-02  0.68542E-02
 -0.86800E-03  0.93536E-04  0.68542E-02
  0.45313E-03 -0.69011E-03  0.68542E-02
 -0.18353E-02 -0.70943E-03  0.68542E-02
 -0.18423E-02  0.84973E-04  0.68542E-02
 -0.27233E-02 -0.77559E-03  0.68542E-02
 -0.27979E-02  0.45633E-04  0.68542E-02
 -0.25393E-02 -0.15186E-02  0.68542E-02
 -0.19365E-02 -0.13212E-02  0.68542E-02
 -0.99104E-03  0.10129E-02  0.68542E-02
 -0.14443E-02 -0.17318E-02  0.68542E-02
 -0.31214E-03  0.20271E-02  0.68542E-02
 -0.11006E-02  0.18592E-02  0.68542E-02
 -0.18836E-02  0.17175E-02  0.68542E-02
 -0.18690E-02  0.91371E-03  0.68542E-02
 -0.16366E-03 -0.19805E-02  0.68542E-02
 -0.95166E-03 -0.23493E-02  0.68542E-02
  0.77667E-03 -0.17073E-02  0.68542E-02
  0.17203E-02 -0.14938E-02  0.68542E-02
  0.32109E-02  0.77846E-03  0.68542E-02
  0.28042E-02  0.12554E-02  0.68542E-02
  0.23039E-02  0.18672E-02  0.68542E-02
 -0.40365E-03  0.28845E-02  0.68542E-02
 -0.12093E-02  0.27122E-02  0.68542E-02
 -0.19441E-02  0.24602E-02  0.68542E-02
 -0.25023E-02  0.22358E-02  0.68542E-02
 -0.26355E-02  0.16502E-02  0.68542E-02
 -0.27615E-02  0.87964E-03  0.68542E-02
 -0.21148E-02 -0.21374E-02  0.68542E-02
 -0.16095E-02 -0.26935E-02  0.68542E-02
 -0.11960E-02 -0.31291E-02  0.68542E-02
 -0.59270E-03 -0.30381E-02  0.68542E-02
  0.20180E-03 -0.28750E-02  0.68542E-02
  0.10530E-02 -0.26471E-02  0.68542E-02
  0.18421E-02 -0.23744E-02  0.68542E-02
  0.24566E-02 -0.21543E-02  0.68542E-02
  0.26035E-02 -0.15085E-02  0.68542E-02
  0.37964E-02  0.93572E-03  0.68542E-02
  0.39100E-02  0.00000E+00  0.68542E-02
  0.34621E-02  0.18171E-02  0.68542E-02
  0.29267E-02  0.25928E-02  0.68542E-02
  0.22211E-02  0.32179E-02  0.68542E-02
  0.13865E-02  0.36559E-02  0.68542E-02
  0.47130E-03  0.38815E-02  0.68542E-02
 -0.47130E-03  0.38815E-02  0.68542E-02
 -0.13865E-02  0.36559E-02  0.68542E-02
 -0.22211E-02  0.32179E-02  0.68542E-02
 -0.29267E-02  0.25928E-02  0.68542E-02
 -0.34621E-02  0.18171E-02  0.68542E-02
 -0.37964E-02  0.93572E-03  0.68542E-02
 -0.39100E-02 -0.47884E-18  0.68542E-02
 -0.37964E-02 -0.93572E-03  0.68542E-02
 -0.34621E-02 -0.18171E-02  0.68542E-02
 -0.29267E-02 -0.25928E-02  0.68542E-02
 -0.22211E-02 -0.32179E-02  0.68542E-02
 -0.13865E-02 -0.36559E-02  0.68542E-02
 -0.47130E-03 -0.38815E-02  0.68542E-02
  0.47130E-03 -0.38815E-02  0.68542E-02
  0.13865E-02 -0.36559E-02  0.68542E-02
  0.22211E-02 -0.32179E-02  0.68542E-02
  0.29267E-02 -0.25928E-02  0.68542E-02
  0.34621E-02 -0.18171E-02  0.68542E-02
  0.37964E-02 -0.93572E-03  0.68542E-02
  0.10356E-02  0.68346E-03  0.78333E-02
  0.17418E-02  0.12434E-02  0.78333E-02
  0.23153E-02  0.60145E-03  0.78333E-02
  0.16657E-02 -0.32342E-03  0.78333E-02
  0.30372E-02  0.15572E-03  0.78333E-02
  0.27856E-02 -0.66706E-03  0.78333E-02
  0.12830E-02  0.18447E-02  0.78333E-02
  0.64673E-03  0.14767E-02  0.78333E-02
  0.12259E-03  0.32115E-03  0.78333E-02
 -0.13174E-03  0.12005E-02  0.78333E-02
  0.93870E-03  0.22772E-02  0.78333E-02
  0.11262E-02  0.28203E-02  0.78333E-02
  0.17416E-02  0.24265E-02  0.78333E-02
  0.40485E-03  0.21691E-02  0.78333E-02
  0.39747E-03  0.29316E-02  0.78333E-02
 -0.76975E-03 -0.10060E-02  0.78333E-02
 -0.86811E-03  0.94345E-04  0.78333E-02
  0.45268E-03 -0.68939E-03  0.78333E-02
 -0.18356E-02 -0.70929E-03  0.78333E-02
 -0.18422E-02  0.85096E-04  0.78333E-02
 -0.27233E-02 -0.77542E-03  0.78333E-02
 -0.27976E-02  0.45906E-04  0.78333E-02
 -0.25394E-02 -0.15185E-02  0.78333E-02
 -0.19369E-02 -0.13211E-02  0.78333E-02
 -0.99090E-03  0.10142E-02  0.78333E-02
 -0.14446E-02 -0.17317E-02  0.78333E-02
 -0.31194E-03  0.20274E-02  0.78333E-02
 -0.11002E-02  0.18590E-02  0.78333E-02
 -0.18835E-02  0.17175E-02  0.78333E-02
 -0.18689E-02  0.91395E-03  0.78333E-02
 -0.16394E-03 -0.19805E-02  0.78333E-02
 -0.95226E-03 -0.23494E-02  0.78333E-02
  0.77601E-03 -0.17073E-02  0.78333E-02
  0.17203E-02 -0.14941E-02  0.78333E-02
  0.32112E-02  0.77946E-03  0.78333E-02
  0.28042E-02  0.12558E-02  0.78333E-02
  0.23038E-02  0.18672E-02  0.78333E-02
 -0.40352E-03  0.28835E-02  0.78333E-02
 -0.12093E-02  0.27118E-02  0.78333E-02
 -0.19441E-02  0.24600E-02  0.78333E-02
 -0.25023E-02  0.22358E-02  0.78333E-02
 -0.26354E-02  0.16502E-02  0.78333E-02
 -0.27612E-02  0.87990E-03  0.78333E-02
 -0.21150E-02 -0.21374E-02  0.78333E-02
 -0.16095E-02 -0.26935E-02  0.78333E-02
 -0.11961E-02 -0.31291E-02  0.78333E-02
 -0.59305E-03 -0.30381E-02  0.78333E-02
  0.20140E-03 -0.28750E-02  0.78333E-02
  0.10527E-02 -0.26474E-02  0.78333E-02
  0.18421E-02 -0.23746E-02  0.78333E-02
  0.24568E-02 -0.21549E-02  0.78333E-02
  0.26036E-02 -0.15084E-02  0.78333E-02
  0.37964E-02  0.93572E-03  0.78333E-02
  0.39100E-02  0.00000E+00  0.78333E-02
  0.34621E-02  0.18171E-02  0.78333E-02
  0.29267E-02  0.25928E-02  0.78333E-02
  0.22211E-02  0.32179E-02  0.78333E-02
  0.13865E-02  0.36559E-02  0.78333E-02
  0.47130E-03  0.38815E-02  0.78333E-02
 -0.47130E-03  0.38815E-02  0.78333E-02
 -0.13865E-02  0.36559E-02  0.78333E-02
 -0.22211E-02  0.32179E-02  0.78333E-02
 -0.29267E-02  0.25928E-02  0.78333E-02
 -0.34621E-02  0.18171E-02  0.78333E-02
 -0.37964E-02  0.93572E-03  0.78333E-02
 -0.39100E-02  0.22152E-17  0.78333E-02
 -0.37964E-02 -0.93572E-03  0.78333E-02
 -0.34621E-02 -0.18171E-02  0.78333E-02
 -0.29267E-02 -0.25928E-02  0.78333E-02
 -0.22211E-02 -0.32179E-02  0.78333E-02
 -0.13865E-02 -0.36559E-02  0.78333E-02
 -0.47130E-03 -0.38815E-02  0.78333E-02
  0.47130E-03 -0.38815E-02  0.78333E-02
  0.13865E-02 -0.36559E-02  0.78333E-02
  0.22211E-02 -0.32179E-02  0.78333E-02
  0.29267E-02 -0.25928E-02  0.78333E-02
  0.34621E-02 -0.18171E-02  0.78333E-02
  0.37964E-02 -0.93572E-03  0.78333E-02
  0.10355E-02  0.68401E-03  0.88125E-02
  0.17416E-02  0.12440E-02  0.88125E-02
  0.23152E-02  0.60198E-03  0.88125E-02
  0.16655E-02 -0.32266E-03  0.88125E-02
  0.30372E-02  0.15609E-03  0.88125E-02
  0.27860E-02 -0.66657E-03  0.88125E-02
  0.12829E-02  0.18449E-02  0.88125E-02
  0.64649E-03  0.14777E-02  0.88125E-02
  0.12232E-03  0.32230E-03  0.88125E-02
 -0.13193E-03  0.12022E-02  0.88125E-02
  0.93837E-03  0.22774E-02  0.88125E-02
  0.11259E-02  0.28198E-02  0.88125E-02
  0.17412E-02  0.24267E-02  0.88125E-02
  0.40480E-03  0.21692E-02  0.88125E-02
  0.39745E-03  0.29314E-02  0.88125E-02
 -0.77011E-03 -0.10061E-02  0.88125E-02
 -0.86822E-03  0.95155E-04  0.88125E-02
  0.45223E-03 -0.68866E-03  0.88125E-02
 -0.18359E-02 -0.70915E-03  0.88125E-02
 -0.18421E-02  0.85220E-04  0.88125E-02
 -0.27232E-02 -0.77525E-03  0.88125E-02
 -0.27973E-02  0.46180E-04  0.88125E-02
 -0.25396E-02 -0.15185E-02  0.88125E-02
 -0.19373E-02 -0.13210E-02  0.88125E-02
 -0.99075E-03  0.10156E-02  0.88125E-02
 -0.14450E-02 -0.17317E-02  0.88125E-02
 -0.31173E-03  0.20277E-02  0.88125E-02
 -0.10999E-02  0.18589E-02  0.88125E-02
 -0.18835E-02  0.17175E-02  0.88125E-02
 -0.18687E-02  0.91419E-03  0.88125E-02
 -0.16421E-03 -0.19805E-02  0.88125E-02
 -0.95285E-03 -0.23494E-02  0.88125E-02
  0.77535E-03 -0.17073E-02  0.88125E-02
  0.17202E-02 -0.14943E-02  0.88125E-02
  0.32115E-02  0.78047E-03  0.88125E-02
  0.28041E-02  0.12563E-02  0.88125E-02
  0.23037E-02  0.18672E-02  0.88125E-02
 -0.40338E-03  0.28824E-02  0.88125E-02
 -0.12093E-02  0.27113E-02  0.88125E-02
 -0.19440E-02  0.24597E-02  0.88125E-02
 -0.25023E-02  0.22358E-02  0.88125E-02
 -0.26353E-02  0.16502E-02  0.88125E-02
 -0.27609E-02  0.88016E-03  0.88125E-02
 -0.21151E-02 -0.21374E-02  0.88125E-02
 -0.16096E-02 -0.26935E-02  0.88125E-02
 -0.11962E-02 -0.31291E-02  0.88125E-02
 -0.59340E-03 -0.30381E-02  0.88125E-02
  0.20099E-03 -0.28751E-02  0.88125E-02
  0.10524E-02 -0.26476E-02  0.88125E-02
  0.18422E-02 -0.23748E-02  0.88125E-02
  0.24569E-02 -0.21554E-02  0.88125E-02
  0.26036E-02 -0.15083E-02  0.88125E-02
  0.37964E-02  0.93572E-03  0.88125E-02
  0.39100E-02  0.00000E+00  0.88125E-02
  0.34621E-02  0.18171E-02  0.88125E-02
  0.29267E-02  0.25928E-02  0.88125E-02
  0.22211E-02  0.32179E-02  0.88125E-02
  0.13865E-02  0.36559E-02  0.88125E-02
  0.47130E-03  0.38815E-02  0.88125E-02
 -0.47130E-03  0.38815E-02  0.88125E-02
 -0.13865E-02  0.36559E-02  0.88125E-02
 -0.22211E-02  0.32179E-02  0.88125E-02
 -0.29267E-02  0.25928E-02  0.88125E-02
 -0.34621E-02  0.18171E-02  0.88125E-02
 -0.37964E-02  0.93572E-03  0.88125E-02
 -0.39100E-02 -0.47884E-18  0.88125E-02
 -0.37964E-02 -0.93572E-03  0.88125E-02
 -0.34621E-02 -0.18171E-02  0.88125E-02
 -0.29267E-02 -0.25928E-02  0.88125E-02
 -0.22211E-02 -0.32179E-02  0.88125E-02
 -0.13865E-02 -0.36559E-02  0.88125E-02
 -0.47130E-03 -0.38815E-02  0.88125E-02
  0.47130E-03 -0.38815E-02  0.88125E-02
  0.13865E-02 -0.36559E-02  0.88125E-02
  0.22211E-02 -0.32179E-02  0.88125E-02
  0.29267E-02 -0.25928E-02  0.88125E-02
  0.34621E-02 -0.18171E-02  0.88125E-02
  0.37964E-02 -0.93572E-03  0.88125E-02
  0.10354E-02  0.68457E-03  0.97917E-02
  0.17414E-02  0.12447E-02  0.97917E-02
  0.23151E-02  0.60250E-03  0.97917E-02
  0.16653E-02 -0.32191E-03  0.97917E-02
  0.30372E-02  0.15645E-03  0.97917E-02
  0.27863E-02 -0.66607E-03  0.97917E-02
  0.12829E-02  0.18451E-02  0.97917E-02
  0.64624E-03  0.14787E-02  0.97917E-02
  0.12206E-03  0.32345E-03  0.97917E-02
 -0.13211E-03  0.12040E-02  0.97917E-02
  0.93804E-03  0.22775E-02  0.97917E-02
  0.11255E-02  0.28194E-02  0.97917E-02
  0.17408E-02  0.24268E-02  0.97917E-02
  0.40474E-03  0.21692E-02  0.97917E-02
  0.39744E-03  0.29311E-02  0.97917E-02
 -0.77046E-03 -0.10062E-02  0.97917E-02
 -0.86832E-03  0.95964E-04  0.97917E-02
  0.45179E-03 -0.68793E-03  0.97917E-02
 -0.18362E-02 -0.70901E-03  0.97917E-02
 -0.18420E-02  0.85343E-04  0.97917E-02
 -0.27232E-02 -0.77507E-03  0.97917E-02
 -0.27970E-02  0.46453E-04  0.97917E-02
 -0.25397E-02 -0.15184E-02  0.97917E-02
 -0.19377E-02 -0.13209E-02  0.97917E-02
 -0.99061E-03  0.10169E-02  0.97917E-02
 -0.14453E-02 -0.17316E-02  0.97917E-02
 -0.31153E-03  0.20280E-02  0.97917E-02
 -0.10995E-02  0.18588E-02  0.97917E-02
 -0.18834E-02  0.17175E-02  0.97917E-02
 -0.18686E-02  0.91443E-03  0.97917E-02
 -0.16449E-03 -0.19806E-02  0.97917E-02
 -0.95345E-03 -0.23494E-02  0.97917E-02
  0.77469E-03 -0.17073E-02  0.97917E-02
  0.17202E-02 -0.14945E-02  0.97917E-02
  0.32119E-02  0.78148E-03  0.97917E-02
  0.28041E-02  0.12567E-02  0.97917E-02
  0.23036E-02  0.18673E-02  0.97917E-02
 -0.40324E-03  0.28813E-02  0.97917E-02
 -0.12093E-02  0.27108E-02  0.97917E-02
 -0.19440E-02  0.24595E-02  0.97917E-02
 -0.25022E-02  0.22358E-02  0.97917E-02
 -0.26352E-02  0.16502E-02  0.97917E-02
 -0.27606E-02  0.88043E-03  0.97917E-02
 -0.21152E-02 -0.21374E-02  0.97917E-02
 -0.16096E-02 -0.26936E-02  0.97917E-02
 -0.11963E-02 -0.31291E-02  0.97917E-02
 -0.59375E-03 -0.30381E-02  0.97917E-02
  0.20059E-03 -0.28751E-02  0.97917E-02
  0.10521E-02 -0.26479E-02  0.97917E-02
  0.18422E-02 -0.23750E-02  0.97917E-02
  0.24570E-02 -0.21560E-02  0.97917E-02
  0.26037E-02 -0.15082E-02  0.97917E-02
  0.37964E-02  0.93572E-03  0.97917E-02
  0.39100E-02  0.00000E+00  0.97917E-02
  0.34621E-02  0.18171E-02  0.97917E-02
  0.29267E-02  0.25928E-02  0.97917E-02
  0.22211E-02  0.32179E-02  0.97917E-02
  0.13865E-02  0.36559E-02  0.97917E-02
  0.47130E-03  0.38815E-02  0.97917E-02
 -0.47130E-03  0.38815E-02  0.97917E-02
 -0.13865E-02  0.36559E-02  0.97917E-02
 -0.22211E-02  0.32179E-02  0.97917E-02
 -0.29267E-02  0.25928E-02  0.97917E-02
 -0.34621E-02  0.18171E-02  0.97917E-02
 -0.37964E-02  0.93572E-03  0.97917E-02
 -0.39100E-02 -0.47884E-18  0.97917E-02
 -0.37964E-02 -0.93572E-03  0.97917E-02
 -0.34621E-02 -0.18171E-02  0.97917E-02
 -0.29267E-02 -0.25928E-02  0.97917E-02
 -0.22211E-02 -0.32179E-02  0.97917E-02
 -0.13865E-02 -0.36559E-02  0.97917E-02
 -0.47130E-03 -0.38815E-02  0.97917E-02
  0.47130E-03 -0.38815E-02  0.97917E-02
  0.13865E-02 -0.36559E-02  0.97917E-02
  0.22211E-02 -0.32179E-02  0.97917E-02
  0.29267E-02 -0.25928E-02  0.97917E-02
  0.34621E-02 -0.18171E-02  0.97917E-02
  0.37964E-02 -0.93572E-03  0.97917E-02
  0.10352E-02  0.68512E-03  0.10771E-01
  0.17413E-02  0.12454E-02  0.10771E-01
  0.23150E-02  0.60302E-03  0.10771E-01
  0.16651E-02 -0.32115E-03  0.10771E-01
  0.30371E-02  0.15681E-03  0.10771E-01
  0.27866E-02 -0.66558E-03  0.10771E-01
  0.12827E-02  0.18453E-02  0.10771E-01
  0.64600E-03  0.14797E-02  0.10771E-01
  0.12180E-03  0.32459E-03  0.10771E-01
 -0.13230E-03  0.12058E-02  0.10771E-01
  0.93771E-03  0.22776E-02  0.10771E-01
  0.11252E-02  0.28189E-02  0.10771E-01
  0.17404E-02  0.24270E-02  0.10771E-01
  0.40469E-03  0.21693E-02  0.10771E-01
  0.39742E-03  0.29308E-02  0.10771E-01
 -0.77081E-03 -0.10064E-02  0.10771E-01
 -0.86843E-03  0.96773E-04  0.10771E-01
  0.45134E-03 -0.68721E-03  0.10771E-01
 -0.18365E-02 -0.70887E-03  0.10771E-01
 -0.18419E-02  0.85467E-04  0.10771E-01
 -0.27232E-02 -0.77490E-03  0.10771E-01
 -0.27968E-02  0.46726E-04  0.10771E-01
 -0.25399E-02 -0.15184E-02  0.10771E-01
 -0.19382E-02 -0.13208E-02  0.10771E-01
 -0.99046E-03  0.10183E-02  0.10771E-01
 -0.14457E-02 -0.17316E-02  0.10771E-01
 -0.31133E-03  0.20283E-02  0.10771E-01
 -0.10992E-02  0.18586E-02  0.10771E-01
 -0.18834E-02  0.17175E-02  0.10771E-01
 -0.18685E-02  0.91467E-03  0.10771E-01
 -0.16476E-03 -0.19806E-02  0.10771E-01
 -0.95405E-03 -0.23494E-02  0.10771E-01
  0.77402E-03 -0.17073E-02  0.10771E-01
  0.17202E-02 -0.14948E-02  0.10771E-01
  0.32122E-02  0.78248E-03  0.10771E-01
  0.28041E-02  0.12571E-02  0.10771E-01
  0.23034E-02  0.18673E-02  0.10771E-01
 -0.40310E-03  0.28802E-02  0.10771E-01
 -0.12093E-02  0.27103E-02  0.10771E-01
 -0.19440E-02  0.24593E-02  0.10771E-01
 -0.25022E-02  0.22358E-02  0.10771E-01
 -0.26351E-02  0.16502E-02  0.10771E-01
 -0.27602E-02  0.88069E-03  0.10771E-01
 -0.21154E-02 -0.21374E-02  0.10771E-01
 -0.16097E-02 -0.26936E-02  0.10771E-01
 -0.11964E-02 -0.31291E-02  0.10771E-01
 -0.59409E-03 -0.30381E-02  0.10771E-01
  0.20018E-03 -0.28751E-02  0.10771E-01
  0.10518E-02 -0.26482E-02  0.10771E-01
  0.18422E-02 -0.23752E-02  0.10771E-01
  0.24571E-02 -0.21565E-02  0.10771E-01
  0.26038E-02 -0.15081E-02  0.10771E-01
  0.37964E-02  0.93572E-03  0.10771E-01
  0.39100E-02  0.00000E+00  0.10771E-01
  0.34621E-02  0.18171E-02  0.10771E-01
  0.29267E-02  0.25928E-02  0.10771E-01
  0.22211E-02  0.32179E-02  0.10771E-01
  0.13865E-02  0.36559E-02  0.10771E-01
  0.47130E-03  0.38815E-02  0.10771E-01
 -0.47130E-03  0.38815E-02  0.10771E-01
 -0.13865E-02  0.36559E-02  0.10771E-01
 -0.22211E-02  0.32179E-02  0.10771E-01
 -0.29267E-02  0.25928E-02  0.10771E-01
 -0.34621E-02  0.18171E-02  0.10771E-01
 -0.37964E-02  0.93572E-03  0.10771E-01
 -0.39100E-02 -0.47884E-18  0.10771E-01
 -0.37964E-02 -0.93572E-03  0.10771E-01
 -0.34621E-02 -0.18171E-02  0.10771E-01
 -0.29267E-02 -0.25928E-02  0.10771E-01
 -0.22211E-02 -0.32179E-02  0.10771E-01
 -0.13865E-02 -0.36559E-02  0.10771E-01
 -0.47130E-03 -0.38815E-02  0.10771E-01
  0.47130E-03 -0.38815E-02  0.10771E-01
  0.13865E-02 -0.36559E-02  0.10771E-01
  0.22211E-02 -0.32179E-02  0.10771E-01
  0.29267E-02 -0.25928E-02  0.10771E-01
  0.34621E-02 -0.18171E-02  0.10771E-01
  0.37964E-02 -0.93572E-03  0.10771E-01
  0.10351E-02  0.68567E-03  0.11750E-01
  0.17411E-02  0.12460E-02  0.11750E-01
  0.23149E-02  0.60355E-03  0.11750E-01
  0.16649E-02 -0.32040E-03  0.11750E-01
  0.30371E-02  0.15718E-03  0.11750E-01
  0.27870E-02 -0.66509E-03  0.11750E-01
  0.12826E-02  0.18455E-02  0.11750E-01
  0.64575E-03  0.14807E-02  0.11750E-01
  0.12154E-03  0.32574E-03  0.11750E-01
 -0.13248E-03  0.12075E-02  0.11750E-01
  0.93738E-03  0.22777E-02  0.11750E-01
  0.11249E-02  0.28185E-02  0.11750E-01
  0.17400E-02  0.24271E-02  0.11750E-01
  0.40463E-03  0.21693E-02  0.11750E-01
  0.39740E-03  0.29306E-02  0.11750E-01
 -0.77117E-03 -0.10065E-02  0.11750E-01
 -0.86854E-03  0.97583E-04  0.11750E-01
  0.45089E-03 -0.68648E-03  0.11750E-01
 -0.18368E-02 -0.70873E-03  0.11750E-01
 -0.18418E-02  0.85591E-04  0.11750E-01
 -0.27232E-02 -0.77474E-03  0.11750E-01
 -0.27965E-02  0.47000E-04  0.11750E-01
 -0.25400E-02 -0.15183E-02  0.11750E-01
 -0.19386E-02 -0.13207E-02  0.11750E-01
 -0.99032E-03  0.10197E-02  0.11750E-01
 -0.14460E-02 -0.17316E-02  0.11750E-01
 -0.31113E-03  0.20285E-02  0.11750E-01
 -0.10988E-02  0.18585E-02  0.11750E-01
 -0.18833E-02  0.17175E-02  0.11750E-01
 -0.18683E-02  0.91491E-03  0.11750E-01
 -0.16504E-03 -0.19806E-02  0.11750E-01
 -0.95465E-03 -0.23495E-02  0.11750E-01
  0.77336E-03 -0.17073E-02  0.11750E-01
  0.17201E-02 -0.14950E-02  0.11750E-01
  0.32125E-02  0.78348E-03  0.11750E-01
  0.28041E-02  0.12576E-02  0.11750E-01
  0.23033E-02  0.18674E-02  0.11750E-01
 -0.40296E-03  0.28792E-02  0.11750E-01
 -0.12093E-02  0.27099E-02  0.11750E-01
 -0.19439E-02  0.24591E-02  0.11750E-01
 -0.25022E-02  0.22358E-02  0.11750E-01
 -0.26350E-02  0.16502E-02  0.11750E-01
 -0.27599E-02  0.88095E-03  0.11750E-01
 -0.21155E-02 -0.21374E-02  0.11750E-01
 -0.16097E-02 -0.26936E-02  0.11750E-01
 -0.11965E-02 -0.31290E-02  0.11750E-01
 -0.59444E-03 -0.30381E-02  0.11750E-01
  0.19977E-03 -0.28751E-02  0.11750E-01
  0.10515E-02 -0.26484E-02  0.11750E-01
  0.18423E-02 -0.23754E-02  0.11750E-01
  0.24573E-02 -0.21571E-02  0.11750E-01
  0.26039E-02 -0.15080E-02  0.11750E-01
  0.37964E-02  0.93572E-03  0.11750E-01
  0.39100E-02  0.00000E+00  0.11750E-01
  0.34621E-02  0.18171E-02  0.11750E-01
  0.29267E-02  0.25928E-02  0.11750E-01
  0.22211E-02  0.32179E-02  0.11750E-01
  0.13865E-02  0.36559E-02  0.11750E-01
  0.47130E-03  0.38815E-02  0.11750E-01
 -0.47130E-03  0.38815E-02  0.11750E-01
 -0.13865E-02  0.36559E-02  0.11750E-01
 -0.22211E-02  0.32179E-02  0.11750E-01
 -0.29267E-02  0.25928E-02  0.11750E-01
 -0.34621E-02  0.18171E-02  0.11750E-01
 -0.37964E-02  0.93572E-03  0.11750E-01
 -0.39100E-02  0.47884E-18  0.11750E-01
 -0.37964E-02 -0.93572E-03  0.11750E-01
 -0.34621E-02 -0.18171E-02  0.11750E-01
 -0.29267E-02 -0.25928E-02  0.11750E-01
 -0.22211E-02 -0.32179E-02  0.11750E-01
 -0.13865E-02 -0.36559E-02  0.11750E-01
 -0.47130E-03 -0.38815E-02  0.11750E-01
  0.47130E-03 -0.38815E-02  0.11750E-01
  0.13865E-02 -0.36559E-02  0.11750E-01
  0.22211E-02 -0.32179E-02  0.11750E-01
  0.29267E-02 -0.25928E-02  0.11750E-01
  0.34621E-02 -0.18171E-02  0.11750E-01
  0.37964E-02 -0.93572E-03  0.11750E-01
  
CELLS       1950                3900
       1       0
       1       1
       1       2
       1       3
       1       4
       1       5
       1       6
       1       7
       1       8
       1       9
       1      10
       1      11
       1      12
       1      13
       1      14
       1      15
       1      16
       1      17
       1      18
       1      19
       1      20
       1      21
       1      22
       1      23
       1      24
       1      25
       1      26
       1      27
       1      28
       1      29
       1      30
       1      31
       1      32
       1      33
       1      34
       1      35
       1      36
       1      37
       1      38
       1      39
       1      40
       1      41
       1      42
       1      43
       1      44
       1      45
       1      46
       1      47
       1      48
       1      49
       1      50
       1      51
       1      52
       1      53
       1      54
       1      55
       1      56
       1      57
       1      58
       1      59
       1      60
       1      61
       1      62
       1      63
       1      64
       1      65
       1      66
       1      67
       1      68
       1      69
       1      70
       1      71
       1      72
       1      73
       1      74
       1      75
       1      76
       1      77
       1      78
       1      79
       1      80
       1      81
       1      82
       1      83
       1      84
       1      85
       1      86
       1      87
       1      88
       1      89
       1      90
       1      91
       1      92
       1      93
       1      94
       1      95
       1      96
       1      97
       1      98
       1      99
       1     100
       1     101
       1     102
       1     103
       1     104
       1     105
       1     106
       1     107
       1     108
       1     109
       1     110
       1     111
       1     112
       1     113
       1     114
       1     115
       1     116
       1     117
       1     118
       1     119
       1     120
       1     121
       1     122
       1     123
       1     124
       1     125
       1     126
       1     127
       1     128
       1     129
       1     130
       1     131
       1     132
       1     133
       1     134
       1     135
       1     136
       1     137
       1     138
       1     139
       1     140
       1     141
       1     142
       1     143
       1     144
       1     145
       1     146
       1     147
       1     148
       1     149
       1     150
       1     151
       1     152
       1     153
       1     154
       1     155
       1     156
       1     157
       1     158
       1     159
       1     160
       1     161
       1     162
       1     163
       1     164
       1     165
       1     166
       1     167
       1     168
       1     169
       1     170
       1     171
       1     172
       1     173
       1     174
       1     175
       1     176
       1     177
       1     178
       1     179
       1     180
       1     181
       1     182
       1     183
       1     184
       1     185
       1     186
       1     187
       1     188
       1     189
       1     190
       1     191
       1     192
       1     193
       1     194
       1     195
       1     196
       1     197
       1     198
       1     199
       1     200
       1     201
       1     202
       1     203
       1     204
       1     205
       1     206
       1     207
       1     208
       1     209
       1     210
       1     211
       1     212
       1     213
       1     214
       1     215
       1     216
       1     217
       1     218
       1     219
       1     220
       1     221
       1     222
       1     223
       1     224
       1     225
       1     226
       1     227
       1     228
       1     229
       1     230
       1     231
       1     232
       1     233
       1     234
       1     235
       1     236
       1     237
       1     238
       1     239
       1     240
       1     241
       1     242
       1     243
       1     244
       1     245
       1     246
       1     247
       1     248
       1     249
       1     250
       1     251
       1     252
       1     253
       1     254
       1     255
       1     256
       1     257
       1     258
       1     259
       1     260
       1     261
       1     262
       1     263
       1     264
       1     265
       1     266
       1     267
       1     268
       1     269
       1     270
       1     271
       1     272
       1     273
       1     274
       1     275
       1     276
       1     277
       1     278
       1     279
       1     280
       1     281
       1     282
       1     283
       1     284
       1     285
       1     286
       1     287
       1     288
       1     289
       1     290
       1     291
       1     292
       1     293
       1     294
       1     295
       1     296
       1     297
       1     298
       1     299
       1     300
       1     301
       1     302
       1     303
       1     304
       1     305
       1     306
       1     307
       1     308
       1     309
       1     310
       1     311
       1     312
       1     313
       1     314
       1     315
       1     316
       1     317
       1     318
       1     319
       1     320
       1     321
       1     322
       1     323
       1     324
       1     325
       1     326
       1     327
       1     328
       1     329
       1     330
       1     331
       1     332
       1     333
       1     334
       1     335
       1     336
       1     337
       1     338
       1     339
       1     340
       1     341
       1     342
       1     343
       1     344
       1     345
       1     346
       1     347
       1     348
       1     349
       1     350
       1     351
       1     352
       1     353
       1     354
       1     355
       1     356
       1     357
       1     358
       1     359
       1     360
       1     361
       1     362
       1     363
       1     364
       1     365
       1     366
       1     367
       1     368
       1     369
       1     370
       1     371
       1     372
       1     373
       1     374
       1     375
       1     376
       1     377
       1     378
       1     379
       1     380
       1     381
       1     382
       1     383
       1     384
       1     385
       1     386
       1     387
       1     388
       1     389
       1     390
       1     391
       1     392
       1     393
       1     394
       1     395
       1     396
       1     397
       1     398
       1     399
       1     400
       1     401
       1     402
       1     403
       1     404
       1     405
       1     406
       1     407
       1     408
       1     409
       1     410
       1     411
       1     412
       1     413
       1     414
       1     415
       1     416
       1     417
       1     418
       1     419
       1     420
       1     421
       1     422
       1     423
       1     424
       1     425
       1     426
       1     427
       1     428
       1     429
       1     430
       1     431
       1     432
       1     433
       1     434
       1     435
       1     436
       1     437
       1     438
       1     439
       1     440
       1     441
       1     442
       1     443
       1     444
       1     445
       1     446
       1     447
       1     448
       1     449
       1     450
       1     451
       1     452
       1     453
       1     454
       1     455
       1     456
       1     457
       1     458
       1     459
       1     460
       1     461
       1     462
       1     463
       1     464
       1     465
       1     466
       1     467
       1     468
       1     469
       1     470
       1     471
       1     472
       1     473
       1     474
       1     475
       1     476
       1     477
       1     478
       1     479
       1     480
       1     481
       1     482
       1     483
       1     484
       1     485
       1     486
       1     487
       1     488
       1     489
       1     490
       1     491
       1     492
       1     493
       1     494
       1     495
       1     496
       1     497
       1     498
       1     499
       1     500
       1     501
       1     502
       1     503
       1     504
       1     505
       1     506
       1     507
       1     508
       1     509
       1     510
       1     511
       1     512
       1     513
       1     514
       1     515
       1     516
       1     517
       1     518
       1     519
       1     520
       1     521
       1     522
       1     523
       1     524
       1     525
       1     526
       1     527
       1     528
       1     529
       1     530
       1     531
       1     532
       1     533
       1     534
       1     535
       1     536
       1     537
       1     538
       1     539
       1     540
       1     541
       1     542
       1     543
       1     544
       1     545
       1     546
       1     547
       1     548
       1     549
       1     550
       1     551
       1     552
       1     553
       1     554
       1     555
       1     556
       1     557
       1     558
       1     559
       1     560
       1     561
       1     562
       1     563
       1     564
       1     565
       1     566
       1     567
       1     568
       1     569
       1     570
       1     571
       1     572
       1     573
       1     574
       1     575
       1     576
       1     577
       1     578
       1     579
       1     580
       1     581
       1     582
       1     583
       1     584
       1     585
       1     586
       1     587
       1     588
       1     589
       1     590
       1     591
       1     592
       1     593
       1     594
       1     595
       1     596
       1     597
       1     598
       1     599
       1     600
       1     601
       1     602
       1     603
       1     604
       1     605
       1     606
       1     607
       1     608
       1     609
       1     610
       1     611
       1     612
       1     613
       1     614
       1     615
       1     616
       1     617
       1     618
       1     619
       1     620
       1     621
       1     622
       1     623
       1     624
       1     625
       1     626
       1     627
       1     628
       1     629
       1     630
       1     631
       1     632
       1     633
       1     634
       1     635
       1     636
       1     637
       1     638
       1     639
       1     640
       1     641
       1     642
       1     643
       1     644
       1     645
       1     646
       1     647
       1     648
       1     649
       1     650
       1     651
       1     652
       1     653
       1     654
       1     655
       1     656
       1     657
       1     658
       1     659
       1     660
       1     661
       1     662
       1     663
       1     664
       1     665
       1     666
       1     667
       1     668
       1     669
       1     670
       1     671
       1     672
       1     673
       1     674
       1     675
       1     676
       1     677
       1     678
       1     679
       1     680
       1     681
       1     682
       1     683
       1     684
       1     685
       1     686
       1     687
       1     688
       1     689
       1     690
       1     691
       1     692
       1     693
       1     694
       1     695
       1     696
       1     697
       1     698
       1     699
       1     700
       1     701
       1     702
       1     703
       1     704
       1     705
       1     706
       1     707
       1     708
       1     709
       1     710
       1     711
       1     712
       1     713
       1     714
       1     715
       1     716
       1     717
       1     718
       1     719
       1     720
       1     721
       1     722
       1     723
       1     724
       1     725
       1     726
       1     727
       1     728
       1     729
       1     730
       1     731
       1     732
       1     733
       1     734
       1     735
       1     736
       1     737
       1     738
       1     739
       1     740
       1     741
       1     742
       1     743
       1     744
       1     745
       1     746
       1     747
       1     748
       1     749
       1     750
       1     751
       1     752
       1     753
       1     754
       1     755
       1     756
       1     757
       1     758
       1     759
       1     760
       1     761
       1     762
       1     763
       1     764
       1     765
       1     766
       1     767
       1     768
       1     769
       1     770
       1     771
       1     772
       1     773
       1     774
       1     775
       1     776
       1     777
       1     778
       1     779
       1     780
       1     781
       1     782
       1     783
       1     784
       1     785
       1     786
       1     787
       1     788
       1     789
       1     790
       1     791
       1     792
       1     793
       1     794
       1     795
       1     796
       1     797
       1     798
       1     799
       1     800
       1     801
       1     802
       1     803
       1     804
       1     805
       1     806
       1     807
       1     808
       1     809
       1     810
       1     811
       1     812
       1     813
       1     814
       1     815
       1     816
       1     817
       1     818
       1     819
       1     820
       1     821
       1     822
       1     823
       1     824
       1     825
       1     826
       1     827
       1     828
       1     829
       1     830
       1     831
       1     832
       1     833
       1     834
       1     835
       1     836
       1     837
       1     838
       1     839
       1     840
       1     841
       1     842
       1     843
       1     844
       1     845
       1     846
       1     847
       1     848
       1     849
       1     850
       1     851
       1     852
       1     853
       1     854
       1     855
       1     856
       1     857
       1     858
       1     859
       1     860
       1     861
       1     862
       1     863
       1     864
       1     865
       1     866
       1     867
       1     868
       1     869
       1     870
       1     871
       1     872
       1     873
       1     874
       1     875
       1     876
       1     877
       1     878
       1     879
       1     880
       1     881
       1     882
       1     883
       1     884
       1     885
       1     886
       1     887
       1     888
       1     889
       1     890
       1     891
       1     892
       1     893
       1     894
       1     895
       1     896
       1     897
       1     898
       1     899
       1     900
       1     901
       1     902
       1     903
       1     904
       1     905
       1     906
       1     907
       1     908
       1     909
       1     910
       1     911
       1     912
       1     913
       1     914
       1     915
       1     916
       1     917
       1     918
       1     919
       1     920
       1     921
       1     922
       1     923
       1     924
       1     925
       1     926
       1     927
       1     928
       1     929
       1     930
       1     931
       1     932
       1     933
       1     934
       1     935
       1     936
       1     937
       1     938
       1     939
       1     940
       1     941
       1     942
       1     943
       1     944
       1     945
       1     946
       1     947
       1     948
       1     949
       1     950
       1     951
       1     952
       1     953
       1     954
       1     955
       1     956
       1     957
       1     958
       1     959
       1     960
       1     961
       1     962
       1     963
       1     964
       1     965
       1     966
       1     967
       1     968
       1     969
       1     970
       1     971
       1     972
       1     973
       1     974
       1     975
       1     976
       1     977
       1     978
       1     979
       1     980
       1     981
       1     982
       1     983
       1     984
       1     985
       1     986
       1     987
       1     988
       1     989
       1     990
       1     991
       1     992
       1     993
       1     994
       1     995
       1     996
       1     997
       1     998
       1     999
       1    1000
       1    1001
       1    1002
       1    1003
       1    1004
       1    1005
       1    1006
       1    1007
       1    1008
       1    1009
       1    1010
       1    1011
       1    1012
       1    1013
       1    1014
       1    1015
       1    1016
       1    1017
       1    1018
       1    1019
       1    1020
       1    1021
       1    1022
       1    1023
       1    1024
       1    1025
       1    1026
       1    1027
       1    1028
       1    1029
       1    1030
       1    1031
       1    1032
       1    1033
       1    1034
       1    1035
       1    1036
       1    1037
       1    1038
       1    1039
       1    1040
       1    1041
       1    1042
       1    1043
       1    1044
       1    1045
       1    1046
       1    1047
       1    1048
       1    1049
       1    1050
       1    1051
       1    1052
       1    1053
       1    1054
       1    1055
       1    1056
       1    1057
       1    1058
       1    1059
       1    1060
       1    1061
       1    1062
       1    1063
       1    1064
       1    1065
       1    1066
       1    1067
       1    1068
       1    1069
       1    1070
       1    1071
       1    1072
       1    1073
       1    1074
       1    1075
       1    1076
       1    1077
       1    1078
       1    1079
       1    1080
       1    1081
       1    1082
       1    1083
       1    1084
       1    1085
       1    1086
       1    1087
       1    1088
       1    1089
       1    1090
       1    1091
       1    1092
       1    1093
       1    1094
       1    1095
       1    1096
       1    1097
       1    1098
       1    1099
       1    1100
       1    1101
       1    1102
       1    1103
       1    1104
       1    1105
       1    1106
       1    1107
       1    1108
       1    1109
       1    1110
       1    1111
       1    1112
       1    1113
       1    1114
       1    1115
       1    1116
       1    1117
       1    1118
       1    1119
       1    1120
       1    1121
       1    1122
       1    1123
       1    1124
       1    1125
       1    1126
       1    1127
       1    1128
       1    1129
       1    1130
       1    1131
       1    1132
       1    1133
       1    1134
       1    1135
       1    1136
       1    1137
       1    1138
       1    1139
       1    1140
       1    1141
       1    1142
       1    1143
       1    1144
       1    1145
       1    1146
       1    1147
       1    1148
       1    1149
       1    1150
       1    1151
       1    1152
       1    1153
       1    1154
       1    1155
       1    1156
       1    1157
       1    1158
       1    1159
       1    1160
       1    1161
       1    1162
       1    1163
       1    1164
       1    1165
       1    1166
       1    1167
       1    1168
       1    1169
       1    1170
       1    1171
       1    1172
       1    1173
       1    1174
       1    1175
       1    1176
       1    1177
       1    1178
       1    1179
       1    1180
       1    1181
       1    1182
       1    1183
       1    1184
       1    1185
       1    1186
       1    1187
       1    1188
       1    1189
       1    1190
       1    1191
       1    1192
       1    1193
       1    1194
       1    1195
       1    1196
       1    1197
       1    1198
       1    1199
       1    1200
       1    1201
       1    1202
       1    1203
       1    1204
       1    1205
       1    1206
       1    1207
       1    1208
       1    1209
       1    1210
       1    1211
       1    1212
       1    1213
       1    1214
       1    1215
       1    1216
       1    1217
       1    1218
       1    1219
       1    1220
       1    1221
       1    1222
       1    1223
       1    1224
       1    1225
       1    1226
       1    1227
       1    1228
       1    1229
       1    1230
       1    1231
       1    1232
       1    1233
       1    1234
       1    1235
       1    1236
       1    1237
       1    1238
       1    1239
       1    1240
       1    1241
       1    1242
       1    1243
       1    1244
       1    1245
       1    1246
       1    1247
       1    1248
       1    1249
       1    1250
       1    1251
       1    1252
       1    1253
       1    1254
       1    1255
       1    1256
       1    1257
       1    1258
       1    1259
       1    1260
       1    1261
       1    1262
       1    1263
       1    1264
       1    1265
       1    1266
       1    1267
       1    1268
       1    1269
       1    1270
       1    1271
       1    1272
       1    1273
       1    1274
       1    1275
       1    1276
       1    1277
       1    1278
       1    1279
       1    1280
       1    1281
       1    1282
       1    1283
       1    1284
       1    1285
       1    1286
       1    1287
       1    1288
       1    1289
       1    1290
       1    1291
       1    1292
       1    1293
       1    1294
       1    1295
       1    1296
       1    1297
       1    1298
       1    1299
       1    1300
       1    1301
       1    1302
       1    1303
       1    1304
       1    1305
       1    1306
       1    1307
       1    1308
       1    1309
       1    1310
       1    1311
       1    1312
       1    1313
       1    1314
       1    1315
       1    1316
       1    1317
       1    1318
       1    1319
       1    1320
       1    1321
       1    1322
       1    1323
       1    1324
       1    1325
       1    1326
       1    1327
       1    1328
       1    1329
       1    1330
       1    1331
       1    1332
       1    1333
       1    1334
       1    1335
       1    1336
       1    1337
       1    1338
       1    1339
       1    1340
       1    1341
       1    1342
       1    1343
       1    1344
       1    1345
       1    1346
       1    1347
       1    1348
       1    1349
       1    1350
       1    1351
       1    1352
       1    1353
       1    1354
       1    1355
       1    1356
       1    1357
       1    1358
       1    1359
       1    1360
       1    1361
       1    1362
       1    1363
       1    1364
       1    1365
       1    1366
       1    1367
       1    1368
       1    1369
       1    1370
       1    1371
       1    1372
       1    1373
       1    1374
       1    1375
       1    1376
       1    1377
       1    1378
       1    1379
       1    1380
       1    1381
       1    1382
       1    1383
       1    1384
       1    1385
       1    1386
       1    1387
       1    1388
       1    1389
       1    1390
       1    1391
       1    1392
       1    1393
       1    1394
       1    1395
       1    1396
       1    1397
       1    1398
       1    1399
       1    1400
       1    1401
       1    1402
       1    1403
       1    1404
       1    1405
       1    1406
       1    1407
       1    1408
       1    1409
       1    1410
       1    1411
       1    1412
       1    1413
       1    1414
       1    1415
       1    1416
       1    1417
       1    1418
       1    1419
       1    1420
       1    1421
       1    1422
       1    1423
       1    1424
       1    1425
       1    1426
       1    1427
       1    1428
       1    1429
       1    1430
       1    1431
       1    1432
       1    1433
       1    1434
       1    1435
       1    1436
       1    1437
       1    1438
       1    1439
       1    1440
       1    1441
       1    1442
       1    1443
       1    1444
       1    1445
       1    1446
       1    1447
       1    1448
       1    1449
       1    1450
       1    1451
       1    1452
       1    1453
       1    1454
       1    1455
       1    1456
       1    1457
       1    1458
       1    1459
       1    1460
       1    1461
       1    1462
       1    1463
       1    1464
       1    1465
       1    1466
       1    1467
       1    1468
       1    1469
       1    1470
       1    1471
       1    1472
       1    1473
       1    1474
       1    1475
       1    1476
       1    1477
       1    1478
       1    1479
       1    1480
       1    1481
       1    1482
       1    1483
       1    1484
       1    1485
       1    1486
       1    1487
       1    1488
       1    1489
       1    1490
       1    1491
       1    1492
       1    1493
       1    1494
       1    1495
       1    1496
       1    1497
       1    1498
       1    1499
       1    1500
       1    1501
       1    1502
       1    1503
       1    1504
       1    1505
       1    1506
       1    1507
       1    1508
       1    1509
       1    1510
       1    1511
       1    1512
       1    1513
       1    1514
       1    1515
       1    1516
       1    1517
       1    1518
       1    1519
       1    1520
       1    1521
       1    1522
       1    1523
       1    1524
       1    1525
       1    1526
       1    1527
       1    1528
       1    1529
       1    1530
       1    1531
       1    1532
       1    1533
       1    1534
       1    1535
       1    1536
       1    1537
       1    1538
       1    1539
       1    1540
       1    1541
       1    1542
       1    1543
       1    1544
       1    1545
       1    1546
       1    1547
       1    1548
       1    1549
       1    1550
       1    1551
       1    1552
       1    1553
       1    1554
       1    1555
       1    1556
       1    1557
       1    1558
       1    1559
       1    1560
       1    1561
       1    1562
       1    1563
       1    1564
       1    1565
       1    1566
       1    1567
       1    1568
       1    1569
       1    1570
       1    1571
       1    1572
       1    1573
       1    1574
       1    1575
       1    1576
       1    1577
       1    1578
       1    1579
       1    1580
       1    1581
       1    1582
       1    1583
       1    1584
       1    1585
       1    1586
       1    1587
       1    1588
       1    1589
       1    1590
       1    1591
       1    1592
       1    1593
       1    1594
       1    1595
       1    1596
       1    1597
       1    1598
       1    1599
       1    1600
       1    1601
       1    1602
       1    1603
       1    1604
       1    1605
       1    1606
       1    1607
       1    1608
       1    1609
       1    1610
       1    1611
       1    1612
       1    1613
       1    1614
       1    1615
       1    1616
       1    1617
       1    1618
       1    1619
       1    1620
       1    1621
       1    1622
       1    1623
       1    1624
       1    1625
       1    1626
       1    1627
       1    1628
       1    1629
       1    1630
       1    1631
       1    1632
       1    1633
       1    1634
       1    1635
       1    1636
       1    1637
       1    1638
       1    1639
       1    1640
       1    1641
       1    1642
       1    1643
       1    1644
       1    1645
       1    1646
       1    1647
       1    1648
       1    1649
       1    1650
       1    1651
       1    1652
       1    1653
       1    1654
       1    1655
       1    1656
       1    1657
       1    1658
       1    1659
       1    1660
       1    1661
       1    1662
       1    1663
       1    1664
       1    1665
       1    1666
       1    1667
       1    1668
       1    1669
       1    1670
       1    1671
       1    1672
       1    1673
       1    1674
       1    1675
       1    1676
       1    1677
       1    1678
       1    1679
       1    1680
       1    1681
       1    1682
       1    1683
       1    1684
       1    1685
       1    1686
       1    1687
       1    1688
       1    1689
       1    1690
       1    1691
       1    1692
       1    1693
       1    1694
       1    1695
       1    1696
       1    1697
       1    1698
       1    1699
       1    1700
       1    1701
       1    1702
       1    1703
       1    1704
       1    1705
       1    1706
       1    1707
       1    1708
       1    1709
       1    1710
       1    1711
       1    1712
       1    1713
       1    1714
       1    1715
       1    1716
       1    1717
       1    1718
       1    1719
       1    1720
       1    1721
       1    1722
       1    1723
       1    1724
       1    1725
       1    1726
       1    1727
       1    1728
       1    1729
       1    1730
       1    1731
       1    1732
       1    1733
       1    1734
       1    1735
       1    1736
       1    1737
       1    1738
       1    1739
       1    1740
       1    1741
       1    1742
       1    1743
       1    1744
       1    1745
       1    1746
       1    1747
       1    1748
       1    1749
       1    1750
       1    1751
       1    1752
       1    1753
       1    1754
       1    1755
       1    1756
       1    1757
       1    1758
       1    1759
       1    1760
       1    1761
       1    1762
       1    1763
       1    1764
       1    1765
       1    1766
       1    1767
       1    1768
       1    1769
       1    1770
       1    1771
       1    1772
       1    1773
       1    1774
       1    1775
       1    1776
       1    1777
       1    1778
       1    1779
       1    1780
       1    1781
       1    1782
       1    1783
       1    1784
       1    1785
       1    1786
       1    1787
       1    1788
       1    1789
       1    1790
       1    1791
       1    1792
       1    1793
       1    1794
       1    1795
       1    1796
       1    1797
       1    1798
       1    1799
       1    1800
       1    1801
       1    1802
       1    1803
       1    1804
       1    1805
       1    1806
       1    1807
       1    1808
       1    1809
       1    1810
       1    1811
       1    1812
       1    1813
       1    1814
       1    1815
       1    1816
       1    1817
       1    1818
       1    1819
       1    1820
       1    1821
       1    1822
       1    1823
       1    1824
       1    1825
       1    1826
       1    1827
       1    1828
       1    1829
       1    1830
       1    1831
       1    1832
       1    1833
       1    1834
       1    1835
       1    1836
       1    1837
       1    1838
       1    1839
       1    1840
       1    1841
       1    1842
       1    1843
       1    1844
       1    1845
       1    1846
       1    1847
       1    1848
       1    1849
       1    1850
       1    1851
       1    1852
       1    1853
       1    1854
       1    1855
       1    1856
       1    1857
       1    1858
       1    1859
       1    1860
       1    1861
       1    1862
       1    1863
       1    1864
       1    1865
       1    1866
       1    1867
       1    1868
       1    1869
       1    1870
       1    1871
       1    1872
       1    1873
       1    1874
       1    1875
       1    1876
       1    1877
       1    1878
       1    1879
       1    1880
       1    1881
       1    1882
       1    1883
       1    1884
       1    1885
       1    1886
       1    1887
       1    1888
       1    1889
       1    1890
       1    1891
       1    1892
       1    1893
       1    1894
       1    1895
       1    1896
       1    1897
       1    1898
       1    1899
       1    1900
       1    1901
       1    1902
       1    1903
       1    1904
       1    1905
       1    1906
       1    1907
       1    1908
       1    1909
       1    1910
       1    1911
       1    1912
       1    1913
       1    1914
       1    1915
       1    1916
       1    1917
       1    1918
       1    1919
       1    1920
       1    1921
       1    1922
       1    1923
       1    1924
       1    1925
       1    1926
       1    1927
       1    1928
       1    1929
       1    1930
       1    1931
       1    1932
       1    1933
       1    1934
       1    1935
       1    1936
       1    1937
       1    1938
       1    1939
       1    1940
       1    1941
       1    1942
       1    1943
       1    1944
       1    1945
       1    1946
       1    1947
       1    1948
       1    1949
  
CELL_TYPES    1950
       1
       1
       1
       1
       1
       1
       1
       1
       1
       1
       1
       1
       1
       1
       1
       1
       1
       1
       1
       1
       1
       1
       1
       1
       1
       1
       1
       1
       1
       1
       1
       1
       1
       1
       1
       1
       1
       1
       1
       1
       1
       1
       1
       1
       1
       1
       1
       1
       1
       1
       1
       1
       1
       1
       1
       1
       1
       1
       1
       1
       1
       1
       1
       1
       1
       1
       1
       1
       1
       1
       1
       1
       1
       1
       1
       1
       1
       1
       1
       1
       1
       1
       1
       1
       1
       1
       1
       1
       1
       1
       1
       1
       1
       1
       1
       1
       1
       1
       1
       1
       1
       1
       1
       1
       1
       1
       1
       1
       1
       1
       1
       1
       1
       1
       1
       1
       1
       1
       1
       1
       1
       1
       1
       1
       1
       1
       1
       1
       1
       1
       1
       1
       1
       1
       1
       1
       1
       1
       1
       1
       1
       1
       1
       1
       1
       1
       1
       1
       1
       1
       1
       1
       1
       1
       1
       1
       1
       1
       1
       1
       1
       1
       1
       1
       1
       1
       1
       1
       1
       1
       1
       1
       1
       1
       1
       1
       1
       1
       1
       1
       1
       1
       1
       1
       1
       1
       1
       1
       1
       1
       1
       1
       1
       1
       1
       1
       1
       1
       1
       1
       1
       1
       1
       1
       1
       1
       1
       1
       1
       1
       1
       1
       1
       1
       1
       1
       1
       1
       1
       1
       1
       1
       1
       1
       1
       1
       1
       1
       1
       1
       1
       1
       1
       1
       1
       1
       1
       1
       1
       1
       1
       1
       1
       1
       1
       1
       1
       1
       1
       1
       1
       1
       1
       1
       1
       1
       1
       1
       1
       1
       1
       1
       1
       1
       1
       1
       1
       1
       1
       1
       1
       1
       1
       1
       1
       1
       1
       1
       1
       1
       1
       1
       1
       1
       1
       1
       1
       1
       1
       1
       1
       1
       1
       1
       1
       1
       1
       1
       1
       1
       1
       1
       1
       1
       1
       1
       1
       1
       1
       1
       1
       1
       1
       1
       1
       1
       1
       1
       1
       1
       1
       1
       1
       1
       1
       1
       1
       1
       1
       1
       1
       1
       1
       1
       1
       1
       1
       1
       1
       1
       1
       1
       1
       1
       1
       1
       1
       1
       1
       1
       1
       1
       1
       1
       1
       1
       1
       1
       1
       1
       1
       1
       1
       1
       1
       1
       1
       1
       1
       1
       1
       1
       1
       1
       1
       1
       1
       1
       1
       1
       1
       1
       1
       1
       1
       1
       1
       1
       1
       1
       1
       1
       1
       1
       1
       1
       1
       1
       1
       1
       1
       1
       1
       1
       1
       1
       1
       1
       1
       1
       1
       1
       1
       1
       1
       1
       1
       1
       1
       1
       1
       1
       1
       1
       1
       1
       1
       1
       1
       1
       1
       1
       1
       1
       1
       1
       1
       1
       1
       1
       1
       1
       1
       1
       1
       1
       1
       1
       1
       1
       1
       1
       1
       1
       1
       1
       1
       1
       1
       1
       1
       1
       1
       1
       1
       1
       1
       1
       1
       1
       1
       1
       1
       1
       1
       1
       1
       1
       1
       1
       1
       1
       1
       1
       1
       1
       1
       1
       1
       1
       1
       1
       1
       1
       1
       1
       1
       1
       1
       1
       1
       1
       1
       1
       1
       1
       1
       1
       1
       1
       1
       1
       1
       1
       1
       1
       1
       1
       1
       1
       1
       1
       1
       1
       1
       1
       1
       1
       1
       1
       1
       1
       1
       1
       1
       1
       1
       1
       1
       1
       1
       1
       1
       1
       1
       1
       1
       1
       1
       1
       1
       1
       1
       1
       1
       1
       1
       1
       1
       1
       1
       1
       1
       1
       1
       1
       1
       1
       1
       1
       1
       1
       1
       1
       1
       1
       1
       1
       1
       1
       1
       1
       1
       1
       1
       1
       1
       1
       1
       1
       1
       1
       1
       1
       1
       1
       1
       1
       1
       1
       1
       1
       1
       1
       1
       1
       1
       1
       1
       1
       1
       1
       1
       1
       1
       1
       1
       1
       1
       1
       1
       1
       1
       1
       1
       1
       1
       1
       1
       1
       1
       1
       1
       1
       1
       1
       1
       1
       1
       1
       1
       1
       1
       1
       1
       1
       1
       1
       1
       1
       1
       1
       1
       1
       1
       1
       1
       1
       1
       1
       1
       1
       1
       1
       1
       1
       1
       1
       1
       1
       1
       1
       1
       1
       1
       1
       1
       1
       1
       1
       1
       1
       1
       1
       1
       1
       1
       1
       1
       1
       1
       1
       1
       1
       1
       1
       1
       1
       1
       1
       1
       1
       1
       1
       1
       1
       1
       1
       1
       1
       1
       1
       1
       1
       1
       1
       1
       1
       1
       1
       1
       1
       1
       1
       1
       1
       1
       1
       1
       1
       1
       1
       1
       1
       1
       1
       1
       1
       1
       1
       1
       1
       1
       1
       1
       1
       1
       1
       1
       1
       1
       1
       1
       1
       1
       1
       1
       1
       1
       1
       1
       1
       1
       1
       1
       1
       1
       1
       1
       1
       1
       1
       1
       1
       1
       1
       1
       1
       1
       1
       1
       1
       1
       1
       1
       1
       1
       1
       1
       1
       1
       1
       1
       1
       1
       1
       1
       1
       1
       1
       1
       1
       1
       1
       1
       1
       1
       1
       1
       1
       1
       1
       1
       1
       1
       1
       1
       1
       1
       1
       1
       1
       1
       1
       1
       1
       1
       1
       1
       1
       1
       1
       1
       1
       1
       1
       1
       1
       1
       1
       1
       1
       1
       1
       1
       1
       1
       1
       1
       1
       1
       1
       1
       1
       1
       1
       1
       1
       1
       1
       1
       1
       1
       1
       1
       1
       1
       1
       1
       1
       1
       1
       1
       1
       1
       1
       1
       1
       1
       1
       1
       1
       1
       1
       1
       1
       1
       1
       1
       1
       1
       1
       1
       1
       1
       1
       1
       1
       1
       1
       1
       1
       1
       1
       1
       1
       1
       1
       1
       1
       1
       1
       1
       1
       1
       1
       1
       1
       1
       1
       1
       1
       1
       1
       1
       1
       1
       1
       1
       1
       1
       1
       1
       1
       1
       1
       1
       1
       1
       1
       1
       1
       1
       1
       1
       1
       1
       1
       1
       1
       1
       1
       1
       1
       1
       1
       1
       1
       1
       1
       1
       1
       1
       1
       1
       1
       1
       1
       1
       1
       1
       1
       1
       1
       1
       1
       1
       1
       1
       1
       1
       1
       1
       1
       1
       1
       1
       1
       1
       1
       1
       1
       1
       1
       1
       1
       1
       1
       1
       1
       1
       1
       1
       1
       1
       1
       1
       1
       1
       1
       1
       1
       1
       1
       1
       1
       1
       1
       1
       1
       1
       1
       1
       1
       1
       1
       1
       1
       1
       1
       1
       1
       1
       1
       1
       1
       1
       1
       1
       1
       1
       1
       1
       1
       1
       1
       1
       1
       1
       1
       1
       1
       1
       1
       1
       1
       1
       1
       1
       1
       1
       1
       1
       1
       1
       1
       1
       1
       1
       1
       1
       1
       1
       1
       1
       1
       1
       1
       1
       1
       1
       1
       1
       1
       1
       1
       1
       1
       1
       1
       1
       1
       1
       1
       1
       1
       1
       1
       1
       1
       1
       1
       1
       1
       1
       1
       1
       1
       1
       1
       1
       1
       1
       1
       1
       1
       1
       1
       1
       1
       1
       1
       1
       1
       1
       1
       1
       1
       1
       1
       1
       1
       1
       1
       1
       1
       1
       1
       1
       1
       1
       1
       1
       1
       1
       1
       1
       1
       1
       1
       1
       1
       1
       1
       1
       1
       1
       1
       1
       1
       1
       1
       1
       1
       1
       1
       1
       1
       1
       1
       1
       1
       1
       1
       1
       1
       1
       1
       1
       1
       1
       1
       1
       1
       1
       1
       1
       1
       1
       1
       1
       1
       1
       1
       1
       1
       1
       1
       1
       1
       1
       1
       1
       1
       1
       1
       1
       1
       1
       1
       1
       1
       1
       1
       1
       1
       1
       1
       1
       1
       1
       1
       1
       1
       1
       1
       1
       1
       1
       1
       1
       1
       1
       1
       1
       1
       1
       1
       1
       1
       1
       1
       1
       1
       1
       1
       1
       1
       1
       1
       1
       1
       1
       1
       1
       1
       1
       1
       1
       1
       1
       1
       1
       1
       1
       1
       1
       1
       1
       1
       1
       1
       1
       1
       1
       1
       1
       1
       1
       1
       1
       1
       1
       1
       1
       1
       1
       1
       1
       1
       1
       1
       1
       1
       1
       1
       1
       1
       1
       1
       1
       1
       1
       1
       1
       1
       1
       1
       1
       1
       1
       1
       1
       1
       1
       1
       1
       1
       1
       1
       1
       1
       1
       1
       1
       1
       1
       1
       1
       1
       1
       1
       1
       1
       1
       1
       1
       1
       1
       1
       1
       1
       1
       1
       1
       1
       1
       1
       1
       1
       1
       1
       1
       1
       1
       1
       1
       1
       1
       1
       1
       1
       1
       1
       1
       1
       1
       1
       1
       1
       1
       1
       1
       1
       1
       1
       1
       1
       1
       1
       1
       1
       1
       1
       1
       1
       1
       1
       1
       1
       1
       1
       1
       1
       1
       1
       1
       1
       1
       1
       1
       1
       1
       1
       1
       1
       1
       1
       1
       1
       1
       1
       1
       1
       1
       1
       1
       1
       1
       1
       1
       1
       1
       1
       1
       1
       1
       1
       1
       1
       1
       1
       1
       1
       1
       1
       1
       1
       1
       1
       1
       1
       1
       1
       1
       1
       1
       1
       1
       1
       1
       1
       1
       1
       1
       1
       1
       1
       1
       1
       1
       1
       1
       1
       1
       1
       1
       1
       1
       1
       1
       1
       1
       1
       1
       1
       1
       1
       1
       1
       1
       1
       1
       1
       1
       1
       1
       1
       1
       1
       1
       1
       1
       1
       1
       1
       1
       1
       1
       1
       1
       1
       1
       1
       1
       1
       1
       1
       1
       1
       1
       1
       1
       1
       1
       1
       1
       1
       1
       1
       1
       1
       1
       1
       1
       1
       1
       1
       1
       1
       1
       1
       1
       1
       1
       1
       1
       1
       1
       1
       1
       1
       1
       1
       1
       1
       1
       1
       1
       1
       1
       1
       1
       1
       1
       1
       1
       1
       1
       1
       1
       1
       1
       1
       1
       1
       1
       1
       1
       1
       1
       1
       1
       1
       1
       1
       1
       1
       1
       1
       1
       1
       1
       1
       1
       1
       1
       1
       1
       1
       1
       1
       1
       1
       1
       1
       1
       1
       1
       1
       1
       1
       1
       1
       1
       1
       1
       1
       1
       1
       1
       1
       1
       1
       1
       1
       1
       1
       1
       1
       1
       1
       1
       1
       1
       1
       1
       1
       1
       1
       1
       1
       1
       1
       1
       1
       1
       1
       1
       1
       1
       1
       1
       1
       1
       1
       1
       1
       1
       1
       1
       1
       1
       1
       1
       1
       1
       1
       1
       1
       1
       1
       1
       1
       1
       1
       1
       1
       1
       1
       1
       1
       1
       1
       1
       1
       1
       1
       1
       1
       1
       1
       1
       1
       1
       1
       1
       1
       1
       1
       1
       1
       1
       1
       1
       1
       1
       1
       1
       1
       1
       1
       1
       1
       1
       1
       1
       1
       1
       1
       1
       1
       1
       1
       1
       1
       1
       1
       1
       1
       1
       1
       1
       1
       1
       1
       1
       1
       1
       1
       1
       1
       1
       1
       1
       1
       1
       1
       1
       1
       1
       1
       1
       1
       1
       1
       1
       1
       1
       1
       1
       1
       1
       1
       1
       1
       1
       1
       1
       1
       1
       1
       1
       1
       1
       1
       1
       1
       1
       1
       1
       1
       1
       1
       1
       1
       1
       1
       1
       1
       1
       1
       1
       1
       1
       1
       1
       1
       1
       1
       1
       1
       1
       1
       1
       1
       1
       1
       1
       1
       1
       1
       1
       1
       1
       1
       1
       1
       1
       1
       1
       1
       1
       1
       1
       1
       1
       1
       1
       1
       1
       1
       1
       1
       1
       1
       1
       1
       1
       1
       1
       1
       1
       1
       1
       1
       1
       1
       1
       1
       1
       1
       1
       1
       1
       1
       1
       1
       1
       1
       1
       1
       1
       1
       1
       1
       1
       1
       1
       1
       1
       1
       1
       1
       1
       1
       1
       1
       1
       1
       1
       1
       1
       1
       1
       1
       1
       1
       1
       1
       1
       1
       1
       1
       1
       1
       1
       1
       1
       1
       1
       1
       1
       1
       1
       1
       1
       1
       1
       1
       1
       1
       1
       1
       1
       1
       1
       1
       1
       1
       1
       1
       1
       1
       1
       1
       1
       1
       1
       1
       1
       1
       1
       1
       1
       1
       1
       1
       1
       1
       1
       1
       1
       1
       1
       1
       1
       1
       1
       1
       1
       1
       1
       1
       1
       1
       1
       1
       1
       1
  
  
POINT_DATA       1950
  
SCALARS                  material_type  double 1
LOOKUP_TABLE default
                   2
                   2
                   2
                   2
                   2
                   2
                   2
                   2
                   2
                   2
                   2
                   2
                   2
                   2
                   2
                   2
                   2
                   2
                   2
                   2
                   2
                   2
                   2
                   2
                   2
                   2
                   2
                   2
                   2
                   2
                   2
                   2
                   2
                   2
                   2
                   2
                   2
                   2
                   2
                   2
                   2
                   2
                   2
                   2
                   2
                   2
                   2
                   2
                   2
                   2
                   2
                   2
                   2
                   2
                   2
                   2
                   2
                   2
                   2
                   2
                   2
                   2
                   2
                   2
                   2
                   2
                   2
                   2
                   2
                   2
                   2
                   2
                   2
                   2
                   2
                   2
                   2
                   2
                   2
                   2
                   2
                   2
                   2
                   2
                   2
                   2
                   2
                   2
                   2
                   2
                   2
                   2
                   2
                   2
                   2
                   2
                   2
                   2
                   2
                   2
                   2
                   2
                   2
                   2
                   2
                   2
                   2
                   2
                   2
                   2
                   2
                   2
                   2
                   2
                   2
                   2
                   2
                   2
                   2
                   2
                   2
                   2
                   2
                   2
                   2
                   2
                   2
                   2
                   2
                   2
                   2
                   2
                   2
                   2
                   2
                   2
                   2
                   2
                   2
                   2
                   2
                   2
                   2
                   2
                   2
                   2
                   2
                   2
                   2
                   2
                   2
                   2
                   2
                   2
                   2
                   2
                   2
                   2
                   2
                   2
                   2
                   2
                   2
                   2
                   2
                   2
                   2
                   2
                   2
                   2
                   2
                   2
                   2
                   2
                   2
                   2
                   2
                   2
                   2
                   2
                   2
                   2
                   2
                   2
                   2
                   2
                   2
                   2
                   2
                   2
                   2
                   2
                   2
                   2
                   2
                   2
                   2
                   2
                   2
                   2
                   2
                   2
                   2
                   2
                   2
                   2
                   2
                   2
                   2
                   2
                   2
                   2
                   2
                   2
                   2
                   2
                   2
                   2
                   2
                   2
                   2
                   2
                   2
                   2
                   2
                   2
                   2
                   2
                   2
                   2
                   2
                   2
                   2
                   2
                   2
                   2
                   2
                   2
                   2
                   2
                   2
                   2
                   2
                   2
                   2
                   2
                   2
                   2
                   2
                   2
                   2
                   2
                   2
                   2
                   2
                   2
                   2
                   2
                   2
                   2
                   2
                   2
                   2
                   2
                   2
                   2
                   2
                   2
                   2
                   2
                   2
                   2
                   2
                   2
                   2
                   2
                   2
                   2
                   2
                   2
                   2
                   2
                   2
                   2
                   2
                   2
                   2
                   2
                   2
                   2
                   2
                   2
                   2
                   2
                   2
                   2
                   2
                   2
                   2
                   2
                   2
                   2
                   2
                   2
                   2
                   2
                   2
                   2
                   2
                   2
                   2
                   2
                   2
                   2
                   2
                   2
                   2
                   2
                   2
                   2
                   2
                   2
                   2
                   2
                   2
                   2
                   2
                   2
                   2
                   2
                   2
                   2
                   2
                   2
                   2
                   2
                   2
                   2
                   2
                   2
                   2
                   2
                   2
                   2
                   2
                   2
                   2
                   2
                   2
                   2
                   2
                   2
                   2
                   2
                   2
                   2
                   2
                   2
                   2
                   2
                   2
                   2
                   2
                   2
                   2
                   2
                   2
                   2
                   2
                   2
                   2
                   2
                   2
                   2
                   2
                   2
                   2
                   2
                   2
                   2
                   2
                   2
                   2
                   2
                   2
                   2
                   2
                   2
                   2
                   2
                   2
                   2
                   2
                   2
                   2
                   2
                   2
                   2
                   2
                   2
                   2
                   2
                   2
                   2
                   2
                   2
                   2
                   2
                   2
                   2
                   2
                   2
                   2
                   2
                   2
                   2
                   2
                   2
                   2
                   2
                   2
                   2
                   2
                   2
                   2
                   2
                   2
                   2
                   2
                   2
                   2
                   2
                   2
                   2
                   2
                   2
                   2
                   2
                   2
                   2
                   2
                   2
                   2
                   2
                   2
                   2
                   2
                   2
                   2
                   2
                   2
                   2
                   2
                   2
                   2
                   2
                   2
                   2
                   2
                   2
                   2
                   2
                   2
                   2
                   2
                   2
                   2
                   2
                   2
                   2
                   2
                   2
                   2
                   2
                   2
                   2
                   2
                   2
                   2
                   2
                   2
                   2
                   2
                   2
                   2
                   2
                   2
                   2
                   2
                   2
                   2
                   2
                   2
                   2
                   2
                   2
                   2
                   2
                   2
                   2
                   2
                   2
                   2
                   2
                   2
                   2
                   2
                   2
                   2
                   2
                   2
                   2
                   2
                   2
                   2
                   2
                   2
                   2
                   2
                   2
                   2
                   2
                   2
                   2
                   2
                   2
                   2
                   2
                   2
                   2
                   2
                   2
                   2
                   2
                   2
                   2
                   2
                   2
                   2
                   2
                   2
                   2
                   2
                   2
                   2
                   2
                   2
                   2
                   2
                   2
                   2
                   2
                   2
                   2
                   2
                   2
                   2
                   2
                   2
                   2
                   2
                   2
                   2
                   2
                   2
                   2
                   2
                   2
                   2
                   2
                   2
                   2
                   2
                   2
                   2
                   2
                   2
                   2
                   2
                   2
                   2
                   2
                   2
                   2
                   2
                   2
                   2
                   2
                   2
                   2
                   2
                   2
                   2
                   2
                   2
                   2
                   2
                   2
                   2
                   2
                   2
                   2
                   2
                   2
                   2
                   2
                   2
                   2
                   2
                   2
                   2
                   2
                   2
                   2
                   2
                   2
                   2
                   2
                   2
                   2
                   2
                   2
                   2
                   2
                   2
                   2
                   2
                   2
                   2
                   2
                   2
                   2
                   2
                   2
                   2
                   2
                   2
                   2
                   2
                   2
                   2
                   2
                   2
                   2
                   2
                   2
                   2
                   2
                   2
                   2
                   2
                   2
                   2
                   2
                   2
                   2
                   2
                   2
                   2
                   2
                   2
                   2
                   2
                   2
                   2
                   2
                   2
                   2
                   2
                   2
                   2
                   2
                   2
                   2
                   2
                   2
                   2
                   2
                   2
                   2
                   2
                   2
                   2
                   2
                   2
                   2
                   2
                   2
                   2
                   2
                   2
                   2
                   2
                   2
                   2
                   2
                   2
                   2
                   2
                   2
                   2
                   2
                   2
                   2
                   2
                   2
                   2
                   2
                   2
                   2
                   2
                   2
                   2
                   2
                   2
                   2
                   2
                   2
                   2
                   2
                   2
                   2
                   2
                   2
                   2
                   2
                   2
                   2
                   2
                   2
                   2
                   2
                   2
                   2
                   2
                   2
                   2
                   2
                   2
                   2
                   2
                   2
                   2
                   2
                   2
                   2
                   2
                   2
                   2
                   2
                   2
                   2
                   2
                   2
                   2
                   2
                   2
                   2
                   2
                   2
                   2
                   2
                   2
                   2
                   2
                   2
                   2
                   2
                   2
                   2
                   2
                   2
                   2
                   2
                   2
                   2
                   2
                   2
                   2
                   2
                   2
                   2
                   2
                   2
                   2
                   2
                   2
                   2
                   2
                   2
                   2
                   2
                   2
                   2
                   2
                   2
                   2
                   2
                   2
                   2
                   2
                   2
                   2
                   2
                   2
                   2
                   2
                   2
                   2
                   2
                   2
                   2
                   2
                   2
                   2
                   2
                   2
                   2
                   2
                   2
                   2
                   2
                   2
                   2
                   2
                   2
                   2
                   2
                   2
                   2
                   2
                   2
                   2
                   2
                   2
                   2
                   2
                   2
                   2
                   2
                   2
                   2
                   2
                   2
                   2
                   2
                   2
                   2
                   2
                   2
                   2
                   2
                   2
                   2
                   2
                   2
                   2
                   2
                   2
                   2
                   2
                   2
                   2
                   2
                   2
                   2
                   2
                   2
                   2
                   2
                   2
                   2
                   2
                   2
                   2
                   2
                   2
                   2
                   2
                   2
                   2
                   2
                   2
                   2
                   2
                   2
                   2
                   2
                   2
                   2
                   2
                   2
                   2
                   2
                   2
                   2
                   2
                   2
                   2
                   2
                   2
                   2
                   2
                   2
                   2
                   2
                   2
                   2
                   2
                   2
                   2
                   2
                   2
                   2
                   2
                   2
                   2
                   2
                   2
                   2
                   2
                   2
                   2
                   2
                   2
                   2
                   2
                   2
                   2
                   2
                   2
                   2
                   2
                   2
                   2
                   2
                   2
                   2
                   2
                   2
                   2
                   2
                   2
                   2
                   2
                   2
                   2
                   2
                   2
                   2
                   2
                   2
                   2
                   2
                   2
                   2
                   2
                   2
                   2
                   2
                   2
                   2
                   2
                   2
                   2
                   2
                   2
                   2
                   2
                   2
                   2
                   2
                   2
                   2
                   2
                   2
                   2
                   2
                   2
                   2
                   2
                   2
                   2
                   2
                   2
                   2
                   2
                   2
                   2
                   2
                   2
                   2
                   2
                   2
                   2
                   2
                   2
                   2
                   2
                   2
                   2
                   2
                   2
                   2
                   2
                   2
                   2
                   2
                   2
                   2
                   2
                   2
                   2
                   2
                   2
                   2
                   2
                   2
                   2
                   2
                   2
                   2
                   2
                   2
                   2
                   2
                   2
                   2
                   2
                   2
                   2
                   2
                   2
                   2
                   2
                   2
                   2
                   2
                   2
                   2
                   2
                   2
                   2
                   2
                   2
                   2
                   2
                   2
                   2
                   2
                   2
                   2
                   2
                   2
                   2
                   2
                   2
                   2
                   2
                   2
                   2
                   2
                   2
                   2
                   2
                   2
                   2
                   2
                   2
                   2
                   2
                   2
                   2
                   2
                   2
                   2
                   2
                   2
                   2
                   2
                   2
                   2
                   2
                   2
                   2
                   2
                   2
                   2
                   2
                   2
                   2
                   2
                   2
                   2
                   2
                   2
                   2
                   2
                   2
                   2
                   2
                   2
                   2
                   2
                   2
                   2
                   2
                   2
                   2
                   2
                   2
                   2
                   2
                   2
                   2
                   2
                   2
                   2
                   2
                   2
                   2
                   2
                   2
                   2
                   2
                   2
                   2
                   2
                   2
                   2
                   2
                   2
                   2
                   2
                   2
                   2
                   2
                   2
                   2
                   2
                   2
                   2
                   2
                   2
                   2
                   2
                   2
                   2
                   2
                   2
                   2
                   2
                   2
                   2
                   2
                   2
                   2
                   2
                   2
                   2
                   2
                   2
                   2
                   2
                   2
                   2
                   2
                   2
                   2
                   2
                   2
                   2
                   2
                   2
                   2
                   2
                   2
                   2
                   2
                   2
                   2
                   2
                   2
                   2
                   2
                   2
                   2
                   2
                   2
                   2
                   2
                   2
                   2
                   2
                   2
                   2
                   2
                   2
                   2
                   2
                   2
                   2
                   2
                   2
                   2
                   2
                   2
                   2
                   2
                   2
                   2
                   2
                   2
                   2
                   2
                   2
                   2
                   2
                   2
                   2
                   2
                   2
                   2
                   2
                   2
                   2
                   2
                   2
                   2
                   2
                   2
                   2
                   2
                   2
                   2
                   2
                   2
                   2
                   2
                   2
                   2
                   2
                   2
                   2
                   2
                   2
                   2
                   2
                   2
                   2
                   2
                   2
                   2
                   2
                   2
                   2
                   2
                   2
                   2
                   2
                   2
                   2
                   2
                   2
                   2
                   2
                   2
                   2
                   2
                   2
                   2
                   2
                   2
                   2
                   2
                   2
                   2
                   2
                   2
                   2
                   2
                   2
                   2
                   2
                   2
                   2
                   2
                   2
                   2
                   2
                   2
                   2
                   2
                   2
                   2
                   2
                   2
                   2
                   2
                   2
                   2
                   2
                   2
                   2
                   2
                   2
                   2
                   2
                   2
                   2
                   2
                   2
                   2
                   2
                   2
                   2
                   2
                   2
                   2
                   2
                   2
                   2
                   2
                   2
                   2
                   2
                   2
                   2
                   2
                   2
                   2
                   2
                   2
                   2
                   2
                   2
                   2
                   2
                   2
                   2
                   2
                   2
                   2
                   2
                   2
                   2
                   2
                   2
                   2
                   2
                   2
                   2
                   2
                   2
                   2
                   2
                   2
                   2
                   2
                   2
                   2
                   2
                   2
                   2
                   2
                   2
                   2
                   2
                   2
                   2
                   2
                   2
                   2
                   2
                   2
                   2
                   2
                   2
                   2
                   2
                   2
                   2
                   2
                   2
                   2
                   2
                   2
                   2
                   2
                   2
                   2
                   2
                   2
                   2
                   2
                   2
                   2
                   2
                   2
                   2
                   2
                   2
                   2
                   2
                   2
                   2
                   2
                   2
                   2
                   2
                   2
                   2
                   2
                   2
                   2
                   2
                   2
                   2
                   2
                   2
                   2
                   2
                   2
                   2
                   2
                   2
                   2
                   2
                   2
                   2
                   2
                   2
                   2
                   2
                   2
                   2
                   2
                   2
                   2
                   2
                   2
                   2
                   2
                   2
                   2
                   2
                   2
                   2
                   2
                   2
                   2
                   2
                   2
                   2
                   2
                   2
                   2
                   2
                   2
                   2
                   2
                   2
                   2
                   2
                   2
                   2
                   2
                   2
                   2
                   2
                   2
                   2
                   2
                   2
                   2
                   2
                   2
                   2
                   2
                   2
                   2
                   2
                   2
                   2
                   2
                   2
                   2
                   2
                   2
                   2
                   2
                   2
                   2
                   2
                   2
                   2
                   2
                   2
                   2
                   2
                   2
                   2
                   2
                   2
                   2
                   2
                   2
                   2
                   2
                   2
                   2
                   2
                   2
                   2
                   2
                   2
                   2
                   2
                   2
                   2
                   2
                   2
                   2
                   2
                   2
                   2
                   2
                   2
                   2
                   2
                   2
                   2
                   2
                   2
                   2
                   2
                   2
                   2
                   2
                   2
                   2
                   2
                   2
                   2
                   2
                   2
                   2
                   2
                   2
                   2
                   2
                   2
                   2
                   2
                   2
                   2
                   2
                   2
                   2
                   2
                   2
                   2
                   2
                   2
                   2
                   2
                   2
                   2
                   2
                   2
                   2
                   2
                   2
                   2
                   2
                   2
                   2
                   2
                   2
                   2
                   2
                   2
                   2
                   2
                   2
                   2
                   2
                   2
                   2
                   2
                   2
                   2
                   2
                   2
                   2
                   2
                   2
                   2
                   2
                   2
                   2
                   2
                   2
                   2
                   2
                   2
                   2
                   2
                   2
                   2
                   2
                   2
                   2
                   2
                   2
                   2
                   2
                   2
                   2
                   2
                   2
                   2
                   2
                   2
                   2
                   2
                   2
                   2
                   2
                   2
                   2
                   2
                   2
                   2
                   2
                   2
                   2
                   2
                   2
                   2
                   2
                   2
                   2
                   2
                   2
                   2
                   2
                   2
                   2
                   2
                   2
                   2
                   2
                   2
                   2
                   2
                   2
                   2
                   2
                   2
                   2
                   2
                   2
                   2
                   2
                   2
                   2
                   2
                   2
                   2
                   2
                   2
                   2
                   2
                   2
                   2
                   2
                   2
                   2
                   2
                   2
                   2
                   2
                   2
                   2
                   2
                   2
                   2
                   2
                   2
                   2
                   2
                   2
                   2
                   2
                   2
                   2
                   2
                   2
                   2
                   2
                   2
                   2
                   2
                   2
                   2
                   2
                   2
                   2
                   2
                   2
                   2
                   2
                   2
                   2
                   2
                   2
                   2
                   2
                   2
                   2
                   2
                   2
                   2
                   2
                   2
                   2
                   2
                   2
                   2
                   2
                   2
                   2
                   2
                   2
                   2
                   2
                   2
                   2
                   2
                   2
                   2
                   2
                   2
                   2
                   2
                   2
                   2
                   2
                   2
                   2
                   2
                   2
                   2
                   2
                   2
                   2
                   2
                   2
                   2
                   2
                   2
                   2
                   2
                   2
                   2
                   2
                   2
                   2
                   2
                   2
                   2
                   2
                   2
                   2
                   2
                   2
                   2
                   2
                   2
                   2
                   2
                   2
                   2
                   2
                   2
                   2
                   2
                   2
                   2
                   2
                   2
                   2
                   2
                   2
                   2
                   2
                   2
                   2
                   2
                   2
                   2
                   2
                   2
                   2
                   2
                   2
                   2
                   2
                   2
                   2
                   2
                   2
                   2
                   2
                   2
                   2
                   2
                   2
                   2
                   2
                   2
                   2
                   2
                   2
                   2
                   2
                   2
                   2
                   2
                   2
                   2
                   2
                   2
                   2
                   2
                   2
                   2
                   2
                   2
                   2
                   2
                   2
                   2
                   2
                   2
                   2
                   2
                   2
                   2
                   2
                   2
                   2
                   2
                   2
                   2
                   2
                   2
                   2
                   2
                   2
                   2
                   2
                   2
                   2
                   2
                   2
                   2
                   2
                   2
                   2
                   2
                   2
                   2
                   2
                   2
                   2
                   2
                   2
                   2
                   2
                   2
                   2
                   2
                   2
                   2
                   2
                   2
                   2
                   2
                   2
                   2
                   2
                   2
                   2
                   2
                   2
                   2
                   2
                   2
                   2
                   2
                   2
                   2
                   2
                   2
                   2
                   2
                   2
                   2
                   2
                   2
                   2
                   2
                   2
                   2
                   2
                   2
                   2
                   2
                   2
                   2
                   2
                   2
                   2
                   2
                   2
                   2
                   2
                   2
                   2
                   2
                   2
                   2
                   2
                   2
                   2
                   2
                   2
                   2
                   2
                   2
                   2
                   2
                   2
                   2
                   2
                   2
                   2
                   2
  
SCALARS                        node_id  double 1
LOOKUP_TABLE default
                   1
                   2
                   3
                   4
                   5
                   6
                   7
                   8
                   9
                  10
                  11
                  12
                  13
                  14
                  15
                  16
                  17
                  18
                  19
                  20
                  21
                  22
                  23
                  24
                  25
                  26
                  27
                  28
                  29
                  30
                  31
                  32
                  33
                  34
                  35
                  36
                  37
                  38
                  39
                  40
                  41
                  42
                  43
                  44
                  45
                  46
                  47
                  48
                  49
                  50
                  51
                  52
                  53
                  54
                  55
                  56
                  57
                  58
                  59
                  60
                  61
                  62
                  63
                  64
                  65
                  66
                  67
                  68
                  69
                  70
                  71
                  72
                  73
                  74
                  75
                  76
                  77
                  78
                  79
                  80
                  81
                  82
                  83
                  84
                  85
                  86
                  87
                  88
                  89
                  90
                  91
                  92
                  93
                  94
                  95
                  96
                  97
                  98
                  99
                 100
                 101
                 102
                 103
                 104
                 105
                 106
                 107
                 108
                 109
                 110
                 111
                 112
                 113
                 114
                 115
                 116
                 117
                 118
                 119
                 120
                 121
                 122
                 123
                 124
                 125
                 126
                 127
                 128
                 129
                 130
                 131
                 132
                 133
                 134
                 135
                 136
                 137
                 138
                 139
                 140
                 141
                 142
                 143
                 144
                 145
                 146
                 147
                 148
                 149
                 150
                 151
                 152
                 153
                 154
                 155
                 156
                 157
                 158
                 159
                 160
                 161
                 162
                 163
                 164
                 165
                 166
                 167
                 168
                 169
                 170
                 171
                 172
                 173
                 174
                 175
                 176
                 177
                 178
                 179
                 180
                 181
                 182
                 183
                 184
                 185
                 186
                 187
                 188
                 189
                 190
                 191
                 192
                 193
                 194
                 195
                 196
                 197
                 198
                 199
                 200
                 201
                 202
                 203
                 204
                 205
                 206
                 207
                 208
                 209
                 210
                 211
                 212
                 213
                 214
                 215
                 216
                 217
                 218
                 219
                 220
                 221
                 222
                 223
                 224
                 225
                 226
                 227
                 228
                 229
                 230
                 231
                 232
                 233
                 234
                 235
                 236
                 237
                 238
                 239
                 240
                 241
                 242
                 243
                 244
                 245
                 246
                 247
                 248
                 249
                 250
                 251
                 252
                 253
                 254
                 255
                 256
                 257
                 258
                 259
                 260
                 261
                 262
                 263
                 264
                 265
                 266
                 267
                 268
                 269
                 270
                 271
                 272
                 273
                 274
                 275
                 276
                 277
                 278
                 279
                 280
                 281
                 282
                 283
                 284
                 285
                 286
                 287
                 288
                 289
                 290
                 291
                 292
                 293
                 294
                 295
                 296
                 297
                 298
                 299
                 300
                 301
                 302
                 303
                 304
                 305
                 306
                 307
                 308
                 309
                 310
                 311
                 312
                 313
                 314
                 315
                 316
                 317
                 318
                 319
                 320
                 321
                 322
                 323
                 324
                 325
                 326
                 327
                 328
                 329
                 330
                 331
                 332
                 333
                 334
                 335
                 336
                 337
                 338
                 339
                 340
                 341
                 342
                 343
                 344
                 345
                 346
                 347
                 348
                 349
                 350
                 351
                 352
                 353
                 354
                 355
                 356
                 357
                 358
                 359
                 360
                 361
                 362
                 363
                 364
                 365
                 366
                 367
                 368
                 369
                 370
                 371
                 372
                 373
                 374
                 375
                 376
                 377
                 378
                 379
                 380
                 381
                 382
                 383
                 384
                 385
                 386
                 387
                 388
                 389
                 390
                 391
                 392
                 393
                 394
                 395
                 396
                 397
                 398
                 399
                 400
                 401
                 402
                 403
                 404
                 405
                 406
                 407
                 408
                 409
                 410
                 411
                 412
                 413
                 414
                 415
                 416
                 417
                 418
                 419
                 420
                 421
                 422
                 423
                 424
                 425
                 426
                 427
                 428
                 429
                 430
                 431
                 432
                 433
                 434
                 435
                 436
                 437
                 438
                 439
                 440
                 441
                 442
                 443
                 444
                 445
                 446
                 447
                 448
                 449
                 450
                 451
                 452
                 453
                 454
                 455
                 456
                 457
                 458
                 459
                 460
                 461
                 462
                 463
                 464
                 465
                 466
                 467
                 468
                 469
                 470
                 471
                 472
                 473
                 474
                 475
                 476
                 477
                 478
                 479
                 480
                 481
                 482
                 483
                 484
                 485
                 486
                 487
                 488
                 489
                 490
                 491
                 492
                 493
                 494
                 495
                 496
                 497
                 498
                 499
                 500
                 501
                 502
                 503
                 504
                 505
                 506
                 507
                 508
                 509
                 510
                 511
                 512
                 513
                 514
                 515
                 516
                 517
                 518
                 519
                 520
                 521
                 522
                 523
                 524
                 525
                 526
                 527
                 528
                 529
                 530
                 531
                 532
                 533
                 534
                 535
                 536
                 537
                 538
                 539
                 540
                 541
                 542
                 543
                 544
                 545
                 546
                 547
                 548
                 549
                 550
                 551
                 552
                 553
                 554
                 555
                 556
                 557
                 558
                 559
                 560
                 561
                 562
                 563
                 564
                 565
                 566
                 567
                 568
                 569
                 570
                 571
                 572
                 573
                 574
                 575
                 576
                 577
                 578
                 579
                 580
                 581
                 582
                 583
                 584
                 585
                 586
                 587
                 588
                 589
                 590
                 591
                 592
                 593
                 594
                 595
                 596
                 597
                 598
                 599
                 600
                 601
                 602
                 603
                 604
                 605
                 606
                 607
                 608
                 609
                 610
                 611
                 612
                 613
                 614
                 615
                 616
                 617
                 618
                 619
                 620
                 621
                 622
                 623
                 624
                 625
                 626
                 627
                 628
                 629
                 630
                 631
                 632
                 633
                 634
                 635
                 636
                 637
                 638
                 639
                 640
                 641
                 642
                 643
                 644
                 645
                 646
                 647
                 648
                 649
                 650
                 651
                 652
                 653
                 654
                 655
                 656
                 657
                 658
                 659
                 660
                 661
                 662
                 663
                 664
                 665
                 666
                 667
                 668
                 669
                 670
                 671
                 672
                 673
                 674
                 675
                 676
                 677
                 678
                 679
                 680
                 681
                 682
                 683
                 684
                 685
                 686
                 687
                 688
                 689
                 690
                 691
                 692
                 693
                 694
                 695
                 696
                 697
                 698
                 699
                 700
                 701
                 702
                 703
                 704
                 705
                 706
                 707
                 708
                 709
                 710
                 711
                 712
                 713
                 714
                 715
                 716
                 717
                 718
                 719
                 720
                 721
                 722
                 723
                 724
                 725
                 726
                 727
                 728
                 729
                 730
                 731
                 732
                 733
                 734
                 735
                 736
                 737
                 738
                 739
                 740
                 741
                 742
                 743
                 744
                 745
                 746
                 747
                 748
                 749
                 750
                 751
                 752
                 753
                 754
                 755
                 756
                 757
                 758
                 759
                 760
                 761
                 762
                 763
                 764
                 765
                 766
                 767
                 768
                 769
                 770
                 771
                 772
                 773
                 774
                 775
                 776
                 777
                 778
                 779
                 780
                 781
                 782
                 783
                 784
                 785
                 786
                 787
                 788
                 789
                 790
                 791
                 792
                 793
                 794
                 795
                 796
                 797
                 798
                 799
                 800
                 801
                 802
                 803
                 804
                 805
                 806
                 807
                 808
                 809
                 810
                 811
                 812
                 813
                 814
                 815
                 816
                 817
                 818
                 819
                 820
                 821
                 822
                 823
                 824
                 825
                 826
                 827
                 828
                 829
                 830
                 831
                 832
                 833
                 834
                 835
                 836
                 837
                 838
                 839
                 840
                 841
                 842
                 843
                 844
                 845
                 846
                 847
                 848
                 849
                 850
                 851
                 852
                 853
                 854
                 855
                 856
                 857
                 858
                 859
                 860
                 861
                 862
                 863
                 864
                 865
                 866
                 867
                 868
                 869
                 870
                 871
                 872
                 873
                 874
                 875
                 876
                 877
                 878
                 879
                 880
                 881
                 882
                 883
                 884
                 885
                 886
                 887
                 888
                 889
                 890
                 891
                 892
                 893
                 894
                 895
                 896
                 897
                 898
                 899
                 900
                 901
                 902
                 903
                 904
                 905
                 906
                 907
                 908
                 909
                 910
                 911
                 912
                 913
                 914
                 915
                 916
                 917
                 918
                 919
                 920
                 921
                 922
                 923
                 924
                 925
                 926
                 927
                 928
                 929
                 930
                 931
                 932
                 933
                 934
                 935
                 936
                 937
                 938
                 939
                 940
                 941
                 942
                 943
                 944
                 945
                 946
                 947
                 948
                 949
                 950
                 951
                 952
                 953
                 954
                 955
                 956
                 957
                 958
                 959
                 960
                 961
                 962
                 963
                 964
                 965
                 966
                 967
                 968
                 969
                 970
                 971
                 972
                 973
                 974
                 975
                 976
                 977
                 978
                 979
                 980
                 981
                 982
                 983
                 984
                 985
                 986
                 987
                 988
                 989
                 990
                 991
                 992
                 993
                 994
                 995
                 996
                 997
                 998
                 999
                1000
                1001
                1002
                1003
                1004
                1005
                1006
                1007
                1008
                1009
                1010
                1011
                1012
                1013
                1014
                1015
                1016
                1017
                1018
                1019
                1020
                1021
                1022
                1023
                1024
                1025
                1026
                1027
                1028
                1029
                1030
                1031
                1032
                1033
                1034
                1035
                1036
                1037
                1038
                1039
                1040
                1041
                1042
                1043
                1044
                1045
                1046
                1047
                1048
                1049
                1050
                1051
                1052
                1053
                1054
                1055
                1056
                1057
                1058
                1059
                1060
                1061
                1062
                1063
                1064
                1065
                1066
                1067
                1068
                1069
                1070
                1071
                1072
                1073
                1074
                1075
                1076
                1077
                1078
                1079
                1080
                1081
                1082
                1083
                1084
                1085
                1086
                1087
                1088
                1089
                1090
                1091
                1092
                1093
                1094
                1095
                1096
                1097
                1098
                1099
                1100
                1101
                1102
                1103
                1104
                1105
                1106
                1107
                1108
                1109
                1110
                1111
                1112
                1113
                1114
                1115
                1116
                1117
                1118
                1119
                1120
                1121
                1122
                1123
                1124
                1125
                1126
                1127
                1128
                1129
                1130
                1131
                1132
                1133
                1134
                1135
                1136
                1137
                1138
                1139
                1140
                1141
                1142
                1143
                1144
                1145
                1146
                1147
                1148
                1149
                1150
                1151
                1152
                1153
                1154
                1155
                1156
                1157
                1158
                1159
                1160
                1161
                1162
                1163
                1164
                1165
                1166
                1167
                1168
                1169
                1170
                1171
                1172
                1173
                1174
                1175
                1176
                1177
                1178
                1179
                1180
                1181
                1182
                1183
                1184
                1185
                1186
                1187
                1188
                1189
                1190
                1191
                1192
                1193
                1194
                1195
                1196
                1197
                1198
                1199
                1200
                1201
                1202
                1203
                1204
                1205
                1206
                1207
                1208
                1209
                1210
                1211
                1212
                1213
                1214
                1215
                1216
                1217
                1218
                1219
                1220
                1221
                1222
                1223
                1224
                1225
                1226
                1227
                1228
                1229
                1230
                1231
                1232
                1233
                1234
                1235
                1236
                1237
                1238
                1239
                1240
                1241
                1242
                1243
                1244
                1245
                1246
                1247
                1248
                1249
                1250
                1251
                1252
                1253
                1254
                1255
                1256
                1257
                1258
                1259
                1260
                1261
                1262
                1263
                1264
                1265
                1266
                1267
                1268
                1269
                1270
                1271
                1272
                1273
                1274
                1275
                1276
                1277
                1278
                1279
                1280
                1281
                1282
                1283
                1284
                1285
                1286
                1287
                1288
                1289
                1290
                1291
                1292
                1293
                1294
                1295
                1296
                1297
                1298
                1299
                1300
                1301
                1302
                1303
                1304
                1305
                1306
                1307
                1308
                1309
                1310
                1311
                1312
                1313
                1314
                1315
                1316
                1317
                1318
                1319
                1320
                1321
                1322
                1323
                1324
                1325
                1326
                1327
                1328
                1329
                1330
                1331
                1332
                1333
                1334
                1335
                1336
                1337
                1338
                1339
                1340
                1341
                1342
                1343
                1344
                1345
                1346
                1347
                1348
                1349
                1350
                1351
                1352
                1353
                1354
                1355
                1356
                1357
                1358
                1359
                1360
                1361
                1362
                1363
                1364
                1365
                1366
                1367
                1368
                1369
                1370
                1371
                1372
                1373
                1374
                1375
                1376
                1377
                1378
                1379
                1380
                1381
                1382
                1383
                1384
                1385
                1386
                1387
                1388
                1389
                1390
                1391
                1392
                1393
                1394
                1395
                1396
                1397
                1398
                1399
                1400
                1401
                1402
                1403
                1404
                1405
                1406
                1407
                1408
                1409
                1410
                1411
                1412
                1413
                1414
                1415
                1416
                1417
                1418
                1419
                1420
                1421
                1422
                1423
                1424
                1425
                1426
                1427
                1428
                1429
                1430
                1431
                1432
                1433
                1434
                1435
                1436
                1437
                1438
                1439
                1440
                1441
                1442
                1443
                1444
                1445
                1446
                1447
                1448
                1449
                1450
                1451
                1452
                1453
                1454
                1455
                1456
                1457
                1458
                1459
                1460
                1461
                1462
                1463
                1464
                1465
                1466
                1467
                1468
                1469
                1470
                1471
                1472
                1473
                1474
                1475
                1476
                1477
                1478
                1479
                1480
                1481
                1482
                1483
                1484
                1485
                1486
                1487
                1488
                1489
                1490
                1491
                1492
                1493
                1494
                1495
                1496
                1497
                1498
                1499
                1500
                1501
                1502
                1503
                1504
                1505
                1506
                1507
                1508
                1509
                1510
                1511
                1512
                1513
                1514
                1515
                1516
                1517
                1518
                1519
                1520
                1521
                1522
                1523
                1524
                1525
                1526
                1527
                1528
                1529
                1530
                1531
                1532
                1533
                1534
                1535
                1536
                1537
                1538
                1539
                1540
                1541
                1542
                1543
                1544
                1545
                1546
                1547
                1548
                1549
                1550
                1551
                1552
                1553
                1554
                1555
                1556
                1557
                1558
                1559
                1560
                1561
                1562
                1563
                1564
                1565
                1566
                1567
                1568
                1569
                1570
                1571
                1572
                1573
                1574
                1575
                1576
                1577
                1578
                1579
                1580
                1581
                1582
                1583
                1584
                1585
                1586
                1587
                1588
                1589
                1590
                1591
                1592
                1593
                1594
                1595
                1596
                1597
                1598
                1599
                1600
                1601
                1602
                1603
                1604
                1605
                1606
                1607
                1608
                1609
                1610
                1611
                1612
                1613
                1614
                1615
                1616
                1617
                1618
                1619
                1620
                1621
                1622
                1623
                1624
                1625
                1626
                1627
                1628
                1629
                1630
                1631
                1632
                1633
                1634
                1635
                1636
                1637
                1638
                1639
                1640
                1641
                1642
                1643
                1644
                1645
                1646
                1647
                1648
                1649
                1650
                1651
                1652
                1653
                1654
                1655
                1656
                1657
                1658
                1659
                1660
                1661
                1662
                1663
                1664
                1665
                1666
                1667
                1668
                1669
                1670
                1671
                1672
                1673
                1674
                1675
                1676
                1677
                1678
                1679
                1680
                1681
                1682
                1683
                1684
                1685
                1686
                1687
                1688
                1689
                1690
                1691
                1692
                1693
                1694
                1695
                1696
                1697
                1698
                1699
                1700
                1701
                1702
                1703
                1704
                1705
                1706
                1707
                1708
                1709
                1710
                1711
                1712
                1713
                1714
                1715
                1716
                1717
                1718
                1719
                1720
                1721
                1722
                1723
                1724
                1725
                1726
                1727
                1728
                1729
                1730
                1731
                1732
                1733
                1734
                1735
                1736
                1737
                1738
                1739
                1740
                1741
                1742
                1743
                1744
                1745
                1746
                1747
                1748
                1749
                1750
                1751
                1752
                1753
                1754
                1755
                1756
                1757
                1758
                1759
                1760
                1761
                1762
                1763
                1764
                1765
                1766
                1767
                1768
                1769
                1770
                1771
                1772
                1773
                1774
                1775
                1776
                1777
                1778
                1779
                1780
                1781
                1782
                1783
                1784
                1785
                1786
                1787
                1788
                1789
                1790
                1791
                1792
                1793
                1794
                1795
                1796
                1797
                1798
                1799
                1800
                1801
                1802
                1803
                1804
                1805
                1806
                1807
                1808
                1809
                1810
                1811
                1812
                1813
                1814
                1815
                1816
                1817
                1818
                1819
                1820
                1821
                1822
                1823
                1824
                1825
                1826
                1827
                1828
                1829
                1830
                1831
                1832
                1833
                1834
                1835
                1836
                1837
                1838
                1839
                1840
                1841
                1842
                1843
                1844
                1845
                1846
                1847
                1848
                1849
                1850
                1851
                1852
                1853
                1854
                1855
                1856
                1857
                1858
                1859
                1860
                1861
                1862
                1863
                1864
                1865
                1866
                1867
                1868
                1869
                1870
                1871
                1872
                1873
                1874
                1875
                1876
                1877
                1878
                1879
                1880
                1881
                1882
                1883
                1884
                1885
                1886
                1887
                1888
                1889
                1890
                1891
                1892
                1893
                1894
                1895
                1896
                1897
                1898
                1899
                1900
                1901
                1902
                1903
                1904
                1905
                1906
                1907
                1908
                1909
                1910
                1911
                1912
                1913
                1914
                1915
                1916
                1917
                1918
                1919
                1920
                1921
                1922
                1923
                1924
                1925
                1926
                1927
                1928
                1929
                1930
                1931
                1932
                1933
                1934
                1935
                1936
                1937
                1938
                1939
                1940
                1941
                1942
                1943
                1944
                1945
                1946
                1947
                1948
                1949
                1950
  
SCALARS                         bodyid  double 1
LOOKUP_TABLE default
                   1
                   1
                   1
                   1
                   1
                   1
                   1
                   1
                   1
                   1
                   1
                   1
                   1
                   1
                   1
                   1
                   1
                   1
                   1
                   1
                   1
                   1
                   1
                   1
                   1
                   1
                   1
                   1
                   1
                   1
                   1
                   1
                   1
                   1
                   1
                   1
                   1
                   1
                   1
                   1
                   1
                   1
                   1
                   1
                   1
                   1
                   1
                   1
                   1
                   1
                   1
                   1
                   1
                   1
                   1
                   1
                   1
                   1
                   1
                   1
                   1
                   1
                   1
                   1
                   1
                   1
                   1
                   1
                   1
                   1
                   1
                   1
                   1
                   1
                   1
                   1
                   1
                   1
                   1
                   1
                   1
                   1
                   1
                   1
                   1
                   1
                   1
                   1
                   1
                   1
                   1
                   1
                   1
                   1
                   1
                   1
                   1
                   1
                   1
                   1
                   1
                   1
                   1
                   1
                   1
                   1
                   1
                   1
                   1
                   1
                   1
                   1
                   1
                   1
                   1
                   1
                   1
                   1
                   1
                   1
                   1
                   1
                   1
                   1
                   1
                   1
                   1
                   1
                   1
                   1
                   1
                   1
                   1
                   1
                   1
                   1
                   1
                   1
                   1
                   1
                   1
                   1
                   1
                   1
                   1
                   1
                   1
                   1
                   1
                   1
                   1
                   1
                   1
                   1
                   1
                   1
                   1
                   1
                   1
                   1
                   1
                   1
                   1
                   1
                   1
                   1
                   1
                   1
                   1
                   1
                   1
                   1
                   1
                   1
                   1
                   1
                   1
                   1
                   1
                   1
                   1
                   1
                   1
                   1
                   1
                   1
                   1
                   1
                   1
                   1
                   1
                   1
                   1
                   1
                   1
                   1
                   1
                   1
                   1
                   1
                   1
                   1
                   1
                   1
                   1
                   1
                   1
                   1
                   1
                   1
                   1
                   1
                   1
                   1
                   1
                   1
                   1
                   1
                   1
                   1
                   1
                   1
                   1
                   1
                   1
                   1
                   1
                   1
                   1
                   1
                   1
                   1
                   1
                   1
                   1
                   1
                   1
                   1
                   1
                   1
                   1
                   1
                   1
                   1
                   1
                   1
                   1
                   1
                   1
                   1
                   1
                   1
                   1
                   1
                   1
                   1
                   1
                   1
                   1
                   1
                   1
                   1
                   1
                   1
                   1
                   1
                   1
                   1
                   1
                   1
                   1
                   1
                   1
                   1
                   1
                   1
                   1
                   1
                   1
                   1
                   1
                   1
                   1
                   1
                   1
                   1
                   1
                   1
                   1
                   1
                   1
                   1
                   1
                   1
                   1
                   1
                   1
                   1
                   1
                   1
                   1
                   1
                   1
                   1
                   1
                   1
                   1
                   1
                   1
                   1
                   1
                   1
                   1
                   1
                   1
                   1
                   1
                   1
                   1
                   1
                   1
                   1
                   1
                   1
                   1
                   1
                   1
                   1
                   1
                   1
                   1
                   1
                   1
                   1
                   1
                   1
                   1
                   1
                   1
                   1
                   1
                   1
                   1
                   1
                   1
                   1
                   1
                   1
                   1
                   1
                   1
                   1
                   1
                   1
                   1
                   1
                   1
                   1
                   1
                   1
                   1
                   1
                   1
                   1
                   1
                   1
                   1
                   1
                   1
                   1
                   1
                   1
                   1
                   1
                   1
                   1
                   1
                   1
                   1
                   1
                   1
                   1
                   1
                   1
                   1
                   1
                   1
                   1
                   1
                   1
                   1
                   1
                   1
                   1
                   1
                   1
                   1
                   1
                   1
                   1
                   1
                   1
                   1
                   1
                   1
                   1
                   1
                   1
                   1
                   1
                   1
                   1
                   1
                   1
                   1
                   1
                   1
                   1
                   1
                   1
                   1
                   1
                   1
                   1
                   1
                   1
                   1
                   1
                   1
                   1
                   1
                   1
                   1
                   1
                   1
                   1
                   1
                   1
                   1
                   1
                   1
                   1
                   1
                   1
                   1
                   1
                   1
                   1
                   1
                   1
                   1
                   1
                   1
                   1
                   1
                   1
                   1
                   1
                   1
                   1
                   1
                   1
                   1
                   1
                   1
                   1
                   1
                   1
                   1
                   1
                   1
                   1
                   1
                   1
                   1
                   1
                   1
                   1
                   1
                   1
                   1
                   1
                   1
                   1
                   1
                   1
                   1
                   1
                   1
                   1
                   1
                   1
                   1
                   1
                   1
                   1
                   1
                   1
                   1
                   1
                   1
                   1
                   1
                   1
                   1
                   1
                   1
                   1
                   1
                   1
                   1
                   1
                   1
                   1
                   1
                   1
                   1
                   1
                   1
                   1
                   1
                   1
                   1
                   1
                   1
                   1
                   1
                   1
                   1
                   1
                   1
                   1
                   1
                   1
                   1
                   1
                   1
                   1
                   1
                   1
                   1
                   1
                   1
                   1
                   1
                   1
                   1
                   1
                   1
                   1
                   1
                   1
                   1
                   1
                   1
                   1
                   1
                   1
                   1
                   1
                   1
                   1
                   1
                   1
                   1
                   1
                   1
                   1
                   1
                   1
                   1
                   1
                   1
                   1
                   1
                   1
                   1
                   1
                   1
                   1
                   1
                   1
                   1
                   1
                   1
                   1
                   1
                   1
                   1
                   1
                   1
                   1
                   1
                   1
                   1
                   1
                   1
                   1
                   1
                   1
                   1
                   1
                   1
                   1
                   1
                   1
                   1
                   1
                   1
                   1
                   1
                   1
                   1
                   1
                   1
                   1
                   1
                   1
                   1
                   1
                   1
                   1
                   1
                   1
                   1
                   1
                   1
                   1
                   1
                   1
                   1
                   1
                   1
                   1
                   1
                   1
                   1
                   1
                   1
                   1
                   1
                   1
                   1
                   1
                   1
                   1
                   1
                   1
                   1
                   1
                   1
                   1
                   1
                   1
                   1
                   1
                   1
                   1
                   1
                   1
                   1
                   1
                   1
                   1
                   1
                   1
                   1
                   1
                   1
                   1
                   1
                   1
                   1
                   1
                   1
                   1
                   1
                   1
                   1
                   1
                   1
                   1
                   1
                   1
                   1
                   1
                   1
                   1
                   1
                   1
                   1
                   1
                   1
                   1
                   1
                   1
                   1
                   1
                   1
                   1
                   1
                   1
                   1
                   1
                   1
                   1
                   1
                   1
                   1
                   1
                   1
                   1
                   1
                   1
                   1
                   1
                   1
                   1
                   1
                   1
                   1
                   1
                   1
                   1
                   1
                   1
                   1
                   1
                   1
                   1
                   1
                   1
                   1
                   1
                   1
                   1
                   1
                   1
                   1
                   1
                   1
                   1
                   1
                   1
                   1
                   1
                   1
                   1
                   1
                   1
                   1
                   1
                   1
                   1
                   1
                   1
                   1
                   1
                   1
                   1
                   1
                   1
                   1
                   1
                   1
                   1
                   1
                   1
                   1
                   1
                   1
                   1
                   1
                   1
                   1
                   1
                   1
                   1
                   1
                   1
                   1
                   1
                   1
                   1
                   1
                   1
                   1
                   1
                   1
                   1
                   1
                   1
                   1
                   1
                   1
                   1
                   1
                   1
                   1
                   1
                   1
                   1
                   1
                   1
                   1
                   1
                   1
                   1
                   1
                   1
                   1
                   1
                   1
                   1
                   1
                   1
                   1
                   1
                   1
                   1
                   1
                   1
                   1
                   1
                   1
                   1
                   1
                   1
                   1
                   1
                   1
                   1
                   1
                   1
                   1
                   1
                   1
                   1
                   1
                   1
                   1
                   1
                   1
                   1
                   1
                   1
                   1
                   1
                   1
                   1
                   1
                   1
                   1
                   1
                   1
                   1
                   1
                   1
                   1
                   1
                   1
                   1
                   1
                   1
                   1
                   1
                   1
                   1
                   1
                   1
                   1
                   1
                   1
                   1
                   1
                   1
                   1
                   1
                   1
                   1
                   1
                   1
                   1
                   1
                   1
                   1
                   1
                   1
                   1
                   1
                   1
                   1
                   1
                   1
                   1
                   1
                   1
                   1
                   1
                   1
                   1
                   1
                   1
                   1
                   1
                   1
                   1
                   1
                   1
                   1
                   1
                   1
                   1
                   1
                   1
                   1
                   1
                   1
                   1
                   1
                   1
                   1
                   1
                   1
                   1
                   1
                   1
                   1
                   1
                   1
                   1
                   1
                   1
                   1
                   1
                   1
                   1
                   1
                   1
                   1
                   1
                   1
                   1
                   1
                   1
                   1
                   1
                   1
                   1
                   1
                   1
                   1
                   1
                   1
                   1
                   1
                   1
                   1
                   1
                   1
                   1
                   1
                   1
                   1
                   1
                   1
                   1
                   1
                   1
                   1
                   1
                   1
                   1
                   1
                   1
                   1
                   1
                   1
                   1
                   1
                   1
                   1
                   1
                   1
                   1
                   1
                   1
                   1
                   1
                   1
                   1
                   1
                   1
                   1
                   1
                   1
                   1
                   1
                   1
                   1
                   1
                   1
                   1
                   1
                   1
                   1
                   1
                   1
                   1
                   1
                   1
                   1
                   1
                   1
                   1
                   1
                   1
                   1
                   1
                   1
                   1
                   1
                   1
                   1
                   1
                   1
                   1
                   1
                   1
                   1
                   1
                   1
                   1
                   1
                   1
                   1
                   1
                   1
                   1
                   1
                   1
                   1
                   1
                   1
                   1
                   1
                   1
                   1
                   1
                   1
                   1
                   1
                   1
                   1
                   1
                   1
                   1
                   1
                   1
                   1
                   1
                   1
                   1
                   1
                   1
                   1
                   1
                   1
                   1
                   1
                   1
                   1
                   1
                   1
                   1
                   1
                   1
                   1
                   1
                   1
                   1
                   1
                   1
                   1
                   1
                   1
                   1
                   1
                   1
                   1
                   1
                   1
                   1
                   1
                   1
                   1
                   1
                   1
                   1
                   1
                   1
                   1
                   1
                   1
                   1
                   1
                   1
                   1
                   1
                   1
                   1
                   1
                   1
                   1
                   1
                   1
                   1
                   1
                   1
                   1
                   1
                   1
                   1
                   1
                   1
                   1
                   1
                   1
                   1
                   1
                   1
                   1
                   1
                   1
                   1
                   1
                   1
                   1
                   1
                   1
                   1
                   1
                   1
                   1
                   1
                   1
                   1
                   1
                   1
                   1
                   1
                   1
                   1
                   1
                   1
                   1
                   1
                   1
                   1
                   1
                   1
                   1
                   1
                   1
                   1
                   1
                   1
                   1
                   1
                   1
                   1
                   1
                   1
                   1
                   1
                   1
                   1
                   1
                   1
                   1
                   1
                   1
                   1
                   1
                   1
                   1
                   1
                   1
                   1
                   1
                   1
                   1
                   1
                   1
                   1
                   1
                   1
                   1
                   1
                   1
                   1
                   1
                   1
                   1
                   1
                   1
                   1
                   1
                   1
                   1
                   1
                   1
                   1
                   1
                   1
                   1
                   1
                   1
                   1
                   1
                   1
                   1
                   1
                   1
                   1
                   1
                   1
                   1
                   1
                   1
                   1
                   1
                   1
                   1
                   1
                   1
                   1
                   1
                   1
                   1
                   1
                   1
                   1
                   1
                   1
                   1
                   1
                   1
                   1
                   1
                   1
                   1
                   1
                   1
                   1
                   1
                   1
                   1
                   1
                   1
                   1
                   1
                   1
                   1
                   1
                   1
                   1
                   1
                   1
                   1
                   1
                   1
                   1
                   1
                   1
                   1
                   1
                   1
                   1
                   1
                   1
                   1
                   1
                   1
                   1
                   1
                   1
                   1
                   1
                   1
                   1
                   1
                   1
                   1
                   1
                   1
                   1
                   1
                   1
                   1
                   1
                   1
                   1
                   1
                   1
                   1
                   1
                   1
                   1
                   1
                   1
                   1
                   1
                   1
                   1
                   1
                   1
                   1
                   1
                   1
                   1
                   1
                   1
                   1
                   1
                   1
                   1
                   1
                   1
                   1
                   1
                   1
                   1
                   1
                   1
                   1
                   1
                   1
                   1
                   1
                   1
                   1
                   1
                   1
                   1
                   1
                   1
                   1
                   1
                   1
                   1
                   1
                   1
                   1
                   1
                   1
                   1
                   1
                   1
                   1
                   1
                   1
                   1
                   1
                   1
                   1
                   1
                   1
                   1
                   1
                   1
                   1
                   1
                   1
                   1
                   1
                   1
                   1
                   1
                   1
                   1
                   1
                   1
                   1
                   1
                   1
                   1
                   1
                   1
                   1
                   1
                   1
                   1
                   1
                   1
                   1
                   1
                   1
                   1
                   1
                   1
                   1
                   1
                   1
                   1
                   1
                   1
                   1
                   1
                   1
                   1
                   1
                   1
                   1
                   1
                   1
                   1
                   1
                   1
                   1
                   1
                   1
                   1
                   1
                   1
                   1
                   1
                   1
                   1
                   1
                   1
                   1
                   1
                   1
                   1
                   1
                   1
                   1
                   1
                   1
                   1
                   1
                   1
                   1
                   1
                   1
                   1
                   1
                   1
                   1
                   1
                   1
                   1
                   1
                   1
                   1
                   1
                   1
                   1
                   1
                   1
                   1
                   1
                   1
                   1
                   1
                   1
                   1
                   1
                   1
                   1
                   1
                   1
                   1
                   1
                   1
                   1
                   1
                   1
                   1
                   1
                   1
                   1
                   1
                   1
                   1
                   1
                   1
                   1
                   1
                   1
                   1
                   1
                   1
                   1
                   1
                   1
                   1
                   1
                   1
                   1
                   1
                   1
                   1
                   1
                   1
                   1
                   1
                   1
                   1
                   1
                   1
                   1
                   1
                   1
                   1
                   1
                   1
                   1
                   1
                   1
                   1
                   1
                   1
                   1
                   1
                   1
                   1
                   1
                   1
                   1
                   1
                   1
                   1
                   1
                   1
                   1
                   1
                   1
                   1
                   1
                   1
                   1
                   1
                   1
                   1
                   1
                   1
                   1
                   1
                   1
                   1
                   1
                   1
                   1
                   1
                   1
                   1
                   1
                   1
                   1
                   1
                   1
                   1
                   1
                   1
                   1
                   1
                   1
                   1
                   1
                   1
                   1
                   1
                   1
                   1
                   1
                   1
                   1
                   1
                   1
                   1
                   1
                   1
                   1
                   1
                   1
                   1
                   1
                   1
                   1
                   1
                   1
                   1
                   1
                   1
                   1
                   1
                   1
                   1
                   1
                   1
                   1
                   1
                   1
                   1
                   1
                   1
                   1
                   1
                   1
                   1
                   1
                   1
                   1
                   1
                   1
                   1
                   1
                   1
                   1
                   1
                   1
                   1
                   1
                   1
                   1
                   1
                   1
                   1
                   1
                   1
                   1
                   1
                   1
                   1
                   1
                   1
                   1
                   1
                   1
                   1
                   1
                   1
                   1
                   1
                   1
                   1
                   1
                   1
                   1
                   1
                   1
                   1
                   1
                   1
                   1
                   1
                   1
                   1
                   1
                   1
                   1
                   1
                   1
                   1
                   1
                   1
                   1
                   1
                   1
                   1
                   1
                   1
                   1
                   1
                   1
                   1
                   1
                   1
                   1
                   1
                   1
                   1
                   1
                   1
                   1
                   1
                   1
                   1
                   1
                   1
                   1
                   1
                   1
                   1
                   1
                   1
                   1
                   1
                   1
                   1
                   1
                   1
                   1
                   1
                   1
                   1
                   1
                   1
                   1
                   1
                   1
                   1
                   1
                   1
                   1
                   1
                   1
                   1
                   1
                   1
                   1
                   1
                   1
                   1
                   1
                   1
                   1
                   1
                   1
                   1
                   1
                   1
                   1
                   1
                   1
                   1
                   1
                   1
                   1
                   1
                   1
                   1
                   1
                   1
                   1
                   1
                   1
                   1
                   1
                   1
                   1
                   1
                   1
                   1
                   1
                   1
                   1
                   1
                   1
                   1
                   1
                   1
                   1
                   1
                   1
                   1
                   1
                   1
                   1
                   1
                   1
                   1
                   1
                   1
                   1
                   1
                   1
                   1
                   1
                   1
                   1
                   1
                   1
                   1
                   1
                   1
                   1
                   1
                   1
                   1
                   1
                   1
                   1
                   1
                   1
                   1
                   1
                   1
                   1
                   1
                   1
                   1
                   1
                   1
                   1
                   1
                   1
                   1
                   1
                   1
                   1
                   1
                   1
                   1
                   1
                   1
                   1
                   1
                   1
                   1
                   1
                   1
                   1
                   1
                   1
                   1
                   1
                   1
                   1
                   1
                   1
                   1
                   1
                   1
                   1
                   1
                   1
                   1
                   1
                   1
                   1
                   1
                   1
                   1
                   1
                   1
                   1
                   1
                   1
                   1
                   1
                   1
                   1
                   1
                   1
                   1
                   1
                   1
                   1
                   1
                   1
                   1
                   1
                   1
                   1
                   1
                   1
                   1
                   1
                   1
                   1
                   1
                   1
                   1
                   1
                   1
                   1
                   1
                   1
                   1
                   1
                   1
                   1
                   1
                   1
                   1
                   1
                   1
                   1
                   1
                   1
                   1
                   1
                   1
                   1
                   1
                   1
                   1
                   1
                   1
                   1
                   1
                   1
                   1
                   1
                   1
                   1
                   1
                   1
                   1
                   1
                   1
                   1
                   1
                   1
                   1
                   1
                   1
                   1
                   1
                   1
                   1
                   1
                   1
                   1
                   1
                   1
                   1
                   1
                   1
                   1
                   1
                   1
                   1
                   1
                   1
                   1
                   1
                   1
                   1
                   1
                   1
                   1
                   1
                   1
                   1
                   1
                   1
  
SCALARS                  material_type  double 1
LOOKUP_TABLE default
                   2
                   2
                   2
                   2
                   2
                   2
                   2
                   2
                   2
                   2
                   2
                   2
                   2
                   2
                   2
                   2
                   2
                   2
                   2
                   2
                   2
                   2
                   2
                   2
                   2
                   2
                   2
                   2
                   2
                   2
                   2
                   2
                   2
                   2
                   2
                   2
                   2
                   2
                   2
                   2
                   2
                   2
                   2
                   2
                   2
                   2
                   2
                   2
                   2
                   2
                   2
                   2
                   2
                   2
                   2
                   2
                   2
                   2
                   2
                   2
                   2
                   2
                   2
                   2
                   2
                   2
                   2
                   2
                   2
                   2
                   2
                   2
                   2
                   2
                   2
                   2
                   2
                   2
                   2
                   2
                   2
                   2
                   2
                   2
                   2
                   2
                   2
                   2
                   2
                   2
                   2
                   2
                   2
                   2
                   2
                   2
                   2
                   2
                   2
                   2
                   2
                   2
                   2
                   2
                   2
                   2
                   2
                   2
                   2
                   2
                   2
                   2
                   2
                   2
                   2
                   2
                   2
                   2
                   2
                   2
                   2
                   2
                   2
                   2
                   2
                   2
                   2
                   2
                   2
                   2
                   2
                   2
                   2
                   2
                   2
                   2
                   2
                   2
                   2
                   2
                   2
                   2
                   2
                   2
                   2
                   2
                   2
                   2
                   2
                   2
                   2
                   2
                   2
                   2
                   2
                   2
                   2
                   2
                   2
                   2
                   2
                   2
                   2
                   2
                   2
                   2
                   2
                   2
                   2
                   2
                   2
                   2
                   2
                   2
                   2
                   2
                   2
                   2
                   2
                   2
                   2
                   2
                   2
                   2
                   2
                   2
                   2
                   2
                   2
                   2
                   2
                   2
                   2
                   2
                   2
                   2
                   2
                   2
                   2
                   2
                   2
                   2
                   2
                   2
                   2
                   2
                   2
                   2
                   2
                   2
                   2
                   2
                   2
                   2
                   2
                   2
                   2
                   2
                   2
                   2
                   2
                   2
                   2
                   2
                   2
                   2
                   2
                   2
                   2
                   2
                   2
                   2
                   2
                   2
                   2
                   2
                   2
                   2
                   2
                   2
                   2
                   2
                   2
                   2
                   2
                   2
                   2
                   2
                   2
                   2
                   2
                   2
                   2
                   2
                   2
                   2
                   2
                   2
                   2
                   2
                   2
                   2
                   2
                   2
                   2
                   2
                   2
                   2
                   2
                   2
                   2
                   2
                   2
                   2
                   2
                   2
                   2
                   2
                   2
                   2
                   2
                   2
                   2
                   2
                   2
                   2
                   2
                   2
                   2
                   2
                   2
                   2
                   2
                   2
                   2
                   2
                   2
                   2
                   2
                   2
                   2
                   2
                   2
                   2
                   2
                   2
                   2
                   2
                   2
                   2
                   2
                   2
                   2
                   2
                   2
                   2
                   2
                   2
                   2
                   2
                   2
                   2
                   2
                   2
                   2
                   2
                   2
                   2
                   2
                   2
                   2
                   2
                   2
                   2
                   2
                   2
                   2
                   2
                   2
                   2
                   2
                   2
                   2
                   2
                   2
                   2
                   2
                   2
                   2
                   2
                   2
                   2
                   2
                   2
                   2
                   2
                   2
                   2
                   2
                   2
                   2
                   2
                   2
                   2
                   2
                   2
                   2
                   2
                   2
                   2
                   2
                   2
                   2
                   2
                   2
                   2
                   2
                   2
                   2
                   2
                   2
                   2
                   2
                   2
                   2
                   2
                   2
                   2
                   2
                   2
                   2
                   2
                   2
                   2
                   2
                   2
                   2
                   2
                   2
                   2
                   2
                   2
                   2
                   2
                   2
                   2
                   2
                   2
                   2
                   2
                   2
                   2
                   2
                   2
                   2
                   2
                   2
                   2
                   2
                   2
                   2
                   2
                   2
                   2
                   2
                   2
                   2
                   2
                   2
                   2
                   2
                   2
                   2
                   2
                   2
                   2
                   2
                   2
                   2
                   2
                   2
                   2
                   2
                   2
                   2
                   2
                   2
                   2
                   2
                   2
                   2
                   2
                   2
                   2
                   2
                   2
                   2
                   2
                   2
                   2
                   2
                   2
                   2
                   2
                   2
                   2
                   2
                   2
                   2
                   2
                   2
                   2
                   2
                   2
                   2
                   2
                   2
                   2
                   2
                   2
                   2
                   2
                   2
                   2
                   2
                   2
                   2
                   2
                   2
                   2
                   2
                   2
                   2
                   2
                   2
                   2
                   2
                   2
                   2
                   2
                   2
                   2
                   2
                   2
                   2
                   2
                   2
                   2
                   2
                   2
                   2
                   2
                   2
                   2
                   2
                   2
                   2
                   2
                   2
                   2
                   2
                   2
                   2
                   2
                   2
                   2
                   2
                   2
                   2
                   2
                   2
                   2
                   2
                   2
                   2
                   2
                   2
                   2
                   2
                   2
                   2
                   2
                   2
                   2
                   2
                   2
                   2
                   2
                   2
                   2
                   2
                   2
                   2
                   2
                   2
                   2
                   2
                   2
                   2
                   2
                   2
                   2
                   2
                   2
                   2
                   2
                   2
                   2
                   2
                   2
                   2
                   2
                   2
                   2
                   2
                   2
                   2
                   2
                   2
                   2
                   2
                   2
                   2
                   2
                   2
                   2
                   2
                   2
                   2
                   2
                   2
                   2
                   2
                   2
                   2
                   2
                   2
                   2
                   2
                   2
                   2
                   2
                   2
                   2
                   2
                   2
                   2
                   2
                   2
                   2
                   2
                   2
                   2
                   2
                   2
                   2
                   2
                   2
                   2
                   2
                   2
                   2
                   2
                   2
                   2
                   2
                   2
                   2
                   2
                   2
                   2
                   2
                   2
                   2
                   2
                   2
                   2
                   2
                   2
                   2
                   2
                   2
                   2
                   2
                   2
                   2
                   2
                   2
                   2
                   2
                   2
                   2
                   2
                   2
                   2
                   2
                   2
                   2
                   2
                   2
                   2
                   2
                   2
                   2
                   2
                   2
                   2
                   2
                   2
                   2
                   2
                   2
                   2
                   2
                   2
                   2
                   2
                   2
                   2
                   2
                   2
                   2
                   2
                   2
                   2
                   2
                   2
                   2
                   2
                   2
                   2
                   2
                   2
                   2
                   2
                   2
                   2
                   2
                   2
                   2
                   2
                   2
                   2
                   2
                   2
                   2
                   2
                   2
                   2
                   2
                   2
                   2
                   2
                   2
                   2
                   2
                   2
                   2
                   2
                   2
                   2
                   2
                   2
                   2
                   2
                   2
                   2
                   2
                   2
                   2
                   2
                   2
                   2
                   2
                   2
                   2
                   2
                   2
                   2
                   2
                   2
                   2
                   2
                   2
                   2
                   2
                   2
                   2
                   2
                   2
                   2
                   2
                   2
                   2
                   2
                   2
                   2
                   2
                   2
                   2
                   2
                   2
                   2
                   2
                   2
                   2
                   2
                   2
                   2
                   2
                   2
                   2
                   2
                   2
                   2
                   2
                   2
                   2
                   2
                   2
                   2
                   2
                   2
                   2
                   2
                   2
                   2
                   2
                   2
                   2
                   2
                   2
                   2
                   2
                   2
                   2
                   2
                   2
                   2
                   2
                   2
                   2
                   2
                   2
                   2
                   2
                   2
                   2
                   2
                   2
                   2
                   2
                   2
                   2
                   2
                   2
                   2
                   2
                   2
                   2
                   2
                   2
                   2
                   2
                   2
                   2
                   2
                   2
                   2
                   2
                   2
                   2
                   2
                   2
                   2
                   2
                   2
                   2
                   2
                   2
                   2
                   2
                   2
                   2
                   2
                   2
                   2
                   2
                   2
                   2
                   2
                   2
                   2
                   2
                   2
                   2
                   2
                   2
                   2
                   2
                   2
                   2
                   2
                   2
                   2
                   2
                   2
                   2
                   2
                   2
                   2
                   2
                   2
                   2
                   2
                   2
                   2
                   2
                   2
                   2
                   2
                   2
                   2
                   2
                   2
                   2
                   2
                   2
                   2
                   2
                   2
                   2
                   2
                   2
                   2
                   2
                   2
                   2
                   2
                   2
                   2
                   2
                   2
                   2
                   2
                   2
                   2
                   2
                   2
                   2
                   2
                   2
                   2
                   2
                   2
                   2
                   2
                   2
                   2
                   2
                   2
                   2
                   2
                   2
                   2
                   2
                   2
                   2
                   2
                   2
                   2
                   2
                   2
                   2
                   2
                   2
                   2
                   2
                   2
                   2
                   2
                   2
                   2
                   2
                   2
                   2
                   2
                   2
                   2
                   2
                   2
                   2
                   2
                   2
                   2
                   2
                   2
                   2
                   2
                   2
                   2
                   2
                   2
                   2
                   2
                   2
                   2
                   2
                   2
                   2
                   2
                   2
                   2
                   2
                   2
                   2
                   2
                   2
                   2
                   2
                   2
                   2
                   2
                   2
                   2
                   2
                   2
                   2
                   2
                   2
                   2
                   2
                   2
                   2
                   2
                   2
                   2
                   2
                   2
                   2
                   2
                   2
                   2
                   2
                   2
                   2
                   2
                   2
                   2
                   2
                   2
                   2
                   2
                   2
                   2
                   2
                   2
                   2
                   2
                   2
                   2
                   2
                   2
                   2
                   2
                   2
                   2
                   2
                   2
                   2
                   2
                   2
                   2
                   2
                   2
                   2
                   2
                   2
                   2
                   2
                   2
                   2
                   2
                   2
                   2
                   2
                   2
                   2
                   2
                   2
                   2
                   2
                   2
                   2
                   2
                   2
                   2
                   2
                   2
                   2
                   2
                   2
                   2
                   2
                   2
                   2
                   2
                   2
                   2
                   2
                   2
                   2
                   2
                   2
                   2
                   2
                   2
                   2
                   2
                   2
                   2
                   2
                   2
                   2
                   2
                   2
                   2
                   2
                   2
                   2
                   2
                   2
                   2
                   2
                   2
                   2
                   2
                   2
                   2
                   2
                   2
                   2
                   2
                   2
                   2
                   2
                   2
                   2
                   2
                   2
                   2
                   2
                   2
                   2
                   2
                   2
                   2
                   2
                   2
                   2
                   2
                   2
                   2
                   2
                   2
                   2
                   2
                   2
                   2
                   2
                   2
                   2
                   2
                   2
                   2
                   2
                   2
                   2
                   2
                   2
                   2
                   2
                   2
                   2
                   2
                   2
                   2
                   2
                   2
                   2
                   2
                   2
                   2
                   2
                   2
                   2
                   2
                   2
                   2
                   2
                   2
                   2
                   2
                   2
                   2
                   2
                   2
                   2
                   2
                   2
                   2
                   2
                   2
                   2
                   2
                   2
                   2
                   2
                   2
                   2
                   2
                   2
                   2
                   2
                   2
                   2
                   2
                   2
                   2
                   2
                   2
                   2
                   2
                   2
                   2
                   2
                   2
                   2
                   2
                   2
                   2
                   2
                   2
                   2
                   2
                   2
                   2
                   2
                   2
                   2
                   2
                   2
                   2
                   2
                   2
                   2
                   2
                   2
                   2
                   2
                   2
                   2
                   2
                   2
                   2
                   2
                   2
                   2
                   2
                   2
                   2
                   2
                   2
                   2
                   2
                   2
                   2
                   2
                   2
                   2
                   2
                   2
                   2
                   2
                   2
                   2
                   2
                   2
                   2
                   2
                   2
                   2
                   2
                   2
                   2
                   2
                   2
                   2
                   2
                   2
                   2
                   2
                   2
                   2
                   2
                   2
                   2
                   2
                   2
                   2
                   2
                   2
                   2
                   2
                   2
                   2
                   2
                   2
                   2
                   2
                   2
                   2
                   2
                   2
                   2
                   2
                   2
                   2
                   2
                   2
                   2
                   2
                   2
                   2
                   2
                   2
                   2
                   2
                   2
                   2
                   2
                   2
                   2
                   2
                   2
                   2
                   2
                   2
                   2
                   2
                   2
                   2
                   2
                   2
                   2
                   2
                   2
                   2
                   2
                   2
                   2
                   2
                   2
                   2
                   2
                   2
                   2
                   2
                   2
                   2
                   2
                   2
                   2
                   2
                   2
                   2
                   2
                   2
                   2
                   2
                   2
                   2
                   2
                   2
                   2
                   2
                   2
                   2
                   2
                   2
                   2
                   2
                   2
                   2
                   2
                   2
                   2
                   2
                   2
                   2
                   2
                   2
                   2
                   2
                   2
                   2
                   2
                   2
                   2
                   2
                   2
                   2
                   2
                   2
                   2
                   2
                   2
                   2
                   2
                   2
                   2
                   2
                   2
                   2
                   2
                   2
                   2
                   2
                   2
                   2
                   2
                   2
                   2
                   2
                   2
                   2
                   2
                   2
                   2
                   2
                   2
                   2
                   2
                   2
                   2
                   2
                   2
                   2
                   2
                   2
                   2
                   2
                   2
                   2
                   2
                   2
                   2
                   2
                   2
                   2
                   2
                   2
                   2
                   2
                   2
                   2
                   2
                   2
                   2
                   2
                   2
                   2
                   2
                   2
                   2
                   2
                   2
                   2
                   2
                   2
                   2
                   2
                   2
                   2
                   2
                   2
                   2
                   2
                   2
                   2
                   2
                   2
                   2
                   2
                   2
                   2
                   2
                   2
                   2
                   2
                   2
                   2
                   2
                   2
                   2
                   2
                   2
                   2
                   2
                   2
                   2
                   2
                   2
                   2
                   2
                   2
                   2
                   2
                   2
                   2
                   2
                   2
                   2
                   2
                   2
                   2
                   2
                   2
                   2
                   2
                   2
                   2
                   2
                   2
                   2
                   2
                   2
                   2
                   2
                   2
                   2
                   2
                   2
                   2
                   2
                   2
                   2
                   2
                   2
                   2
                   2
                   2
                   2
                   2
                   2
                   2
                   2
                   2
                   2
                   2
                   2
                   2
                   2
                   2
                   2
                   2
                   2
                   2
                   2
                   2
                   2
                   2
                   2
                   2
                   2
                   2
                   2
                   2
                   2
                   2
                   2
                   2
                   2
                   2
                   2
                   2
                   2
                   2
                   2
                   2
                   2
                   2
                   2
                   2
                   2
                   2
                   2
                   2
                   2
                   2
                   2
                   2
                   2
                   2
                   2
                   2
                   2
                   2
                   2
                   2
                   2
                   2
                   2
                   2
                   2
                   2
                   2
                   2
                   2
                   2
                   2
                   2
                   2
                   2
                   2
                   2
                   2
                   2
                   2
                   2
                   2
                   2
                   2
                   2
                   2
                   2
                   2
                   2
                   2
                   2
                   2
                   2
                   2
                   2
                   2
                   2
                   2
                   2
                   2
                   2
                   2
                   2
                   2
                   2
                   2
                   2
                   2
                   2
                   2
                   2
                   2
                   2
                   2
                   2
                   2
                   2
                   2
                   2
                   2
                   2
                   2
                   2
                   2
                   2
                   2
                   2
                   2
                   2
                   2
                   2
                   2
                   2
                   2
                   2
                   2
                   2
                   2
                   2
                   2
                   2
                   2
                   2
                   2
                   2
                   2
                   2
                   2
                   2
                   2
                   2
                   2
                   2
                   2
                   2
                   2
                   2
                   2
                   2
                   2
                   2
                   2
                   2
                   2
                   2
                   2
                   2
                   2
                   2
                   2
                   2
                   2
                   2
                   2
                   2
                   2
                   2
                   2
                   2
                   2
                   2
                   2
                   2
                   2
                   2
                   2
                   2
                   2
                   2
                   2
                   2
                   2
                   2
                   2
                   2
                   2
                   2
                   2
                   2
                   2
                   2
                   2
                   2
                   2
                   2
                   2
                   2
                   2
                   2
                   2
                   2
                   2
                   2
                   2
                   2
                   2
                   2
                   2
                   2
                   2
                   2
                   2
                   2
                   2
                   2
                   2
                   2
                   2
                   2
                   2
                   2
                   2
                   2
                   2
                   2
                   2
                   2
                   2
                   2
                   2
                   2
                   2
                   2
                   2
                   2
                   2
                   2
                   2
                   2
                   2
                   2
                   2
                   2
                   2
                   2
                   2
                   2
                   2
                   2
                   2
                   2
                   2
                   2
                   2
                   2
                   2
                   2
                   2
                   2
                   2
                   2
                   2
                   2
                   2
                   2
                   2
                   2
                   2
                   2
                   2
                   2
                   2
                   2
                   2
                   2
                   2
                   2
                   2
                   2
                   2
                   2
                   2
                   2
                   2
                   2
                   2
                   2
                   2
                   2
                   2
                   2
                   2
                   2
                   2
                   2
                   2
                   2
                   2
                   2
                   2
                   2
                   2
                   2
                   2
                   2
                   2
                   2
                   2
                   2
                   2
                   2
                   2
                   2
                   2
                   2
                   2
                   2
                   2
                   2
                   2
                   2
                   2
                   2
                   2
                   2
                   2
                   2
                   2
                   2
                   2
                   2
                   2
                   2
                   2
                   2
                   2
                   2
                   2
                   2
                   2
                   2
                   2
                   2
                   2
                   2
                   2
                   2
                   2
                   2
                   2
                   2
                   2
                   2
                   2
                   2
                   2
                   2
                   2
                   2
                   2
                   2
                   2
                   2
                   2
                   2
                   2
                   2
                   2
                   2
                   2
                   2
                   2
                   2
                   2
                   2
                   2
                   2
                   2
                   2
                   2
                   2
                   2
                   2
                   2
                   2
                   2
                   2
                   2
                   2
                   2
                   2
                   2
                   2
                   2
                   2
                   2
                   2
                   2
                   2
                   2
                   2
                   2
                   2
                   2
                   2
                   2
                   2
                   2
                   2
                   2
                   2
                   2
                   2
                   2
                   2
                   2
                   2
                   2
                   2
                   2
                   2
                   2
                   2
                   2
                   2
                   2
                   2
                   2
                   2
                   2
                   2
  
SCALARS                       fixity_x  double 1
LOOKUP_TABLE default
                   0
                   0
                   0
                   0
                   0
                   0
                   0
                   0
                   0
                   0
                   0
                   0
                   0
                   0
                   0
                   0
                   0
                   0
                   0
                   0
                   0
                   0
                   0
                   0
                   0
                   0
                   0
                   0
                   0
                   0
                   0
                   0
                   0
                   0
                   0
                   0
                   0
                   0
                   0
                   0
                   0
                   0
                   0
                   0
                   0
                   0
                   0
                   0
                   0
                   0
                   0
                   0
                   0
                   0
                   0
                   0
                   0
                   0
                   0
                   0
                   0
                   0
                   0
                   0
                   0
                   0
                   0
                   0
                   0
                   0
                   0
                   0
                   0
                   0
                   0
                   0
                   0
                   0
                   0
                   0
                   0
                   0
                   0
                   0
                   0
                   0
                   0
                   0
                   0
                   0
                   0
                   0
                   0
                   0
                   0
                   0
                   0
                   0
                   0
                   0
                   0
                   0
                   0
                   0
                   0
                   0
                   0
                   0
                   0
                   0
                   0
                   0
                   0
                   0
                   0
                   0
                   0
                   0
                   0
                   0
                   0
                   0
                   0
                   0
                   0
                   0
                   0
                   0
                   0
                   0
                   0
                   0
                   0
                   0
                   0
                   0
                   0
                   0
                   0
                   0
                   0
                   0
                   0
                   0
                   0
                   0
                   0
                   0
                   0
                   0
                   0
                   0
                   0
                   0
                   0
                   0
                   0
                   0
                   0
                   0
                   0
                   0
                   0
                   0
                   0
                   0
                   0
                   0
                   0
                   0
                   0
                   0
                   0
                   0
                   0
                   0
                   0
                   0
                   0
                   0
                   0
                   0
                   0
                   0
                   0
                   0
                   0
                   0
                   0
                   0
                   0
                   0
                   0
                   0
                   0
                   0
                   0
                   0
                   0
                   0
                   0
                   0
                   0
                   0
                   0
                   0
                   0
                   0
                   0
                   0
                   0
                   0
                   0
                   0
                   0
                   0
                   0
                   0
                   0
                   0
                   0
                   0
                   0
                   0
                   0
                   0
                   0
                   0
                   0
                   0
                   0
                   0
                   0
                   0
                   0
                   0
                   0
                   0
                   0
                   0
                   0
                   0
                   0
                   0
                   0
                   0
                   0
                   0
                   0
                   0
                   0
                   0
                   0
                   0
                   0
                   0
                   0
                   0
                   0
                   0
                   0
                   0
                   0
                   0
                   0
                   0
                   0
                   0
                   0
                   0
                   0
                   0
                   0
                   0
                   0
                   0
                   0
                   0
                   0
                   0
                   0
                   0
                   0
                   0
                   0
                   0
                   0
                   0
                   0
                   0
                   0
                   0
                   0
                   0
                   0
                   0
                   0
                   0
                   0
                   0
                   0
                   0
                   0
                   0
                   0
                   0
                   0
                   0
                   0
                   0
                   0
                   0
                   0
                   0
                   0
                   0
                   0
                   0
                   0
                   0
                   0
                   0
                   0
                   0
                   0
                   0
                   0
                   0
                   0
                   0
                   0
                   0
                   0
                   0
                   0
                   0
                   0
                   0
                   0
                   0
                   0
                   0
                   0
                   0
                   0
                   0
                   0
                   0
                   0
                   0
                   0
                   0
                   0
                   0
                   0
                   0
                   0
                   0
                   0
                   0
                   0
                   0
                   0
                   0
                   0
                   0
                   0
                   0
                   0
                   0
                   0
                   0
                   0
                   0
                   0
                   0
                   0
                   0
                   0
                   0
                   0
                   0
                   0
                   0
                   0
                   0
                   0
                   0
                   0
                   0
                   0
                   0
                   0
                   0
                   0
                   0
                   0
                   0
                   0
                   0
                   0
                   0
                   0
                   0
                   0
                   0
                   0
                   0
                   0
                   0
                   0
                   0
                   0
                   0
                   0
                   0
                   0
                   0
                   0
                   0
                   0
                   0
                   0
                   0
                   0
                   0
                   0
                   0
                   0
                   0
                   0
                   0
                   0
                   0
                   0
                   0
                   0
                   0
                   0
                   0
                   0
                   0
                   0
                   0
                   0
                   0
                   0
                   0
                   0
                   0
                   0
                   0
                   0
                   0
                   0
                   0
                   0
                   0
                   0
                   0
                   0
                   0
                   0
                   0
                   0
                   0
                   0
                   0
                   0
                   0
                   0
                   0
                   0
                   0
                   0
                   0
                   0
                   0
                   0
                   0
                   0
                   0
                   0
                   0
                   0
                   0
                   0
                   0
                   0
                   0
                   0
                   0
                   0
                   0
                   0
                   0
                   0
                   0
                   0
                   0
                   0
                   0
                   0
                   0
                   0
                   0
                   0
                   0
                   0
                   0
                   0
                   0
                   0
                   0
                   0
                   0
                   0
                   0
                   0
                   0
                   0
                   0
                   0
                   0
                   0
                   0
                   0
                   0
                   0
                   0
                   0
                   0
                   0
                   0
                   0
                   0
                   0
                   0
                   0
                   0
                   0
                   0
                   0
                   0
                   0
                   0
                   0
                   0
                   0
                   0
                   0
                   0
                   0
                   0
                   0
                   0
                   0
                   0
                   0
                   0
                   0
                   0
                   0
                   0
                   0
                   0
                   0
                   0
                   0
                   0
                   0
                   0
                   0
                   0
                   0
                   0
                   0
                   0
                   0
                   0
                   0
                   0
                   0
                   0
                   0
                   0
                   0
                   0
                   0
                   0
                   0
                   0
                   0
                   0
                   0
                   0
                   0
                   0
                   0
                   0
                   0
                   0
                   0
                   0
                   0
                   0
                   0
                   0
                   0
                   0
                   0
                   0
                   0
                   0
                   0
                   0
                   0
                   0
                   0
                   0
                   0
                   0
                   0
                   0
                   0
                   0
                   0
                   0
                   0
                   0
                   0
                   0
                   0
                   0
                   0
                   0
                   0
                   0
                   0
                   0
                   0
                   0
                   0
                   0
                   0
                   0
                   0
                   0
                   0
                   0
                   0
                   0
                   0
                   0
                   0
                   0
                   0
                   0
                   0
                   0
                   0
                   0
                   0
                   0
                   0
                   0
                   0
                   0
                   0
                   0
                   0
                   0
                   0
                   0
                   0
                   0
                   0
                   0
                   0
                   0
                   0
                   0
                   0
                   0
                   0
                   0
                   0
                   0
                   0
                   0
                   0
                   0
                   0
                   0
                   0
                   0
                   0
                   0
                   0
                   0
                   0
                   0
                   0
                   0
                   0
                   0
                   0
                   0
                   0
                   0
                   0
                   0
                   0
                   0
                   0
                   0
                   0
                   0
                   0
                   0
                   0
                   0
                   0
                   0
                   0
                   0
                   0
                   0
                   0
                   0
                   0
                   0
                   0
                   0
                   0
                   0
                   0
                   0
                   0
                   0
                   0
                   0
                   0
                   0
                   0
                   0
                   0
                   0
                   0
                   0
                   0
                   0
                   0
                   0
                   0
                   0
                   0
                   0
                   0
                   0
                   0
                   0
                   0
                   0
                   0
                   0
                   0
                   0
                   0
                   0
                   0
                   0
                   0
                   0
                   0
                   0
                   0
                   0
                   0
                   0
                   0
                   0
                   0
                   0
                   0
                   0
                   0
                   0
                   0
                   0
                   0
                   0
                   0
                   0
                   0
                   0
                   0
                   0
                   0
                   0
                   0
                   0
                   0
                   0
                   0
                   0
                   0
                   0
                   0
                   0
                   0
                   0
                   0
                   0
                   0
                   0
                   0
                   0
                   0
                   0
                   0
                   0
                   0
                   0
                   0
                   0
                   0
                   0
                   0
                   0
                   0
                   0
                   0
                   0
                   0
                   0
                   0
                   0
                   0
                   0
                   0
                   0
                   0
                   0
                   0
                   0
                   0
                   0
                   0
                   0
                   0
                   0
                   0
                   0
                   0
                   0
                   0
                   0
                   0
                   0
                   0
                   0
                   0
                   0
                   0
                   0
                   0
                   0
                   0
                   0
                   0
                   0
                   0
                   0
                   0
                   0
                   0
                   0
                   0
                   0
                   0
                   0
                   0
                   0
                   0
                   0
                   0
                   0
                   0
                   0
                   0
                   0
                   0
                   0
                   0
                   0
                   0
                   0
                   0
                   0
                   0
                   0
                   0
                   0
                   0
                   0
                   0
                   0
                   0
                   0
                   0
                   0
                   0
                   0
                   0
                   0
                   0
                   0
                   0
                   0
                   0
                   0
                   0
                   0
                   0
                   0
                   0
                   0
                   0
                   0
                   0
                   0
                   0
                   0
                   0
                   0
                   0
                   0
                   0
                   0
                   0
                   0
                   0
                   0
                   0
                   0
                   0
                   0
                   0
                   0
                   0
                   0
                   0
                   0
                   0
                   0
                   0
                   0
                   0
                   0
                   0
                   0
                   0
                   0
                   0
                   0
                   0
                   0
                   0
                   0
                   0
                   0
                   0
                   0
                   0
                   0
                   0
                   0
                   0
                   0
                   0
                   0
                   0
                   0
                   0
                   0
                   0
                   0
                   0
                   0
                   0
                   0
                   0
                   0
                   0
                   0
                   0
                   0
                   0
                   0
                   0
                   0
                   0
                   0
                   0
                   0
                   0
                   0
                   0
                   0
                   0
                   0
                   0
                   0
                   0
                   0
                   0
                   0
                   0
                   0
                   0
                   0
                   0
                   0
                   0
                   0
                   0
                   0
                   0
                   0
                   0
                   0
                   0
                   0
                   0
                   0
                   0
                   0
                   0
                   0
                   0
                   0
                   0
                   0
                   0
                   0
                   0
                   0
                   0
                   0
                   0
                   0
                   0
                   0
                   0
                   0
                   0
                   0
                   0
                   0
                   0
                   0
                   0
                   0
                   0
                   0
                   0
                   0
                   0
                   0
                   0
                   0
                   0
                   0
                   0
                   0
                   0
                   0
                   0
                   0
                   0
                   0
                   0
                   0
                   0
                   0
                   0
                   0
                   0
                   0
                   0
                   0
                   0
                   0
                   0
                   0
                   0
                   0
                   0
                   0
                   0
                   0
                   0
                   0
                   0
                   0
                   0
                   0
                   0
                   0
                   0
                   0
                   0
                   0
                   0
                   0
                   0
                   0
                   0
                   0
                   0
                   0
                   0
                   0
                   0
                   0
                   0
                   0
                   0
                   0
                   0
                   0
                   0
                   0
                   0
                   0
                   0
                   0
                   0
                   0
                   0
                   0
                   0
                   0
                   0
                   0
                   0
                   0
                   0
                   0
                   0
                   0
                   0
                   0
                   0
                   0
                   0
                   0
                   0
                   0
                   0
                   0
                   0
                   0
                   0
                   0
                   0
                   0
                   0
                   0
                   0
                   0
                   0
                   0
                   0
                   0
                   0
                   0
                   0
                   0
                   0
                   0
                   0
                   0
                   0
                   0
                   0
                   0
                   0
                   0
                   0
                   0
                   0
                   0
                   0
                   0
                   0
                   0
                   0
                   0
                   0
                   0
                   0
                   0
                   0
                   0
                   0
                   0
                   0
                   0
                   0
                   0
                   0
                   0
                   0
                   0
                   0
                   0
                   0
                   0
                   0
                   0
                   0
                   0
                   0
                   0
                   0
                   0
                   0
                   0
                   0
                   0
                   0
                   0
                   0
                   0
                   0
                   0
                   0
                   0
                   0
                   0
                   0
                   0
                   0
                   0
                   0
                   0
                   0
                   0
                   0
                   0
                   0
                   0
                   0
                   0
                   0
                   0
                   0
                   0
                   0
                   0
                   0
                   0
                   0
                   0
                   0
                   0
                   0
                   0
                   0
                   0
                   0
                   0
                   0
                   0
                   0
                   0
                   0
                   0
                   0
                   0
                   0
                   0
                   0
                   0
                   0
                   0
                   0
                   0
                   0
                   0
                   0
                   0
                   0
                   0
                   0
                   0
                   0
                   0
                   0
                   0
                   0
                   0
                   0
                   0
                   0
                   0
                   0
                   0
                   0
                   0
                   0
                   0
                   0
                   0
                   0
                   0
                   0
                   0
                   0
                   0
                   0
                   0
                   0
                   0
                   0
                   0
                   0
                   0
                   0
                   0
                   0
                   0
                   0
                   0
                   0
                   0
                   0
                   0
                   0
                   0
                   0
                   0
                   0
                   0
                   0
                   0
                   0
                   0
                   0
                   0
                   0
                   0
                   0
                   0
                   0
                   0
                   0
                   0
                   0
                   0
                   0
                   0
                   0
                   0
                   0
                   0
                   0
                   0
                   0
                   0
                   0
                   0
                   0
                   0
                   0
                   0
                   0
                   0
                   0
                   0
                   0
                   0
                   0
                   0
                   0
                   0
                   0
                   0
                   0
                   0
                   0
                   0
                   0
                   0
                   0
                   0
                   0
                   0
                   0
                   0
                   0
                   0
                   0
                   0
                   0
                   0
                   0
                   0
                   0
                   0
                   0
                   0
                   0
                   0
                   0
                   0
                   0
                   0
                   0
                   0
                   0
                   0
                   0
                   0
                   0
                   0
                   0
                   0
                   0
                   0
                   0
                   0
                   0
                   0
                   0
                   0
                   0
                   0
                   0
                   0
                   0
                   0
                   0
                   0
                   0
                   0
                   0
                   0
                   0
                   0
                   0
                   0
                   0
                   0
                   0
                   0
                   0
                   0
                   0
                   0
                   0
                   0
                   0
                   0
                   0
                   0
                   0
                   0
                   0
                   0
                   0
                   0
                   0
                   0
                   0
                   0
                   0
                   0
                   0
                   0
                   0
                   0
                   0
                   0
                   0
                   0
                   0
                   0
                   0
                   0
                   0
                   0
                   0
                   0
                   0
                   0
                   0
                   0
                   0
                   0
                   0
                   0
                   0
                   0
                   0
                   0
                   0
                   0
                   0
                   0
                   0
                   0
                   0
                   0
                   0
                   0
                   0
                   0
                   0
                   0
                   0
                   0
                   0
                   0
                   0
                   0
                   0
                   0
                   0
                   0
                   0
                   0
                   0
                   0
                   0
                   0
                   0
                   0
                   0
                   0
                   0
                   0
                   0
                   0
                   0
                   0
                   0
                   0
                   0
                   0
                   0
                   0
                   0
                   0
                   0
                   0
                   0
                   0
                   0
                   0
                   0
                   0
                   0
                   0
                   0
                   0
                   0
                   0
                   0
                   0
                   0
                   0
                   0
                   0
                   0
                   0
                   0
                   0
                   0
                   0
                   0
                   0
                   0
                   0
                   0
                   0
                   0
                   0
                   0
                   0
                   0
                   0
                   0
                   0
                   0
                   0
                   0
                   0
                   0
                   0
                   0
                   0
                   0
                   0
                   0
                   0
                   0
                   0
                   0
                   0
                   0
                   0
                   0
                   0
                   0
                   0
                   0
                   0
                   0
                   0
                   0
                   0
                   0
                   0
                   0
                   0
                   0
                   0
                   0
                   0
                   0
                   0
                   0
                   0
                   0
                   0
                   0
                   0
                   0
                   0
                   0
                   0
                   0
                   0
                   0
                   0
                   0
                   0
                   0
                   0
                   0
                   0
                   0
                   0
                   0
                   0
                   0
                   0
                   0
                   0
                   0
                   0
                   0
                   0
                   0
                   0
                   0
                   0
                   0
                   0
                   0
                   0
                   0
                   0
                   0
                   0
                   0
                   0
                   0
                   0
                   0
                   0
                   0
                   0
                   0
                   0
                   0
                   0
                   0
                   0
                   0
                   0
                   0
                   0
                   0
                   0
                   0
                   0
                   0
                   0
                   0
                   0
                   0
                   0
                   0
                   0
                   0
                   0
                   0
                   0
                   0
                   0
                   0
                   0
                   0
                   0
                   0
                   0
                   0
                   0
                   0
                   0
                   0
                   0
                   0
                   0
                   0
                   0
                   0
                   0
                   0
                   0
                   0
                   0
                   0
                   0
                   0
                   0
                   0
                   0
                   0
                   0
                   0
                   0
                   0
                   0
                   0
                   0
                   0
                   0
                   0
                   0
                   0
                   0
                   0
                   0
                   0
                   0
                   0
                   0
                   0
                   0
                   0
                   0
                   0
                   0
                   0
                   0
                   0
                   0
                   0
                   0
                   0
                   0
                   0
                   0
                   0
                   0
                   0
                   0
                   0
                   0
                   0
                   0
                   0
                   0
                   0
                   0
                   0
                   0
                   0
                   0
                   0
                   0
                   0
                   0
                   0
                   0
                   0
                   0
                   0
                   0
                   0
                   0
                   0
                   0
                   0
                   0
                   0
                   0
                   0
                   0
                   0
                   0
                   0
                   0
                   0
                   0
                   0
                   0
                   0
                   0
                   0
                   0
                   0
                   0
                   0
                   0
                   0
                   0
                   0
                   0
                   0
                   0
                   0
                   0
                   0
                   0
                   0
                   0
                   0
                   0
                   0
                   0
                   0
                   0
                   0
                   0
                   0
                   0
                   0
                   0
                   0
                   0
                   0
                   0
                   0
                   0
                   0
                   0
                   0
                   0
                   0
                   0
                   0
                   0
                   0
                   0
                   0
                   0
                   0
                   0
                   0
                   0
                   0
                   0
                   0
                   0
                   0
                   0
                   0
                   0
                   0
                   0
                   0
                   0
                   0
                   0
                   0
                   0
                   0
                   0
                   0
                   0
                   0
                   0
                   0
                   0
                   0
                   0
                   0
                   0
                   0
                   0
                   0
                   0
                   0
                   0
                   0
                   0
                   0
                   0
                   0
                   0
                   0
                   0
                   0
                   0
                   0
                   0
                   0
                   0
                   0
                   0
                   0
                   0
                   0
                   0
                   0
                   0
                   0
                   0
                   0
                   0
                   0
                   0
                   0
                   0
                   0
                   0
                   0
                   0
                   0
                   0
                   0
                   0
                   0
                   0
  
SCALARS                       fixity_y  double 1
LOOKUP_TABLE default
                   0
                   0
                   0
                   0
                   0
                   0
                   0
                   0
                   0
                   0
                   0
                   0
                   0
                   0
                   0
                   0
                   0
                   0
                   0
                   0
                   0
                   0
                   0
                   0
                   0
                   0
                   0
                   0
                   0
                   0
                   0
                   0
                   0
                   0
                   0
                   0
                   0
                   0
                   0
                   0
                   0
                   0
                   0
                   0
                   0
                   0
                   0
                   0
                   0
                   0
                   0
                   0
                   0
                   0
                   0
                   0
                   0
                   0
                   0
                   0
                   0
                   0
                   0
                   0
                   0
                   0
                   0
                   0
                   0
                   0
                   0
                   0
                   0
                   0
                   0
                   0
                   0
                   0
                   0
                   0
                   0
                   0
                   0
                   0
                   0
                   0
                   0
                   0
                   0
                   0
                   0
                   0
                   0
                   0
                   0
                   0
                   0
                   0
                   0
                   0
                   0
                   0
                   0
                   0
                   0
                   0
                   0
                   0
                   0
                   0
                   0
                   0
                   0
                   0
                   0
                   0
                   0
                   0
                   0
                   0
                   0
                   0
                   0
                   0
                   0
                   0
                   0
                   0
                   0
                   0
                   0
                   0
                   0
                   0
                   0
                   0
                   0
                   0
                   0
                   0
                   0
                   0
                   0
                   0
                   0
                   0
                   0
                   0
                   0
                   0
                   0
                   0
                   0
                   0
                   0
                   0
                   0
                   0
                   0
                   0
                   0
                   0
                   0
                   0
                   0
                   0
                   0
                   0
                   0
                   0
                   0
                   0
                   0
                   0
                   0
                   0
                   0
                   0
                   0
                   0
                   0
                   0
                   0
                   0
                   0
                   0
                   0
                   0
                   0
                   0
                   0
                   0
                   0
                   0
                   0
                   0
                   0
                   0
                   0
                   0
                   0
                   0
                   0
                   0
                   0
                   0
                   0
                   0
                   0
                   0
                   0
                   0
                   0
                   0
                   0
                   0
                   0
                   0
                   0
                   0
                   0
                   0
                   0
                   0
                   0
                   0
                   0
                   0
                   0
                   0
                   0
                   0
                   0
                   0
                   0
                   0
                   0
                   0
                   0
                   0
                   0
                   0
                   0
                   0
                   0
                   0
                   0
                   0
                   0
                   0
                   0
                   0
                   0
                   0
                   0
                   0
                   0
                   0
                   0
                   0
                   0
                   0
                   0
                   0
                   0
                   0
                   0
                   0
                   0
                   0
                   0
                   0
                   0
                   0
                   0
                   0
                   0
                   0
                   0
                   0
                   0
                   0
                   0
                   0
                   0
                   0
                   0
                   0
                   0
                   0
                   0
                   0
                   0
                   0
                   0
                   0
                   0
                   0
                   0
                   0
                   0
                   0
                   0
                   0
                   0
                   0
                   0
                   0
                   0
                   0
                   0
                   0
                   0
                   0
                   0
                   0
                   0
                   0
                   0
                   0
                   0
                   0
                   0
                   0
                   0
                   0
                   0
                   0
                   0
                   0
                   0
                   0
                   0
                   0
                   0
                   0
                   0
                   0
                   0
                   0
                   0
                   0
                   0
                   0
                   0
                   0
                   0
                   0
                   0
                   0
                   0
                   0
                   0
                   0
                   0
                   0
                   0
                   0
                   0
                   0
                   0
                   0
                   0
                   0
                   0
                   0
                   0
                   0
                   0
                   0
                   0
                   0
                   0
                   0
                   0
                   0
                   0
                   0
                   0
                   0
                   0
                   0
                   0
                   0
                   0
                   0
                   0
                   0
                   0
                   0
                   0
                   0
                   0
                   0
                   0
                   0
                   0
                   0
                   0
                   0
                   0
                   0
                   0
                   0
                   0
                   0
                   0
                   0
                   0
                   0
                   0
                   0
                   0
                   0
                   0
                   0
                   0
                   0
                   0
                   0
                   0
                   0
                   0
                   0
                   0
                   0
                   0
                   0
                   0
                   0
                   0
                   0
                   0
                   0
                   0
                   0
                   0
                   0
                   0
                   0
                   0
                   0
                   0
                   0
                   0
                   0
                   0
                   0
                   0
                   0
                   0
                   0
                   0
                   0
                   0
                   0
                   0
                   0
                   0
                   0
                   0
                   0
                   0
                   0
                   0
                   0
                   0
                   0
                   0
                   0
                   0
                   0
                   0
                   0
                   0
                   0
                   0
                   0
                   0
                   0
                   0
                   0
                   0
                   0
                   0
                   0
                   0
                   0
                   0
                   0
                   0
                   0
                   0
                   0
                   0
                   0
                   0
                   0
                   0
                   0
                   0
                   0
                   0
                   0
                   0
                   0
                   0
                   0
                   0
                   0
                   0
                   0
                   0
                   0
                   0
                   0
                   0
                   0
                   0
                   0
                   0
                   0
                   0
                   0
                   0
                   0
                   0
                   0
                   0
                   0
                   0
                   0
                   0
                   0
                   0
                   0
                   0
                   0
                   0
                   0
                   0
                   0
                   0
                   0
                   0
                   0
                   0
                   0
                   0
                   0
                   0
                   0
                   0
                   0
                   0
                   0
                   0
                   0
                   0
                   0
                   0
                   0
                   0
                   0
                   0
                   0
                   0
                   0
                   0
                   0
                   0
                   0
                   0
                   0
                   0
                   0
                   0
                   0
                   0
                   0
                   0
                   0
                   0
                   0
                   0
                   0
                   0
                   0
                   0
                   0
                   0
                   0
                   0
                   0
                   0
                   0
                   0
                   0
                   0
                   0
                   0
                   0
                   0
                   0
                   0
                   0
                   0
                   0
                   0
                   0
                   0
                   0
                   0
                   0
                   0
                   0
                   0
                   0
                   0
                   0
                   0
                   0
                   0
                   0
                   0
                   0
                   0
                   0
                   0
                   0
                   0
                   0
                   0
                   0
                   0
                   0
                   0
                   0
                   0
                   0
                   0
                   0
                   0
                   0
                   0
                   0
                   0
                   0
                   0
                   0
                   0
                   0
                   0
                   0
                   0
                   0
                   0
                   0
                   0
                   0
                   0
                   0
                   0
                   0
                   0
                   0
                   0
                   0
                   0
                   0
                   0
                   0
                   0
                   0
                   0
                   0
                   0
                   0
                   0
                   0
                   0
                   0
                   0
                   0
                   0
                   0
                   0
                   0
                   0
                   0
                   0
                   0
                   0
                   0
                   0
                   0
                   0
                   0
                   0
                   0
                   0
                   0
                   0
                   0
                   0
                   0
                   0
                   0
                   0
                   0
                   0
                   0
                   0
                   0
                   0
                   0
                   0
                   0
                   0
                   0
                   0
                   0
                   0
                   0
                   0
                   0
                   0
                   0
                   0
                   0
                   0
                   0
                   0
                   0
                   0
                   0
                   0
                   0
                   0
                   0
                   0
                   0
                   0
                   0
                   0
                   0
                   0
                   0
                   0
                   0
                   0
                   0
                   0
                   0
                   0
                   0
                   0
                   0
                   0
                   0
                   0
                   0
                   0
                   0
                   0
                   0
                   0
                   0
                   0
                   0
                   0
                   0
                   0
                   0
                   0
                   0
                   0
                   0
                   0
                   0
                   0
                   0
                   0
                   0
                   0
                   0
                   0
                   0
                   0
                   0
                   0
                   0
                   0
                   0
                   0
                   0
                   0
                   0
                   0
                   0
                   0
                   0
                   0
                   0
                   0
                   0
                   0
                   0
                   0
                   0
                   0
                   0
                   0
                   0
                   0
                   0
                   0
                   0
                   0
                   0
                   0
                   0
                   0
                   0
                   0
                   0
                   0
                   0
                   0
                   0
                   0
                   0
                   0
                   0
                   0
                   0
                   0
                   0
                   0
                   0
                   0
                   0
                   0
                   0
                   0
                   0
                   0
                   0
                   0
                   0
                   0
                   0
                   0
                   0
                   0
                   0
                   0
                   0
                   0
                   0
                   0
                   0
                   0
                   0
                   0
                   0
                   0
                   0
                   0
                   0
                   0
                   0
                   0
                   0
                   0
                   0
                   0
                   0
                   0
                   0
                   0
                   0
                   0
                   0
                   0
                   0
                   0
                   0
                   0
                   0
                   0
                   0
                   0
                   0
                   0
                   0
                   0
                   0
                   0
                   0
                   0
                   0
                   0
                   0
                   0
                   0
                   0
                   0
                   0
                   0
                   0
                   0
                   0
                   0
                   0
                   0
                   0
                   0
                   0
                   0
                   0
                   0
                   0
                   0
                   0
                   0
                   0
                   0
                   0
                   0
                   0
                   0
                   0
                   0
                   0
                   0
                   0
                   0
                   0
                   0
                   0
                   0
                   0
                   0
                   0
                   0
                   0
                   0
                   0
                   0
                   0
                   0
                   0
                   0
                   0
                   0
                   0
                   0
                   0
                   0
                   0
                   0
                   0
                   0
                   0
                   0
                   0
                   0
                   0
                   0
                   0
                   0
                   0
                   0
                   0
                   0
                   0
                   0
                   0
                   0
                   0
                   0
                   0
                   0
                   0
                   0
                   0
                   0
                   0
                   0
                   0
                   0
                   0
                   0
                   0
                   0
                   0
                   0
                   0
                   0
                   0
                   0
                   0
                   0
                   0
                   0
                   0
                   0
                   0
                   0
                   0
                   0
                   0
                   0
                   0
                   0
                   0
                   0
                   0
                   0
                   0
                   0
                   0
                   0
                   0
                   0
                   0
                   0
                   0
                   0
                   0
                   0
                   0
                   0
                   0
                   0
                   0
                   0
                   0
                   0
                   0
                   0
                   0
                   0
                   0
                   0
                   0
                   0
                   0
                   0
                   0
                   0
                   0
                   0
                   0
                   0
                   0
                   0
                   0
                   0
                   0
                   0
                   0
                   0
                   0
                   0
                   0
                   0
                   0
                   0
                   0
                   0
                   0
                   0
                   0
                   0
                   0
                   0
                   0
                   0
                   0
                   0
                   0
                   0
                   0
                   0
                   0
                   0
                   0
                   0
                   0
                   0
                   0
                   0
                   0
                   0
                   0
                   0
                   0
                   0
                   0
                   0
                   0
                   0
                   0
                   0
                   0
                   0
                   0
                   0
                   0
                   0
                   0
                   0
                   0
                   0
                   0
                   0
                   0
                   0
                   0
                   0
                   0
                   0
                   0
                   0
                   0
                   0
                   0
                   0
                   0
                   0
                   0
                   0
                   0
                   0
                   0
                   0
                   0
                   0
                   0
                   0
                   0
                   0
                   0
                   0
                   0
                   0
                   0
                   0
                   0
                   0
                   0
                   0
                   0
                   0
                   0
                   0
                   0
                   0
                   0
                   0
                   0
                   0
                   0
                   0
                   0
                   0
                   0
                   0
                   0
                   0
                   0
                   0
                   0
                   0
                   0
                   0
                   0
                   0
                   0
                   0
                   0
                   0
                   0
                   0
                   0
                   0
                   0
                   0
                   0
                   0
                   0
                   0
                   0
                   0
                   0
                   0
                   0
                   0
                   0
                   0
                   0
                   0
                   0
                   0
                   0
                   0
                   0
                   0
                   0
                   0
                   0
                   0
                   0
                   0
                   0
                   0
                   0
                   0
                   0
                   0
                   0
                   0
                   0
                   0
                   0
                   0
                   0
                   0
                   0
                   0
                   0
                   0
                   0
                   0
                   0
                   0
                   0
                   0
                   0
                   0
                   0
                   0
                   0
                   0
                   0
                   0
                   0
                   0
                   0
                   0
                   0
                   0
                   0
                   0
                   0
                   0
                   0
                   0
                   0
                   0
                   0
                   0
                   0
                   0
                   0
                   0
                   0
                   0
                   0
                   0
                   0
                   0
                   0
                   0
                   0
                   0
                   0
                   0
                   0
                   0
                   0
                   0
                   0
                   0
                   0
                   0
                   0
                   0
                   0
                   0
                   0
                   0
                   0
                   0
                   0
                   0
                   0
                   0
                   0
                   0
                   0
                   0
                   0
                   0
                   0
                   0
                   0
                   0
                   0
                   0
                   0
                   0
                   0
                   0
                   0
                   0
                   0
                   0
                   0
                   0
                   0
                   0
                   0
                   0
                   0
                   0
                   0
                   0
                   0
                   0
                   0
                   0
                   0
                   0
                   0
                   0
                   0
                   0
                   0
                   0
                   0
                   0
                   0
                   0
                   0
                   0
                   0
                   0
                   0
                   0
                   0
                   0
                   0
                   0
                   0
                   0
                   0
                   0
                   0
                   0
                   0
                   0
                   0
                   0
                   0
                   0
                   0
                   0
                   0
                   0
                   0
                   0
                   0
                   0
                   0
                   0
                   0
                   0
                   0
                   0
                   0
                   0
                   0
                   0
                   0
                   0
                   0
                   0
                   0
                   0
                   0
                   0
                   0
                   0
                   0
                   0
                   0
                   0
                   0
                   0
                   0
                   0
                   0
                   0
                   0
                   0
                   0
                   0
                   0
                   0
                   0
                   0
                   0
                   0
                   0
                   0
                   0
                   0
                   0
                   0
                   0
                   0
                   0
                   0
                   0
                   0
                   0
                   0
                   0
                   0
                   0
                   0
                   0
                   0
                   0
                   0
                   0
                   0
                   0
                   0
                   0
                   0
                   0
                   0
                   0
                   0
                   0
                   0
                   0
                   0
                   0
                   0
                   0
                   0
                   0
                   0
                   0
                   0
                   0
                   0
                   0
                   0
                   0
                   0
                   0
                   0
                   0
                   0
                   0
                   0
                   0
                   0
                   0
                   0
                   0
                   0
                   0
                   0
                   0
                   0
                   0
                   0
                   0
                   0
                   0
                   0
                   0
                   0
                   0
                   0
                   0
                   0
                   0
                   0
                   0
                   0
                   0
                   0
                   0
                   0
                   0
                   0
                   0
                   0
                   0
                   0
                   0
                   0
                   0
                   0
                   0
                   0
                   0
                   0
                   0
                   0
                   0
                   0
                   0
                   0
                   0
                   0
                   0
                   0
                   0
                   0
                   0
                   0
                   0
                   0
                   0
                   0
                   0
                   0
                   0
                   0
                   0
                   0
                   0
                   0
                   0
                   0
                   0
                   0
                   0
                   0
                   0
                   0
                   0
                   0
                   0
                   0
                   0
                   0
                   0
                   0
                   0
                   0
                   0
                   0
                   0
                   0
                   0
                   0
                   0
                   0
                   0
                   0
                   0
                   0
                   0
                   0
                   0
                   0
                   0
                   0
                   0
                   0
                   0
                   0
                   0
                   0
                   0
                   0
                   0
                   0
                   0
                   0
                   0
                   0
                   0
                   0
                   0
                   0
                   0
                   0
                   0
                   0
                   0
                   0
                   0
                   0
                   0
                   0
                   0
                   0
                   0
                   0
                   0
                   0
                   0
                   0
                   0
                   0
                   0
                   0
                   0
                   0
                   0
                   0
                   0
                   0
                   0
                   0
                   0
                   0
                   0
                   0
                   0
                   0
                   0
                   0
                   0
                   0
                   0
                   0
                   0
                   0
                   0
                   0
                   0
                   0
                   0
                   0
                   0
                   0
                   0
                   0
                   0
                   0
                   0
                   0
                   0
                   0
                   0
                   0
                   0
                   0
                   0
                   0
                   0
                   0
                   0
                   0
                   0
                   0
                   0
                   0
                   0
                   0
                   0
                   0
                   0
                   0
                   0
                   0
                   0
                   0
                   0
                   0
                   0
                   0
                   0
                   0
                   0
                   0
                   0
                   0
                   0
                   0
                   0
                   0
                   0
                   0
                   0
                   0
                   0
                   0
                   0
                   0
                   0
                   0
                   0
                   0
                   0
                   0
                   0
                   0
                   0
                   0
                   0
                   0
                   0
                   0
                   0
                   0
                   0
                   0
                   0
                   0
                   0
                   0
                   0
                   0
                   0
                   0
                   0
                   0
                   0
                   0
                   0
                   0
                   0
                   0
                   0
                   0
                   0
                   0
                   0
                   0
                   0
                   0
                   0
                   0
                   0
                   0
                   0
                   0
                   0
                   0
                   0
                   0
                   0
                   0
                   0
                   0
                   0
                   0
                   0
                   0
                   0
                   0
                   0
                   0
                   0
                   0
                   0
                   0
                   0
                   0
                   0
                   0
                   0
                   0
                   0
                   0
                   0
                   0
                   0
                   0
                   0
                   0
                   0
                   0
                   0
                   0
                   0
                   0
                   0
                   0
                   0
                   0
                   0
                   0
                   0
                   0
                   0
                   0
                   0
                   0
                   0
                   0
                   0
                   0
                   0
                   0
                   0
                   0
                   0
                   0
                   0
                   0
                   0
                   0
                   0
                   0
                   0
                   0
                   0
                   0
                   0
                   0
                   0
                   0
                   0
                   0
                   0
                   0
                   0
                   0
                   0
                   0
                   0
                   0
                   0
                   0
                   0
                   0
                   0
                   0
                   0
                   0
                   0
                   0
                   0
                   0
                   0
                   0
                   0
                   0
                   0
                   0
                   0
                   0
                   0
                   0
                   0
                   0
                   0
                   0
                   0
                   0
                   0
                   0
                   0
                   0
                   0
                   0
                   0
                   0
                   0
                   0
                   0
                   0
                   0
                   0
                   0
                   0
                   0
                   0
                   0
                   0
                   0
                   0
                   0
                   0
                   0
                   0
                   0
                   0
                   0
                   0
                   0
                   0
                   0
                   0
                   0
                   0
                   0
                   0
                   0
                   0
                   0
                   0
                   0
                   0
                   0
                   0
                   0
                   0
                   0
                   0
                   0
                   0
                   0
                   0
                   0
                   0
                   0
                   0
                   0
                   0
                   0
                   0
                   0
                   0
                   0
                   0
                   0
                   0
                   0
                   0
                   0
                   0
                   0
                   0
                   0
                   0
                   0
                   0
                   0
                   0
                   0
                   0
                   0
                   0
                   0
                   0
  
SCALARS                       fixity_z  double 1
LOOKUP_TABLE default
                   0
                   0
                   0
                   0
                   1
                   1
                   1
                   1
                   0
                   0
                   1
                   1
                   0
                   0
                   1
                   1
                   0
                   0
                   1
                   1
                   0
                   0
                   0
                   1
                   1
                   1
                   0
                   0
                   1
                   1
                   0
                   0
                   0
                   1
                   1
                   1
                   0
                   0
                   1
                   1
                   0
                   0
                   1
                   1
                   0
                   0
                   1
                   1
                   0
                   1
                   0
                   1
                   0
                   1
                   0
                   1
                   0
                   0
                   1
                   1
                   0
                   0
                   1
                   1
                   0
                   1
                   0
                   1
                   0
                   0
                   1
                   1
                   0
                   1
                   0
                   1
                   0
                   1
                   0
                   1
                   0
                   0
                   1
                   1
                   0
                   1
                   0
                   1
                   0
                   1
                   0
                   0
                   1
                   1
                   0
                   1
                   0
                   1
                   0
                   1
                   0
                   0
                   1
                   1
                   0
                   0
                   1
                   1
                   0
                   1
                   0
                   1
                   0
                   1
                   0
                   1
                   0
                   1
                   0
                   1
                   0
                   1
                   0
                   1
                   0
                   1
                   0
                   1
                   0
                   1
                   0
                   1
                   0
                   1
                   0
                   1
                   0
                   1
                   0
                   1
                   0
                   1
                   0
                   1
                   0
                   1
                   0
                   1
                   0
                   1
                   0
                   1
                   0
                   1
                   0
                   1
                   0
                   0
                   0
                   0
                   0
                   0
                   0
                   0
                   0
                   0
                   0
                   0
                   0
                   0
                   0
                   0
                   0
                   0
                   0
                   0
                   0
                   0
                   0
                   0
                   0
                   0
                   0
                   0
                   0
                   0
                   0
                   0
                   0
                   0
                   0
                   0
                   0
                   0
                   0
                   0
                   0
                   0
                   0
                   0
                   0
                   0
                   0
                   0
                   0
                   0
                   0
                   0
                   0
                   0
                   0
                   0
                   0
                   0
                   0
                   0
                   0
                   0
                   0
                   0
                   0
                   0
                   0
                   0
                   0
                   0
                   0
                   0
                   0
                   0
                   0
                   0
                   0
                   0
                   0
                   0
                   0
                   0
                   0
                   0
                   0
                   0
                   0
                   0
                   0
                   0
                   0
                   0
                   0
                   0
                   0
                   0
                   0
                   0
                   0
                   0
                   0
                   0
                   0
                   0
                   0
                   0
                   0
                   0
                   0
                   0
                   0
                   0
                   0
                   0
                   0
                   0
                   0
                   0
                   0
                   0
                   0
                   0
                   0
                   0
                   0
                   0
                   0
                   0
                   0
                   0
                   0
                   0
                   0
                   0
                   0
                   0
                   0
                   0
                   0
                   0
                   0
                   0
                   0
                   0
                   0
                   0
                   0
                   0
                   0
                   0
                   0
                   0
                   0
                   0
                   0
                   0
                   0
                   0
                   0
                   0
                   0
                   0
                   0
                   0
                   0
                   0
                   0
                   0
                   0
                   0
                   0
                   0
                   0
                   0
                   0
                   0
                   0
                   0
                   0
                   0
                   0
                   0
                   0
                   0
                   0
                   0
                   0
                   0
                   0
                   0
                   0
                   0
                   0
                   0
                   0
                   0
                   0
                   0
                   0
                   0
                   0
                   0
                   0
                   0
                   0
                   0
                   0
                   0
                   0
                   0
                   0
                   0
                   0
                   0
                   0
                   0
                   0
                   0
                   0
                   0
                   0
                   0
                   0
                   0
                   0
                   0
                   0
                   0
                   0
                   0
                   0
                   0
                   0
                   0
                   0
                   0
                   0
                   0
                   0
                   0
                   0
                   0
                   0
                   0
                   0
                   0
                   0
                   0
                   0
                   0
                   0
                   0
                   0
                   0
                   0
                   0
                   0
                   0
                   0
                   0
                   0
                   0
                   0
                   0
                   0
                   0
                   0
                   0
                   0
                   0
                   0
                   0
                   0
                   0
                   0
                   0
                   0
                   0
                   0
                   0
                   0
                   0
                   0
                   0
                   0
                   0
                   0
                   0
                   0
                   0
                   0
                   0
                   0
                   0
                   0
                   0
                   0
                   0
                   0
                   0
                   0
                   0
                   0
                   0
                   0
                   0
                   0
                   0
                   0
                   0
                   0
                   0
                   0
                   0
                   0
                   0
                   0
                   0
                   0
                   0
                   0
                   0
                   0
                   0
                   0
                   0
                   0
                   0
                   0
                   0
                   0
                   0
                   0
                   0
                   0
                   0
                   0
                   0
                   0
                   0
                   0
                   0
                   0
                   0
                   0
                   0
                   0
                   0
                   0
                   0
                   0
                   0
                   0
                   0
                   0
                   0
                   0
                   0
                   0
                   0
                   0
                   0
                   0
                   0
                   0
                   0
                   0
                   0
                   0
                   0
                   0
                   0
                   0
                   0
                   0
                   0
                   0
                   0
                   0
                   0
                   0
                   0
                   0
                   0
                   0
                   0
                   0
                   0
                   0
                   0
                   0
                   0
                   0
                   0
                   0
                   0
                   0
                   0
                   0
                   0
                   0
                   0
                   0
                   0
                   0
                   0
                   0
                   0
                   0
                   0
                   0
                   0
                   0
                   0
                   0
                   0
                   0
                   0
                   0
                   0
                   0
                   0
                   0
                   0
                   0
                   0
                   0
                   0
                   0
                   0
                   0
                   0
                   0
                   0
                   0
                   0
                   0
                   0
                   0
                   0
                   0
                   0
                   0
                   0
                   0
                   0
                   0
                   0
                   0
                   0
                   0
                   0
                   0
                   0
                   0
                   0
                   0
                   0
                   0
                   0
                   0
                   0
                   0
                   0
                   0
                   0
                   0
                   0
                   0
                   0
                   0
                   0
                   0
                   0
                   0
                   0
                   0
                   0
                   0
                   0
                   0
                   0
                   0
                   0
                   0
                   0
                   0
                   0
                   0
                   0
                   0
                   0
                   0
                   0
                   0
                   0
                   0
                   0
                   0
                   0
                   0
                   0
                   0
                   0
                   0
                   0
                   0
                   0
                   0
                   0
                   0
                   0
                   0
                   0
                   0
                   0
                   0
                   0
                   0
                   0
                   0
                   0
                   0
                   0
                   0
                   0
                   0
                   0
                   0
                   0
                   0
                   0
                   0
                   0
                   0
                   0
                   0
                   0
                   0
                   0
                   0
                   0
                   0
                   0
                   0
                   0
                   0
                   0
                   0
                   0
                   0
                   0
                   0
                   0
                   0
                   0
                   0
                   0
                   0
                   0
                   0
                   0
                   0
                   0
                   0
                   0
                   0
                   0
                   0
                   0
                   0
                   0
                   0
                   0
                   0
                   0
                   0
                   0
                   0
                   0
                   0
                   0
                   0
                   0
                   0
                   0
                   0
                   0
                   0
                   0
                   0
                   0
                   0
                   0
                   0
                   0
                   0
                   0
                   0
                   0
                   0
                   0
                   0
                   0
                   0
                   0
                   0
                   0
                   0
                   0
                   0
                   0
                   0
                   0
                   0
                   0
                   0
                   0
                   0
                   0
                   0
                   0
                   0
                   0
                   0
                   0
                   0
                   0
                   0
                   0
                   0
                   0
                   0
                   0
                   0
                   0
                   0
                   0
                   0
                   0
                   0
                   0
                   0
                   0
                   0
                   0
                   0
                   0
                   0
                   0
                   0
                   0
                   0
                   0
                   0
                   0
                   0
                   0
                   0
                   0
                   0
                   0
                   0
                   0
                   0
                   0
                   0
                   0
                   0
                   0
                   0
                   0
                   0
                   0
                   0
                   0
                   0
                   0
                   0
                   0
                   0
                   0
                   0
                   0
                   0
                   0
                   0
                   0
                   0
                   0
                   0
                   0
                   0
                   0
                   0
                   0
                   0
                   0
                   0
                   0
                   0
                   0
                   0
                   0
                   0
                   0
                   0
                   0
                   0
                   0
                   0
                   0
                   0
                   0
                   0
                   0
                   0
                   0
                   0
                   0
                   0
                   0
                   0
                   0
                   0
                   0
                   0
                   0
                   0
                   0
                   0
                   0
                   0
                   0
                   0
                   0
                   0
                   0
                   0
                   0
                   0
                   0
                   0
                   0
                   0
                   0
                   0
                   0
                   0
                   0
                   0
                   0
                   0
                   0
                   0
                   0
                   0
                   0
                   0
                   0
                   0
                   0
                   0
                   0
                   0
                   0
                   0
                   0
                   0
                   0
                   0
                   0
                   0
                   0
                   0
                   0
                   0
                   0
                   0
                   0
                   0
                   0
                   0
                   0
                   0
                   0
                   0
                   0
                   0
                   0
                   0
                   0
                   0
                   0
                   0
                   0
                   0
                   0
                   0
                   0
                   0
                   0
                   0
                   0
                   0
                   0
                   0
                   0
                   0
                   0
                   0
                   0
                   0
                   0
                   0
                   0
                   0
                   0
                   0
                   0
                   0
                   0
                   0
                   0
                   0
                   0
                   0
                   0
                   0
                   0
                   0
                   0
                   0
                   0
                   0
                   0
                   0
                   0
                   0
                   0
                   0
                   0
                   0
                   0
                   0
                   0
                   0
                   0
                   0
                   0
                   0
                   0
                   0
                   0
                   0
                   0
                   0
                   0
                   0
                   0
                   0
                   0
                   0
                   0
                   0
                   0
                   0
                   0
                   0
                   0
                   0
                   0
                   0
                   0
                   0
                   0
                   0
                   0
                   0
                   0
                   0
                   0
                   0
                   0
                   0
                   0
                   0
                   0
                   0
                   0
                   0
                   0
                   0
                   0
                   0
                   0
                   0
                   0
                   0
                   0
                   0
                   0
                   0
                   0
                   0
                   0
                   0
                   0
                   0
                   0
                   0
                   0
                   0
                   0
                   0
                   0
                   0
                   0
                   0
                   0
                   0
                   0
                   0
                   0
                   0
                   0
                   0
                   0
                   0
                   0
                   0
                   0
                   0
                   0
                   0
                   0
                   0
                   0
                   0
                   0
                   0
                   0
                   0
                   0
                   0
                   0
                   0
                   0
                   0
                   0
                   0
                   0
                   0
                   0
                   0
                   0
                   0
                   0
                   0
                   0
                   0
                   0
                   0
                   0
                   0
                   0
                   0
                   0
                   0
                   0
                   0
                   0
                   0
                   0
                   0
                   0
                   0
                   0
                   0
                   0
                   0
                   0
                   0
                   0
                   0
                   0
                   0
                   0
                   0
                   0
                   0
                   0
                   0
                   0
                   0
                   0
                   0
                   0
                   0
                   0
                   0
                   0
                   0
                   0
                   0
                   0
                   0
                   0
                   0
                   0
                   0
                   0
                   0
                   0
                   0
                   0
                   0
                   0
                   0
                   0
                   0
                   0
                   0
                   0
                   0
                   0
                   0
                   0
                   0
                   0
                   0
                   0
                   0
                   0
                   0
                   0
                   0
                   0
                   0
                   0
                   0
                   0
                   0
                   0
                   0
                   0
                   0
                   0
                   0
                   0
                   0
                   0
                   0
                   0
                   0
                   0
                   0
                   0
                   0
                   0
                   0
                   0
                   0
                   0
                   0
                   0
                   0
                   0
                   0
                   0
                   0
                   0
                   0
                   0
                   0
                   0
                   0
                   0
                   0
                   0
                   0
                   0
                   0
                   0
                   0
                   0
                   0
                   0
                   0
                   0
                   0
                   0
                   0
                   0
                   0
                   0
                   0
                   0
                   0
                   0
                   0
                   0
                   0
                   0
                   0
                   0
                   0
                   0
                   0
                   0
                   0
                   0
                   0
                   0
                   0
                   0
                   0
                   0
                   0
                   0
                   0
                   0
                   0
                   0
                   0
                   0
                   0
                   0
                   0
                   0
                   0
                   0
                   0
                   0
                   0
                   0
                   0
                   0
                   0
                   0
                   0
                   0
                   0
                   0
                   0
                   0
                   0
                   0
                   0
                   0
                   0
                   0
                   0
                   0
                   0
                   0
                   0
                   0
                   0
                   0
                   0
                   0
                   0
                   0
                   0
                   0
                   0
                   0
                   0
                   0
                   0
                   0
                   0
                   0
                   0
                   0
                   0
                   0
                   0
                   0
                   0
                   0
                   0
                   0
                   0
                   0
                   0
                   0
                   0
                   0
                   0
                   0
                   0
                   0
                   0
                   0
                   0
                   0
                   0
                   0
                   0
                   0
                   0
                   0
                   0
                   0
                   0
                   0
                   0
                   0
                   0
                   0
                   0
                   0
                   0
                   0
                   0
                   0
                   0
                   0
                   0
                   0
                   0
                   0
                   0
                   0
                   0
                   0
                   0
                   0
                   0
                   0
                   0
                   0
                   0
                   0
                   0
                   0
                   0
                   0
                   0
                   0
                   0
                   0
                   0
                   0
                   0
                   0
                   0
                   0
                   0
                   0
                   0
                   0
                   0
                   0
                   0
                   0
                   0
                   0
                   0
                   0
                   0
                   0
                   0
                   0
                   0
                   0
                   0
                   0
                   0
                   0
                   0
                   0
                   0
                   0
                   0
                   0
                   0
                   0
                   0
                   0
                   0
                   0
                   0
                   0
                   0
                   0
                   0
                   0
                   0
                   0
                   0
                   0
                   0
                   0
                   0
                   0
                   0
                   0
                   0
                   0
                   0
                   0
                   0
                   0
                   0
                   0
                   0
                   0
                   0
                   0
                   0
                   0
                   0
                   0
                   0
                   0
                   0
                   0
                   0
                   0
                   0
                   0
                   0
                   0
                   0
                   0
                   0
                   0
                   0
                   0
                   0
                   0
                   0
                   0
                   0
                   0
                   0
                   0
                   0
                   0
                   0
                   0
                   0
                   0
                   0
                   0
                   0
                   0
                   0
                   0
                   0
                   0
                   0
                   0
                   0
                   0
                   0
                   0
                   0
                   0
                   0
                   0
                   0
                   0
                   0
                   0
                   0
                   0
                   0
                   0
                   0
                   0
                   0
                   0
                   0
                   0
                   0
                   0
                   0
                   0
                   0
                   0
                   0
                   0
                   0
                   0
                   0
                   0
                   0
                   0
                   0
                   0
                   0
                   0
                   0
                   0
                   0
                   0
                   0
                   0
                   0
                   0
                   0
                   0
                   0
                   0
                   0
                   0
                   0
                   0
                   0
                   0
                   0
                   0
                   0
                   0
                   0
                   0
                   0
                   0
                   0
                   0
                   0
                   0
                   0
                   0
                   0
                   0
                   0
                   0
                   0
                   0
                   0
                   0
                   0
                   0
                   0
                   0
                   0
                   0
                   0
                   0
                   0
                   0
                   0
                   0
                   0
                   0
                   0
                   0
                   0
                   0
                   0
                   0
                   0
                   0
                   0
                   0
                   0
                   0
                   0
                   0
                   0
                   0
                   0
                   0
                   0
                   0
                   0
                   0
                   0
                   0
                   0
                   0
                   0
                   0
                   0
                   0
                   0
                   0
                   0
                   0
                   0
                   0
                   0
                   0
                   0
                   0
                   0
                   0
                   0
                   0
                   0
                   0
                   0
                   0
                   0
                   0
                   0
                   0
                   0
                   0
                   0
                   0
                   0
                   0
                   0
                   0
                   0
                   0
                   0
                   0
                   0
                   0
                   0
                   0
                   0
                   0
                   0
                   0
                   0
                   0
                   0
                   0
                   0
                   0
                   0
                   0
                   0
                   0
                   0
                   0
                   0
                   0
                   0
                   0
                   0
                   0
                   0
                   0
                   0
                   0
                   0
                   0
                   0
                   0
                   0
                   0
                   0
                   0
                   0
                   0
                   0
                   0
                   0
                   0
                   0
                   0
                   0
                   0
                   0
                   0
                   0
                   0
                   0
                   0
                   0
                   0
                   0
                   0
                   0
                   0
                   0
                   0
                   0
                   0
                   0
                   0
                   0
                   0
                   0
                   0
                   0
                   0
                   0
                   0
                   0
                   0
                   0
                   0
                   0
                   0
                   0
                   0
                   0
                   0
                   0
                   0
                   0
                   0
                   0
                   0
                   0
                   0
                   0
                   0
                   0
                   0
                   0
                   0
                   0
                   0
                   0
                   0
                   0
                   0
                   0
                   0
                   0
                   0
                   0
                   0
                   0
                   0
                   0
                   0
                   0
                   0
                   0
                   0
                   0
                   0
                   0
                   0
                   0
                   0
                   0
                   0
                   0
                   0
                   0
                   0
                   0
                   0
                   0
                   0
                   0
                   0
                   0
                   0
                   0
                   0
                   0
                   0
                   0
                   0
                   0
                   0
                   0
                   0
                   0
                   0
                   0
                   0
                   0
                   0
                   0
                   0
                   0
                   0
                   0
                   0
                   0
                   0
                   0
                   0
                   0
                   0
                   0
                   0
                   0
                   0
                   0
                   0
                   0
                   0
                   0
                   0
                   0
                   0
                   0
                   0
                   0
                   0
                   0
                   0
                   0
                   0
                   0
                   0
                   0
                   0
                   0
                   0
                   0
                   0
                   0
                   0
                   0
                   0
                   0
                   0
                   0
                   0
                   0
                   0
                   0
                   0
                   0
                   0
                   0
                   0
                   0
                   0
                   0
                   0
                   0
                   0
                   0
                   0
                   0
                   0
                   0
                   0
                   0
                   0
                   0
                   0
                   0
                   0
                   0
                   0
                   0
                   0
                   0
                   0
                   0
                   0
                   0
                   0
                   0
                   0
                   0
                   0
                   0
                   0
                   0
                   0
                   0
                   0
                   0
                   0
                   0
                   0
                   0
                   0
                   0
                   0
                   0
                   0
                   0
                   0
                   0
                   0
                   0
                   0
                   0
                   0
                   0
                   0
                   0
                   0
                   0
                   0
                   0
                   0
                   0
                   0
                   0
                   0
                   0
                   0
  
SCALARS                         Ispace  double 1
LOOKUP_TABLE default
                  12
                  12
                  12
                  12
                  12
                  12
                  12
                  12
                  12
                  12
                  12
                  12
                  12
                  11
                  12
                  11
                  11
                  11
                  11
                  11
                  11
                  12
                  12
                  11
                  12
                  12
                  11
                  11
                  11
                  11
                  11
                  11
                  11
                  11
                  11
                  11
                  11
                  11
                  11
                  11
                  11
                  11
                  11
                  11
                  11
                  11
                  11
                  11
                  11
                  11
                  11
                  11
                  11
                  11
                  11
                  11
                  11
                  11
                  11
                  11
                  11
                  11
                  11
                  11
                  11
                  11
                  12
                  12
                  12
                  12
                  12
                  12
                  12
                  12
                  11
                  11
                  11
                  11
                  11
                  11
                  11
                  11
                  11
                  11
                  11
                  11
                  11
                  11
                  11
                  11
                  11
                  11
                  11
                  11
                  11
                  11
                  12
                  12
                  12
                  12
                  12
                  12
                  12
                  12
                  12
                  12
                  12
                  12
                  12
                  12
                  12
                  12
                  12
                  12
                  12
                  12
                  11
                  11
                  11
                  11
                  11
                  11
                  11
                  11
                  11
                  11
                  11
                  11
                  11
                  11
                  11
                  11
                  11
                  11
                  11
                  11
                  11
                  11
                  11
                  11
                  11
                  11
                  11
                  11
                  11
                  11
                  12
                  12
                  12
                  12
                  12
                  12
                  12
                  12
                  12
                  12
                  12
                  12
                  12
                  12
                  12
                  12
                  12
                  11
                  11
                  11
                  11
                  12
                  12
                  11
                  11
                  11
                  11
                  11
                  11
                  11
                  11
                  11
                  11
                  11
                  11
                  11
                  11
                  11
                  11
                  11
                  11
                  11
                  11
                  12
                  12
                  12
                  12
                  11
                  11
                  11
                  11
                  11
                  11
                  11
                  11
                  11
                  11
                  11
                  12
                  12
                  12
                  12
                  12
                  12
                  12
                  12
                  12
                  12
                  11
                  11
                  11
                  11
                  11
                  11
                  11
                  11
                  11
                  11
                  11
                  11
                  11
                  11
                  11
                  12
                  12
                  12
                  12
                  12
                  12
                  12
                  12
                  12
                  12
                  12
                  12
                  11
                  11
                  11
                  11
                  12
                  12
                  11
                  11
                  11
                  11
                  11
                  11
                  11
                  11
                  11
                  11
                  11
                  11
                  11
                  11
                  11
                  11
                  11
                  11
                  11
                  11
                  12
                  12
                  12
                  12
                  11
                  11
                  11
                  11
                  11
                  11
                  11
                  11
                  11
                  11
                  11
                  12
                  12
                  12
                  12
                  12
                  12
                  12
                  12
                  12
                  12
                  11
                  11
                  11
                  11
                  11
                  11
                  11
                  11
                  11
                  11
                  11
                  11
                  11
                  11
                  11
                  12
                  12
                  12
                  12
                  12
                  12
                  12
                  12
                  12
                  12
                  12
                  12
                  11
                  11
                  11
                  11
                  12
                  12
                  11
                  11
                  11
                  11
                  11
                  11
                  11
                  11
                  11
                  11
                  11
                  11
                  11
                  11
                  11
                  11
                  11
                  11
                  11
                  11
                  12
                  12
                  12
                  12
                  11
                  11
                  11
                  11
                  11
                  11
                  11
                  11
                  11
                  11
                  11
                  12
                  12
                  12
                  12
                  12
                  12
                  12
                  12
                  12
                  12
                  11
                  11
                  11
                  11
                  11
                  11
                  11
                  11
                  11
                  11
                  11
                  11
                  11
                  11
                  11
                  12
                  12
                  12
                  12
                  12
                  12
                  12
                  12
                  12
                  12
                  12
                  12
                  11
                  11
                  11
                  11
                  12
                  12
                  11
                  11
                  11
                  11
                  11
                  11
                  11
                  11
                  11
                  11
                  11
                  11
                  11
                  11
                  11
                  11
                  11
                  11
                  11
                  11
                  12
                  12
                  12
                  12
                  11
                  11
                  11
                  11
                  11
                  11
                  11
                  11
                  11
                  11
                  11
                  12
                  12
                  12
                  12
                  12
                  12
                  12
                  12
                  12
                  12
                  11
                  11
                  11
                  11
                  11
                  11
                  11
                  11
                  11
                  11
                  11
                  11
                  11
                  11
                  11
                  12
                  12
                  12
                  12
                  12
                  12
                  12
                  12
                  12
                  12
                  12
                  12
                  11
                  11
                  11
                  11
                  12
                  12
                  11
                  11
                  11
                  11
                  11
                  11
                  11
                  11
                  11
                  11
                  11
                  11
                  11
                  11
                  11
                  11
                  11
                  11
                  11
                  11
                  12
                  12
                  12
                  12
                  11
                  11
                  11
                  11
                  11
                  11
                  11
                  11
                  11
                  11
                  11
                  12
                  12
                  12
                  12
                  12
                  12
                  12
                  12
                  12
                  12
                  11
                  11
                  11
                  11
                  11
                  11
                  11
                  11
                  11
                  11
                  11
                  11
                  11
                  11
                  11
                  12
                  12
                  12
                  12
                  12
                  12
                  12
                  12
                  12
                  12
                  12
                  12
                  11
                  11
                  11
                  11
                  12
                  12
                  11
                  11
                  11
                  11
                  11
                  11
                  11
                  11
                  11
                  11
                  11
                  11
                  11
                  11
                  11
                  11
                  11
                  11
                  11
                  11
                  12
                  12
                  12
                  12
                  11
                  11
                  11
                  11
                  11
                  11
                  11
                  11
                  11
                  11
                  11
                  12
                  12
                  12
                  12
                  12
                  12
                  12
                  12
                  12
                  12
                  11
                  11
                  11
                  11
                  11
                  11
                  11
                  11
                  11
                  11
                  11
                  11
                  11
                  11
                  11
                  12
                  12
                  12
                  12
                  12
                  12
                  12
                  12
                  12
                  12
                  12
                  12
                  11
                  11
                  11
                  11
                  12
                  12
                  11
                  11
                  11
                  11
                  11
                  11
                  11
                  11
                  11
                  11
                  11
                  11
                  11
                  11
                  11
                  11
                  11
                  11
                  11
                  11
                  12
                  12
                  12
                  12
                  11
                  11
                  11
                  11
                  11
                  11
                  11
                  11
                  11
                  11
                  11
                  12
                  12
                  12
                  12
                  12
                  12
                  12
                  12
                  12
                  12
                  11
                  11
                  11
                  11
                  11
                  11
                  11
                  11
                  11
                  11
                  11
                  11
                  11
                  11
                  11
                  12
                  12
                  12
                  12
                  12
                  12
                  12
                  12
                  12
                  12
                  12
                  12
                  11
                  11
                  11
                  11
                  12
                  12
                  11
                  11
                  11
                  11
                  11
                  11
                  11
                  11
                  11
                  11
                  11
                  11
                  11
                  11
                  11
                  11
                  11
                  11
                  11
                  11
                  12
                  12
                  12
                  12
                  11
                  11
                  11
                  11
                  11
                  11
                  11
                  11
                  11
                  11
                  11
                  12
                  12
                  12
                  12
                  12
                  12
                  12
                  12
                  12
                  12
                  11
                  11
                  11
                  11
                  11
                  11
                  11
                  11
                  11
                  11
                  11
                  11
                  11
                  11
                  11
                  12
                  12
                  12
                  12
                  12
                  12
                  12
                  12
                  12
                  12
                  12
                  12
                  11
                  11
                  11
                  11
                  12
                  12
                  11
                  11
                  11
                  11
                  11
                  11
                  11
                  11
                  11
                  11
                  11
                  11
                  11
                  11
                  11
                  11
                  11
                  11
                  11
                  11
                  12
                  12
                  12
                  12
                  11
                  11
                  11
                  11
                  11
                  11
                  11
                  11
                  11
                  11
                  11
                  12
                  12
                  12
                  12
                  12
                  12
                  12
                  12
                  12
                  12
                  11
                  11
                  11
                  11
                  11
                  11
                  11
                  11
                  11
                  11
                  11
                  11
                  11
                  11
                  11
                  12
                  12
                  12
                  12
                  12
                  12
                  12
                  12
                  12
                  12
                  12
                  12
                  11
                  11
                  11
                  11
                  12
                  12
                  11
                  11
                  11
                  11
                  11
                  11
                  11
                  11
                  11
                  11
                  11
                  11
                  11
                  11
                  11
                  11
                  11
                  11
                  11
                  11
                  12
                  12
                  12
                  12
                  11
                  11
                  11
                  11
                  11
                  11
                  11
                  11
                  11
                  11
                  11
                  12
                  12
                  12
                  12
                  12
                  12
                  12
                  12
                  12
                  12
                  11
                  11
                  11
                  11
                  11
                  11
                  11
                  11
                  11
                  11
                  11
                  11
                  11
                  11
                  11
                  12
                  12
                  12
                  12
                  12
                  12
                  12
                  12
                  12
                  12
                  12
                  12
                  11
                  11
                  11
                  11
                  12
                  12
                  11
                  11
                  11
                  11
                  11
                  11
                  11
                  11
                  11
                  11
                  11
                  11
                  11
                  11
                  11
                  11
                  11
                  11
                  11
                  11
                  12
                  12
                  12
                  12
                  11
                  11
                  11
                  11
                  11
                  11
                  11
                  11
                  11
                  11
                  11
                  12
                  12
                  12
                  12
                  12
                  12
                  12
                  12
                  12
                  12
                  11
                  11
                  11
                  11
                  11
                  11
                  11
                  11
                  11
                  11
                  11
                  11
                  11
                  11
                  11
                  12
                  12
                  12
                  12
                  12
                  12
                  12
                  12
                  12
                  12
                  12
                  12
                  11
                  11
                  11
                  11
                  12
                  12
                  11
                  11
                  11
                  11
                  11
                  11
                  11
                  11
                  11
                  11
                  11
                  11
                  11
                  11
                  11
                  11
                  11
                  11
                  11
                  11
                  12
                  12
                  12
                  12
                  11
                  11
                  11
                  11
                  11
                  11
                  11
                  11
                  11
                  11
                  11
                  12
                  12
                  12
                  12
                  12
                  12
                  12
                  12
                  12
                  12
                  11
                  11
                  11
                  11
                  11
                  11
                  11
                  11
                  11
                  11
                  11
                  11
                  11
                  11
                  11
                  12
                  12
                  12
                  12
                  12
                  12
                  12
                  12
                  12
                  12
                  12
                  12
                  11
                  11
                  11
                  11
                  12
                  12
                  11
                  11
                  11
                  11
                  11
                  11
                  11
                  11
                  11
                  11
                  11
                  11
                  11
                  11
                  11
                  11
                  11
                  11
                  11
                  11
                  12
                  12
                  12
                  12
                  11
                  11
                  11
                  11
                  11
                  11
                  11
                  11
                  11
                  11
                  11
                  12
                  12
                  12
                  12
                  12
                  12
                  12
                  12
                  12
                  12
                  11
                  11
                  11
                  11
                  11
                  11
                  11
                  11
                  11
                  11
                  11
                  11
                  11
                  11
                  11
                  12
                  12
                  12
                  12
                  12
                  12
                  12
                  12
                  12
                  12
                  12
                  12
                  11
                  11
                  11
                  11
                  12
                  12
                  11
                  11
                  11
                  11
                  11
                  11
                  11
                  11
                  11
                  11
                  11
                  11
                  11
                  11
                  11
                  11
                  11
                  11
                  11
                  11
                  12
                  12
                  12
                  12
                  11
                  11
                  11
                  11
                  11
                  11
                  11
                  11
                  11
                  11
                  11
                  12
                  12
                  12
                  12
                  12
                  12
                  12
                  12
                  12
                  12
                  11
                  11
                  11
                  11
                  11
                  11
                  11
                  11
                  11
                  11
                  11
                  11
                  11
                  11
                  11
                  12
                  12
                  12
                  12
                  12
                  12
                  12
                  12
                  12
                  12
                  12
                  12
                  11
                  11
                  11
                  11
                  12
                  12
                  11
                  11
                  11
                  11
                  11
                  11
                  11
                  11
                  11
                  11
                  11
                  11
                  11
                  11
                  11
                  11
                  11
                  11
                  11
                  11
                  12
                  12
                  12
                  12
                  11
                  11
                  11
                  11
                  11
                  11
                  11
                  11
                  11
                  11
                  11
                  12
                  12
                  12
                  12
                  12
                  12
                  12
                  12
                  12
                  12
                  11
                  11
                  11
                  11
                  11
                  11
                  11
                  11
                  11
                  11
                  11
                  11
                  11
                  11
                  11
                  12
                  12
                  12
                  12
                  12
                  12
                  12
                  12
                  12
                  12
                  12
                  12
                  11
                  11
                  11
                  11
                  12
                  12
                  11
                  11
                  11
                  11
                  11
                  11
                  11
                  11
                  11
                  11
                  11
                  11
                  11
                  11
                  11
                  11
                  11
                  11
                  11
                  11
                  12
                  12
                  12
                  12
                  11
                  11
                  11
                  11
                  11
                  11
                  11
                  11
                  11
                  11
                  11
                  12
                  12
                  12
                  12
                  12
                  12
                  12
                  12
                  12
                  12
                  11
                  11
                  11
                  11
                  11
                  11
                  11
                  11
                  11
                  11
                  11
                  11
                  11
                  11
                  11
                  12
                  12
                  12
                  12
                  12
                  12
                  12
                  12
                  12
                  12
                  12
                  12
                  11
                  11
                  11
                  11
                  12
                  12
                  11
                  11
                  11
                  11
                  11
                  11
                  11
                  11
                  11
                  11
                  11
                  11
                  11
                  11
                  11
                  11
                  11
                  11
                  11
                  11
                  12
                  12
                  12
                  12
                  11
                  11
                  11
                  11
                  11
                  11
                  11
                  11
                  11
                  11
                  11
                  12
                  12
                  12
                  12
                  12
                  12
                  12
                  12
                  12
                  12
                  11
                  11
                  11
                  11
                  11
                  11
                  11
                  11
                  11
                  11
                  11
                  11
                  11
                  11
                  11
                  12
                  12
                  12
                  12
                  12
                  12
                  12
                  12
                  12
                  12
                  12
                  12
                  11
                  11
                  11
                  11
                  12
                  12
                  11
                  11
                  11
                  11
                  11
                  11
                  11
                  11
                  11
                  11
                  11
                  11
                  11
                  11
                  11
                  11
                  11
                  11
                  11
                  11
                  12
                  12
                  12
                  12
                  11
                  11
                  11
                  11
                  11
                  11
                  11
                  11
                  11
                  11
                  11
                  12
                  12
                  12
                  12
                  12
                  12
                  12
                  12
                  12
                  12
                  11
                  11
                  11
                  11
                  11
                  11
                  11
                  11
                  11
                  11
                  11
                  11
                  11
                  11
                  11
                  12
                  12
                  12
                  12
                  12
                  12
                  12
                  12
                  12
                  12
                  12
                  12
                  11
                  11
                  11
                  11
                  12
                  12
                  11
                  11
                  11
                  11
                  11
                  11
                  11
                  11
                  11
                  11
                  11
                  11
                  11
                  11
                  11
                  11
                  11
                  11
                  11
                  11
                  12
                  12
                  12
                  12
                  11
                  11
                  11
                  11
                  11
                  11
                  11
                  11
                  11
                  11
                  11
                  12
                  12
                  12
                  12
                  12
                  12
                  12
                  12
                  12
                  12
                  11
                  11
                  11
                  11
                  11
                  11
                  11
                  11
                  11
                  11
                  11
                  11
                  11
                  11
                  11
                  12
                  12
                  12
                  12
                  12
                  12
                  12
                  12
                  12
                  12
                  12
                  12
                  11
                  11
                  11
                  11
                  12
                  12
                  11
                  11
                  11
                  11
                  11
                  11
                  11
                  11
                  11
                  11
                  11
                  11
                  11
                  11
                  11
                  11
                  11
                  11
                  11
                  11
                  12
                  12
                  12
                  12
                  11
                  11
                  11
                  11
                  11
                  11
                  11
                  11
                  11
                  11
                  11
                  12
                  12
                  12
                  12
                  12
                  12
                  12
                  12
                  12
                  12
                  11
                  11
                  11
                  11
                  11
                  11
                  11
                  11
                  11
                  11
                  11
                  11
                  11
                  11
                  11
                  12
                  12
                  12
                  12
                  12
                  12
                  12
                  12
                  12
                  12
                  12
                  12
                  11
                  11
                  11
                  11
                  12
                  12
                  11
                  11
                  11
                  11
                  11
                  11
                  11
                  11
                  11
                  11
                  11
                  11
                  11
                  11
                  11
                  11
                  11
                  11
                  11
                  11
                  12
                  12
                  12
                  12
                  11
                  11
                  11
                  11
                  11
                  11
                  11
                  11
                  11
                  11
                  11
                  12
                  12
                  12
                  12
                  12
                  12
                  12
                  12
                  12
                  12
                  11
                  11
                  11
                  11
                  11
                  11
                  11
                  11
                  11
                  11
                  11
                  11
                  11
                  11
                  11
                  12
                  12
                  12
                  12
                  12
                  12
                  12
                  12
                  12
                  12
                  12
                  12
                  11
                  11
                  11
                  11
                  12
                  12
                  11
                  11
                  11
                  11
                  11
                  11
                  11
                  11
                  11
                  11
                  11
                  11
                  11
                  11
                  11
                  11
                  11
                  11
                  11
                  11
                  12
                  12
                  12
                  12
                  11
                  11
                  11
                  11
                  11
                  11
                  11
                  11
                  11
                  11
                  11
                  12
                  12
                  12
                  12
                  12
                  12
                  12
                  12
                  12
                  12
                  11
                  11
                  11
                  11
                  11
                  11
                  11
                  11
                  11
                  11
                  11
                  11
                  11
                  11
                  11
                  12
                  12
                  12
                  12
                  12
                  12
                  12
                  12
                  12
                  12
                  12
                  12
                  11
                  11
                  11
                  11
                  12
                  12
                  11
                  11
                  11
                  11
                  11
                  11
                  11
                  11
                  11
                  11
                  11
                  11
                  11
                  11
                  11
                  11
                  11
                  11
                  11
                  11
                  12
                  12
                  12
                  12
                  11
                  11
                  11
                  11
                  11
                  11
                  11
                  11
                  11
                  11
                  11
                  12
                  12
                  12
                  12
                  12
                  12
                  12
                  12
                  12
                  12
                  11
                  11
                  11
                  11
                  11
                  11
                  11
                  11
                  11
                  11
                  11
                  11
                  11
                  11
                  11
                  12
                  12
                  12
                  12
                  12
  
SCALARS                         Jspace  double 1
LOOKUP_TABLE default
                  11
                  12
                  11
                  11
                  11
                  12
                  11
                  11
                  11
                  11
                  11
                  11
                  12
                  12
                  12
                  12
                  11
                  12
                  11
                  12
                  12
                  12
                  12
                  12
                  12
                  12
                  12
                  12
                  12
                  12
                  11
                  11
                  11
                  11
                  11
                  11
                  11
                  11
                  11
                  11
                  11
                  11
                  11
                  11
                  11
                  11
                  11
                  11
                  11
                  11
                  11
                  11
                  12
                  12
                  12
                  12
                  12
                  11
                  12
                  11
                  11
                  11
                  11
                  11
                  11
                  11
                  11
                  11
                  11
                  12
                  11
                  12
                  12
                  12
                  12
                  12
                  12
                  12
                  12
                  12
                  12
                  12
                  12
                  12
                  11
                  11
                  11
                  11
                  11
                  11
                  11
                  11
                  11
                  11
                  11
                  11
                  11
                  11
                  11
                  11
                  11
                  11
                  11
                  11
                  11
                  11
                  11
                  11
                  12
                  12
                  12
                  12
                  12
                  12
                  12
                  12
                  12
                  12
                  12
                  12
                  12
                  12
                  12
                  12
                  12
                  12
                  12
                  12
                  11
                  11
                  11
                  11
                  11
                  11
                  11
                  11
                  11
                  11
                  11
                  11
                  11
                  11
                  11
                  11
                  11
                  11
                  11
                  11
                  11
                  11
                  11
                  11
                  11
                  11
                  11
                  11
                  11
                  12
                  11
                  11
                  11
                  11
                  12
                  12
                  11
                  12
                  12
                  12
                  12
                  12
                  12
                  11
                  11
                  11
                  11
                  11
                  11
                  11
                  11
                  11
                  11
                  11
                  12
                  12
                  12
                  11
                  11
                  11
                  11
                  11
                  11
                  12
                  12
                  12
                  12
                  12
                  12
                  12
                  11
                  11
                  11
                  11
                  11
                  11
                  11
                  11
                  11
                  11
                  11
                  11
                  12
                  12
                  12
                  12
                  12
                  12
                  12
                  12
                  12
                  12
                  11
                  11
                  11
                  11
                  11
                  11
                  11
                  11
                  11
                  11
                  11
                  11
                  11
                  11
                  11
                  12
                  11
                  11
                  11
                  11
                  12
                  12
                  11
                  12
                  12
                  12
                  12
                  12
                  12
                  11
                  11
                  11
                  11
                  11
                  11
                  11
                  11
                  11
                  11
                  11
                  12
                  12
                  12
                  11
                  11
                  11
                  11
                  11
                  11
                  12
                  12
                  12
                  12
                  12
                  12
                  12
                  11
                  11
                  11
                  11
                  11
                  11
                  11
                  11
                  11
                  11
                  11
                  11
                  12
                  12
                  12
                  12
                  12
                  12
                  12
                  12
                  12
                  12
                  11
                  11
                  11
                  11
                  11
                  11
                  11
                  11
                  11
                  11
                  11
                  11
                  11
                  11
                  11
                  12
                  11
                  11
                  11
                  11
                  12
                  12
                  11
                  12
                  12
                  12
                  12
                  12
                  12
                  11
                  11
                  11
                  11
                  11
                  11
                  11
                  11
                  11
                  11
                  11
                  12
                  12
                  12
                  11
                  11
                  11
                  11
                  11
                  11
                  12
                  12
                  12
                  12
                  12
                  12
                  12
                  11
                  11
                  11
                  11
                  11
                  11
                  11
                  11
                  11
                  11
                  11
                  11
                  12
                  12
                  12
                  12
                  12
                  12
                  12
                  12
                  12
                  12
                  11
                  11
                  11
                  11
                  11
                  11
                  11
                  11
                  11
                  11
                  11
                  11
                  11
                  11
                  11
                  12
                  11
                  11
                  11
                  11
                  12
                  12
                  11
                  12
                  12
                  12
                  12
                  12
                  12
                  11
                  11
                  11
                  11
                  11
                  11
                  11
                  11
                  11
                  11
                  11
                  12
                  12
                  12
                  11
                  11
                  11
                  11
                  11
                  11
                  12
                  12
                  12
                  12
                  12
                  12
                  12
                  11
                  11
                  11
                  11
                  11
                  11
                  11
                  11
                  11
                  11
                  11
                  11
                  12
                  12
                  12
                  12
                  12
                  12
                  12
                  12
                  12
                  12
                  11
                  11
                  11
                  11
                  11
                  11
                  11
                  11
                  11
                  11
                  11
                  11
                  11
                  11
                  11
                  12
                  11
                  11
                  11
                  11
                  12
                  12
                  11
                  12
                  12
                  12
                  12
                  12
                  12
                  11
                  11
                  11
                  11
                  11
                  11
                  11
                  11
                  11
                  11
                  11
                  12
                  12
                  12
                  11
                  11
                  11
                  11
                  11
                  11
                  12
                  12
                  12
                  12
                  12
                  12
                  12
                  11
                  11
                  11
                  11
                  11
                  11
                  11
                  11
                  11
                  11
                  11
                  11
                  12
                  12
                  12
                  12
                  12
                  12
                  12
                  12
                  12
                  12
                  11
                  11
                  11
                  11
                  11
                  11
                  11
                  11
                  11
                  11
                  11
                  11
                  11
                  11
                  11
                  12
                  11
                  11
                  11
                  11
                  12
                  12
                  11
                  12
                  12
                  12
                  12
                  12
                  12
                  11
                  11
                  11
                  11
                  11
                  11
                  11
                  11
                  11
                  11
                  11
                  12
                  12
                  12
                  11
                  11
                  11
                  11
                  11
                  11
                  12
                  12
                  12
                  12
                  12
                  12
                  12
                  11
                  11
                  11
                  11
                  11
                  11
                  11
                  11
                  11
                  11
                  11
                  11
                  12
                  12
                  12
                  12
                  12
                  12
                  12
                  12
                  12
                  12
                  11
                  11
                  11
                  11
                  11
                  11
                  11
                  11
                  11
                  11
                  11
                  11
                  11
                  11
                  11
                  12
                  11
                  11
                  11
                  11
                  12
                  12
                  11
                  12
                  12
                  12
                  12
                  12
                  12
                  11
                  11
                  11
                  11
                  11
                  11
                  11
                  11
                  11
                  11
                  11
                  12
                  12
                  12
                  11
                  11
                  11
                  11
                  11
                  11
                  12
                  12
                  12
                  12
                  12
                  12
                  12
                  11
                  11
                  11
                  11
                  11
                  11
                  11
                  11
                  11
                  11
                  11
                  11
                  12
                  12
                  12
                  12
                  12
                  12
                  12
                  12
                  12
                  12
                  11
                  11
                  11
                  11
                  11
                  11
                  11
                  11
                  11
                  11
                  11
                  11
                  11
                  11
                  11
                  12
                  11
                  11
                  11
                  11
                  12
                  12
                  11
                  12
                  12
                  12
                  12
                  12
                  12
                  11
                  11
                  11
                  11
                  11
                  11
                  11
                  11
                  11
                  11
                  11
                  12
                  12
                  12
                  11
                  11
                  11
                  11
                  11
                  11
                  12
                  12
                  12
                  12
                  12
                  12
                  12
                  11
                  11
                  11
                  11
                  11
                  11
                  11
                  11
                  11
                  11
                  11
                  11
                  12
                  12
                  12
                  12
                  12
                  12
                  12
                  12
                  12
                  12
                  11
                  11
                  11
                  11
                  11
                  11
                  11
                  11
                  11
                  11
                  11
                  11
                  11
                  11
                  11
                  12
                  11
                  11
                  11
                  11
                  12
                  12
                  11
                  12
                  12
                  12
                  12
                  12
                  12
                  11
                  11
                  11
                  11
                  11
                  11
                  11
                  11
                  11
                  11
                  11
                  12
                  12
                  12
                  11
                  11
                  11
                  11
                  11
                  11
                  12
                  12
                  12
                  12
                  12
                  12
                  12
                  11
                  11
                  11
                  11
                  11
                  11
                  11
                  11
                  11
                  11
                  11
                  11
                  12
                  12
                  12
                  12
                  12
                  12
                  12
                  12
                  12
                  12
                  11
                  11
                  11
                  11
                  11
                  11
                  11
                  11
                  11
                  11
                  11
                  11
                  11
                  11
                  11
                  12
                  11
                  11
                  11
                  11
                  12
                  12
                  11
                  12
                  12
                  12
                  12
                  12
                  12
                  11
                  11
                  11
                  11
                  11
                  11
                  11
                  11
                  11
                  11
                  11
                  12
                  12
                  12
                  11
                  11
                  11
                  11
                  11
                  11
                  12
                  12
                  12
                  12
                  12
                  12
                  12
                  11
                  11
                  11
                  11
                  11
                  11
                  11
                  11
                  11
                  11
                  11
                  11
                  12
                  12
                  12
                  12
                  12
                  12
                  12
                  12
                  12
                  12
                  11
                  11
                  11
                  11
                  11
                  11
                  11
                  11
                  11
                  11
                  11
                  11
                  11
                  11
                  11
                  12
                  11
                  11
                  11
                  11
                  12
                  12
                  11
                  12
                  12
                  12
                  12
                  12
                  12
                  11
                  11
                  11
                  11
                  11
                  11
                  11
                  11
                  11
                  11
                  11
                  12
                  12
                  12
                  11
                  11
                  11
                  11
                  11
                  11
                  12
                  12
                  12
                  12
                  12
                  12
                  12
                  11
                  11
                  11
                  11
                  11
                  11
                  11
                  11
                  11
                  11
                  11
                  11
                  12
                  12
                  12
                  12
                  12
                  12
                  12
                  12
                  12
                  12
                  11
                  11
                  11
                  11
                  11
                  11
                  11
                  11
                  11
                  11
                  11
                  11
                  11
                  11
                  11
                  12
                  11
                  11
                  11
                  11
                  12
                  12
                  11
                  12
                  12
                  12
                  12
                  12
                  12
                  11
                  11
                  11
                  11
                  11
                  11
                  11
                  11
                  11
                  11
                  11
                  12
                  12
                  12
                  11
                  11
                  11
                  11
                  11
                  11
                  12
                  12
                  12
                  12
                  12
                  12
                  12
                  11
                  11
                  11
                  11
                  11
                  11
                  11
                  11
                  11
                  11
                  11
                  11
                  12
                  12
                  12
                  12
                  12
                  12
                  12
                  12
                  12
                  12
                  11
                  11
                  11
                  11
                  11
                  11
                  11
                  11
                  11
                  11
                  11
                  11
                  11
                  11
                  11
                  12
                  11
                  11
                  11
                  11
                  12
                  12
                  11
                  12
                  12
                  12
                  12
                  12
                  12
                  11
                  11
                  11
                  11
                  11
                  11
                  11
                  11
                  11
                  11
                  11
                  12
                  12
                  12
                  11
                  11
                  11
                  11
                  11
                  11
                  12
                  12
                  12
                  12
                  12
                  12
                  12
                  11
                  11
                  11
                  11
                  11
                  11
                  11
                  11
                  11
                  11
                  11
                  11
                  12
                  12
                  12
                  12
                  12
                  12
                  12
                  12
                  12
                  12
                  11
                  11
                  11
                  11
                  11
                  11
                  11
                  11
                  11
                  11
                  11
                  11
                  11
                  11
                  11
                  12
                  11
                  11
                  11
                  11
                  12
                  12
                  11
                  12
                  12
                  12
                  12
                  12
                  12
                  11
                  11
                  11
                  11
                  11
                  11
                  11
                  11
                  11
                  11
                  11
                  12
                  12
                  12
                  11
                  11
                  11
                  11
                  11
                  11
                  12
                  12
                  12
                  12
                  12
                  12
                  12
                  11
                  11
                  11
                  11
                  11
                  11
                  11
                  11
                  11
                  11
                  11
                  11
                  12
                  12
                  12
                  12
                  12
                  12
                  12
                  12
                  12
                  12
                  11
                  11
                  11
                  11
                  11
                  11
                  11
                  11
                  11
                  11
                  11
                  11
                  11
                  11
                  11
                  12
                  11
                  11
                  11
                  11
                  12
                  12
                  11
                  12
                  12
                  12
                  12
                  12
                  12
                  11
                  11
                  11
                  11
                  11
                  11
                  11
                  11
                  11
                  11
                  11
                  12
                  12
                  12
                  11
                  11
                  11
                  11
                  11
                  11
                  12
                  12
                  12
                  12
                  12
                  12
                  12
                  11
                  11
                  11
                  11
                  11
                  11
                  11
                  11
                  11
                  11
                  11
                  11
                  12
                  12
                  12
                  12
                  12
                  12
                  12
                  12
                  12
                  12
                  11
                  11
                  11
                  11
                  11
                  11
                  11
                  11
                  11
                  11
                  11
                  11
                  11
                  11
                  11
                  12
                  11
                  11
                  11
                  11
                  12
                  12
                  11
                  12
                  12
                  12
                  12
                  12
                  12
                  11
                  11
                  11
                  11
                  11
                  11
                  11
                  11
                  11
                  11
                  11
                  12
                  12
                  12
                  11
                  11
                  11
                  11
                  11
                  11
                  12
                  12
                  12
                  12
                  12
                  12
                  12
                  11
                  11
                  11
                  11
                  11
                  11
                  11
                  11
                  11
                  11
                  11
                  11
                  12
                  12
                  12
                  12
                  12
                  12
                  12
                  12
                  12
                  12
                  11
                  11
                  11
                  11
                  11
                  11
                  11
                  11
                  11
                  11
                  11
                  11
                  11
                  11
                  11
                  12
                  11
                  11
                  11
                  11
                  12
                  12
                  11
                  12
                  12
                  12
                  12
                  12
                  12
                  11
                  11
                  11
                  11
                  11
                  11
                  11
                  11
                  11
                  11
                  11
                  12
                  12
                  12
                  11
                  11
                  11
                  11
                  11
                  11
                  12
                  12
                  12
                  12
                  12
                  12
                  12
                  11
                  11
                  11
                  11
                  11
                  11
                  11
                  11
                  11
                  11
                  11
                  11
                  12
                  12
                  12
                  12
                  12
                  12
                  12
                  12
                  12
                  12
                  11
                  11
                  11
                  11
                  11
                  11
                  11
                  11
                  11
                  11
                  11
                  11
                  11
                  11
                  11
                  12
                  11
                  11
                  11
                  11
                  12
                  12
                  11
                  12
                  12
                  12
                  12
                  12
                  12
                  11
                  11
                  11
                  11
                  11
                  11
                  11
                  11
                  11
                  11
                  11
                  12
                  12
                  12
                  11
                  11
                  11
                  11
                  11
                  11
                  12
                  12
                  12
                  12
                  12
                  12
                  12
                  11
                  11
                  11
                  11
                  11
                  11
                  11
                  11
                  11
                  11
                  11
                  11
                  12
                  12
                  12
                  12
                  12
                  12
                  12
                  12
                  12
                  12
                  11
                  11
                  11
                  11
                  11
                  11
                  11
                  11
                  11
                  11
                  11
                  11
                  11
                  11
                  11
                  12
                  11
                  11
                  11
                  11
                  12
                  12
                  11
                  12
                  12
                  12
                  12
                  12
                  12
                  11
                  11
                  11
                  11
                  11
                  11
                  11
                  11
                  11
                  11
                  11
                  12
                  12
                  12
                  11
                  11
                  11
                  11
                  11
                  11
                  12
                  12
                  12
                  12
                  12
                  12
                  12
                  11
                  11
                  11
                  11
                  11
                  11
                  11
                  11
                  11
                  11
                  11
                  11
                  12
                  12
                  12
                  12
                  12
                  12
                  12
                  12
                  12
                  12
                  11
                  11
                  11
                  11
                  11
                  11
                  11
                  11
                  11
                  11
                  11
                  11
                  11
                  11
                  11
                  12
                  11
                  11
                  11
                  11
                  12
                  12
                  11
                  12
                  12
                  12
                  12
                  12
                  12
                  11
                  11
                  11
                  11
                  11
                  11
                  11
                  11
                  11
                  11
                  11
                  12
                  12
                  12
                  11
                  11
                  11
                  11
                  11
                  11
                  12
                  12
                  12
                  12
                  12
                  12
                  12
                  11
                  11
                  11
                  11
                  11
                  11
                  11
                  11
                  11
                  11
                  11
                  11
                  12
                  12
                  12
                  12
                  12
                  12
                  12
                  12
                  12
                  12
                  11
                  11
                  11
                  11
                  11
                  11
                  11
                  11
                  11
                  11
                  11
                  11
                  11
                  11
                  11
                  12
                  11
                  11
                  11
                  11
                  12
                  12
                  11
                  12
                  12
                  12
                  12
                  12
                  12
                  11
                  11
                  11
                  11
                  11
                  11
                  11
                  11
                  11
                  11
                  11
                  12
                  12
                  12
                  11
                  11
                  11
                  11
                  11
                  11
                  12
                  12
                  12
                  12
                  12
                  12
                  12
                  11
                  11
                  11
                  11
                  11
                  11
                  11
                  11
                  11
                  11
                  11
                  11
                  12
                  12
                  12
                  12
                  12
                  12
                  12
                  12
                  12
                  12
                  11
                  11
                  11
                  11
                  11
                  11
                  11
                  11
                  11
                  11
                  11
                  11
                  11
                  11
                  11
                  12
                  11
                  11
                  11
                  11
                  12
                  12
                  11
                  12
                  12
                  12
                  12
                  12
                  12
                  11
                  11
                  11
                  11
                  11
                  11
                  11
                  11
                  11
                  11
                  11
                  12
                  12
                  12
                  11
                  11
                  11
                  11
                  11
                  11
                  12
                  12
                  12
                  12
                  12
                  12
                  12
                  11
                  11
                  11
                  11
                  11
                  11
                  11
                  11
                  11
                  11
                  11
                  11
                  12
                  12
                  12
                  12
                  12
                  12
                  12
                  12
                  12
                  12
                  11
                  11
                  11
                  11
                  11
                  11
                  11
                  11
                  11
                  11
                  11
                  11
                  11
                  11
                  11
                  12
                  11
                  11
                  11
                  11
                  12
                  12
                  11
                  12
                  12
                  12
                  12
                  12
                  12
                  11
                  11
                  11
                  11
                  11
                  11
                  11
                  11
                  11
                  11
                  11
                  12
                  12
                  12
                  11
                  11
                  11
                  11
                  11
                  11
                  12
                  12
                  12
                  12
                  12
                  12
                  12
                  11
                  11
                  11
                  11
                  11
                  11
                  11
                  11
                  11
                  11
                  11
                  11
                  12
                  12
                  12
                  12
                  12
                  12
                  12
                  12
                  12
                  12
                  11
                  11
                  11
                  11
                  11
                  11
                  11
                  11
                  11
                  11
                  11
                  11
                  11
                  11
  
SCALARS                         Kspace  double 1
LOOKUP_TABLE default
                  11
                  11
                  11
                  11
                  11
                  11
                  11
                  11
                  11
                  11
                  11
                  11
                  11
                  11
                  11
                  11
                  11
                  11
                  11
                  11
                  11
                  11
                  11
                  11
                  11
                  11
                  11
                  11
                  11
                  11
                  11
                  11
                  11
                  11
                  11
                  11
                  11
                  11
                  11
                  11
                  11
                  11
                  11
                  11
                  11
                  11
                  11
                  11
                  11
                  11
                  11
                  11
                  11
                  11
                  11
                  11
                  11
                  11
                  11
                  11
                  11
                  11
                  11
                  11
                  11
                  11
                  11
                  11
                  11
                  11
                  11
                  11
                  11
                  11
                  11
                  11
                  11
                  11
                  11
                  11
                  11
                  11
                  11
                  11
                  11
                  11
                  11
                  11
                  11
                  11
                  11
                  11
                  11
                  11
                  11
                  11
                  11
                  11
                  11
                  11
                  11
                  11
                  11
                  11
                  11
                  11
                  11
                  11
                  11
                  11
                  11
                  11
                  11
                  11
                  11
                  11
                  11
                  11
                  11
                  11
                  11
                  11
                  11
                  11
                  11
                  11
                  11
                  11
                  11
                  11
                  11
                  11
                  11
                  11
                  11
                  11
                  11
                  11
                  11
                  11
                  11
                  11
                  11
                  11
                  11
                  11
                  11
                  11
                  11
                  11
                  11
                  11
                  11
                  11
                  11
                  11
                  11
                  11
                  11
                  11
                  11
                  11
                  11
                  11
                  11
                  11
                  11
                  11
                  11
                  11
                  11
                  11
                  11
                  11
                  11
                  11
                  11
                  11
                  11
                  11
                  11
                  11
                  11
                  11
                  11
                  11
                  11
                  11
                  11
                  11
                  11
                  11
                  11
                  11
                  11
                  11
                  11
                  11
                  11
                  11
                  11
                  11
                  11
                  11
                  11
                  11
                  11
                  11
                  11
                  11
                  11
                  11
                  11
                  11
                  11
                  11
                  11
                  11
                  11
                  11
                  11
                  11
                  11
                  11
                  11
                  11
                  11
                  11
                  11
                  11
                  11
                  11
                  11
                  11
                  11
                  11
                  11
                  11
                  11
                  11
                  11
                  11
                  11
                  11
                  11
                  11
                  11
                  11
                  11
                  11
                  11
                  11
                  11
                  11
                  11
                  11
                  11
                  11
                  11
                  11
                  11
                  11
                  11
                  11
                  11
                  11
                  11
                  11
                  11
                  11
                  11
                  11
                  11
                  11
                  11
                  11
                  11
                  11
                  11
                  11
                  11
                  11
                  11
                  11
                  11
                  11
                  11
                  11
                  11
                  11
                  11
                  11
                  11
                  11
                  11
                  11
                  11
                  11
                  11
                  11
                  11
                  11
                  11
                  11
                  11
                  11
                  11
                  11
                  11
                  11
                  11
                  11
                  12
                  12
                  12
                  12
                  12
                  12
                  12
                  12
                  12
                  12
                  12
                  12
                  12
                  12
                  12
                  12
                  12
                  12
                  12
                  12
                  12
                  12
                  12
                  12
                  12
                  12
                  12
                  12
                  12
                  12
                  12
                  12
                  12
                  12
                  12
                  12
                  12
                  12
                  12
                  12
                  12
                  12
                  12
                  12
                  12
                  12
                  12
                  12
                  12
                  12
                  12
                  12
                  12
                  12
                  12
                  12
                  12
                  12
                  12
                  12
                  12
                  12
                  12
                  12
                  12
                  12
                  12
                  12
                  12
                  12
                  12
                  12
                  12
                  12
                  12
                  12
                  12
                  12
                  12
                  12
                  12
                  12
                  12
                  12
                  12
                  12
                  12
                  12
                  12
                  12
                  12
                  12
                  12
                  12
                  12
                  12
                  12
                  12
                  12
                  12
                  12
                  12
                  12
                  12
                  12
                  12
                  12
                  12
                  12
                  12
                  12
                  12
                  12
                  12
                  12
                  12
                  12
                  12
                  12
                  12
                  12
                  12
                  12
                  12
                  12
                  12
                  12
                  12
                  12
                  12
                  12
                  12
                  12
                  12
                  12
                  12
                  12
                  12
                  12
                  12
                  12
                  12
                  12
                  12
                  12
                  12
                  12
                  12
                  12
                  12
                  12
                  12
                  12
                  12
                  12
                  12
                  12
                  12
                  12
                  12
                  12
                  12
                  12
                  12
                  12
                  12
                  12
                  12
                  12
                  12
                  12
                  12
                  12
                  12
                  12
                  12
                  12
                  12
                  12
                  12
                  12
                  12
                  12
                  12
                  12
                  12
                  12
                  12
                  12
                  12
                  12
                  12
                  12
                  12
                  12
                  12
                  12
                  12
                  12
                  12
                  12
                  12
                  12
                  12
                  12
                  12
                  12
                  12
                  12
                  12
                  12
                  12
                  12
                  12
                  12
                  12
                  12
                  12
                  12
                  12
                  12
                  12
                  12
                  12
                  12
                  12
                  12
                  12
                  12
                  12
                  12
                  12
                  12
                  12
                  13
                  13
                  13
                  13
                  13
                  13
                  13
                  13
                  13
                  13
                  13
                  13
                  13
                  13
                  13
                  13
                  13
                  13
                  13
                  13
                  13
                  13
                  13
                  13
                  13
                  13
                  13
                  13
                  13
                  13
                  13
                  13
                  13
                  13
                  13
                  13
                  13
                  13
                  13
                  13
                  13
                  13
                  13
                  13
                  13
                  13
                  13
                  13
                  13
                  13
                  13
                  13
                  13
                  13
                  13
                  13
                  13
                  13
                  13
                  13
                  13
                  13
                  13
                  13
                  13
                  13
                  13
                  13
                  13
                  13
                  13
                  13
                  13
                  13
                  13
                  13
                  13
                  13
                  13
                  13
                  13
                  13
                  13
                  13
                  13
                  13
                  13
                  13
                  13
                  13
                  13
                  13
                  13
                  13
                  13
                  13
                  13
                  13
                  13
                  13
                  13
                  13
                  13
                  13
                  13
                  13
                  13
                  13
                  13
                  13
                  13
                  13
                  13
                  13
                  13
                  13
                  13
                  13
                  13
                  13
                  13
                  13
                  13
                  13
                  13
                  13
                  13
                  13
                  13
                  13
                  13
                  13
                  13
                  13
                  13
                  13
                  13
                  13
                  13
                  13
                  13
                  13
                  13
                  13
                  13
                  13
                  13
                  13
                  13
                  13
                  13
                  13
                  13
                  13
                  13
                  13
                  13
                  13
                  13
                  13
                  13
                  13
                  13
                  13
                  13
                  13
                  13
                  13
                  13
                  13
                  13
                  13
                  13
                  13
                  13
                  13
                  13
                  13
                  13
                  13
                  13
                  13
                  13
                  13
                  13
                  13
                  13
                  13
                  13
                  13
                  13
                  13
                  13
                  13
                  13
                  13
                  13
                  13
                  13
                  13
                  13
                  13
                  13
                  13
                  13
                  13
                  13
                  13
                  13
                  13
                  13
                  13
                  13
                  13
                  13
                  13
                  13
                  13
                  13
                  13
                  13
                  13
                  13
                  13
                  13
                  13
                  13
                  13
                  13
                  13
                  13
                  13
                  13
                  13
                  14
                  14
                  14
                  14
                  14
                  14
                  14
                  14
                  14
                  14
                  14
                  14
                  14
                  14
                  14
                  14
                  14
                  14
                  14
                  14
                  14
                  14
                  14
                  14
                  14
                  14
                  14
                  14
                  14
                  14
                  14
                  14
                  14
                  14
                  14
                  14
                  14
                  14
                  14
                  14
                  14
                  14
                  14
                  14
                  14
                  14
                  14
                  14
                  14
                  14
                  14
                  14
                  14
                  14
                  14
                  14
                  14
                  14
                  14
                  14
                  14
                  14
                  14
                  14
                  14
                  14
                  14
                  14
                  14
                  14
                  14
                  14
                  14
                  14
                  14
                  14
                  14
                  14
                  14
                  14
                  14
                  14
                  14
                  14
                  14
                  14
                  14
                  14
                  14
                  14
                  14
                  14
                  14
                  14
                  14
                  14
                  14
                  14
                  14
                  14
                  14
                  14
                  14
                  14
                  14
                  14
                  14
                  14
                  14
                  14
                  14
                  14
                  14
                  14
                  14
                  14
                  14
                  14
                  14
                  14
                  14
                  14
                  14
                  14
                  14
                  14
                  14
                  14
                  14
                  14
                  14
                  14
                  14
                  14
                  14
                  14
                  14
                  14
                  14
                  14
                  14
                  14
                  14
                  14
                  14
                  14
                  14
                  14
                  14
                  14
                  14
                  14
                  14
                  14
                  14
                  14
                  14
                  14
                  14
                  14
                  14
                  14
                  14
                  14
                  14
                  14
                  14
                  14
                  14
                  14
                  14
                  14
                  14
                  14
                  14
                  14
                  14
                  14
                  14
                  14
                  14
                  14
                  14
                  14
                  14
                  14
                  14
                  14
                  14
                  14
                  14
                  14
                  14
                  14
                  14
                  14
                  14
                  14
                  14
                  14
                  14
                  14
                  14
                  14
                  14
                  14
                  14
                  14
                  14
                  14
                  14
                  14
                  14
                  14
                  14
                  14
                  14
                  14
                  14
                  14
                  14
                  14
                  14
                  14
                  14
                  14
                  14
                  14
                  14
                  14
                  14
                  14
                  14
                  14
                  15
                  15
                  15
                  15
                  15
                  15
                  15
                  15
                  15
                  15
                  15
                  15
                  15
                  15
                  15
                  15
                  15
                  15
                  15
                  15
                  15
                  15
                  15
                  15
                  15
                  15
                  15
                  15
                  15
                  15
                  15
                  15
                  15
                  15
                  15
                  15
                  15
                  15
                  15
                  15
                  15
                  15
                  15
                  15
                  15
                  15
                  15
                  15
                  15
                  15
                  15
                  15
                  15
                  15
                  15
                  15
                  15
                  15
                  15
                  15
                  15
                  15
                  15
                  15
                  15
                  15
                  15
                  15
                  15
                  15
                  15
                  15
                  15
                  15
                  15
                  15
                  15
                  15
                  15
                  15
                  15
                  15
                  15
                  15
                  15
                  15
                  15
                  15
                  15
                  15
                  15
                  15
                  15
                  15
                  15
                  15
                  15
                  15
                  15
                  15
                  15
                  15
                  15
                  15
                  15
                  15
                  15
                  15
                  15
                  15
                  15
                  15
                  15
                  15
                  15
                  15
                  15
                  15
                  15
                  15
                  15
                  15
                  15
                  15
                  15
                  15
                  15
                  15
                  15
                  15
                  15
                  15
                  15
                  15
                  15
                  15
                  15
                  15
                  15
                  15
                  15
                  15
                  15
                  15
                  15
                  15
                  15
                  15
                  15
                  15
                  15
                  15
                  15
                  15
                  15
                  15
                  15
                  15
                  15
                  15
                  15
                  15
                  15
                  15
                  15
                  15
                  15
                  15
                  15
                  15
                  15
                  15
                  15
                  15
                  15
                  15
                  15
                  15
                  15
                  15
                  15
                  15
                  15
                  15
                  15
                  15
                  15
                  15
                  15
                  15
                  15
                  15
                  15
                  15
                  15
                  15
                  15
                  15
                  15
                  15
                  15
                  15
                  15
                  15
                  15
                  15
                  15
                  15
                  15
                  15
                  15
                  15
                  15
                  15
                  15
                  15
                  15
                  15
                  15
                  15
                  15
                  15
                  15
                  15
                  15
                  15
                  15
                  15
                  15
                  15
                  15
                  15
                  15
                  15
                  15
                  15
                  15
                  15
                  15
                  15
                  15
                  15
                  15
                  15
                  15
                  15
                  15
                  15
                  15
                  15
                  15
                  15
                  15
                  15
                  15
                  15
                  15
                  15
                  15
                  15
                  15
                  15
                  15
                  15
                  15
                  15
                  15
                  15
                  15
                  15
                  15
                  15
                  15
                  15
                  15
                  15
                  15
                  15
                  15
                  15
                  15
                  15
                  15
                  15
                  15
                  15
                  15
                  15
                  15
                  15
                  15
                  15
                  15
                  15
                  15
                  15
                  15
                  15
                  15
                  15
                  15
                  15
                  15
                  15
                  15
                  15
                  15
                  15
                  15
                  15
                  15
                  15
                  16
                  16
                  16
                  16
                  16
                  16
                  16
                  16
                  16
                  16
                  16
                  16
                  16
                  16
                  16
                  16
                  16
                  16
                  16
                  16
                  16
                  16
                  16
                  16
                  16
                  16
                  16
                  16
                  16
                  16
                  16
                  16
                  16
                  16
                  16
                  16
                  16
                  16
                  16
                  16
                  16
                  16
                  16
                  16
                  16
                  16
                  16
                  16
                  16
                  16
                  16
                  16
                  16
                  16
                  16
                  16
                  16
                  16
                  16
                  16
                  16
                  16
                  16
                  16
                  16
                  16
                  16
                  16
                  16
                  16
                  16
                  16
                  16
                  16
                  16
                  16
                  16
                  16
                  16
                  16
                  16
                  16
                  16
                  16
                  16
                  16
                  16
                  16
                  16
                  16
                  16
                  16
                  16
                  16
                  16
                  16
                  16
                  16
                  16
                  16
                  16
                  16
                  16
                  16
                  16
                  16
                  16
                  16
                  16
                  16
                  16
                  16
                  16
                  16
                  16
                  16
                  16
                  16
                  16
                  16
                  16
                  16
                  16
                  16
                  16
                  16
                  16
                  16
                  16
                  16
                  16
                  16
                  16
                  16
                  16
                  16
                  16
                  16
                  16
                  16
                  16
                  16
                  16
                  16
                  16
                  16
                  16
                  16
                  16
                  16
                  16
                  16
                  16
                  16
                  16
                  16
                  16
                  16
                  16
                  16
                  16
                  16
                  16
                  16
                  16
                  16
                  16
                  16
                  16
                  16
                  16
                  16
                  16
                  16
                  16
                  16
                  16
                  16
                  16
                  16
                  16
                  16
                  16
                  16
                  16
                  16
                  16
                  16
                  16
                  16
                  16
                  16
                  16
                  16
                  16
                  16
                  16
                  16
                  16
                  16
                  16
                  16
                  16
                  16
                  16
                  16
                  16
                  16
                  16
                  16
                  16
                  16
                  16
                  16
                  16
                  16
                  16
                  16
                  16
                  16
                  16
                  16
                  16
                  16
                  16
                  16
                  16
                  16
                  16
                  16
                  16
                  16
                  16
                  16
                  17
                  17
                  17
                  17
                  17
                  17
                  17
                  17
                  17
                  17
                  17
                  17
                  17
                  17
                  17
                  17
                  17
                  17
                  17
                  17
                  17
                  17
                  17
                  17
                  17
                  17
                  17
                  17
                  17
                  17
                  17
                  17
                  17
                  17
                  17
                  17
                  17
                  17
                  17
                  17
                  17
                  17
                  17
                  17
                  17
                  17
                  17
                  17
                  17
                  17
                  17
                  17
                  17
                  17
                  17
                  17
                  17
                  17
                  17
                  17
                  17
                  17
                  17
                  17
                  17
                  17
                  17
                  17
                  17
                  17
                  17
                  17
                  17
                  17
                  17
                  17
                  17
                  17
                  17
                  17
                  17
                  17
                  17
                  17
                  17
                  17
                  17
                  17
                  17
                  17
                  17
                  17
                  17
                  17
                  17
                  17
                  17
                  17
                  17
                  17
                  17
                  17
                  17
                  17
                  17
                  17
                  17
                  17
                  17
                  17
                  17
                  17
                  17
                  17
                  17
                  17
                  17
                  17
                  17
                  17
                  17
                  17
                  17
                  17
                  17
                  17
                  17
                  17
                  17
                  17
                  17
                  17
                  17
                  17
                  17
                  17
                  17
                  17
                  17
                  17
                  17
                  17
                  17
                  17
                  17
                  17
                  17
                  17
                  17
                  17
                  17
                  17
                  17
                  17
                  17
                  17
                  17
                  17
                  17
                  17
                  17
                  17
                  17
                  17
                  17
                  17
                  17
                  17
                  17
                  17
                  17
                  17
                  17
                  17
                  17
                  17
                  17
                  17
                  17
                  17
                  17
                  17
                  17
                  17
                  17
                  17
                  17
                  17
                  17
                  17
                  17
                  17
                  17
                  17
                  17
                  17
                  17
                  17
                  17
                  17
                  17
                  17
                  17
                  17
                  17
                  17
                  17
                  17
                  17
                  17
                  17
                  17
                  17
                  17
                  17
                  17
                  17
                  17
                  17
                  17
                  17
                  17
                  17
                  17
                  17
                  17
                  17
                  17
                  17
                  17
                  17
                  17
                  17
                  17
                  18
                  18
                  18
                  18
                  18
                  18
                  18
                  18
                  18
                  18
                  18
                  18
                  18
                  18
                  18
                  18
                  18
                  18
                  18
                  18
                  18
                  18
                  18
                  18
                  18
                  18
                  18
                  18
                  18
                  18
                  18
                  18
                  18
                  18
                  18
                  18
                  18
                  18
                  18
                  18
                  18
                  18
                  18
                  18
                  18
                  18
                  18
                  18
                  18
                  18
                  18
                  18
                  18
                  18
                  18
                  18
                  18
                  18
                  18
                  18
                  18
                  18
                  18
                  18
                  18
                  18
                  18
                  18
                  18
                  18
                  18
                  18
                  18
                  18
                  18
                  18
                  18
                  18
                  18
                  18
                  18
                  18
                  18
                  18
                  18
                  18
                  18
                  18
                  18
                  18
                  18
                  18
                  18
                  18
                  18
                  18
                  18
                  18
                  18
                  18
                  18
                  18
                  18
                  18
                  18
                  18
                  18
                  18
                  18
                  18
                  18
                  18
                  18
                  18
                  18
                  18
                  18
                  18
                  18
                  18
                  18
                  18
                  18
                  18
                  18
                  18
                  18
                  18
                  18
                  18
                  18
                  18
                  18
                  18
                  18
                  18
                  18
                  18
                  18
                  18
                  18
                  18
                  18
                  18
                  18
                  18
                  18
                  18
                  18
                  18
                  18
                  18
                  18
                  18
                  18
                  18
  
SCALARS                 displacement_x  double 1
LOOKUP_TABLE default
         0.00000E+00
         0.00000E+00
         0.00000E+00
         0.00000E+00
         0.00000E+00
         0.00000E+00
         0.00000E+00
         0.00000E+00
         0.00000E+00
         0.00000E+00
         0.00000E+00
         0.00000E+00
         0.00000E+00
         0.00000E+00
         0.00000E+00
         0.00000E+00
         0.00000E+00
         0.00000E+00
         0.00000E+00
         0.00000E+00
         0.00000E+00
         0.00000E+00
         0.00000E+00
         0.00000E+00
         0.00000E+00
         0.00000E+00
         0.00000E+00
         0.00000E+00
         0.00000E+00
         0.00000E+00
         0.00000E+00
         0.00000E+00
         0.00000E+00
         0.00000E+00
         0.00000E+00
         0.00000E+00
         0.00000E+00
         0.00000E+00
         0.00000E+00
         0.00000E+00
         0.00000E+00
         0.00000E+00
         0.00000E+00
         0.00000E+00
         0.00000E+00
         0.00000E+00
         0.00000E+00
         0.00000E+00
         0.00000E+00
         0.00000E+00
         0.00000E+00
         0.00000E+00
         0.00000E+00
         0.00000E+00
         0.00000E+00
         0.00000E+00
         0.00000E+00
         0.00000E+00
         0.00000E+00
         0.00000E+00
         0.00000E+00
         0.00000E+00
         0.00000E+00
         0.00000E+00
         0.00000E+00
         0.00000E+00
         0.00000E+00
         0.00000E+00
         0.00000E+00
         0.00000E+00
         0.00000E+00
         0.00000E+00
         0.00000E+00
         0.00000E+00
         0.00000E+00
         0.00000E+00
         0.00000E+00
         0.00000E+00
         0.00000E+00
         0.00000E+00
         0.00000E+00
         0.00000E+00
         0.00000E+00
         0.00000E+00
         0.00000E+00
         0.00000E+00
         0.00000E+00
         0.00000E+00
         0.00000E+00
         0.00000E+00
         0.00000E+00
         0.00000E+00
         0.00000E+00
         0.00000E+00
         0.00000E+00
         0.00000E+00
         0.00000E+00
         0.00000E+00
         0.00000E+00
         0.00000E+00
         0.00000E+00
         0.00000E+00
         0.00000E+00
         0.00000E+00
         0.00000E+00
         0.00000E+00
         0.00000E+00
         0.00000E+00
         0.00000E+00
         0.00000E+00
         0.00000E+00
         0.00000E+00
         0.00000E+00
         0.00000E+00
         0.00000E+00
         0.00000E+00
         0.00000E+00
         0.00000E+00
         0.00000E+00
         0.00000E+00
         0.00000E+00
         0.00000E+00
         0.00000E+00
         0.00000E+00
         0.00000E+00
         0.00000E+00
         0.00000E+00
         0.00000E+00
         0.00000E+00
         0.00000E+00
         0.00000E+00
         0.00000E+00
         0.00000E+00
         0.00000E+00
         0.00000E+00
         0.00000E+00
         0.00000E+00
         0.00000E+00
         0.00000E+00
         0.00000E+00
         0.00000E+00
         0.00000E+00
         0.00000E+00
         0.00000E+00
         0.00000E+00
         0.00000E+00
         0.00000E+00
         0.00000E+00
         0.00000E+00
         0.00000E+00
         0.00000E+00
         0.00000E+00
         0.00000E+00
         0.00000E+00
         0.00000E+00
         0.00000E+00
         0.00000E+00
         0.00000E+00
         0.00000E+00
         0.00000E+00
         0.00000E+00
         0.00000E+00
         0.00000E+00
         0.00000E+00
         0.00000E+00
         0.00000E+00
         0.00000E+00
         0.00000E+00
         0.00000E+00
         0.00000E+00
         0.00000E+00
         0.00000E+00
         0.00000E+00
         0.00000E+00
         0.00000E+00
         0.00000E+00
         0.00000E+00
         0.00000E+00
         0.00000E+00
         0.00000E+00
         0.00000E+00
         0.00000E+00
         0.00000E+00
         0.00000E+00
         0.00000E+00
         0.00000E+00
         0.00000E+00
         0.00000E+00
         0.00000E+00
         0.00000E+00
         0.00000E+00
         0.00000E+00
         0.00000E+00
         0.00000E+00
         0.00000E+00
         0.00000E+00
         0.00000E+00
         0.00000E+00
         0.00000E+00
         0.00000E+00
         0.00000E+00
         0.00000E+00
         0.00000E+00
         0.00000E+00
         0.00000E+00
         0.00000E+00
         0.00000E+00
         0.00000E+00
         0.00000E+00
         0.00000E+00
         0.00000E+00
         0.00000E+00
         0.00000E+00
         0.00000E+00
         0.00000E+00
         0.00000E+00
         0.00000E+00
         0.00000E+00
         0.00000E+00
         0.00000E+00
         0.00000E+00
         0.00000E+00
         0.00000E+00
         0.00000E+00
         0.00000E+00
         0.00000E+00
         0.00000E+00
         0.00000E+00
         0.00000E+00
         0.00000E+00
         0.00000E+00
         0.00000E+00
         0.00000E+00
         0.00000E+00
         0.00000E+00
         0.00000E+00
         0.00000E+00
         0.00000E+00
         0.00000E+00
         0.00000E+00
         0.00000E+00
         0.00000E+00
         0.00000E+00
         0.00000E+00
         0.00000E+00
         0.00000E+00
         0.00000E+00
         0.00000E+00
         0.00000E+00
         0.00000E+00
         0.00000E+00
         0.00000E+00
         0.00000E+00
         0.00000E+00
         0.00000E+00
         0.00000E+00
         0.00000E+00
         0.00000E+00
         0.00000E+00
         0.00000E+00
         0.00000E+00
         0.00000E+00
         0.00000E+00
         0.00000E+00
         0.00000E+00
         0.00000E+00
         0.00000E+00
         0.00000E+00
         0.00000E+00
         0.00000E+00
         0.00000E+00
         0.00000E+00
         0.00000E+00
         0.00000E+00
         0.00000E+00
         0.00000E+00
         0.00000E+00
         0.00000E+00
         0.00000E+00
         0.00000E+00
         0.00000E+00
         0.00000E+00
         0.00000E+00
         0.00000E+00
         0.00000E+00
         0.00000E+00
         0.00000E+00
         0.00000E+00
         0.00000E+00
         0.00000E+00
         0.00000E+00
         0.00000E+00
         0.00000E+00
         0.00000E+00
         0.00000E+00
         0.00000E+00
         0.00000E+00
         0.00000E+00
         0.00000E+00
         0.00000E+00
         0.00000E+00
         0.00000E+00
         0.00000E+00
         0.00000E+00
         0.00000E+00
         0.00000E+00
         0.00000E+00
         0.00000E+00
         0.00000E+00
         0.00000E+00
         0.00000E+00
         0.00000E+00
         0.00000E+00
         0.00000E+00
         0.00000E+00
         0.00000E+00
         0.00000E+00
         0.00000E+00
         0.00000E+00
         0.00000E+00
         0.00000E+00
         0.00000E+00
         0.00000E+00
         0.00000E+00
         0.00000E+00
         0.00000E+00
         0.00000E+00
         0.00000E+00
         0.00000E+00
         0.00000E+00
         0.00000E+00
         0.00000E+00
         0.00000E+00
         0.00000E+00
         0.00000E+00
         0.00000E+00
         0.00000E+00
         0.00000E+00
         0.00000E+00
         0.00000E+00
         0.00000E+00
         0.00000E+00
         0.00000E+00
         0.00000E+00
         0.00000E+00
         0.00000E+00
         0.00000E+00
         0.00000E+00
         0.00000E+00
         0.00000E+00
         0.00000E+00
         0.00000E+00
         0.00000E+00
         0.00000E+00
         0.00000E+00
         0.00000E+00
         0.00000E+00
         0.00000E+00
         0.00000E+00
         0.00000E+00
         0.00000E+00
         0.00000E+00
         0.00000E+00
         0.00000E+00
         0.00000E+00
         0.00000E+00
         0.00000E+00
         0.00000E+00
         0.00000E+00
         0.00000E+00
         0.00000E+00
         0.00000E+00
         0.00000E+00
         0.00000E+00
         0.00000E+00
         0.00000E+00
         0.00000E+00
         0.00000E+00
         0.00000E+00
         0.00000E+00
         0.00000E+00
         0.00000E+00
         0.00000E+00
         0.00000E+00
         0.00000E+00
         0.00000E+00
         0.00000E+00
         0.00000E+00
         0.00000E+00
         0.00000E+00
         0.00000E+00
         0.00000E+00
         0.00000E+00
         0.00000E+00
         0.00000E+00
         0.00000E+00
         0.00000E+00
         0.00000E+00
         0.00000E+00
         0.00000E+00
         0.00000E+00
         0.00000E+00
         0.00000E+00
         0.00000E+00
         0.00000E+00
         0.00000E+00
         0.00000E+00
         0.00000E+00
         0.00000E+00
         0.00000E+00
         0.00000E+00
         0.00000E+00
         0.00000E+00
         0.00000E+00
         0.00000E+00
         0.00000E+00
         0.00000E+00
         0.00000E+00
         0.00000E+00
         0.00000E+00
         0.00000E+00
         0.00000E+00
         0.00000E+00
         0.00000E+00
         0.00000E+00
         0.00000E+00
         0.00000E+00
         0.00000E+00
         0.00000E+00
         0.00000E+00
         0.00000E+00
         0.00000E+00
         0.00000E+00
         0.00000E+00
         0.00000E+00
         0.00000E+00
         0.00000E+00
         0.00000E+00
         0.00000E+00
         0.00000E+00
         0.00000E+00
         0.00000E+00
         0.00000E+00
         0.00000E+00
         0.00000E+00
         0.00000E+00
         0.00000E+00
         0.00000E+00
         0.00000E+00
         0.00000E+00
         0.00000E+00
         0.00000E+00
         0.00000E+00
         0.00000E+00
         0.00000E+00
         0.00000E+00
         0.00000E+00
         0.00000E+00
         0.00000E+00
         0.00000E+00
         0.00000E+00
         0.00000E+00
         0.00000E+00
         0.00000E+00
         0.00000E+00
         0.00000E+00
         0.00000E+00
         0.00000E+00
         0.00000E+00
         0.00000E+00
         0.00000E+00
         0.00000E+00
         0.00000E+00
         0.00000E+00
         0.00000E+00
         0.00000E+00
         0.00000E+00
         0.00000E+00
         0.00000E+00
         0.00000E+00
         0.00000E+00
         0.00000E+00
         0.00000E+00
         0.00000E+00
         0.00000E+00
         0.00000E+00
         0.00000E+00
         0.00000E+00
         0.00000E+00
         0.00000E+00
         0.00000E+00
         0.00000E+00
         0.00000E+00
         0.00000E+00
         0.00000E+00
         0.00000E+00
         0.00000E+00
         0.00000E+00
         0.00000E+00
         0.00000E+00
         0.00000E+00
         0.00000E+00
         0.00000E+00
         0.00000E+00
         0.00000E+00
         0.00000E+00
         0.00000E+00
         0.00000E+00
         0.00000E+00
         0.00000E+00
         0.00000E+00
         0.00000E+00
         0.00000E+00
         0.00000E+00
         0.00000E+00
         0.00000E+00
         0.00000E+00
         0.00000E+00
         0.00000E+00
         0.00000E+00
         0.00000E+00
         0.00000E+00
         0.00000E+00
         0.00000E+00
         0.00000E+00
         0.00000E+00
         0.00000E+00
         0.00000E+00
         0.00000E+00
         0.00000E+00
         0.00000E+00
         0.00000E+00
         0.00000E+00
         0.00000E+00
         0.00000E+00
         0.00000E+00
         0.00000E+00
         0.00000E+00
         0.00000E+00
         0.00000E+00
         0.00000E+00
         0.00000E+00
         0.00000E+00
         0.00000E+00
         0.00000E+00
         0.00000E+00
         0.00000E+00
         0.00000E+00
         0.00000E+00
         0.00000E+00
         0.00000E+00
         0.00000E+00
         0.00000E+00
         0.00000E+00
         0.00000E+00
         0.00000E+00
         0.00000E+00
         0.00000E+00
         0.00000E+00
         0.00000E+00
         0.00000E+00
         0.00000E+00
         0.00000E+00
         0.00000E+00
         0.00000E+00
         0.00000E+00
         0.00000E+00
         0.00000E+00
         0.00000E+00
         0.00000E+00
         0.00000E+00
         0.00000E+00
         0.00000E+00
         0.00000E+00
         0.00000E+00
         0.00000E+00
         0.00000E+00
         0.00000E+00
         0.00000E+00
         0.00000E+00
         0.00000E+00
         0.00000E+00
         0.00000E+00
         0.00000E+00
         0.00000E+00
         0.00000E+00
         0.00000E+00
         0.00000E+00
         0.00000E+00
         0.00000E+00
         0.00000E+00
         0.00000E+00
         0.00000E+00
         0.00000E+00
         0.00000E+00
         0.00000E+00
         0.00000E+00
         0.00000E+00
         0.00000E+00
         0.00000E+00
         0.00000E+00
         0.00000E+00
         0.00000E+00
         0.00000E+00
         0.00000E+00
         0.00000E+00
         0.00000E+00
         0.00000E+00
         0.00000E+00
         0.00000E+00
         0.00000E+00
         0.00000E+00
         0.00000E+00
         0.00000E+00
         0.00000E+00
         0.00000E+00
         0.00000E+00
         0.00000E+00
         0.00000E+00
         0.00000E+00
         0.00000E+00
         0.00000E+00
         0.00000E+00
         0.00000E+00
         0.00000E+00
         0.00000E+00
         0.00000E+00
         0.00000E+00
         0.00000E+00
         0.00000E+00
         0.00000E+00
         0.00000E+00
         0.00000E+00
         0.00000E+00
         0.00000E+00
         0.00000E+00
         0.00000E+00
         0.00000E+00
         0.00000E+00
         0.00000E+00
         0.00000E+00
         0.00000E+00
         0.00000E+00
         0.00000E+00
         0.00000E+00
         0.00000E+00
         0.00000E+00
         0.00000E+00
         0.00000E+00
         0.00000E+00
         0.00000E+00
         0.00000E+00
         0.00000E+00
         0.00000E+00
         0.00000E+00
         0.00000E+00
         0.00000E+00
         0.00000E+00
         0.00000E+00
         0.00000E+00
         0.00000E+00
         0.00000E+00
         0.00000E+00
         0.00000E+00
         0.00000E+00
         0.00000E+00
         0.00000E+00
         0.00000E+00
         0.00000E+00
         0.00000E+00
         0.00000E+00
         0.00000E+00
         0.00000E+00
         0.00000E+00
         0.00000E+00
         0.00000E+00
         0.00000E+00
         0.00000E+00
         0.00000E+00
         0.00000E+00
         0.00000E+00
         0.00000E+00
         0.00000E+00
         0.00000E+00
         0.00000E+00
         0.00000E+00
         0.00000E+00
         0.00000E+00
         0.00000E+00
         0.00000E+00
         0.00000E+00
         0.00000E+00
         0.00000E+00
         0.00000E+00
         0.00000E+00
         0.00000E+00
         0.00000E+00
         0.00000E+00
         0.00000E+00
         0.00000E+00
         0.00000E+00
         0.00000E+00
         0.00000E+00
         0.00000E+00
         0.00000E+00
         0.00000E+00
         0.00000E+00
         0.00000E+00
         0.00000E+00
         0.00000E+00
         0.00000E+00
         0.00000E+00
         0.00000E+00
         0.00000E+00
         0.00000E+00
         0.00000E+00
         0.00000E+00
         0.00000E+00
         0.00000E+00
         0.00000E+00
         0.00000E+00
         0.00000E+00
         0.00000E+00
         0.00000E+00
         0.00000E+00
         0.00000E+00
         0.00000E+00
         0.00000E+00
         0.00000E+00
         0.00000E+00
         0.00000E+00
         0.00000E+00
         0.00000E+00
         0.00000E+00
         0.00000E+00
         0.00000E+00
         0.00000E+00
         0.00000E+00
         0.00000E+00
         0.00000E+00
         0.00000E+00
         0.00000E+00
         0.00000E+00
         0.00000E+00
         0.00000E+00
         0.00000E+00
         0.00000E+00
         0.00000E+00
         0.00000E+00
         0.00000E+00
         0.00000E+00
         0.00000E+00
         0.00000E+00
         0.00000E+00
         0.00000E+00
         0.00000E+00
         0.00000E+00
         0.00000E+00
         0.00000E+00
         0.00000E+00
         0.00000E+00
         0.00000E+00
         0.00000E+00
         0.00000E+00
         0.00000E+00
         0.00000E+00
         0.00000E+00
         0.00000E+00
         0.00000E+00
         0.00000E+00
         0.00000E+00
         0.00000E+00
         0.00000E+00
         0.00000E+00
         0.00000E+00
         0.00000E+00
         0.00000E+00
         0.00000E+00
         0.00000E+00
         0.00000E+00
         0.00000E+00
         0.00000E+00
         0.00000E+00
         0.00000E+00
         0.00000E+00
         0.00000E+00
         0.00000E+00
         0.00000E+00
         0.00000E+00
         0.00000E+00
         0.00000E+00
         0.00000E+00
         0.00000E+00
         0.00000E+00
         0.00000E+00
         0.00000E+00
         0.00000E+00
         0.00000E+00
         0.00000E+00
         0.00000E+00
         0.00000E+00
         0.00000E+00
         0.00000E+00
         0.00000E+00
         0.00000E+00
         0.00000E+00
         0.00000E+00
         0.00000E+00
         0.00000E+00
         0.00000E+00
         0.00000E+00
         0.00000E+00
         0.00000E+00
         0.00000E+00
         0.00000E+00
         0.00000E+00
         0.00000E+00
         0.00000E+00
         0.00000E+00
         0.00000E+00
         0.00000E+00
         0.00000E+00
         0.00000E+00
         0.00000E+00
         0.00000E+00
         0.00000E+00
         0.00000E+00
         0.00000E+00
         0.00000E+00
         0.00000E+00
         0.00000E+00
         0.00000E+00
         0.00000E+00
         0.00000E+00
         0.00000E+00
         0.00000E+00
         0.00000E+00
         0.00000E+00
         0.00000E+00
         0.00000E+00
         0.00000E+00
         0.00000E+00
         0.00000E+00
         0.00000E+00
         0.00000E+00
         0.00000E+00
         0.00000E+00
         0.00000E+00
         0.00000E+00
         0.00000E+00
         0.00000E+00
         0.00000E+00
         0.00000E+00
         0.00000E+00
         0.00000E+00
         0.00000E+00
         0.00000E+00
         0.00000E+00
         0.00000E+00
         0.00000E+00
         0.00000E+00
         0.00000E+00
         0.00000E+00
         0.00000E+00
         0.00000E+00
         0.00000E+00
         0.00000E+00
         0.00000E+00
         0.00000E+00
         0.00000E+00
         0.00000E+00
         0.00000E+00
         0.00000E+00
         0.00000E+00
         0.00000E+00
         0.00000E+00
         0.00000E+00
         0.00000E+00
         0.00000E+00
         0.00000E+00
         0.00000E+00
         0.00000E+00
         0.00000E+00
         0.00000E+00
         0.00000E+00
         0.00000E+00
         0.00000E+00
         0.00000E+00
         0.00000E+00
         0.00000E+00
         0.00000E+00
         0.00000E+00
         0.00000E+00
         0.00000E+00
         0.00000E+00
         0.00000E+00
         0.00000E+00
         0.00000E+00
         0.00000E+00
         0.00000E+00
         0.00000E+00
         0.00000E+00
         0.00000E+00
         0.00000E+00
         0.00000E+00
         0.00000E+00
         0.00000E+00
         0.00000E+00
         0.00000E+00
         0.00000E+00
         0.00000E+00
         0.00000E+00
         0.00000E+00
         0.00000E+00
         0.00000E+00
         0.00000E+00
         0.00000E+00
         0.00000E+00
         0.00000E+00
         0.00000E+00
         0.00000E+00
         0.00000E+00
         0.00000E+00
         0.00000E+00
         0.00000E+00
         0.00000E+00
         0.00000E+00
         0.00000E+00
         0.00000E+00
         0.00000E+00
         0.00000E+00
         0.00000E+00
         0.00000E+00
         0.00000E+00
         0.00000E+00
         0.00000E+00
         0.00000E+00
         0.00000E+00
         0.00000E+00
         0.00000E+00
         0.00000E+00
         0.00000E+00
         0.00000E+00
         0.00000E+00
         0.00000E+00
         0.00000E+00
         0.00000E+00
         0.00000E+00
         0.00000E+00
         0.00000E+00
         0.00000E+00
         0.00000E+00
         0.00000E+00
         0.00000E+00
         0.00000E+00
         0.00000E+00
         0.00000E+00
         0.00000E+00
         0.00000E+00
         0.00000E+00
         0.00000E+00
         0.00000E+00
         0.00000E+00
         0.00000E+00
         0.00000E+00
         0.00000E+00
         0.00000E+00
         0.00000E+00
         0.00000E+00
         0.00000E+00
         0.00000E+00
         0.00000E+00
         0.00000E+00
         0.00000E+00
         0.00000E+00
         0.00000E+00
         0.00000E+00
         0.00000E+00
         0.00000E+00
         0.00000E+00
         0.00000E+00
         0.00000E+00
         0.00000E+00
         0.00000E+00
         0.00000E+00
         0.00000E+00
         0.00000E+00
         0.00000E+00
         0.00000E+00
         0.00000E+00
         0.00000E+00
         0.00000E+00
         0.00000E+00
         0.00000E+00
         0.00000E+00
         0.00000E+00
         0.00000E+00
         0.00000E+00
         0.00000E+00
         0.00000E+00
         0.00000E+00
         0.00000E+00
         0.00000E+00
         0.00000E+00
         0.00000E+00
         0.00000E+00
         0.00000E+00
         0.00000E+00
         0.00000E+00
         0.00000E+00
         0.00000E+00
         0.00000E+00
         0.00000E+00
         0.00000E+00
         0.00000E+00
         0.00000E+00
         0.00000E+00
         0.00000E+00
         0.00000E+00
         0.00000E+00
         0.00000E+00
         0.00000E+00
         0.00000E+00
         0.00000E+00
         0.00000E+00
         0.00000E+00
         0.00000E+00
         0.00000E+00
         0.00000E+00
         0.00000E+00
         0.00000E+00
         0.00000E+00
         0.00000E+00
         0.00000E+00
         0.00000E+00
         0.00000E+00
         0.00000E+00
         0.00000E+00
         0.00000E+00
         0.00000E+00
         0.00000E+00
         0.00000E+00
         0.00000E+00
         0.00000E+00
         0.00000E+00
         0.00000E+00
         0.00000E+00
         0.00000E+00
         0.00000E+00
         0.00000E+00
         0.00000E+00
         0.00000E+00
         0.00000E+00
         0.00000E+00
         0.00000E+00
         0.00000E+00
         0.00000E+00
         0.00000E+00
         0.00000E+00
         0.00000E+00
         0.00000E+00
         0.00000E+00
         0.00000E+00
         0.00000E+00
         0.00000E+00
         0.00000E+00
         0.00000E+00
         0.00000E+00
         0.00000E+00
         0.00000E+00
         0.00000E+00
         0.00000E+00
         0.00000E+00
         0.00000E+00
         0.00000E+00
         0.00000E+00
         0.00000E+00
         0.00000E+00
         0.00000E+00
         0.00000E+00
         0.00000E+00
         0.00000E+00
         0.00000E+00
         0.00000E+00
         0.00000E+00
         0.00000E+00
         0.00000E+00
         0.00000E+00
         0.00000E+00
         0.00000E+00
         0.00000E+00
         0.00000E+00
         0.00000E+00
         0.00000E+00
         0.00000E+00
         0.00000E+00
         0.00000E+00
         0.00000E+00
         0.00000E+00
         0.00000E+00
         0.00000E+00
         0.00000E+00
         0.00000E+00
         0.00000E+00
         0.00000E+00
         0.00000E+00
         0.00000E+00
         0.00000E+00
         0.00000E+00
         0.00000E+00
         0.00000E+00
         0.00000E+00
         0.00000E+00
         0.00000E+00
         0.00000E+00
         0.00000E+00
         0.00000E+00
         0.00000E+00
         0.00000E+00
         0.00000E+00
         0.00000E+00
         0.00000E+00
         0.00000E+00
         0.00000E+00
         0.00000E+00
         0.00000E+00
         0.00000E+00
         0.00000E+00
         0.00000E+00
         0.00000E+00
         0.00000E+00
         0.00000E+00
         0.00000E+00
         0.00000E+00
         0.00000E+00
         0.00000E+00
         0.00000E+00
         0.00000E+00
         0.00000E+00
         0.00000E+00
         0.00000E+00
         0.00000E+00
         0.00000E+00
         0.00000E+00
         0.00000E+00
         0.00000E+00
         0.00000E+00
         0.00000E+00
         0.00000E+00
         0.00000E+00
         0.00000E+00
         0.00000E+00
         0.00000E+00
         0.00000E+00
         0.00000E+00
         0.00000E+00
         0.00000E+00
         0.00000E+00
         0.00000E+00
         0.00000E+00
         0.00000E+00
         0.00000E+00
         0.00000E+00
         0.00000E+00
         0.00000E+00
         0.00000E+00
         0.00000E+00
         0.00000E+00
         0.00000E+00
         0.00000E+00
         0.00000E+00
         0.00000E+00
         0.00000E+00
         0.00000E+00
         0.00000E+00
         0.00000E+00
         0.00000E+00
         0.00000E+00
         0.00000E+00
         0.00000E+00
         0.00000E+00
         0.00000E+00
         0.00000E+00
         0.00000E+00
         0.00000E+00
         0.00000E+00
         0.00000E+00
         0.00000E+00
         0.00000E+00
         0.00000E+00
         0.00000E+00
         0.00000E+00
         0.00000E+00
         0.00000E+00
         0.00000E+00
         0.00000E+00
         0.00000E+00
         0.00000E+00
         0.00000E+00
         0.00000E+00
         0.00000E+00
         0.00000E+00
         0.00000E+00
         0.00000E+00
         0.00000E+00
         0.00000E+00
         0.00000E+00
         0.00000E+00
         0.00000E+00
         0.00000E+00
         0.00000E+00
         0.00000E+00
         0.00000E+00
         0.00000E+00
         0.00000E+00
         0.00000E+00
         0.00000E+00
         0.00000E+00
         0.00000E+00
         0.00000E+00
         0.00000E+00
         0.00000E+00
         0.00000E+00
         0.00000E+00
         0.00000E+00
         0.00000E+00
         0.00000E+00
         0.00000E+00
         0.00000E+00
         0.00000E+00
         0.00000E+00
         0.00000E+00
         0.00000E+00
         0.00000E+00
         0.00000E+00
         0.00000E+00
         0.00000E+00
         0.00000E+00
         0.00000E+00
         0.00000E+00
         0.00000E+00
         0.00000E+00
         0.00000E+00
         0.00000E+00
         0.00000E+00
         0.00000E+00
         0.00000E+00
         0.00000E+00
         0.00000E+00
         0.00000E+00
         0.00000E+00
         0.00000E+00
         0.00000E+00
         0.00000E+00
         0.00000E+00
         0.00000E+00
         0.00000E+00
         0.00000E+00
         0.00000E+00
         0.00000E+00
         0.00000E+00
         0.00000E+00
         0.00000E+00
         0.00000E+00
         0.00000E+00
         0.00000E+00
         0.00000E+00
         0.00000E+00
         0.00000E+00
         0.00000E+00
         0.00000E+00
         0.00000E+00
         0.00000E+00
         0.00000E+00
         0.00000E+00
         0.00000E+00
         0.00000E+00
         0.00000E+00
         0.00000E+00
         0.00000E+00
         0.00000E+00
         0.00000E+00
         0.00000E+00
         0.00000E+00
         0.00000E+00
         0.00000E+00
         0.00000E+00
         0.00000E+00
         0.00000E+00
         0.00000E+00
         0.00000E+00
         0.00000E+00
         0.00000E+00
         0.00000E+00
         0.00000E+00
         0.00000E+00
         0.00000E+00
         0.00000E+00
         0.00000E+00
         0.00000E+00
         0.00000E+00
         0.00000E+00
         0.00000E+00
         0.00000E+00
         0.00000E+00
         0.00000E+00
         0.00000E+00
         0.00000E+00
         0.00000E+00
         0.00000E+00
         0.00000E+00
         0.00000E+00
         0.00000E+00
         0.00000E+00
         0.00000E+00
         0.00000E+00
         0.00000E+00
         0.00000E+00
         0.00000E+00
         0.00000E+00
         0.00000E+00
         0.00000E+00
         0.00000E+00
         0.00000E+00
         0.00000E+00
         0.00000E+00
         0.00000E+00
         0.00000E+00
         0.00000E+00
         0.00000E+00
         0.00000E+00
         0.00000E+00
         0.00000E+00
         0.00000E+00
         0.00000E+00
         0.00000E+00
         0.00000E+00
         0.00000E+00
         0.00000E+00
         0.00000E+00
         0.00000E+00
         0.00000E+00
         0.00000E+00
         0.00000E+00
         0.00000E+00
         0.00000E+00
         0.00000E+00
         0.00000E+00
         0.00000E+00
         0.00000E+00
         0.00000E+00
         0.00000E+00
         0.00000E+00
         0.00000E+00
         0.00000E+00
         0.00000E+00
         0.00000E+00
         0.00000E+00
         0.00000E+00
         0.00000E+00
         0.00000E+00
         0.00000E+00
         0.00000E+00
         0.00000E+00
         0.00000E+00
         0.00000E+00
         0.00000E+00
         0.00000E+00
         0.00000E+00
         0.00000E+00
         0.00000E+00
         0.00000E+00
         0.00000E+00
         0.00000E+00
         0.00000E+00
         0.00000E+00
         0.00000E+00
         0.00000E+00
         0.00000E+00
         0.00000E+00
         0.00000E+00
         0.00000E+00
         0.00000E+00
         0.00000E+00
         0.00000E+00
         0.00000E+00
         0.00000E+00
         0.00000E+00
         0.00000E+00
         0.00000E+00
         0.00000E+00
         0.00000E+00
         0.00000E+00
         0.00000E+00
         0.00000E+00
         0.00000E+00
         0.00000E+00
         0.00000E+00
         0.00000E+00
         0.00000E+00
         0.00000E+00
         0.00000E+00
         0.00000E+00
         0.00000E+00
         0.00000E+00
         0.00000E+00
         0.00000E+00
         0.00000E+00
         0.00000E+00
         0.00000E+00
         0.00000E+00
         0.00000E+00
         0.00000E+00
         0.00000E+00
         0.00000E+00
         0.00000E+00
         0.00000E+00
         0.00000E+00
         0.00000E+00
         0.00000E+00
         0.00000E+00
         0.00000E+00
         0.00000E+00
         0.00000E+00
         0.00000E+00
         0.00000E+00
         0.00000E+00
         0.00000E+00
         0.00000E+00
         0.00000E+00
         0.00000E+00
         0.00000E+00
         0.00000E+00
         0.00000E+00
         0.00000E+00
         0.00000E+00
         0.00000E+00
         0.00000E+00
         0.00000E+00
         0.00000E+00
         0.00000E+00
         0.00000E+00
         0.00000E+00
         0.00000E+00
         0.00000E+00
         0.00000E+00
         0.00000E+00
         0.00000E+00
         0.00000E+00
         0.00000E+00
         0.00000E+00
         0.00000E+00
         0.00000E+00
         0.00000E+00
         0.00000E+00
         0.00000E+00
         0.00000E+00
         0.00000E+00
         0.00000E+00
         0.00000E+00
         0.00000E+00
         0.00000E+00
         0.00000E+00
         0.00000E+00
         0.00000E+00
         0.00000E+00
         0.00000E+00
         0.00000E+00
         0.00000E+00
         0.00000E+00
         0.00000E+00
         0.00000E+00
         0.00000E+00
         0.00000E+00
         0.00000E+00
         0.00000E+00
         0.00000E+00
         0.00000E+00
         0.00000E+00
         0.00000E+00
         0.00000E+00
         0.00000E+00
         0.00000E+00
         0.00000E+00
         0.00000E+00
         0.00000E+00
         0.00000E+00
         0.00000E+00
         0.00000E+00
         0.00000E+00
         0.00000E+00
         0.00000E+00
         0.00000E+00
         0.00000E+00
         0.00000E+00
         0.00000E+00
         0.00000E+00
         0.00000E+00
         0.00000E+00
         0.00000E+00
         0.00000E+00
         0.00000E+00
         0.00000E+00
         0.00000E+00
         0.00000E+00
         0.00000E+00
         0.00000E+00
         0.00000E+00
         0.00000E+00
         0.00000E+00
         0.00000E+00
         0.00000E+00
         0.00000E+00
         0.00000E+00
         0.00000E+00
         0.00000E+00
         0.00000E+00
         0.00000E+00
         0.00000E+00
         0.00000E+00
         0.00000E+00
         0.00000E+00
         0.00000E+00
         0.00000E+00
         0.00000E+00
         0.00000E+00
         0.00000E+00
         0.00000E+00
         0.00000E+00
         0.00000E+00
         0.00000E+00
         0.00000E+00
         0.00000E+00
         0.00000E+00
         0.00000E+00
         0.00000E+00
         0.00000E+00
         0.00000E+00
         0.00000E+00
         0.00000E+00
         0.00000E+00
         0.00000E+00
         0.00000E+00
         0.00000E+00
         0.00000E+00
         0.00000E+00
         0.00000E+00
         0.00000E+00
         0.00000E+00
         0.00000E+00
         0.00000E+00
         0.00000E+00
         0.00000E+00
         0.00000E+00
         0.00000E+00
         0.00000E+00
         0.00000E+00
         0.00000E+00
         0.00000E+00
         0.00000E+00
         0.00000E+00
         0.00000E+00
         0.00000E+00
         0.00000E+00
         0.00000E+00
         0.00000E+00
         0.00000E+00
         0.00000E+00
         0.00000E+00
         0.00000E+00
         0.00000E+00
         0.00000E+00
         0.00000E+00
         0.00000E+00
         0.00000E+00
         0.00000E+00
         0.00000E+00
         0.00000E+00
         0.00000E+00
         0.00000E+00
         0.00000E+00
         0.00000E+00
         0.00000E+00
         0.00000E+00
         0.00000E+00
         0.00000E+00
         0.00000E+00
         0.00000E+00
         0.00000E+00
         0.00000E+00
         0.00000E+00
         0.00000E+00
         0.00000E+00
         0.00000E+00
         0.00000E+00
         0.00000E+00
         0.00000E+00
         0.00000E+00
         0.00000E+00
         0.00000E+00
         0.00000E+00
         0.00000E+00
         0.00000E+00
         0.00000E+00
         0.00000E+00
         0.00000E+00
         0.00000E+00
         0.00000E+00
         0.00000E+00
         0.00000E+00
         0.00000E+00
         0.00000E+00
         0.00000E+00
         0.00000E+00
         0.00000E+00
         0.00000E+00
         0.00000E+00
         0.00000E+00
         0.00000E+00
         0.00000E+00
         0.00000E+00
         0.00000E+00
         0.00000E+00
         0.00000E+00
         0.00000E+00
         0.00000E+00
         0.00000E+00
         0.00000E+00
         0.00000E+00
         0.00000E+00
         0.00000E+00
         0.00000E+00
         0.00000E+00
         0.00000E+00
         0.00000E+00
         0.00000E+00
         0.00000E+00
         0.00000E+00
         0.00000E+00
         0.00000E+00
         0.00000E+00
         0.00000E+00
         0.00000E+00
         0.00000E+00
         0.00000E+00
         0.00000E+00
         0.00000E+00
         0.00000E+00
         0.00000E+00
         0.00000E+00
         0.00000E+00
         0.00000E+00
         0.00000E+00
         0.00000E+00
         0.00000E+00
         0.00000E+00
         0.00000E+00
         0.00000E+00
         0.00000E+00
         0.00000E+00
         0.00000E+00
         0.00000E+00
         0.00000E+00
         0.00000E+00
         0.00000E+00
         0.00000E+00
         0.00000E+00
         0.00000E+00
         0.00000E+00
         0.00000E+00
         0.00000E+00
         0.00000E+00
         0.00000E+00
         0.00000E+00
         0.00000E+00
         0.00000E+00
         0.00000E+00
         0.00000E+00
         0.00000E+00
         0.00000E+00
         0.00000E+00
         0.00000E+00
         0.00000E+00
         0.00000E+00
         0.00000E+00
         0.00000E+00
         0.00000E+00
         0.00000E+00
         0.00000E+00
         0.00000E+00
         0.00000E+00
         0.00000E+00
         0.00000E+00
         0.00000E+00
         0.00000E+00
         0.00000E+00
         0.00000E+00
         0.00000E+00
         0.00000E+00
         0.00000E+00
         0.00000E+00
         0.00000E+00
         0.00000E+00
         0.00000E+00
         0.00000E+00
         0.00000E+00
         0.00000E+00
         0.00000E+00
         0.00000E+00
         0.00000E+00
         0.00000E+00
         0.00000E+00
         0.00000E+00
         0.00000E+00
         0.00000E+00
         0.00000E+00
         0.00000E+00
         0.00000E+00
         0.00000E+00
         0.00000E+00
         0.00000E+00
         0.00000E+00
         0.00000E+00
         0.00000E+00
         0.00000E+00
         0.00000E+00
         0.00000E+00
         0.00000E+00
         0.00000E+00
         0.00000E+00
         0.00000E+00
         0.00000E+00
         0.00000E+00
         0.00000E+00
         0.00000E+00
         0.00000E+00
         0.00000E+00
         0.00000E+00
         0.00000E+00
         0.00000E+00
         0.00000E+00
         0.00000E+00
         0.00000E+00
         0.00000E+00
         0.00000E+00
         0.00000E+00
         0.00000E+00
         0.00000E+00
         0.00000E+00
         0.00000E+00
         0.00000E+00
         0.00000E+00
         0.00000E+00
         0.00000E+00
         0.00000E+00
         0.00000E+00
         0.00000E+00
         0.00000E+00
         0.00000E+00
         0.00000E+00
         0.00000E+00
         0.00000E+00
         0.00000E+00
         0.00000E+00
         0.00000E+00
         0.00000E+00
         0.00000E+00
         0.00000E+00
         0.00000E+00
         0.00000E+00
         0.00000E+00
         0.00000E+00
         0.00000E+00
         0.00000E+00
         0.00000E+00
         0.00000E+00
         0.00000E+00
         0.00000E+00
         0.00000E+00
         0.00000E+00
         0.00000E+00
         0.00000E+00
         0.00000E+00
         0.00000E+00
         0.00000E+00
         0.00000E+00
         0.00000E+00
         0.00000E+00
         0.00000E+00
         0.00000E+00
         0.00000E+00
         0.00000E+00
         0.00000E+00
         0.00000E+00
         0.00000E+00
         0.00000E+00
         0.00000E+00
         0.00000E+00
         0.00000E+00
         0.00000E+00
         0.00000E+00
         0.00000E+00
         0.00000E+00
         0.00000E+00
         0.00000E+00
         0.00000E+00
         0.00000E+00
         0.00000E+00
         0.00000E+00
         0.00000E+00
         0.00000E+00
         0.00000E+00
         0.00000E+00
         0.00000E+00
         0.00000E+00
         0.00000E+00
         0.00000E+00
         0.00000E+00
         0.00000E+00
         0.00000E+00
         0.00000E+00
         0.00000E+00
         0.00000E+00
         0.00000E+00
         0.00000E+00
         0.00000E+00
         0.00000E+00
         0.00000E+00
         0.00000E+00
         0.00000E+00
         0.00000E+00
         0.00000E+00
         0.00000E+00
         0.00000E+00
         0.00000E+00
         0.00000E+00
         0.00000E+00
         0.00000E+00
         0.00000E+00
         0.00000E+00
         0.00000E+00
         0.00000E+00
         0.00000E+00
         0.00000E+00
         0.00000E+00
         0.00000E+00
         0.00000E+00
         0.00000E+00
         0.00000E+00
         0.00000E+00
         0.00000E+00
         0.00000E+00
         0.00000E+00
         0.00000E+00
         0.00000E+00
         0.00000E+00
         0.00000E+00
         0.00000E+00
         0.00000E+00
         0.00000E+00
         0.00000E+00
         0.00000E+00
         0.00000E+00
         0.00000E+00
         0.00000E+00
         0.00000E+00
         0.00000E+00
         0.00000E+00
         0.00000E+00
         0.00000E+00
         0.00000E+00
         0.00000E+00
         0.00000E+00
         0.00000E+00
         0.00000E+00
         0.00000E+00
         0.00000E+00
         0.00000E+00
         0.00000E+00
         0.00000E+00
         0.00000E+00
         0.00000E+00
         0.00000E+00
         0.00000E+00
         0.00000E+00
         0.00000E+00
         0.00000E+00
         0.00000E+00
         0.00000E+00
         0.00000E+00
         0.00000E+00
         0.00000E+00
         0.00000E+00
         0.00000E+00
         0.00000E+00
         0.00000E+00
         0.00000E+00
         0.00000E+00
         0.00000E+00
         0.00000E+00
         0.00000E+00
         0.00000E+00
         0.00000E+00
         0.00000E+00
         0.00000E+00
         0.00000E+00
         0.00000E+00
         0.00000E+00
         0.00000E+00
         0.00000E+00
         0.00000E+00
         0.00000E+00
         0.00000E+00
         0.00000E+00
         0.00000E+00
         0.00000E+00
         0.00000E+00
         0.00000E+00
         0.00000E+00
         0.00000E+00
         0.00000E+00
         0.00000E+00
         0.00000E+00
         0.00000E+00
         0.00000E+00
         0.00000E+00
         0.00000E+00
         0.00000E+00
         0.00000E+00
         0.00000E+00
         0.00000E+00
         0.00000E+00
         0.00000E+00
         0.00000E+00
         0.00000E+00
         0.00000E+00
         0.00000E+00
         0.00000E+00
         0.00000E+00
         0.00000E+00
         0.00000E+00
         0.00000E+00
         0.00000E+00
         0.00000E+00
         0.00000E+00
         0.00000E+00
         0.00000E+00
         0.00000E+00
         0.00000E+00
         0.00000E+00
  
SCALARS                 displacement_y  double 1
LOOKUP_TABLE default
         0.00000E+00
         0.00000E+00
         0.00000E+00
         0.00000E+00
         0.00000E+00
         0.00000E+00
         0.00000E+00
         0.00000E+00
         0.00000E+00
         0.00000E+00
         0.00000E+00
         0.00000E+00
         0.00000E+00
         0.00000E+00
         0.00000E+00
         0.00000E+00
         0.00000E+00
         0.00000E+00
         0.00000E+00
         0.00000E+00
         0.00000E+00
         0.00000E+00
         0.00000E+00
         0.00000E+00
         0.00000E+00
         0.00000E+00
         0.00000E+00
         0.00000E+00
         0.00000E+00
         0.00000E+00
         0.00000E+00
         0.00000E+00
         0.00000E+00
         0.00000E+00
         0.00000E+00
         0.00000E+00
         0.00000E+00
         0.00000E+00
         0.00000E+00
         0.00000E+00
         0.00000E+00
         0.00000E+00
         0.00000E+00
         0.00000E+00
         0.00000E+00
         0.00000E+00
         0.00000E+00
         0.00000E+00
         0.00000E+00
         0.00000E+00
         0.00000E+00
         0.00000E+00
         0.00000E+00
         0.00000E+00
         0.00000E+00
         0.00000E+00
         0.00000E+00
         0.00000E+00
         0.00000E+00
         0.00000E+00
         0.00000E+00
         0.00000E+00
         0.00000E+00
         0.00000E+00
         0.00000E+00
         0.00000E+00
         0.00000E+00
         0.00000E+00
         0.00000E+00
         0.00000E+00
         0.00000E+00
         0.00000E+00
         0.00000E+00
         0.00000E+00
         0.00000E+00
         0.00000E+00
         0.00000E+00
         0.00000E+00
         0.00000E+00
         0.00000E+00
         0.00000E+00
         0.00000E+00
         0.00000E+00
         0.00000E+00
         0.00000E+00
         0.00000E+00
         0.00000E+00
         0.00000E+00
         0.00000E+00
         0.00000E+00
         0.00000E+00
         0.00000E+00
         0.00000E+00
         0.00000E+00
         0.00000E+00
         0.00000E+00
         0.00000E+00
         0.00000E+00
         0.00000E+00
         0.00000E+00
         0.00000E+00
         0.00000E+00
         0.00000E+00
         0.00000E+00
         0.00000E+00
         0.00000E+00
         0.00000E+00
         0.00000E+00
         0.00000E+00
         0.00000E+00
         0.00000E+00
         0.00000E+00
         0.00000E+00
         0.00000E+00
         0.00000E+00
         0.00000E+00
         0.00000E+00
         0.00000E+00
         0.00000E+00
         0.00000E+00
         0.00000E+00
         0.00000E+00
         0.00000E+00
         0.00000E+00
         0.00000E+00
         0.00000E+00
         0.00000E+00
         0.00000E+00
         0.00000E+00
         0.00000E+00
         0.00000E+00
         0.00000E+00
         0.00000E+00
         0.00000E+00
         0.00000E+00
         0.00000E+00
         0.00000E+00
         0.00000E+00
         0.00000E+00
         0.00000E+00
         0.00000E+00
         0.00000E+00
         0.00000E+00
         0.00000E+00
         0.00000E+00
         0.00000E+00
         0.00000E+00
         0.00000E+00
         0.00000E+00
         0.00000E+00
         0.00000E+00
         0.00000E+00
         0.00000E+00
         0.00000E+00
         0.00000E+00
         0.00000E+00
         0.00000E+00
         0.00000E+00
         0.00000E+00
         0.00000E+00
         0.00000E+00
         0.00000E+00
         0.00000E+00
         0.00000E+00
         0.00000E+00
         0.00000E+00
         0.00000E+00
         0.00000E+00
         0.00000E+00
         0.00000E+00
         0.00000E+00
         0.00000E+00
         0.00000E+00
         0.00000E+00
         0.00000E+00
         0.00000E+00
         0.00000E+00
         0.00000E+00
         0.00000E+00
         0.00000E+00
         0.00000E+00
         0.00000E+00
         0.00000E+00
         0.00000E+00
         0.00000E+00
         0.00000E+00
         0.00000E+00
         0.00000E+00
         0.00000E+00
         0.00000E+00
         0.00000E+00
         0.00000E+00
         0.00000E+00
         0.00000E+00
         0.00000E+00
         0.00000E+00
         0.00000E+00
         0.00000E+00
         0.00000E+00
         0.00000E+00
         0.00000E+00
         0.00000E+00
         0.00000E+00
         0.00000E+00
         0.00000E+00
         0.00000E+00
         0.00000E+00
         0.00000E+00
         0.00000E+00
         0.00000E+00
         0.00000E+00
         0.00000E+00
         0.00000E+00
         0.00000E+00
         0.00000E+00
         0.00000E+00
         0.00000E+00
         0.00000E+00
         0.00000E+00
         0.00000E+00
         0.00000E+00
         0.00000E+00
         0.00000E+00
         0.00000E+00
         0.00000E+00
         0.00000E+00
         0.00000E+00
         0.00000E+00
         0.00000E+00
         0.00000E+00
         0.00000E+00
         0.00000E+00
         0.00000E+00
         0.00000E+00
         0.00000E+00
         0.00000E+00
         0.00000E+00
         0.00000E+00
         0.00000E+00
         0.00000E+00
         0.00000E+00
         0.00000E+00
         0.00000E+00
         0.00000E+00
         0.00000E+00
         0.00000E+00
         0.00000E+00
         0.00000E+00
         0.00000E+00
         0.00000E+00
         0.00000E+00
         0.00000E+00
         0.00000E+00
         0.00000E+00
         0.00000E+00
         0.00000E+00
         0.00000E+00
         0.00000E+00
         0.00000E+00
         0.00000E+00
         0.00000E+00
         0.00000E+00
         0.00000E+00
         0.00000E+00
         0.00000E+00
         0.00000E+00
         0.00000E+00
         0.00000E+00
         0.00000E+00
         0.00000E+00
         0.00000E+00
         0.00000E+00
         0.00000E+00
         0.00000E+00
         0.00000E+00
         0.00000E+00
         0.00000E+00
         0.00000E+00
         0.00000E+00
         0.00000E+00
         0.00000E+00
         0.00000E+00
         0.00000E+00
         0.00000E+00
         0.00000E+00
         0.00000E+00
         0.00000E+00
         0.00000E+00
         0.00000E+00
         0.00000E+00
         0.00000E+00
         0.00000E+00
         0.00000E+00
         0.00000E+00
         0.00000E+00
         0.00000E+00
         0.00000E+00
         0.00000E+00
         0.00000E+00
         0.00000E+00
         0.00000E+00
         0.00000E+00
         0.00000E+00
         0.00000E+00
         0.00000E+00
         0.00000E+00
         0.00000E+00
         0.00000E+00
         0.00000E+00
         0.00000E+00
         0.00000E+00
         0.00000E+00
         0.00000E+00
         0.00000E+00
         0.00000E+00
         0.00000E+00
         0.00000E+00
         0.00000E+00
         0.00000E+00
         0.00000E+00
         0.00000E+00
         0.00000E+00
         0.00000E+00
         0.00000E+00
         0.00000E+00
         0.00000E+00
         0.00000E+00
         0.00000E+00
         0.00000E+00
         0.00000E+00
         0.00000E+00
         0.00000E+00
         0.00000E+00
         0.00000E+00
         0.00000E+00
         0.00000E+00
         0.00000E+00
         0.00000E+00
         0.00000E+00
         0.00000E+00
         0.00000E+00
         0.00000E+00
         0.00000E+00
         0.00000E+00
         0.00000E+00
         0.00000E+00
         0.00000E+00
         0.00000E+00
         0.00000E+00
         0.00000E+00
         0.00000E+00
         0.00000E+00
         0.00000E+00
         0.00000E+00
         0.00000E+00
         0.00000E+00
         0.00000E+00
         0.00000E+00
         0.00000E+00
         0.00000E+00
         0.00000E+00
         0.00000E+00
         0.00000E+00
         0.00000E+00
         0.00000E+00
         0.00000E+00
         0.00000E+00
         0.00000E+00
         0.00000E+00
         0.00000E+00
         0.00000E+00
         0.00000E+00
         0.00000E+00
         0.00000E+00
         0.00000E+00
         0.00000E+00
         0.00000E+00
         0.00000E+00
         0.00000E+00
         0.00000E+00
         0.00000E+00
         0.00000E+00
         0.00000E+00
         0.00000E+00
         0.00000E+00
         0.00000E+00
         0.00000E+00
         0.00000E+00
         0.00000E+00
         0.00000E+00
         0.00000E+00
         0.00000E+00
         0.00000E+00
         0.00000E+00
         0.00000E+00
         0.00000E+00
         0.00000E+00
         0.00000E+00
         0.00000E+00
         0.00000E+00
         0.00000E+00
         0.00000E+00
         0.00000E+00
         0.00000E+00
         0.00000E+00
         0.00000E+00
         0.00000E+00
         0.00000E+00
         0.00000E+00
         0.00000E+00
         0.00000E+00
         0.00000E+00
         0.00000E+00
         0.00000E+00
         0.00000E+00
         0.00000E+00
         0.00000E+00
         0.00000E+00
         0.00000E+00
         0.00000E+00
         0.00000E+00
         0.00000E+00
         0.00000E+00
         0.00000E+00
         0.00000E+00
         0.00000E+00
         0.00000E+00
         0.00000E+00
         0.00000E+00
         0.00000E+00
         0.00000E+00
         0.00000E+00
         0.00000E+00
         0.00000E+00
         0.00000E+00
         0.00000E+00
         0.00000E+00
         0.00000E+00
         0.00000E+00
         0.00000E+00
         0.00000E+00
         0.00000E+00
         0.00000E+00
         0.00000E+00
         0.00000E+00
         0.00000E+00
         0.00000E+00
         0.00000E+00
         0.00000E+00
         0.00000E+00
         0.00000E+00
         0.00000E+00
         0.00000E+00
         0.00000E+00
         0.00000E+00
         0.00000E+00
         0.00000E+00
         0.00000E+00
         0.00000E+00
         0.00000E+00
         0.00000E+00
         0.00000E+00
         0.00000E+00
         0.00000E+00
         0.00000E+00
         0.00000E+00
         0.00000E+00
         0.00000E+00
         0.00000E+00
         0.00000E+00
         0.00000E+00
         0.00000E+00
         0.00000E+00
         0.00000E+00
         0.00000E+00
         0.00000E+00
         0.00000E+00
         0.00000E+00
         0.00000E+00
         0.00000E+00
         0.00000E+00
         0.00000E+00
         0.00000E+00
         0.00000E+00
         0.00000E+00
         0.00000E+00
         0.00000E+00
         0.00000E+00
         0.00000E+00
         0.00000E+00
         0.00000E+00
         0.00000E+00
         0.00000E+00
         0.00000E+00
         0.00000E+00
         0.00000E+00
         0.00000E+00
         0.00000E+00
         0.00000E+00
         0.00000E+00
         0.00000E+00
         0.00000E+00
         0.00000E+00
         0.00000E+00
         0.00000E+00
         0.00000E+00
         0.00000E+00
         0.00000E+00
         0.00000E+00
         0.00000E+00
         0.00000E+00
         0.00000E+00
         0.00000E+00
         0.00000E+00
         0.00000E+00
         0.00000E+00
         0.00000E+00
         0.00000E+00
         0.00000E+00
         0.00000E+00
         0.00000E+00
         0.00000E+00
         0.00000E+00
         0.00000E+00
         0.00000E+00
         0.00000E+00
         0.00000E+00
         0.00000E+00
         0.00000E+00
         0.00000E+00
         0.00000E+00
         0.00000E+00
         0.00000E+00
         0.00000E+00
         0.00000E+00
         0.00000E+00
         0.00000E+00
         0.00000E+00
         0.00000E+00
         0.00000E+00
         0.00000E+00
         0.00000E+00
         0.00000E+00
         0.00000E+00
         0.00000E+00
         0.00000E+00
         0.00000E+00
         0.00000E+00
         0.00000E+00
         0.00000E+00
         0.00000E+00
         0.00000E+00
         0.00000E+00
         0.00000E+00
         0.00000E+00
         0.00000E+00
         0.00000E+00
         0.00000E+00
         0.00000E+00
         0.00000E+00
         0.00000E+00
         0.00000E+00
         0.00000E+00
         0.00000E+00
         0.00000E+00
         0.00000E+00
         0.00000E+00
         0.00000E+00
         0.00000E+00
         0.00000E+00
         0.00000E+00
         0.00000E+00
         0.00000E+00
         0.00000E+00
         0.00000E+00
         0.00000E+00
         0.00000E+00
         0.00000E+00
         0.00000E+00
         0.00000E+00
         0.00000E+00
         0.00000E+00
         0.00000E+00
         0.00000E+00
         0.00000E+00
         0.00000E+00
         0.00000E+00
         0.00000E+00
         0.00000E+00
         0.00000E+00
         0.00000E+00
         0.00000E+00
         0.00000E+00
         0.00000E+00
         0.00000E+00
         0.00000E+00
         0.00000E+00
         0.00000E+00
         0.00000E+00
         0.00000E+00
         0.00000E+00
         0.00000E+00
         0.00000E+00
         0.00000E+00
         0.00000E+00
         0.00000E+00
         0.00000E+00
         0.00000E+00
         0.00000E+00
         0.00000E+00
         0.00000E+00
         0.00000E+00
         0.00000E+00
         0.00000E+00
         0.00000E+00
         0.00000E+00
         0.00000E+00
         0.00000E+00
         0.00000E+00
         0.00000E+00
         0.00000E+00
         0.00000E+00
         0.00000E+00
         0.00000E+00
         0.00000E+00
         0.00000E+00
         0.00000E+00
         0.00000E+00
         0.00000E+00
         0.00000E+00
         0.00000E+00
         0.00000E+00
         0.00000E+00
         0.00000E+00
         0.00000E+00
         0.00000E+00
         0.00000E+00
         0.00000E+00
         0.00000E+00
         0.00000E+00
         0.00000E+00
         0.00000E+00
         0.00000E+00
         0.00000E+00
         0.00000E+00
         0.00000E+00
         0.00000E+00
         0.00000E+00
         0.00000E+00
         0.00000E+00
         0.00000E+00
         0.00000E+00
         0.00000E+00
         0.00000E+00
         0.00000E+00
         0.00000E+00
         0.00000E+00
         0.00000E+00
         0.00000E+00
         0.00000E+00
         0.00000E+00
         0.00000E+00
         0.00000E+00
         0.00000E+00
         0.00000E+00
         0.00000E+00
         0.00000E+00
         0.00000E+00
         0.00000E+00
         0.00000E+00
         0.00000E+00
         0.00000E+00
         0.00000E+00
         0.00000E+00
         0.00000E+00
         0.00000E+00
         0.00000E+00
         0.00000E+00
         0.00000E+00
         0.00000E+00
         0.00000E+00
         0.00000E+00
         0.00000E+00
         0.00000E+00
         0.00000E+00
         0.00000E+00
         0.00000E+00
         0.00000E+00
         0.00000E+00
         0.00000E+00
         0.00000E+00
         0.00000E+00
         0.00000E+00
         0.00000E+00
         0.00000E+00
         0.00000E+00
         0.00000E+00
         0.00000E+00
         0.00000E+00
         0.00000E+00
         0.00000E+00
         0.00000E+00
         0.00000E+00
         0.00000E+00
         0.00000E+00
         0.00000E+00
         0.00000E+00
         0.00000E+00
         0.00000E+00
         0.00000E+00
         0.00000E+00
         0.00000E+00
         0.00000E+00
         0.00000E+00
         0.00000E+00
         0.00000E+00
         0.00000E+00
         0.00000E+00
         0.00000E+00
         0.00000E+00
         0.00000E+00
         0.00000E+00
         0.00000E+00
         0.00000E+00
         0.00000E+00
         0.00000E+00
         0.00000E+00
         0.00000E+00
         0.00000E+00
         0.00000E+00
         0.00000E+00
         0.00000E+00
         0.00000E+00
         0.00000E+00
         0.00000E+00
         0.00000E+00
         0.00000E+00
         0.00000E+00
         0.00000E+00
         0.00000E+00
         0.00000E+00
         0.00000E+00
         0.00000E+00
         0.00000E+00
         0.00000E+00
         0.00000E+00
         0.00000E+00
         0.00000E+00
         0.00000E+00
         0.00000E+00
         0.00000E+00
         0.00000E+00
         0.00000E+00
         0.00000E+00
         0.00000E+00
         0.00000E+00
         0.00000E+00
         0.00000E+00
         0.00000E+00
         0.00000E+00
         0.00000E+00
         0.00000E+00
         0.00000E+00
         0.00000E+00
         0.00000E+00
         0.00000E+00
         0.00000E+00
         0.00000E+00
         0.00000E+00
         0.00000E+00
         0.00000E+00
         0.00000E+00
         0.00000E+00
         0.00000E+00
         0.00000E+00
         0.00000E+00
         0.00000E+00
         0.00000E+00
         0.00000E+00
         0.00000E+00
         0.00000E+00
         0.00000E+00
         0.00000E+00
         0.00000E+00
         0.00000E+00
         0.00000E+00
         0.00000E+00
         0.00000E+00
         0.00000E+00
         0.00000E+00
         0.00000E+00
         0.00000E+00
         0.00000E+00
         0.00000E+00
         0.00000E+00
         0.00000E+00
         0.00000E+00
         0.00000E+00
         0.00000E+00
         0.00000E+00
         0.00000E+00
         0.00000E+00
         0.00000E+00
         0.00000E+00
         0.00000E+00
         0.00000E+00
         0.00000E+00
         0.00000E+00
         0.00000E+00
         0.00000E+00
         0.00000E+00
         0.00000E+00
         0.00000E+00
         0.00000E+00
         0.00000E+00
         0.00000E+00
         0.00000E+00
         0.00000E+00
         0.00000E+00
         0.00000E+00
         0.00000E+00
         0.00000E+00
         0.00000E+00
         0.00000E+00
         0.00000E+00
         0.00000E+00
         0.00000E+00
         0.00000E+00
         0.00000E+00
         0.00000E+00
         0.00000E+00
         0.00000E+00
         0.00000E+00
         0.00000E+00
         0.00000E+00
         0.00000E+00
         0.00000E+00
         0.00000E+00
         0.00000E+00
         0.00000E+00
         0.00000E+00
         0.00000E+00
         0.00000E+00
         0.00000E+00
         0.00000E+00
         0.00000E+00
         0.00000E+00
         0.00000E+00
         0.00000E+00
         0.00000E+00
         0.00000E+00
         0.00000E+00
         0.00000E+00
         0.00000E+00
         0.00000E+00
         0.00000E+00
         0.00000E+00
         0.00000E+00
         0.00000E+00
         0.00000E+00
         0.00000E+00
         0.00000E+00
         0.00000E+00
         0.00000E+00
         0.00000E+00
         0.00000E+00
         0.00000E+00
         0.00000E+00
         0.00000E+00
         0.00000E+00
         0.00000E+00
         0.00000E+00
         0.00000E+00
         0.00000E+00
         0.00000E+00
         0.00000E+00
         0.00000E+00
         0.00000E+00
         0.00000E+00
         0.00000E+00
         0.00000E+00
         0.00000E+00
         0.00000E+00
         0.00000E+00
         0.00000E+00
         0.00000E+00
         0.00000E+00
         0.00000E+00
         0.00000E+00
         0.00000E+00
         0.00000E+00
         0.00000E+00
         0.00000E+00
         0.00000E+00
         0.00000E+00
         0.00000E+00
         0.00000E+00
         0.00000E+00
         0.00000E+00
         0.00000E+00
         0.00000E+00
         0.00000E+00
         0.00000E+00
         0.00000E+00
         0.00000E+00
         0.00000E+00
         0.00000E+00
         0.00000E+00
         0.00000E+00
         0.00000E+00
         0.00000E+00
         0.00000E+00
         0.00000E+00
         0.00000E+00
         0.00000E+00
         0.00000E+00
         0.00000E+00
         0.00000E+00
         0.00000E+00
         0.00000E+00
         0.00000E+00
         0.00000E+00
         0.00000E+00
         0.00000E+00
         0.00000E+00
         0.00000E+00
         0.00000E+00
         0.00000E+00
         0.00000E+00
         0.00000E+00
         0.00000E+00
         0.00000E+00
         0.00000E+00
         0.00000E+00
         0.00000E+00
         0.00000E+00
         0.00000E+00
         0.00000E+00
         0.00000E+00
         0.00000E+00
         0.00000E+00
         0.00000E+00
         0.00000E+00
         0.00000E+00
         0.00000E+00
         0.00000E+00
         0.00000E+00
         0.00000E+00
         0.00000E+00
         0.00000E+00
         0.00000E+00
         0.00000E+00
         0.00000E+00
         0.00000E+00
         0.00000E+00
         0.00000E+00
         0.00000E+00
         0.00000E+00
         0.00000E+00
         0.00000E+00
         0.00000E+00
         0.00000E+00
         0.00000E+00
         0.00000E+00
         0.00000E+00
         0.00000E+00
         0.00000E+00
         0.00000E+00
         0.00000E+00
         0.00000E+00
         0.00000E+00
         0.00000E+00
         0.00000E+00
         0.00000E+00
         0.00000E+00
         0.00000E+00
         0.00000E+00
         0.00000E+00
         0.00000E+00
         0.00000E+00
         0.00000E+00
         0.00000E+00
         0.00000E+00
         0.00000E+00
         0.00000E+00
         0.00000E+00
         0.00000E+00
         0.00000E+00
         0.00000E+00
         0.00000E+00
         0.00000E+00
         0.00000E+00
         0.00000E+00
         0.00000E+00
         0.00000E+00
         0.00000E+00
         0.00000E+00
         0.00000E+00
         0.00000E+00
         0.00000E+00
         0.00000E+00
         0.00000E+00
         0.00000E+00
         0.00000E+00
         0.00000E+00
         0.00000E+00
         0.00000E+00
         0.00000E+00
         0.00000E+00
         0.00000E+00
         0.00000E+00
         0.00000E+00
         0.00000E+00
         0.00000E+00
         0.00000E+00
         0.00000E+00
         0.00000E+00
         0.00000E+00
         0.00000E+00
         0.00000E+00
         0.00000E+00
         0.00000E+00
         0.00000E+00
         0.00000E+00
         0.00000E+00
         0.00000E+00
         0.00000E+00
         0.00000E+00
         0.00000E+00
         0.00000E+00
         0.00000E+00
         0.00000E+00
         0.00000E+00
         0.00000E+00
         0.00000E+00
         0.00000E+00
         0.00000E+00
         0.00000E+00
         0.00000E+00
         0.00000E+00
         0.00000E+00
         0.00000E+00
         0.00000E+00
         0.00000E+00
         0.00000E+00
         0.00000E+00
         0.00000E+00
         0.00000E+00
         0.00000E+00
         0.00000E+00
         0.00000E+00
         0.00000E+00
         0.00000E+00
         0.00000E+00
         0.00000E+00
         0.00000E+00
         0.00000E+00
         0.00000E+00
         0.00000E+00
         0.00000E+00
         0.00000E+00
         0.00000E+00
         0.00000E+00
         0.00000E+00
         0.00000E+00
         0.00000E+00
         0.00000E+00
         0.00000E+00
         0.00000E+00
         0.00000E+00
         0.00000E+00
         0.00000E+00
         0.00000E+00
         0.00000E+00
         0.00000E+00
         0.00000E+00
         0.00000E+00
         0.00000E+00
         0.00000E+00
         0.00000E+00
         0.00000E+00
         0.00000E+00
         0.00000E+00
         0.00000E+00
         0.00000E+00
         0.00000E+00
         0.00000E+00
         0.00000E+00
         0.00000E+00
         0.00000E+00
         0.00000E+00
         0.00000E+00
         0.00000E+00
         0.00000E+00
         0.00000E+00
         0.00000E+00
         0.00000E+00
         0.00000E+00
         0.00000E+00
         0.00000E+00
         0.00000E+00
         0.00000E+00
         0.00000E+00
         0.00000E+00
         0.00000E+00
         0.00000E+00
         0.00000E+00
         0.00000E+00
         0.00000E+00
         0.00000E+00
         0.00000E+00
         0.00000E+00
         0.00000E+00
         0.00000E+00
         0.00000E+00
         0.00000E+00
         0.00000E+00
         0.00000E+00
         0.00000E+00
         0.00000E+00
         0.00000E+00
         0.00000E+00
         0.00000E+00
         0.00000E+00
         0.00000E+00
         0.00000E+00
         0.00000E+00
         0.00000E+00
         0.00000E+00
         0.00000E+00
         0.00000E+00
         0.00000E+00
         0.00000E+00
         0.00000E+00
         0.00000E+00
         0.00000E+00
         0.00000E+00
         0.00000E+00
         0.00000E+00
         0.00000E+00
         0.00000E+00
         0.00000E+00
         0.00000E+00
         0.00000E+00
         0.00000E+00
         0.00000E+00
         0.00000E+00
         0.00000E+00
         0.00000E+00
         0.00000E+00
         0.00000E+00
         0.00000E+00
         0.00000E+00
         0.00000E+00
         0.00000E+00
         0.00000E+00
         0.00000E+00
         0.00000E+00
         0.00000E+00
         0.00000E+00
         0.00000E+00
         0.00000E+00
         0.00000E+00
         0.00000E+00
         0.00000E+00
         0.00000E+00
         0.00000E+00
         0.00000E+00
         0.00000E+00
         0.00000E+00
         0.00000E+00
         0.00000E+00
         0.00000E+00
         0.00000E+00
         0.00000E+00
         0.00000E+00
         0.00000E+00
         0.00000E+00
         0.00000E+00
         0.00000E+00
         0.00000E+00
         0.00000E+00
         0.00000E+00
         0.00000E+00
         0.00000E+00
         0.00000E+00
         0.00000E+00
         0.00000E+00
         0.00000E+00
         0.00000E+00
         0.00000E+00
         0.00000E+00
         0.00000E+00
         0.00000E+00
         0.00000E+00
         0.00000E+00
         0.00000E+00
         0.00000E+00
         0.00000E+00
         0.00000E+00
         0.00000E+00
         0.00000E+00
         0.00000E+00
         0.00000E+00
         0.00000E+00
         0.00000E+00
         0.00000E+00
         0.00000E+00
         0.00000E+00
         0.00000E+00
         0.00000E+00
         0.00000E+00
         0.00000E+00
         0.00000E+00
         0.00000E+00
         0.00000E+00
         0.00000E+00
         0.00000E+00
         0.00000E+00
         0.00000E+00
         0.00000E+00
         0.00000E+00
         0.00000E+00
         0.00000E+00
         0.00000E+00
         0.00000E+00
         0.00000E+00
         0.00000E+00
         0.00000E+00
         0.00000E+00
         0.00000E+00
         0.00000E+00
         0.00000E+00
         0.00000E+00
         0.00000E+00
         0.00000E+00
         0.00000E+00
         0.00000E+00
         0.00000E+00
         0.00000E+00
         0.00000E+00
         0.00000E+00
         0.00000E+00
         0.00000E+00
         0.00000E+00
         0.00000E+00
         0.00000E+00
         0.00000E+00
         0.00000E+00
         0.00000E+00
         0.00000E+00
         0.00000E+00
         0.00000E+00
         0.00000E+00
         0.00000E+00
         0.00000E+00
         0.00000E+00
         0.00000E+00
         0.00000E+00
         0.00000E+00
         0.00000E+00
         0.00000E+00
         0.00000E+00
         0.00000E+00
         0.00000E+00
         0.00000E+00
         0.00000E+00
         0.00000E+00
         0.00000E+00
         0.00000E+00
         0.00000E+00
         0.00000E+00
         0.00000E+00
         0.00000E+00
         0.00000E+00
         0.00000E+00
         0.00000E+00
         0.00000E+00
         0.00000E+00
         0.00000E+00
         0.00000E+00
         0.00000E+00
         0.00000E+00
         0.00000E+00
         0.00000E+00
         0.00000E+00
         0.00000E+00
         0.00000E+00
         0.00000E+00
         0.00000E+00
         0.00000E+00
         0.00000E+00
         0.00000E+00
         0.00000E+00
         0.00000E+00
         0.00000E+00
         0.00000E+00
         0.00000E+00
         0.00000E+00
         0.00000E+00
         0.00000E+00
         0.00000E+00
         0.00000E+00
         0.00000E+00
         0.00000E+00
         0.00000E+00
         0.00000E+00
         0.00000E+00
         0.00000E+00
         0.00000E+00
         0.00000E+00
         0.00000E+00
         0.00000E+00
         0.00000E+00
         0.00000E+00
         0.00000E+00
         0.00000E+00
         0.00000E+00
         0.00000E+00
         0.00000E+00
         0.00000E+00
         0.00000E+00
         0.00000E+00
         0.00000E+00
         0.00000E+00
         0.00000E+00
         0.00000E+00
         0.00000E+00
         0.00000E+00
         0.00000E+00
         0.00000E+00
         0.00000E+00
         0.00000E+00
         0.00000E+00
         0.00000E+00
         0.00000E+00
         0.00000E+00
         0.00000E+00
         0.00000E+00
         0.00000E+00
         0.00000E+00
         0.00000E+00
         0.00000E+00
         0.00000E+00
         0.00000E+00
         0.00000E+00
         0.00000E+00
         0.00000E+00
         0.00000E+00
         0.00000E+00
         0.00000E+00
         0.00000E+00
         0.00000E+00
         0.00000E+00
         0.00000E+00
         0.00000E+00
         0.00000E+00
         0.00000E+00
         0.00000E+00
         0.00000E+00
         0.00000E+00
         0.00000E+00
         0.00000E+00
         0.00000E+00
         0.00000E+00
         0.00000E+00
         0.00000E+00
         0.00000E+00
         0.00000E+00
         0.00000E+00
         0.00000E+00
         0.00000E+00
         0.00000E+00
         0.00000E+00
         0.00000E+00
         0.00000E+00
         0.00000E+00
         0.00000E+00
         0.00000E+00
         0.00000E+00
         0.00000E+00
         0.00000E+00
         0.00000E+00
         0.00000E+00
         0.00000E+00
         0.00000E+00
         0.00000E+00
         0.00000E+00
         0.00000E+00
         0.00000E+00
         0.00000E+00
         0.00000E+00
         0.00000E+00
         0.00000E+00
         0.00000E+00
         0.00000E+00
         0.00000E+00
         0.00000E+00
         0.00000E+00
         0.00000E+00
         0.00000E+00
         0.00000E+00
         0.00000E+00
         0.00000E+00
         0.00000E+00
         0.00000E+00
         0.00000E+00
         0.00000E+00
         0.00000E+00
         0.00000E+00
         0.00000E+00
         0.00000E+00
         0.00000E+00
         0.00000E+00
         0.00000E+00
         0.00000E+00
         0.00000E+00
         0.00000E+00
         0.00000E+00
         0.00000E+00
         0.00000E+00
         0.00000E+00
         0.00000E+00
         0.00000E+00
         0.00000E+00
         0.00000E+00
         0.00000E+00
         0.00000E+00
         0.00000E+00
         0.00000E+00
         0.00000E+00
         0.00000E+00
         0.00000E+00
         0.00000E+00
         0.00000E+00
         0.00000E+00
         0.00000E+00
         0.00000E+00
         0.00000E+00
         0.00000E+00
         0.00000E+00
         0.00000E+00
         0.00000E+00
         0.00000E+00
         0.00000E+00
         0.00000E+00
         0.00000E+00
         0.00000E+00
         0.00000E+00
         0.00000E+00
         0.00000E+00
         0.00000E+00
         0.00000E+00
         0.00000E+00
         0.00000E+00
         0.00000E+00
         0.00000E+00
         0.00000E+00
         0.00000E+00
         0.00000E+00
         0.00000E+00
         0.00000E+00
         0.00000E+00
         0.00000E+00
         0.00000E+00
         0.00000E+00
         0.00000E+00
         0.00000E+00
         0.00000E+00
         0.00000E+00
         0.00000E+00
         0.00000E+00
         0.00000E+00
         0.00000E+00
         0.00000E+00
         0.00000E+00
         0.00000E+00
         0.00000E+00
         0.00000E+00
         0.00000E+00
         0.00000E+00
         0.00000E+00
         0.00000E+00
         0.00000E+00
         0.00000E+00
         0.00000E+00
         0.00000E+00
         0.00000E+00
         0.00000E+00
         0.00000E+00
         0.00000E+00
         0.00000E+00
         0.00000E+00
         0.00000E+00
         0.00000E+00
         0.00000E+00
         0.00000E+00
         0.00000E+00
         0.00000E+00
         0.00000E+00
         0.00000E+00
         0.00000E+00
         0.00000E+00
         0.00000E+00
         0.00000E+00
         0.00000E+00
         0.00000E+00
         0.00000E+00
         0.00000E+00
         0.00000E+00
         0.00000E+00
         0.00000E+00
         0.00000E+00
         0.00000E+00
         0.00000E+00
         0.00000E+00
         0.00000E+00
         0.00000E+00
         0.00000E+00
         0.00000E+00
         0.00000E+00
         0.00000E+00
         0.00000E+00
         0.00000E+00
         0.00000E+00
         0.00000E+00
         0.00000E+00
         0.00000E+00
         0.00000E+00
         0.00000E+00
         0.00000E+00
         0.00000E+00
         0.00000E+00
         0.00000E+00
         0.00000E+00
         0.00000E+00
         0.00000E+00
         0.00000E+00
         0.00000E+00
         0.00000E+00
         0.00000E+00
         0.00000E+00
         0.00000E+00
         0.00000E+00
         0.00000E+00
         0.00000E+00
         0.00000E+00
         0.00000E+00
         0.00000E+00
         0.00000E+00
         0.00000E+00
         0.00000E+00
         0.00000E+00
         0.00000E+00
         0.00000E+00
         0.00000E+00
         0.00000E+00
         0.00000E+00
         0.00000E+00
         0.00000E+00
         0.00000E+00
         0.00000E+00
         0.00000E+00
         0.00000E+00
         0.00000E+00
         0.00000E+00
         0.00000E+00
         0.00000E+00
         0.00000E+00
         0.00000E+00
         0.00000E+00
         0.00000E+00
         0.00000E+00
         0.00000E+00
         0.00000E+00
         0.00000E+00
         0.00000E+00
         0.00000E+00
         0.00000E+00
         0.00000E+00
         0.00000E+00
         0.00000E+00
         0.00000E+00
         0.00000E+00
         0.00000E+00
         0.00000E+00
         0.00000E+00
         0.00000E+00
         0.00000E+00
         0.00000E+00
         0.00000E+00
         0.00000E+00
         0.00000E+00
         0.00000E+00
         0.00000E+00
         0.00000E+00
         0.00000E+00
         0.00000E+00
         0.00000E+00
         0.00000E+00
         0.00000E+00
         0.00000E+00
         0.00000E+00
         0.00000E+00
         0.00000E+00
         0.00000E+00
         0.00000E+00
         0.00000E+00
         0.00000E+00
         0.00000E+00
         0.00000E+00
         0.00000E+00
         0.00000E+00
         0.00000E+00
         0.00000E+00
         0.00000E+00
         0.00000E+00
         0.00000E+00
         0.00000E+00
         0.00000E+00
         0.00000E+00
         0.00000E+00
         0.00000E+00
         0.00000E+00
         0.00000E+00
         0.00000E+00
         0.00000E+00
         0.00000E+00
         0.00000E+00
         0.00000E+00
         0.00000E+00
         0.00000E+00
         0.00000E+00
         0.00000E+00
         0.00000E+00
         0.00000E+00
         0.00000E+00
         0.00000E+00
         0.00000E+00
         0.00000E+00
         0.00000E+00
         0.00000E+00
         0.00000E+00
         0.00000E+00
         0.00000E+00
         0.00000E+00
         0.00000E+00
         0.00000E+00
         0.00000E+00
         0.00000E+00
         0.00000E+00
         0.00000E+00
         0.00000E+00
         0.00000E+00
         0.00000E+00
         0.00000E+00
         0.00000E+00
         0.00000E+00
         0.00000E+00
         0.00000E+00
         0.00000E+00
         0.00000E+00
         0.00000E+00
         0.00000E+00
         0.00000E+00
         0.00000E+00
         0.00000E+00
         0.00000E+00
         0.00000E+00
         0.00000E+00
         0.00000E+00
         0.00000E+00
         0.00000E+00
         0.00000E+00
         0.00000E+00
         0.00000E+00
         0.00000E+00
         0.00000E+00
         0.00000E+00
         0.00000E+00
         0.00000E+00
         0.00000E+00
         0.00000E+00
         0.00000E+00
         0.00000E+00
         0.00000E+00
         0.00000E+00
         0.00000E+00
         0.00000E+00
         0.00000E+00
         0.00000E+00
         0.00000E+00
         0.00000E+00
         0.00000E+00
         0.00000E+00
         0.00000E+00
         0.00000E+00
         0.00000E+00
         0.00000E+00
         0.00000E+00
         0.00000E+00
         0.00000E+00
         0.00000E+00
         0.00000E+00
         0.00000E+00
         0.00000E+00
         0.00000E+00
         0.00000E+00
         0.00000E+00
         0.00000E+00
         0.00000E+00
         0.00000E+00
         0.00000E+00
         0.00000E+00
         0.00000E+00
         0.00000E+00
         0.00000E+00
         0.00000E+00
         0.00000E+00
         0.00000E+00
         0.00000E+00
         0.00000E+00
         0.00000E+00
         0.00000E+00
         0.00000E+00
         0.00000E+00
         0.00000E+00
         0.00000E+00
         0.00000E+00
         0.00000E+00
         0.00000E+00
         0.00000E+00
         0.00000E+00
         0.00000E+00
         0.00000E+00
         0.00000E+00
         0.00000E+00
         0.00000E+00
         0.00000E+00
         0.00000E+00
         0.00000E+00
         0.00000E+00
         0.00000E+00
         0.00000E+00
         0.00000E+00
         0.00000E+00
         0.00000E+00
         0.00000E+00
         0.00000E+00
         0.00000E+00
         0.00000E+00
         0.00000E+00
         0.00000E+00
         0.00000E+00
         0.00000E+00
         0.00000E+00
         0.00000E+00
         0.00000E+00
         0.00000E+00
         0.00000E+00
         0.00000E+00
         0.00000E+00
         0.00000E+00
         0.00000E+00
         0.00000E+00
         0.00000E+00
         0.00000E+00
         0.00000E+00
         0.00000E+00
         0.00000E+00
         0.00000E+00
         0.00000E+00
         0.00000E+00
         0.00000E+00
         0.00000E+00
         0.00000E+00
         0.00000E+00
         0.00000E+00
         0.00000E+00
         0.00000E+00
         0.00000E+00
         0.00000E+00
         0.00000E+00
         0.00000E+00
         0.00000E+00
         0.00000E+00
         0.00000E+00
         0.00000E+00
         0.00000E+00
         0.00000E+00
         0.00000E+00
         0.00000E+00
         0.00000E+00
         0.00000E+00
         0.00000E+00
         0.00000E+00
         0.00000E+00
         0.00000E+00
         0.00000E+00
         0.00000E+00
         0.00000E+00
         0.00000E+00
         0.00000E+00
         0.00000E+00
         0.00000E+00
         0.00000E+00
         0.00000E+00
         0.00000E+00
         0.00000E+00
         0.00000E+00
         0.00000E+00
         0.00000E+00
         0.00000E+00
         0.00000E+00
         0.00000E+00
         0.00000E+00
         0.00000E+00
         0.00000E+00
         0.00000E+00
         0.00000E+00
         0.00000E+00
         0.00000E+00
         0.00000E+00
         0.00000E+00
         0.00000E+00
         0.00000E+00
         0.00000E+00
         0.00000E+00
         0.00000E+00
         0.00000E+00
         0.00000E+00
         0.00000E+00
         0.00000E+00
         0.00000E+00
         0.00000E+00
         0.00000E+00
         0.00000E+00
         0.00000E+00
         0.00000E+00
         0.00000E+00
         0.00000E+00
         0.00000E+00
         0.00000E+00
         0.00000E+00
         0.00000E+00
         0.00000E+00
         0.00000E+00
         0.00000E+00
         0.00000E+00
         0.00000E+00
         0.00000E+00
         0.00000E+00
         0.00000E+00
         0.00000E+00
         0.00000E+00
         0.00000E+00
         0.00000E+00
         0.00000E+00
         0.00000E+00
         0.00000E+00
         0.00000E+00
         0.00000E+00
         0.00000E+00
         0.00000E+00
         0.00000E+00
         0.00000E+00
         0.00000E+00
         0.00000E+00
         0.00000E+00
         0.00000E+00
         0.00000E+00
         0.00000E+00
         0.00000E+00
         0.00000E+00
         0.00000E+00
         0.00000E+00
         0.00000E+00
         0.00000E+00
         0.00000E+00
         0.00000E+00
         0.00000E+00
         0.00000E+00
         0.00000E+00
         0.00000E+00
         0.00000E+00
         0.00000E+00
         0.00000E+00
         0.00000E+00
         0.00000E+00
         0.00000E+00
         0.00000E+00
         0.00000E+00
         0.00000E+00
         0.00000E+00
         0.00000E+00
         0.00000E+00
         0.00000E+00
         0.00000E+00
         0.00000E+00
         0.00000E+00
         0.00000E+00
         0.00000E+00
         0.00000E+00
         0.00000E+00
         0.00000E+00
         0.00000E+00
         0.00000E+00
         0.00000E+00
         0.00000E+00
         0.00000E+00
         0.00000E+00
         0.00000E+00
         0.00000E+00
         0.00000E+00
         0.00000E+00
         0.00000E+00
         0.00000E+00
         0.00000E+00
         0.00000E+00
         0.00000E+00
         0.00000E+00
         0.00000E+00
         0.00000E+00
         0.00000E+00
         0.00000E+00
         0.00000E+00
         0.00000E+00
         0.00000E+00
         0.00000E+00
         0.00000E+00
         0.00000E+00
         0.00000E+00
         0.00000E+00
         0.00000E+00
         0.00000E+00
         0.00000E+00
         0.00000E+00
         0.00000E+00
         0.00000E+00
         0.00000E+00
         0.00000E+00
         0.00000E+00
         0.00000E+00
         0.00000E+00
         0.00000E+00
         0.00000E+00
         0.00000E+00
         0.00000E+00
         0.00000E+00
         0.00000E+00
  
SCALARS                 displacement_z  double 1
LOOKUP_TABLE default
         0.00000E+00
         0.00000E+00
         0.00000E+00
         0.00000E+00
         0.00000E+00
         0.00000E+00
         0.00000E+00
         0.00000E+00
         0.00000E+00
         0.00000E+00
         0.00000E+00
         0.00000E+00
         0.00000E+00
         0.00000E+00
         0.00000E+00
         0.00000E+00
         0.00000E+00
         0.00000E+00
         0.00000E+00
         0.00000E+00
         0.00000E+00
         0.00000E+00
         0.00000E+00
         0.00000E+00
         0.00000E+00
         0.00000E+00
         0.00000E+00
         0.00000E+00
         0.00000E+00
         0.00000E+00
         0.00000E+00
         0.00000E+00
         0.00000E+00
         0.00000E+00
         0.00000E+00
         0.00000E+00
         0.00000E+00
         0.00000E+00
         0.00000E+00
         0.00000E+00
         0.00000E+00
         0.00000E+00
         0.00000E+00
         0.00000E+00
         0.00000E+00
         0.00000E+00
         0.00000E+00
         0.00000E+00
         0.00000E+00
         0.00000E+00
         0.00000E+00
         0.00000E+00
         0.00000E+00
         0.00000E+00
         0.00000E+00
         0.00000E+00
         0.00000E+00
         0.00000E+00
         0.00000E+00
         0.00000E+00
         0.00000E+00
         0.00000E+00
         0.00000E+00
         0.00000E+00
         0.00000E+00
         0.00000E+00
         0.00000E+00
         0.00000E+00
         0.00000E+00
         0.00000E+00
         0.00000E+00
         0.00000E+00
         0.00000E+00
         0.00000E+00
         0.00000E+00
         0.00000E+00
         0.00000E+00
         0.00000E+00
         0.00000E+00
         0.00000E+00
         0.00000E+00
         0.00000E+00
         0.00000E+00
         0.00000E+00
         0.00000E+00
         0.00000E+00
         0.00000E+00
         0.00000E+00
         0.00000E+00
         0.00000E+00
         0.00000E+00
         0.00000E+00
         0.00000E+00
         0.00000E+00
         0.00000E+00
         0.00000E+00
         0.00000E+00
         0.00000E+00
         0.00000E+00
         0.00000E+00
         0.00000E+00
         0.00000E+00
         0.00000E+00
         0.00000E+00
         0.00000E+00
         0.00000E+00
         0.00000E+00
         0.00000E+00
         0.00000E+00
         0.00000E+00
         0.00000E+00
         0.00000E+00
         0.00000E+00
         0.00000E+00
         0.00000E+00
         0.00000E+00
         0.00000E+00
         0.00000E+00
         0.00000E+00
         0.00000E+00
         0.00000E+00
         0.00000E+00
         0.00000E+00
         0.00000E+00
         0.00000E+00
         0.00000E+00
         0.00000E+00
         0.00000E+00
         0.00000E+00
         0.00000E+00
         0.00000E+00
         0.00000E+00
         0.00000E+00
         0.00000E+00
         0.00000E+00
         0.00000E+00
         0.00000E+00
         0.00000E+00
         0.00000E+00
         0.00000E+00
         0.00000E+00
         0.00000E+00
         0.00000E+00
         0.00000E+00
         0.00000E+00
         0.00000E+00
         0.00000E+00
         0.00000E+00
         0.00000E+00
         0.00000E+00
         0.00000E+00
         0.00000E+00
         0.00000E+00
         0.00000E+00
         0.00000E+00
         0.00000E+00
         0.00000E+00
         0.00000E+00
         0.00000E+00
         0.00000E+00
         0.00000E+00
         0.00000E+00
         0.00000E+00
         0.00000E+00
         0.00000E+00
         0.00000E+00
         0.00000E+00
         0.00000E+00
         0.00000E+00
         0.00000E+00
         0.00000E+00
         0.00000E+00
         0.00000E+00
         0.00000E+00
         0.00000E+00
         0.00000E+00
         0.00000E+00
         0.00000E+00
         0.00000E+00
         0.00000E+00
         0.00000E+00
         0.00000E+00
         0.00000E+00
         0.00000E+00
         0.00000E+00
         0.00000E+00
         0.00000E+00
         0.00000E+00
         0.00000E+00
         0.00000E+00
         0.00000E+00
         0.00000E+00
         0.00000E+00
         0.00000E+00
         0.00000E+00
         0.00000E+00
         0.00000E+00
         0.00000E+00
         0.00000E+00
         0.00000E+00
         0.00000E+00
         0.00000E+00
         0.00000E+00
         0.00000E+00
         0.00000E+00
         0.00000E+00
         0.00000E+00
         0.00000E+00
         0.00000E+00
         0.00000E+00
         0.00000E+00
         0.00000E+00
         0.00000E+00
         0.00000E+00
         0.00000E+00
         0.00000E+00
         0.00000E+00
         0.00000E+00
         0.00000E+00
         0.00000E+00
         0.00000E+00
         0.00000E+00
         0.00000E+00
         0.00000E+00
         0.00000E+00
         0.00000E+00
         0.00000E+00
         0.00000E+00
         0.00000E+00
         0.00000E+00
         0.00000E+00
         0.00000E+00
         0.00000E+00
         0.00000E+00
         0.00000E+00
         0.00000E+00
         0.00000E+00
         0.00000E+00
         0.00000E+00
         0.00000E+00
         0.00000E+00
         0.00000E+00
         0.00000E+00
         0.00000E+00
         0.00000E+00
         0.00000E+00
         0.00000E+00
         0.00000E+00
         0.00000E+00
         0.00000E+00
         0.00000E+00
         0.00000E+00
         0.00000E+00
         0.00000E+00
         0.00000E+00
         0.00000E+00
         0.00000E+00
         0.00000E+00
         0.00000E+00
         0.00000E+00
         0.00000E+00
         0.00000E+00
         0.00000E+00
         0.00000E+00
         0.00000E+00
         0.00000E+00
         0.00000E+00
         0.00000E+00
         0.00000E+00
         0.00000E+00
         0.00000E+00
         0.00000E+00
         0.00000E+00
         0.00000E+00
         0.00000E+00
         0.00000E+00
         0.00000E+00
         0.00000E+00
         0.00000E+00
         0.00000E+00
         0.00000E+00
         0.00000E+00
         0.00000E+00
         0.00000E+00
         0.00000E+00
         0.00000E+00
         0.00000E+00
         0.00000E+00
         0.00000E+00
         0.00000E+00
         0.00000E+00
         0.00000E+00
         0.00000E+00
         0.00000E+00
         0.00000E+00
         0.00000E+00
         0.00000E+00
         0.00000E+00
         0.00000E+00
         0.00000E+00
         0.00000E+00
         0.00000E+00
         0.00000E+00
         0.00000E+00
         0.00000E+00
         0.00000E+00
         0.00000E+00
         0.00000E+00
         0.00000E+00
         0.00000E+00
         0.00000E+00
         0.00000E+00
         0.00000E+00
         0.00000E+00
         0.00000E+00
         0.00000E+00
         0.00000E+00
         0.00000E+00
         0.00000E+00
         0.00000E+00
         0.00000E+00
         0.00000E+00
         0.00000E+00
         0.00000E+00
         0.00000E+00
         0.00000E+00
         0.00000E+00
         0.00000E+00
         0.00000E+00
         0.00000E+00
         0.00000E+00
         0.00000E+00
         0.00000E+00
         0.00000E+00
         0.00000E+00
         0.00000E+00
         0.00000E+00
         0.00000E+00
         0.00000E+00
         0.00000E+00
         0.00000E+00
         0.00000E+00
         0.00000E+00
         0.00000E+00
         0.00000E+00
         0.00000E+00
         0.00000E+00
         0.00000E+00
         0.00000E+00
         0.00000E+00
         0.00000E+00
         0.00000E+00
         0.00000E+00
         0.00000E+00
         0.00000E+00
         0.00000E+00
         0.00000E+00
         0.00000E+00
         0.00000E+00
         0.00000E+00
         0.00000E+00
         0.00000E+00
         0.00000E+00
         0.00000E+00
         0.00000E+00
         0.00000E+00
         0.00000E+00
         0.00000E+00
         0.00000E+00
         0.00000E+00
         0.00000E+00
         0.00000E+00
         0.00000E+00
         0.00000E+00
         0.00000E+00
         0.00000E+00
         0.00000E+00
         0.00000E+00
         0.00000E+00
         0.00000E+00
         0.00000E+00
         0.00000E+00
         0.00000E+00
         0.00000E+00
         0.00000E+00
         0.00000E+00
         0.00000E+00
         0.00000E+00
         0.00000E+00
         0.00000E+00
         0.00000E+00
         0.00000E+00
         0.00000E+00
         0.00000E+00
         0.00000E+00
         0.00000E+00
         0.00000E+00
         0.00000E+00
         0.00000E+00
         0.00000E+00
         0.00000E+00
         0.00000E+00
         0.00000E+00
         0.00000E+00
         0.00000E+00
         0.00000E+00
         0.00000E+00
         0.00000E+00
         0.00000E+00
         0.00000E+00
         0.00000E+00
         0.00000E+00
         0.00000E+00
         0.00000E+00
         0.00000E+00
         0.00000E+00
         0.00000E+00
         0.00000E+00
         0.00000E+00
         0.00000E+00
         0.00000E+00
         0.00000E+00
         0.00000E+00
         0.00000E+00
         0.00000E+00
         0.00000E+00
         0.00000E+00
         0.00000E+00
         0.00000E+00
         0.00000E+00
         0.00000E+00
         0.00000E+00
         0.00000E+00
         0.00000E+00
         0.00000E+00
         0.00000E+00
         0.00000E+00
         0.00000E+00
         0.00000E+00
         0.00000E+00
         0.00000E+00
         0.00000E+00
         0.00000E+00
         0.00000E+00
         0.00000E+00
         0.00000E+00
         0.00000E+00
         0.00000E+00
         0.00000E+00
         0.00000E+00
         0.00000E+00
         0.00000E+00
         0.00000E+00
         0.00000E+00
         0.00000E+00
         0.00000E+00
         0.00000E+00
         0.00000E+00
         0.00000E+00
         0.00000E+00
         0.00000E+00
         0.00000E+00
         0.00000E+00
         0.00000E+00
         0.00000E+00
         0.00000E+00
         0.00000E+00
         0.00000E+00
         0.00000E+00
         0.00000E+00
         0.00000E+00
         0.00000E+00
         0.00000E+00
         0.00000E+00
         0.00000E+00
         0.00000E+00
         0.00000E+00
         0.00000E+00
         0.00000E+00
         0.00000E+00
         0.00000E+00
         0.00000E+00
         0.00000E+00
         0.00000E+00
         0.00000E+00
         0.00000E+00
         0.00000E+00
         0.00000E+00
         0.00000E+00
         0.00000E+00
         0.00000E+00
         0.00000E+00
         0.00000E+00
         0.00000E+00
         0.00000E+00
         0.00000E+00
         0.00000E+00
         0.00000E+00
         0.00000E+00
         0.00000E+00
         0.00000E+00
         0.00000E+00
         0.00000E+00
         0.00000E+00
         0.00000E+00
         0.00000E+00
         0.00000E+00
         0.00000E+00
         0.00000E+00
         0.00000E+00
         0.00000E+00
         0.00000E+00
         0.00000E+00
         0.00000E+00
         0.00000E+00
         0.00000E+00
         0.00000E+00
         0.00000E+00
         0.00000E+00
         0.00000E+00
         0.00000E+00
         0.00000E+00
         0.00000E+00
         0.00000E+00
         0.00000E+00
         0.00000E+00
         0.00000E+00
         0.00000E+00
         0.00000E+00
         0.00000E+00
         0.00000E+00
         0.00000E+00
         0.00000E+00
         0.00000E+00
         0.00000E+00
         0.00000E+00
         0.00000E+00
         0.00000E+00
         0.00000E+00
         0.00000E+00
         0.00000E+00
         0.00000E+00
         0.00000E+00
         0.00000E+00
         0.00000E+00
         0.00000E+00
         0.00000E+00
         0.00000E+00
         0.00000E+00
         0.00000E+00
         0.00000E+00
         0.00000E+00
         0.00000E+00
         0.00000E+00
         0.00000E+00
         0.00000E+00
         0.00000E+00
         0.00000E+00
         0.00000E+00
         0.00000E+00
         0.00000E+00
         0.00000E+00
         0.00000E+00
         0.00000E+00
         0.00000E+00
         0.00000E+00
         0.00000E+00
         0.00000E+00
         0.00000E+00
         0.00000E+00
         0.00000E+00
         0.00000E+00
         0.00000E+00
         0.00000E+00
         0.00000E+00
         0.00000E+00
         0.00000E+00
         0.00000E+00
         0.00000E+00
         0.00000E+00
         0.00000E+00
         0.00000E+00
         0.00000E+00
         0.00000E+00
         0.00000E+00
         0.00000E+00
         0.00000E+00
         0.00000E+00
         0.00000E+00
         0.00000E+00
         0.00000E+00
         0.00000E+00
         0.00000E+00
         0.00000E+00
         0.00000E+00
         0.00000E+00
         0.00000E+00
         0.00000E+00
         0.00000E+00
         0.00000E+00
         0.00000E+00
         0.00000E+00
         0.00000E+00
         0.00000E+00
         0.00000E+00
         0.00000E+00
         0.00000E+00
         0.00000E+00
         0.00000E+00
         0.00000E+00
         0.00000E+00
         0.00000E+00
         0.00000E+00
         0.00000E+00
         0.00000E+00
         0.00000E+00
         0.00000E+00
         0.00000E+00
         0.00000E+00
         0.00000E+00
         0.00000E+00
         0.00000E+00
         0.00000E+00
         0.00000E+00
         0.00000E+00
         0.00000E+00
         0.00000E+00
         0.00000E+00
         0.00000E+00
         0.00000E+00
         0.00000E+00
         0.00000E+00
         0.00000E+00
         0.00000E+00
         0.00000E+00
         0.00000E+00
         0.00000E+00
         0.00000E+00
         0.00000E+00
         0.00000E+00
         0.00000E+00
         0.00000E+00
         0.00000E+00
         0.00000E+00
         0.00000E+00
         0.00000E+00
         0.00000E+00
         0.00000E+00
         0.00000E+00
         0.00000E+00
         0.00000E+00
         0.00000E+00
         0.00000E+00
         0.00000E+00
         0.00000E+00
         0.00000E+00
         0.00000E+00
         0.00000E+00
         0.00000E+00
         0.00000E+00
         0.00000E+00
         0.00000E+00
         0.00000E+00
         0.00000E+00
         0.00000E+00
         0.00000E+00
         0.00000E+00
         0.00000E+00
         0.00000E+00
         0.00000E+00
         0.00000E+00
         0.00000E+00
         0.00000E+00
         0.00000E+00
         0.00000E+00
         0.00000E+00
         0.00000E+00
         0.00000E+00
         0.00000E+00
         0.00000E+00
         0.00000E+00
         0.00000E+00
         0.00000E+00
         0.00000E+00
         0.00000E+00
         0.00000E+00
         0.00000E+00
         0.00000E+00
         0.00000E+00
         0.00000E+00
         0.00000E+00
         0.00000E+00
         0.00000E+00
         0.00000E+00
         0.00000E+00
         0.00000E+00
         0.00000E+00
         0.00000E+00
         0.00000E+00
         0.00000E+00
         0.00000E+00
         0.00000E+00
         0.00000E+00
         0.00000E+00
         0.00000E+00
         0.00000E+00
         0.00000E+00
         0.00000E+00
         0.00000E+00
         0.00000E+00
         0.00000E+00
         0.00000E+00
         0.00000E+00
         0.00000E+00
         0.00000E+00
         0.00000E+00
         0.00000E+00
         0.00000E+00
         0.00000E+00
         0.00000E+00
         0.00000E+00
         0.00000E+00
         0.00000E+00
         0.00000E+00
         0.00000E+00
         0.00000E+00
         0.00000E+00
         0.00000E+00
         0.00000E+00
         0.00000E+00
         0.00000E+00
         0.00000E+00
         0.00000E+00
         0.00000E+00
         0.00000E+00
         0.00000E+00
         0.00000E+00
         0.00000E+00
         0.00000E+00
         0.00000E+00
         0.00000E+00
         0.00000E+00
         0.00000E+00
         0.00000E+00
         0.00000E+00
         0.00000E+00
         0.00000E+00
         0.00000E+00
         0.00000E+00
         0.00000E+00
         0.00000E+00
         0.00000E+00
         0.00000E+00
         0.00000E+00
         0.00000E+00
         0.00000E+00
         0.00000E+00
         0.00000E+00
         0.00000E+00
         0.00000E+00
         0.00000E+00
         0.00000E+00
         0.00000E+00
         0.00000E+00
         0.00000E+00
         0.00000E+00
         0.00000E+00
         0.00000E+00
         0.00000E+00
         0.00000E+00
         0.00000E+00
         0.00000E+00
         0.00000E+00
         0.00000E+00
         0.00000E+00
         0.00000E+00
         0.00000E+00
         0.00000E+00
         0.00000E+00
         0.00000E+00
         0.00000E+00
         0.00000E+00
         0.00000E+00
         0.00000E+00
         0.00000E+00
         0.00000E+00
         0.00000E+00
         0.00000E+00
         0.00000E+00
         0.00000E+00
         0.00000E+00
         0.00000E+00
         0.00000E+00
         0.00000E+00
         0.00000E+00
         0.00000E+00
         0.00000E+00
         0.00000E+00
         0.00000E+00
         0.00000E+00
         0.00000E+00
         0.00000E+00
         0.00000E+00
         0.00000E+00
         0.00000E+00
         0.00000E+00
         0.00000E+00
         0.00000E+00
         0.00000E+00
         0.00000E+00
         0.00000E+00
         0.00000E+00
         0.00000E+00
         0.00000E+00
         0.00000E+00
         0.00000E+00
         0.00000E+00
         0.00000E+00
         0.00000E+00
         0.00000E+00
         0.00000E+00
         0.00000E+00
         0.00000E+00
         0.00000E+00
         0.00000E+00
         0.00000E+00
         0.00000E+00
         0.00000E+00
         0.00000E+00
         0.00000E+00
         0.00000E+00
         0.00000E+00
         0.00000E+00
         0.00000E+00
         0.00000E+00
         0.00000E+00
         0.00000E+00
         0.00000E+00
         0.00000E+00
         0.00000E+00
         0.00000E+00
         0.00000E+00
         0.00000E+00
         0.00000E+00
         0.00000E+00
         0.00000E+00
         0.00000E+00
         0.00000E+00
         0.00000E+00
         0.00000E+00
         0.00000E+00
         0.00000E+00
         0.00000E+00
         0.00000E+00
         0.00000E+00
         0.00000E+00
         0.00000E+00
         0.00000E+00
         0.00000E+00
         0.00000E+00
         0.00000E+00
         0.00000E+00
         0.00000E+00
         0.00000E+00
         0.00000E+00
         0.00000E+00
         0.00000E+00
         0.00000E+00
         0.00000E+00
         0.00000E+00
         0.00000E+00
         0.00000E+00
         0.00000E+00
         0.00000E+00
         0.00000E+00
         0.00000E+00
         0.00000E+00
         0.00000E+00
         0.00000E+00
         0.00000E+00
         0.00000E+00
         0.00000E+00
         0.00000E+00
         0.00000E+00
         0.00000E+00
         0.00000E+00
         0.00000E+00
         0.00000E+00
         0.00000E+00
         0.00000E+00
         0.00000E+00
         0.00000E+00
         0.00000E+00
         0.00000E+00
         0.00000E+00
         0.00000E+00
         0.00000E+00
         0.00000E+00
         0.00000E+00
         0.00000E+00
         0.00000E+00
         0.00000E+00
         0.00000E+00
         0.00000E+00
         0.00000E+00
         0.00000E+00
         0.00000E+00
         0.00000E+00
         0.00000E+00
         0.00000E+00
         0.00000E+00
         0.00000E+00
         0.00000E+00
         0.00000E+00
         0.00000E+00
         0.00000E+00
         0.00000E+00
         0.00000E+00
         0.00000E+00
         0.00000E+00
         0.00000E+00
         0.00000E+00
         0.00000E+00
         0.00000E+00
         0.00000E+00
         0.00000E+00
         0.00000E+00
         0.00000E+00
         0.00000E+00
         0.00000E+00
         0.00000E+00
         0.00000E+00
         0.00000E+00
         0.00000E+00
         0.00000E+00
         0.00000E+00
         0.00000E+00
         0.00000E+00
         0.00000E+00
         0.00000E+00
         0.00000E+00
         0.00000E+00
         0.00000E+00
         0.00000E+00
         0.00000E+00
         0.00000E+00
         0.00000E+00
         0.00000E+00
         0.00000E+00
         0.00000E+00
         0.00000E+00
         0.00000E+00
         0.00000E+00
         0.00000E+00
         0.00000E+00
         0.00000E+00
         0.00000E+00
         0.00000E+00
         0.00000E+00
         0.00000E+00
         0.00000E+00
         0.00000E+00
         0.00000E+00
         0.00000E+00
         0.00000E+00
         0.00000E+00
         0.00000E+00
         0.00000E+00
         0.00000E+00
         0.00000E+00
         0.00000E+00
         0.00000E+00
         0.00000E+00
         0.00000E+00
         0.00000E+00
         0.00000E+00
         0.00000E+00
         0.00000E+00
         0.00000E+00
         0.00000E+00
         0.00000E+00
         0.00000E+00
         0.00000E+00
         0.00000E+00
         0.00000E+00
         0.00000E+00
         0.00000E+00
         0.00000E+00
         0.00000E+00
         0.00000E+00
         0.00000E+00
         0.00000E+00
         0.00000E+00
         0.00000E+00
         0.00000E+00
         0.00000E+00
         0.00000E+00
         0.00000E+00
         0.00000E+00
         0.00000E+00
         0.00000E+00
         0.00000E+00
         0.00000E+00
         0.00000E+00
         0.00000E+00
         0.00000E+00
         0.00000E+00
         0.00000E+00
         0.00000E+00
         0.00000E+00
         0.00000E+00
         0.00000E+00
         0.00000E+00
         0.00000E+00
         0.00000E+00
         0.00000E+00
         0.00000E+00
         0.00000E+00
         0.00000E+00
         0.00000E+00
         0.00000E+00
         0.00000E+00
         0.00000E+00
         0.00000E+00
         0.00000E+00
         0.00000E+00
         0.00000E+00
         0.00000E+00
         0.00000E+00
         0.00000E+00
         0.00000E+00
         0.00000E+00
         0.00000E+00
         0.00000E+00
         0.00000E+00
         0.00000E+00
         0.00000E+00
         0.00000E+00
         0.00000E+00
         0.00000E+00
         0.00000E+00
         0.00000E+00
         0.00000E+00
         0.00000E+00
         0.00000E+00
         0.00000E+00
         0.00000E+00
         0.00000E+00
         0.00000E+00
         0.00000E+00
         0.00000E+00
         0.00000E+00
         0.00000E+00
         0.00000E+00
         0.00000E+00
         0.00000E+00
         0.00000E+00
         0.00000E+00
         0.00000E+00
         0.00000E+00
         0.00000E+00
         0.00000E+00
         0.00000E+00
         0.00000E+00
         0.00000E+00
         0.00000E+00
         0.00000E+00
         0.00000E+00
         0.00000E+00
         0.00000E+00
         0.00000E+00
         0.00000E+00
         0.00000E+00
         0.00000E+00
         0.00000E+00
         0.00000E+00
         0.00000E+00
         0.00000E+00
         0.00000E+00
         0.00000E+00
         0.00000E+00
         0.00000E+00
         0.00000E+00
         0.00000E+00
         0.00000E+00
         0.00000E+00
         0.00000E+00
         0.00000E+00
         0.00000E+00
         0.00000E+00
         0.00000E+00
         0.00000E+00
         0.00000E+00
         0.00000E+00
         0.00000E+00
         0.00000E+00
         0.00000E+00
         0.00000E+00
         0.00000E+00
         0.00000E+00
         0.00000E+00
         0.00000E+00
         0.00000E+00
         0.00000E+00
         0.00000E+00
         0.00000E+00
         0.00000E+00
         0.00000E+00
         0.00000E+00
         0.00000E+00
         0.00000E+00
         0.00000E+00
         0.00000E+00
         0.00000E+00
         0.00000E+00
         0.00000E+00
         0.00000E+00
         0.00000E+00
         0.00000E+00
         0.00000E+00
         0.00000E+00
         0.00000E+00
         0.00000E+00
         0.00000E+00
         0.00000E+00
         0.00000E+00
         0.00000E+00
         0.00000E+00
         0.00000E+00
         0.00000E+00
         0.00000E+00
         0.00000E+00
         0.00000E+00
         0.00000E+00
         0.00000E+00
         0.00000E+00
         0.00000E+00
         0.00000E+00
         0.00000E+00
         0.00000E+00
         0.00000E+00
         0.00000E+00
         0.00000E+00
         0.00000E+00
         0.00000E+00
         0.00000E+00
         0.00000E+00
         0.00000E+00
         0.00000E+00
         0.00000E+00
         0.00000E+00
         0.00000E+00
         0.00000E+00
         0.00000E+00
         0.00000E+00
         0.00000E+00
         0.00000E+00
         0.00000E+00
         0.00000E+00
         0.00000E+00
         0.00000E+00
         0.00000E+00
         0.00000E+00
         0.00000E+00
         0.00000E+00
         0.00000E+00
         0.00000E+00
         0.00000E+00
         0.00000E+00
         0.00000E+00
         0.00000E+00
         0.00000E+00
         0.00000E+00
         0.00000E+00
         0.00000E+00
         0.00000E+00
         0.00000E+00
         0.00000E+00
         0.00000E+00
         0.00000E+00
         0.00000E+00
         0.00000E+00
         0.00000E+00
         0.00000E+00
         0.00000E+00
         0.00000E+00
         0.00000E+00
         0.00000E+00
         0.00000E+00
         0.00000E+00
         0.00000E+00
         0.00000E+00
         0.00000E+00
         0.00000E+00
         0.00000E+00
         0.00000E+00
         0.00000E+00
         0.00000E+00
         0.00000E+00
         0.00000E+00
         0.00000E+00
         0.00000E+00
         0.00000E+00
         0.00000E+00
         0.00000E+00
         0.00000E+00
         0.00000E+00
         0.00000E+00
         0.00000E+00
         0.00000E+00
         0.00000E+00
         0.00000E+00
         0.00000E+00
         0.00000E+00
         0.00000E+00
         0.00000E+00
         0.00000E+00
         0.00000E+00
         0.00000E+00
         0.00000E+00
         0.00000E+00
         0.00000E+00
         0.00000E+00
         0.00000E+00
         0.00000E+00
         0.00000E+00
         0.00000E+00
         0.00000E+00
         0.00000E+00
         0.00000E+00
         0.00000E+00
         0.00000E+00
         0.00000E+00
         0.00000E+00
         0.00000E+00
         0.00000E+00
         0.00000E+00
         0.00000E+00
         0.00000E+00
         0.00000E+00
         0.00000E+00
         0.00000E+00
         0.00000E+00
         0.00000E+00
         0.00000E+00
         0.00000E+00
         0.00000E+00
         0.00000E+00
         0.00000E+00
         0.00000E+00
         0.00000E+00
         0.00000E+00
         0.00000E+00
         0.00000E+00
         0.00000E+00
         0.00000E+00
         0.00000E+00
         0.00000E+00
         0.00000E+00
         0.00000E+00
         0.00000E+00
         0.00000E+00
         0.00000E+00
         0.00000E+00
         0.00000E+00
         0.00000E+00
         0.00000E+00
         0.00000E+00
         0.00000E+00
         0.00000E+00
         0.00000E+00
         0.00000E+00
         0.00000E+00
         0.00000E+00
         0.00000E+00
         0.00000E+00
         0.00000E+00
         0.00000E+00
         0.00000E+00
         0.00000E+00
         0.00000E+00
         0.00000E+00
         0.00000E+00
         0.00000E+00
         0.00000E+00
         0.00000E+00
         0.00000E+00
         0.00000E+00
         0.00000E+00
         0.00000E+00
         0.00000E+00
         0.00000E+00
         0.00000E+00
         0.00000E+00
         0.00000E+00
         0.00000E+00
         0.00000E+00
         0.00000E+00
         0.00000E+00
         0.00000E+00
         0.00000E+00
         0.00000E+00
         0.00000E+00
         0.00000E+00
         0.00000E+00
         0.00000E+00
         0.00000E+00
         0.00000E+00
         0.00000E+00
         0.00000E+00
         0.00000E+00
         0.00000E+00
         0.00000E+00
         0.00000E+00
         0.00000E+00
         0.00000E+00
         0.00000E+00
         0.00000E+00
         0.00000E+00
         0.00000E+00
         0.00000E+00
         0.00000E+00
         0.00000E+00
         0.00000E+00
         0.00000E+00
         0.00000E+00
         0.00000E+00
         0.00000E+00
         0.00000E+00
         0.00000E+00
         0.00000E+00
         0.00000E+00
         0.00000E+00
         0.00000E+00
         0.00000E+00
         0.00000E+00
         0.00000E+00
         0.00000E+00
         0.00000E+00
         0.00000E+00
         0.00000E+00
         0.00000E+00
         0.00000E+00
         0.00000E+00
         0.00000E+00
         0.00000E+00
         0.00000E+00
         0.00000E+00
         0.00000E+00
         0.00000E+00
         0.00000E+00
         0.00000E+00
         0.00000E+00
         0.00000E+00
         0.00000E+00
         0.00000E+00
         0.00000E+00
         0.00000E+00
         0.00000E+00
         0.00000E+00
         0.00000E+00
         0.00000E+00
         0.00000E+00
         0.00000E+00
         0.00000E+00
         0.00000E+00
         0.00000E+00
         0.00000E+00
         0.00000E+00
         0.00000E+00
         0.00000E+00
         0.00000E+00
         0.00000E+00
         0.00000E+00
         0.00000E+00
         0.00000E+00
         0.00000E+00
         0.00000E+00
         0.00000E+00
         0.00000E+00
         0.00000E+00
         0.00000E+00
         0.00000E+00
         0.00000E+00
         0.00000E+00
         0.00000E+00
         0.00000E+00
         0.00000E+00
         0.00000E+00
         0.00000E+00
         0.00000E+00
         0.00000E+00
         0.00000E+00
         0.00000E+00
         0.00000E+00
         0.00000E+00
         0.00000E+00
         0.00000E+00
         0.00000E+00
         0.00000E+00
         0.00000E+00
         0.00000E+00
         0.00000E+00
         0.00000E+00
         0.00000E+00
         0.00000E+00
         0.00000E+00
         0.00000E+00
         0.00000E+00
         0.00000E+00
         0.00000E+00
         0.00000E+00
         0.00000E+00
         0.00000E+00
         0.00000E+00
         0.00000E+00
         0.00000E+00
         0.00000E+00
         0.00000E+00
         0.00000E+00
         0.00000E+00
         0.00000E+00
         0.00000E+00
         0.00000E+00
         0.00000E+00
         0.00000E+00
         0.00000E+00
         0.00000E+00
         0.00000E+00
         0.00000E+00
         0.00000E+00
         0.00000E+00
         0.00000E+00
         0.00000E+00
         0.00000E+00
         0.00000E+00
         0.00000E+00
         0.00000E+00
         0.00000E+00
         0.00000E+00
         0.00000E+00
         0.00000E+00
         0.00000E+00
         0.00000E+00
         0.00000E+00
         0.00000E+00
         0.00000E+00
         0.00000E+00
         0.00000E+00
         0.00000E+00
         0.00000E+00
         0.00000E+00
         0.00000E+00
         0.00000E+00
         0.00000E+00
         0.00000E+00
         0.00000E+00
         0.00000E+00
         0.00000E+00
         0.00000E+00
         0.00000E+00
         0.00000E+00
         0.00000E+00
         0.00000E+00
         0.00000E+00
         0.00000E+00
         0.00000E+00
         0.00000E+00
         0.00000E+00
         0.00000E+00
         0.00000E+00
         0.00000E+00
         0.00000E+00
         0.00000E+00
         0.00000E+00
         0.00000E+00
         0.00000E+00
         0.00000E+00
         0.00000E+00
         0.00000E+00
         0.00000E+00
         0.00000E+00
         0.00000E+00
         0.00000E+00
         0.00000E+00
         0.00000E+00
         0.00000E+00
         0.00000E+00
         0.00000E+00
         0.00000E+00
         0.00000E+00
         0.00000E+00
         0.00000E+00
         0.00000E+00
         0.00000E+00
         0.00000E+00
         0.00000E+00
         0.00000E+00
         0.00000E+00
         0.00000E+00
         0.00000E+00
         0.00000E+00
         0.00000E+00
         0.00000E+00
         0.00000E+00
         0.00000E+00
         0.00000E+00
         0.00000E+00
         0.00000E+00
         0.00000E+00
         0.00000E+00
         0.00000E+00
         0.00000E+00
         0.00000E+00
         0.00000E+00
         0.00000E+00
         0.00000E+00
         0.00000E+00
         0.00000E+00
         0.00000E+00
         0.00000E+00
         0.00000E+00
         0.00000E+00
         0.00000E+00
         0.00000E+00
         0.00000E+00
         0.00000E+00
         0.00000E+00
         0.00000E+00
         0.00000E+00
         0.00000E+00
         0.00000E+00
         0.00000E+00
         0.00000E+00
         0.00000E+00
         0.00000E+00
         0.00000E+00
         0.00000E+00
         0.00000E+00
         0.00000E+00
         0.00000E+00
         0.00000E+00
         0.00000E+00
         0.00000E+00
         0.00000E+00
         0.00000E+00
         0.00000E+00
         0.00000E+00
         0.00000E+00
         0.00000E+00
         0.00000E+00
         0.00000E+00
         0.00000E+00
         0.00000E+00
         0.00000E+00
         0.00000E+00
         0.00000E+00
         0.00000E+00
         0.00000E+00
         0.00000E+00
         0.00000E+00
         0.00000E+00
         0.00000E+00
         0.00000E+00
         0.00000E+00
         0.00000E+00
         0.00000E+00
         0.00000E+00
         0.00000E+00
         0.00000E+00
         0.00000E+00
         0.00000E+00
         0.00000E+00
         0.00000E+00
         0.00000E+00
         0.00000E+00
         0.00000E+00
         0.00000E+00
         0.00000E+00
         0.00000E+00
         0.00000E+00
         0.00000E+00
         0.00000E+00
         0.00000E+00
         0.00000E+00
         0.00000E+00
         0.00000E+00
         0.00000E+00
         0.00000E+00
         0.00000E+00
         0.00000E+00
         0.00000E+00
         0.00000E+00
         0.00000E+00
         0.00000E+00
         0.00000E+00
         0.00000E+00
         0.00000E+00
         0.00000E+00
         0.00000E+00
         0.00000E+00
         0.00000E+00
         0.00000E+00
         0.00000E+00
         0.00000E+00
         0.00000E+00
         0.00000E+00
         0.00000E+00
         0.00000E+00
         0.00000E+00
         0.00000E+00
         0.00000E+00
         0.00000E+00
         0.00000E+00
         0.00000E+00
         0.00000E+00
         0.00000E+00
         0.00000E+00
         0.00000E+00
         0.00000E+00
         0.00000E+00
         0.00000E+00
         0.00000E+00
         0.00000E+00
         0.00000E+00
         0.00000E+00
         0.00000E+00
         0.00000E+00
         0.00000E+00
         0.00000E+00
         0.00000E+00
         0.00000E+00
         0.00000E+00
         0.00000E+00
         0.00000E+00
         0.00000E+00
         0.00000E+00
         0.00000E+00
         0.00000E+00
         0.00000E+00
         0.00000E+00
         0.00000E+00
         0.00000E+00
         0.00000E+00
         0.00000E+00
         0.00000E+00
         0.00000E+00
         0.00000E+00
         0.00000E+00
         0.00000E+00
         0.00000E+00
         0.00000E+00
         0.00000E+00
         0.00000E+00
         0.00000E+00
         0.00000E+00
         0.00000E+00
         0.00000E+00
         0.00000E+00
         0.00000E+00
         0.00000E+00
         0.00000E+00
         0.00000E+00
         0.00000E+00
         0.00000E+00
         0.00000E+00
         0.00000E+00
         0.00000E+00
         0.00000E+00
         0.00000E+00
         0.00000E+00
         0.00000E+00
         0.00000E+00
         0.00000E+00
         0.00000E+00
         0.00000E+00
         0.00000E+00
         0.00000E+00
         0.00000E+00
         0.00000E+00
         0.00000E+00
         0.00000E+00
         0.00000E+00
         0.00000E+00
         0.00000E+00
         0.00000E+00
         0.00000E+00
         0.00000E+00
         0.00000E+00
         0.00000E+00
         0.00000E+00
         0.00000E+00
         0.00000E+00
         0.00000E+00
         0.00000E+00
         0.00000E+00
         0.00000E+00
         0.00000E+00
         0.00000E+00
         0.00000E+00
         0.00000E+00
         0.00000E+00
         0.00000E+00
         0.00000E+00
         0.00000E+00
         0.00000E+00
         0.00000E+00
         0.00000E+00
         0.00000E+00
         0.00000E+00
         0.00000E+00
         0.00000E+00
         0.00000E+00
         0.00000E+00
         0.00000E+00
         0.00000E+00
         0.00000E+00
         0.00000E+00
         0.00000E+00
         0.00000E+00
         0.00000E+00
         0.00000E+00
         0.00000E+00
         0.00000E+00
         0.00000E+00
         0.00000E+00
         0.00000E+00
         0.00000E+00
         0.00000E+00
         0.00000E+00
         0.00000E+00
         0.00000E+00
         0.00000E+00
         0.00000E+00
         0.00000E+00
         0.00000E+00
         0.00000E+00
         0.00000E+00
         0.00000E+00
         0.00000E+00
         0.00000E+00
         0.00000E+00
         0.00000E+00
         0.00000E+00
         0.00000E+00
         0.00000E+00
         0.00000E+00
         0.00000E+00
         0.00000E+00
         0.00000E+00
         0.00000E+00
         0.00000E+00
         0.00000E+00
         0.00000E+00
         0.00000E+00
         0.00000E+00
         0.00000E+00
         0.00000E+00
         0.00000E+00
         0.00000E+00
         0.00000E+00
         0.00000E+00
         0.00000E+00
         0.00000E+00
         0.00000E+00
         0.00000E+00
         0.00000E+00
         0.00000E+00
         0.00000E+00
         0.00000E+00
         0.00000E+00
         0.00000E+00
         0.00000E+00
         0.00000E+00
         0.00000E+00
         0.00000E+00
         0.00000E+00
         0.00000E+00
         0.00000E+00
         0.00000E+00
         0.00000E+00
         0.00000E+00
         0.00000E+00
         0.00000E+00
         0.00000E+00
         0.00000E+00
         0.00000E+00
         0.00000E+00
         0.00000E+00
         0.00000E+00
         0.00000E+00
         0.00000E+00
         0.00000E+00
         0.00000E+00
         0.00000E+00
         0.00000E+00
         0.00000E+00
         0.00000E+00
         0.00000E+00
         0.00000E+00
         0.00000E+00
         0.00000E+00
         0.00000E+00
         0.00000E+00
         0.00000E+00
         0.00000E+00
         0.00000E+00
         0.00000E+00
         0.00000E+00
         0.00000E+00
         0.00000E+00
         0.00000E+00
         0.00000E+00
         0.00000E+00
         0.00000E+00
         0.00000E+00
         0.00000E+00
         0.00000E+00
         0.00000E+00
         0.00000E+00
         0.00000E+00
         0.00000E+00
         0.00000E+00
         0.00000E+00
         0.00000E+00
         0.00000E+00
         0.00000E+00
         0.00000E+00
         0.00000E+00
         0.00000E+00
         0.00000E+00
         0.00000E+00
         0.00000E+00
         0.00000E+00
         0.00000E+00
         0.00000E+00
         0.00000E+00
         0.00000E+00
         0.00000E+00
         0.00000E+00
         0.00000E+00
         0.00000E+00
         0.00000E+00
         0.00000E+00
         0.00000E+00
         0.00000E+00
         0.00000E+00
         0.00000E+00
         0.00000E+00
         0.00000E+00
         0.00000E+00
         0.00000E+00
         0.00000E+00
         0.00000E+00
         0.00000E+00
         0.00000E+00
         0.00000E+00
         0.00000E+00
         0.00000E+00
         0.00000E+00
         0.00000E+00
         0.00000E+00
         0.00000E+00
         0.00000E+00
         0.00000E+00
         0.00000E+00
         0.00000E+00
         0.00000E+00
         0.00000E+00
         0.00000E+00
         0.00000E+00
         0.00000E+00
         0.00000E+00
         0.00000E+00
         0.00000E+00
         0.00000E+00
         0.00000E+00
         0.00000E+00
         0.00000E+00
         0.00000E+00
         0.00000E+00
         0.00000E+00
         0.00000E+00
         0.00000E+00
         0.00000E+00
         0.00000E+00
         0.00000E+00
         0.00000E+00
         0.00000E+00
         0.00000E+00
         0.00000E+00
         0.00000E+00
         0.00000E+00
         0.00000E+00
         0.00000E+00
         0.00000E+00
         0.00000E+00
         0.00000E+00
         0.00000E+00
         0.00000E+00
         0.00000E+00
         0.00000E+00
         0.00000E+00
         0.00000E+00
         0.00000E+00
         0.00000E+00
         0.00000E+00
         0.00000E+00
         0.00000E+00
         0.00000E+00
         0.00000E+00
         0.00000E+00
         0.00000E+00
         0.00000E+00
         0.00000E+00
         0.00000E+00
         0.00000E+00
         0.00000E+00
         0.00000E+00
         0.00000E+00
         0.00000E+00
         0.00000E+00
         0.00000E+00
         0.00000E+00
         0.00000E+00
         0.00000E+00
         0.00000E+00
         0.00000E+00
         0.00000E+00
         0.00000E+00
         0.00000E+00
         0.00000E+00
         0.00000E+00
         0.00000E+00
         0.00000E+00
         0.00000E+00
         0.00000E+00
         0.00000E+00
         0.00000E+00
         0.00000E+00
         0.00000E+00
         0.00000E+00
         0.00000E+00
         0.00000E+00
         0.00000E+00
         0.00000E+00
         0.00000E+00
         0.00000E+00
         0.00000E+00
         0.00000E+00
  
SCALARS                     velocity_x  double 1
LOOKUP_TABLE default
         0.00000E+00
         0.00000E+00
         0.00000E+00
         0.00000E+00
         0.00000E+00
         0.00000E+00
         0.00000E+00
         0.00000E+00
         0.00000E+00
         0.00000E+00
         0.00000E+00
         0.00000E+00
         0.00000E+00
         0.00000E+00
         0.00000E+00
         0.00000E+00
         0.00000E+00
         0.00000E+00
         0.00000E+00
         0.00000E+00
         0.00000E+00
         0.00000E+00
         0.00000E+00
         0.00000E+00
         0.00000E+00
         0.00000E+00
         0.00000E+00
         0.00000E+00
         0.00000E+00
         0.00000E+00
         0.00000E+00
         0.00000E+00
         0.00000E+00
         0.00000E+00
         0.00000E+00
         0.00000E+00
         0.00000E+00
         0.00000E+00
         0.00000E+00
         0.00000E+00
         0.00000E+00
         0.00000E+00
         0.00000E+00
         0.00000E+00
         0.00000E+00
         0.00000E+00
         0.00000E+00
         0.00000E+00
         0.00000E+00
         0.00000E+00
         0.00000E+00
         0.00000E+00
         0.00000E+00
         0.00000E+00
         0.00000E+00
         0.00000E+00
         0.00000E+00
         0.00000E+00
         0.00000E+00
         0.00000E+00
         0.00000E+00
         0.00000E+00
         0.00000E+00
         0.00000E+00
         0.00000E+00
         0.00000E+00
         0.00000E+00
         0.00000E+00
         0.00000E+00
         0.00000E+00
         0.00000E+00
         0.00000E+00
         0.00000E+00
         0.00000E+00
         0.00000E+00
         0.00000E+00
         0.00000E+00
         0.00000E+00
         0.00000E+00
         0.00000E+00
         0.00000E+00
         0.00000E+00
         0.00000E+00
         0.00000E+00
         0.00000E+00
         0.00000E+00
         0.00000E+00
         0.00000E+00
         0.00000E+00
         0.00000E+00
         0.00000E+00
         0.00000E+00
         0.00000E+00
         0.00000E+00
         0.00000E+00
         0.00000E+00
         0.00000E+00
         0.00000E+00
         0.00000E+00
         0.00000E+00
         0.00000E+00
         0.00000E+00
         0.00000E+00
         0.00000E+00
         0.00000E+00
         0.00000E+00
         0.00000E+00
         0.00000E+00
         0.00000E+00
         0.00000E+00
         0.00000E+00
         0.00000E+00
         0.00000E+00
         0.00000E+00
         0.00000E+00
         0.00000E+00
         0.00000E+00
         0.00000E+00
         0.00000E+00
         0.00000E+00
         0.00000E+00
         0.00000E+00
         0.00000E+00
         0.00000E+00
         0.00000E+00
         0.00000E+00
         0.00000E+00
         0.00000E+00
         0.00000E+00
         0.00000E+00
         0.00000E+00
         0.00000E+00
         0.00000E+00
         0.00000E+00
         0.00000E+00
         0.00000E+00
         0.00000E+00
         0.00000E+00
         0.00000E+00
         0.00000E+00
         0.00000E+00
         0.00000E+00
         0.00000E+00
         0.00000E+00
         0.00000E+00
         0.00000E+00
         0.00000E+00
         0.00000E+00
         0.00000E+00
         0.00000E+00
         0.00000E+00
         0.00000E+00
         0.00000E+00
         0.00000E+00
         0.00000E+00
         0.00000E+00
         0.00000E+00
         0.00000E+00
         0.00000E+00
         0.00000E+00
         0.00000E+00
         0.00000E+00
         0.00000E+00
         0.00000E+00
         0.00000E+00
         0.00000E+00
         0.00000E+00
         0.00000E+00
         0.00000E+00
         0.00000E+00
         0.00000E+00
         0.00000E+00
         0.00000E+00
         0.00000E+00
         0.00000E+00
         0.00000E+00
         0.00000E+00
         0.00000E+00
         0.00000E+00
         0.00000E+00
         0.00000E+00
         0.00000E+00
         0.00000E+00
         0.00000E+00
         0.00000E+00
         0.00000E+00
         0.00000E+00
         0.00000E+00
         0.00000E+00
         0.00000E+00
         0.00000E+00
         0.00000E+00
         0.00000E+00
         0.00000E+00
         0.00000E+00
         0.00000E+00
         0.00000E+00
         0.00000E+00
         0.00000E+00
         0.00000E+00
         0.00000E+00
         0.00000E+00
         0.00000E+00
         0.00000E+00
         0.00000E+00
         0.00000E+00
         0.00000E+00
         0.00000E+00
         0.00000E+00
         0.00000E+00
         0.00000E+00
         0.00000E+00
         0.00000E+00
         0.00000E+00
         0.00000E+00
         0.00000E+00
         0.00000E+00
         0.00000E+00
         0.00000E+00
         0.00000E+00
         0.00000E+00
         0.00000E+00
         0.00000E+00
         0.00000E+00
         0.00000E+00
         0.00000E+00
         0.00000E+00
         0.00000E+00
         0.00000E+00
         0.00000E+00
         0.00000E+00
         0.00000E+00
         0.00000E+00
         0.00000E+00
         0.00000E+00
         0.00000E+00
         0.00000E+00
         0.00000E+00
         0.00000E+00
         0.00000E+00
         0.00000E+00
         0.00000E+00
         0.00000E+00
         0.00000E+00
         0.00000E+00
         0.00000E+00
         0.00000E+00
         0.00000E+00
         0.00000E+00
         0.00000E+00
         0.00000E+00
         0.00000E+00
         0.00000E+00
         0.00000E+00
         0.00000E+00
         0.00000E+00
         0.00000E+00
         0.00000E+00
         0.00000E+00
         0.00000E+00
         0.00000E+00
         0.00000E+00
         0.00000E+00
         0.00000E+00
         0.00000E+00
         0.00000E+00
         0.00000E+00
         0.00000E+00
         0.00000E+00
         0.00000E+00
         0.00000E+00
         0.00000E+00
         0.00000E+00
         0.00000E+00
         0.00000E+00
         0.00000E+00
         0.00000E+00
         0.00000E+00
         0.00000E+00
         0.00000E+00
         0.00000E+00
         0.00000E+00
         0.00000E+00
         0.00000E+00
         0.00000E+00
         0.00000E+00
         0.00000E+00
         0.00000E+00
         0.00000E+00
         0.00000E+00
         0.00000E+00
         0.00000E+00
         0.00000E+00
         0.00000E+00
         0.00000E+00
         0.00000E+00
         0.00000E+00
         0.00000E+00
         0.00000E+00
         0.00000E+00
         0.00000E+00
         0.00000E+00
         0.00000E+00
         0.00000E+00
         0.00000E+00
         0.00000E+00
         0.00000E+00
         0.00000E+00
         0.00000E+00
         0.00000E+00
         0.00000E+00
         0.00000E+00
         0.00000E+00
         0.00000E+00
         0.00000E+00
         0.00000E+00
         0.00000E+00
         0.00000E+00
         0.00000E+00
         0.00000E+00
         0.00000E+00
         0.00000E+00
         0.00000E+00
         0.00000E+00
         0.00000E+00
         0.00000E+00
         0.00000E+00
         0.00000E+00
         0.00000E+00
         0.00000E+00
         0.00000E+00
         0.00000E+00
         0.00000E+00
         0.00000E+00
         0.00000E+00
         0.00000E+00
         0.00000E+00
         0.00000E+00
         0.00000E+00
         0.00000E+00
         0.00000E+00
         0.00000E+00
         0.00000E+00
         0.00000E+00
         0.00000E+00
         0.00000E+00
         0.00000E+00
         0.00000E+00
         0.00000E+00
         0.00000E+00
         0.00000E+00
         0.00000E+00
         0.00000E+00
         0.00000E+00
         0.00000E+00
         0.00000E+00
         0.00000E+00
         0.00000E+00
         0.00000E+00
         0.00000E+00
         0.00000E+00
         0.00000E+00
         0.00000E+00
         0.00000E+00
         0.00000E+00
         0.00000E+00
         0.00000E+00
         0.00000E+00
         0.00000E+00
         0.00000E+00
         0.00000E+00
         0.00000E+00
         0.00000E+00
         0.00000E+00
         0.00000E+00
         0.00000E+00
         0.00000E+00
         0.00000E+00
         0.00000E+00
         0.00000E+00
         0.00000E+00
         0.00000E+00
         0.00000E+00
         0.00000E+00
         0.00000E+00
         0.00000E+00
         0.00000E+00
         0.00000E+00
         0.00000E+00
         0.00000E+00
         0.00000E+00
         0.00000E+00
         0.00000E+00
         0.00000E+00
         0.00000E+00
         0.00000E+00
         0.00000E+00
         0.00000E+00
         0.00000E+00
         0.00000E+00
         0.00000E+00
         0.00000E+00
         0.00000E+00
         0.00000E+00
         0.00000E+00
         0.00000E+00
         0.00000E+00
         0.00000E+00
         0.00000E+00
         0.00000E+00
         0.00000E+00
         0.00000E+00
         0.00000E+00
         0.00000E+00
         0.00000E+00
         0.00000E+00
         0.00000E+00
         0.00000E+00
         0.00000E+00
         0.00000E+00
         0.00000E+00
         0.00000E+00
         0.00000E+00
         0.00000E+00
         0.00000E+00
         0.00000E+00
         0.00000E+00
         0.00000E+00
         0.00000E+00
         0.00000E+00
         0.00000E+00
         0.00000E+00
         0.00000E+00
         0.00000E+00
         0.00000E+00
         0.00000E+00
         0.00000E+00
         0.00000E+00
         0.00000E+00
         0.00000E+00
         0.00000E+00
         0.00000E+00
         0.00000E+00
         0.00000E+00
         0.00000E+00
         0.00000E+00
         0.00000E+00
         0.00000E+00
         0.00000E+00
         0.00000E+00
         0.00000E+00
         0.00000E+00
         0.00000E+00
         0.00000E+00
         0.00000E+00
         0.00000E+00
         0.00000E+00
         0.00000E+00
         0.00000E+00
         0.00000E+00
         0.00000E+00
         0.00000E+00
         0.00000E+00
         0.00000E+00
         0.00000E+00
         0.00000E+00
         0.00000E+00
         0.00000E+00
         0.00000E+00
         0.00000E+00
         0.00000E+00
         0.00000E+00
         0.00000E+00
         0.00000E+00
         0.00000E+00
         0.00000E+00
         0.00000E+00
         0.00000E+00
         0.00000E+00
         0.00000E+00
         0.00000E+00
         0.00000E+00
         0.00000E+00
         0.00000E+00
         0.00000E+00
         0.00000E+00
         0.00000E+00
         0.00000E+00
         0.00000E+00
         0.00000E+00
         0.00000E+00
         0.00000E+00
         0.00000E+00
         0.00000E+00
         0.00000E+00
         0.00000E+00
         0.00000E+00
         0.00000E+00
         0.00000E+00
         0.00000E+00
         0.00000E+00
         0.00000E+00
         0.00000E+00
         0.00000E+00
         0.00000E+00
         0.00000E+00
         0.00000E+00
         0.00000E+00
         0.00000E+00
         0.00000E+00
         0.00000E+00
         0.00000E+00
         0.00000E+00
         0.00000E+00
         0.00000E+00
         0.00000E+00
         0.00000E+00
         0.00000E+00
         0.00000E+00
         0.00000E+00
         0.00000E+00
         0.00000E+00
         0.00000E+00
         0.00000E+00
         0.00000E+00
         0.00000E+00
         0.00000E+00
         0.00000E+00
         0.00000E+00
         0.00000E+00
         0.00000E+00
         0.00000E+00
         0.00000E+00
         0.00000E+00
         0.00000E+00
         0.00000E+00
         0.00000E+00
         0.00000E+00
         0.00000E+00
         0.00000E+00
         0.00000E+00
         0.00000E+00
         0.00000E+00
         0.00000E+00
         0.00000E+00
         0.00000E+00
         0.00000E+00
         0.00000E+00
         0.00000E+00
         0.00000E+00
         0.00000E+00
         0.00000E+00
         0.00000E+00
         0.00000E+00
         0.00000E+00
         0.00000E+00
         0.00000E+00
         0.00000E+00
         0.00000E+00
         0.00000E+00
         0.00000E+00
         0.00000E+00
         0.00000E+00
         0.00000E+00
         0.00000E+00
         0.00000E+00
         0.00000E+00
         0.00000E+00
         0.00000E+00
         0.00000E+00
         0.00000E+00
         0.00000E+00
         0.00000E+00
         0.00000E+00
         0.00000E+00
         0.00000E+00
         0.00000E+00
         0.00000E+00
         0.00000E+00
         0.00000E+00
         0.00000E+00
         0.00000E+00
         0.00000E+00
         0.00000E+00
         0.00000E+00
         0.00000E+00
         0.00000E+00
         0.00000E+00
         0.00000E+00
         0.00000E+00
         0.00000E+00
         0.00000E+00
         0.00000E+00
         0.00000E+00
         0.00000E+00
         0.00000E+00
         0.00000E+00
         0.00000E+00
         0.00000E+00
         0.00000E+00
         0.00000E+00
         0.00000E+00
         0.00000E+00
         0.00000E+00
         0.00000E+00
         0.00000E+00
         0.00000E+00
         0.00000E+00
         0.00000E+00
         0.00000E+00
         0.00000E+00
         0.00000E+00
         0.00000E+00
         0.00000E+00
         0.00000E+00
         0.00000E+00
         0.00000E+00
         0.00000E+00
         0.00000E+00
         0.00000E+00
         0.00000E+00
         0.00000E+00
         0.00000E+00
         0.00000E+00
         0.00000E+00
         0.00000E+00
         0.00000E+00
         0.00000E+00
         0.00000E+00
         0.00000E+00
         0.00000E+00
         0.00000E+00
         0.00000E+00
         0.00000E+00
         0.00000E+00
         0.00000E+00
         0.00000E+00
         0.00000E+00
         0.00000E+00
         0.00000E+00
         0.00000E+00
         0.00000E+00
         0.00000E+00
         0.00000E+00
         0.00000E+00
         0.00000E+00
         0.00000E+00
         0.00000E+00
         0.00000E+00
         0.00000E+00
         0.00000E+00
         0.00000E+00
         0.00000E+00
         0.00000E+00
         0.00000E+00
         0.00000E+00
         0.00000E+00
         0.00000E+00
         0.00000E+00
         0.00000E+00
         0.00000E+00
         0.00000E+00
         0.00000E+00
         0.00000E+00
         0.00000E+00
         0.00000E+00
         0.00000E+00
         0.00000E+00
         0.00000E+00
         0.00000E+00
         0.00000E+00
         0.00000E+00
         0.00000E+00
         0.00000E+00
         0.00000E+00
         0.00000E+00
         0.00000E+00
         0.00000E+00
         0.00000E+00
         0.00000E+00
         0.00000E+00
         0.00000E+00
         0.00000E+00
         0.00000E+00
         0.00000E+00
         0.00000E+00
         0.00000E+00
         0.00000E+00
         0.00000E+00
         0.00000E+00
         0.00000E+00
         0.00000E+00
         0.00000E+00
         0.00000E+00
         0.00000E+00
         0.00000E+00
         0.00000E+00
         0.00000E+00
         0.00000E+00
         0.00000E+00
         0.00000E+00
         0.00000E+00
         0.00000E+00
         0.00000E+00
         0.00000E+00
         0.00000E+00
         0.00000E+00
         0.00000E+00
         0.00000E+00
         0.00000E+00
         0.00000E+00
         0.00000E+00
         0.00000E+00
         0.00000E+00
         0.00000E+00
         0.00000E+00
         0.00000E+00
         0.00000E+00
         0.00000E+00
         0.00000E+00
         0.00000E+00
         0.00000E+00
         0.00000E+00
         0.00000E+00
         0.00000E+00
         0.00000E+00
         0.00000E+00
         0.00000E+00
         0.00000E+00
         0.00000E+00
         0.00000E+00
         0.00000E+00
         0.00000E+00
         0.00000E+00
         0.00000E+00
         0.00000E+00
         0.00000E+00
         0.00000E+00
         0.00000E+00
         0.00000E+00
         0.00000E+00
         0.00000E+00
         0.00000E+00
         0.00000E+00
         0.00000E+00
         0.00000E+00
         0.00000E+00
         0.00000E+00
         0.00000E+00
         0.00000E+00
         0.00000E+00
         0.00000E+00
         0.00000E+00
         0.00000E+00
         0.00000E+00
         0.00000E+00
         0.00000E+00
         0.00000E+00
         0.00000E+00
         0.00000E+00
         0.00000E+00
         0.00000E+00
         0.00000E+00
         0.00000E+00
         0.00000E+00
         0.00000E+00
         0.00000E+00
         0.00000E+00
         0.00000E+00
         0.00000E+00
         0.00000E+00
         0.00000E+00
         0.00000E+00
         0.00000E+00
         0.00000E+00
         0.00000E+00
         0.00000E+00
         0.00000E+00
         0.00000E+00
         0.00000E+00
         0.00000E+00
         0.00000E+00
         0.00000E+00
         0.00000E+00
         0.00000E+00
         0.00000E+00
         0.00000E+00
         0.00000E+00
         0.00000E+00
         0.00000E+00
         0.00000E+00
         0.00000E+00
         0.00000E+00
         0.00000E+00
         0.00000E+00
         0.00000E+00
         0.00000E+00
         0.00000E+00
         0.00000E+00
         0.00000E+00
         0.00000E+00
         0.00000E+00
         0.00000E+00
         0.00000E+00
         0.00000E+00
         0.00000E+00
         0.00000E+00
         0.00000E+00
         0.00000E+00
         0.00000E+00
         0.00000E+00
         0.00000E+00
         0.00000E+00
         0.00000E+00
         0.00000E+00
         0.00000E+00
         0.00000E+00
         0.00000E+00
         0.00000E+00
         0.00000E+00
         0.00000E+00
         0.00000E+00
         0.00000E+00
         0.00000E+00
         0.00000E+00
         0.00000E+00
         0.00000E+00
         0.00000E+00
         0.00000E+00
         0.00000E+00
         0.00000E+00
         0.00000E+00
         0.00000E+00
         0.00000E+00
         0.00000E+00
         0.00000E+00
         0.00000E+00
         0.00000E+00
         0.00000E+00
         0.00000E+00
         0.00000E+00
         0.00000E+00
         0.00000E+00
         0.00000E+00
         0.00000E+00
         0.00000E+00
         0.00000E+00
         0.00000E+00
         0.00000E+00
         0.00000E+00
         0.00000E+00
         0.00000E+00
         0.00000E+00
         0.00000E+00
         0.00000E+00
         0.00000E+00
         0.00000E+00
         0.00000E+00
         0.00000E+00
         0.00000E+00
         0.00000E+00
         0.00000E+00
         0.00000E+00
         0.00000E+00
         0.00000E+00
         0.00000E+00
         0.00000E+00
         0.00000E+00
         0.00000E+00
         0.00000E+00
         0.00000E+00
         0.00000E+00
         0.00000E+00
         0.00000E+00
         0.00000E+00
         0.00000E+00
         0.00000E+00
         0.00000E+00
         0.00000E+00
         0.00000E+00
         0.00000E+00
         0.00000E+00
         0.00000E+00
         0.00000E+00
         0.00000E+00
         0.00000E+00
         0.00000E+00
         0.00000E+00
         0.00000E+00
         0.00000E+00
         0.00000E+00
         0.00000E+00
         0.00000E+00
         0.00000E+00
         0.00000E+00
         0.00000E+00
         0.00000E+00
         0.00000E+00
         0.00000E+00
         0.00000E+00
         0.00000E+00
         0.00000E+00
         0.00000E+00
         0.00000E+00
         0.00000E+00
         0.00000E+00
         0.00000E+00
         0.00000E+00
         0.00000E+00
         0.00000E+00
         0.00000E+00
         0.00000E+00
         0.00000E+00
         0.00000E+00
         0.00000E+00
         0.00000E+00
         0.00000E+00
         0.00000E+00
         0.00000E+00
         0.00000E+00
         0.00000E+00
         0.00000E+00
         0.00000E+00
         0.00000E+00
         0.00000E+00
         0.00000E+00
         0.00000E+00
         0.00000E+00
         0.00000E+00
         0.00000E+00
         0.00000E+00
         0.00000E+00
         0.00000E+00
         0.00000E+00
         0.00000E+00
         0.00000E+00
         0.00000E+00
         0.00000E+00
         0.00000E+00
         0.00000E+00
         0.00000E+00
         0.00000E+00
         0.00000E+00
         0.00000E+00
         0.00000E+00
         0.00000E+00
         0.00000E+00
         0.00000E+00
         0.00000E+00
         0.00000E+00
         0.00000E+00
         0.00000E+00
         0.00000E+00
         0.00000E+00
         0.00000E+00
         0.00000E+00
         0.00000E+00
         0.00000E+00
         0.00000E+00
         0.00000E+00
         0.00000E+00
         0.00000E+00
         0.00000E+00
         0.00000E+00
         0.00000E+00
         0.00000E+00
         0.00000E+00
         0.00000E+00
         0.00000E+00
         0.00000E+00
         0.00000E+00
         0.00000E+00
         0.00000E+00
         0.00000E+00
         0.00000E+00
         0.00000E+00
         0.00000E+00
         0.00000E+00
         0.00000E+00
         0.00000E+00
         0.00000E+00
         0.00000E+00
         0.00000E+00
         0.00000E+00
         0.00000E+00
         0.00000E+00
         0.00000E+00
         0.00000E+00
         0.00000E+00
         0.00000E+00
         0.00000E+00
         0.00000E+00
         0.00000E+00
         0.00000E+00
         0.00000E+00
         0.00000E+00
         0.00000E+00
         0.00000E+00
         0.00000E+00
         0.00000E+00
         0.00000E+00
         0.00000E+00
         0.00000E+00
         0.00000E+00
         0.00000E+00
         0.00000E+00
         0.00000E+00
         0.00000E+00
         0.00000E+00
         0.00000E+00
         0.00000E+00
         0.00000E+00
         0.00000E+00
         0.00000E+00
         0.00000E+00
         0.00000E+00
         0.00000E+00
         0.00000E+00
         0.00000E+00
         0.00000E+00
         0.00000E+00
         0.00000E+00
         0.00000E+00
         0.00000E+00
         0.00000E+00
         0.00000E+00
         0.00000E+00
         0.00000E+00
         0.00000E+00
         0.00000E+00
         0.00000E+00
         0.00000E+00
         0.00000E+00
         0.00000E+00
         0.00000E+00
         0.00000E+00
         0.00000E+00
         0.00000E+00
         0.00000E+00
         0.00000E+00
         0.00000E+00
         0.00000E+00
         0.00000E+00
         0.00000E+00
         0.00000E+00
         0.00000E+00
         0.00000E+00
         0.00000E+00
         0.00000E+00
         0.00000E+00
         0.00000E+00
         0.00000E+00
         0.00000E+00
         0.00000E+00
         0.00000E+00
         0.00000E+00
         0.00000E+00
         0.00000E+00
         0.00000E+00
         0.00000E+00
         0.00000E+00
         0.00000E+00
         0.00000E+00
         0.00000E+00
         0.00000E+00
         0.00000E+00
         0.00000E+00
         0.00000E+00
         0.00000E+00
         0.00000E+00
         0.00000E+00
         0.00000E+00
         0.00000E+00
         0.00000E+00
         0.00000E+00
         0.00000E+00
         0.00000E+00
         0.00000E+00
         0.00000E+00
         0.00000E+00
         0.00000E+00
         0.00000E+00
         0.00000E+00
         0.00000E+00
         0.00000E+00
         0.00000E+00
         0.00000E+00
         0.00000E+00
         0.00000E+00
         0.00000E+00
         0.00000E+00
         0.00000E+00
         0.00000E+00
         0.00000E+00
         0.00000E+00
         0.00000E+00
         0.00000E+00
         0.00000E+00
         0.00000E+00
         0.00000E+00
         0.00000E+00
         0.00000E+00
         0.00000E+00
         0.00000E+00
         0.00000E+00
         0.00000E+00
         0.00000E+00
         0.00000E+00
         0.00000E+00
         0.00000E+00
         0.00000E+00
         0.00000E+00
         0.00000E+00
         0.00000E+00
         0.00000E+00
         0.00000E+00
         0.00000E+00
         0.00000E+00
         0.00000E+00
         0.00000E+00
         0.00000E+00
         0.00000E+00
         0.00000E+00
         0.00000E+00
         0.00000E+00
         0.00000E+00
         0.00000E+00
         0.00000E+00
         0.00000E+00
         0.00000E+00
         0.00000E+00
         0.00000E+00
         0.00000E+00
         0.00000E+00
         0.00000E+00
         0.00000E+00
         0.00000E+00
         0.00000E+00
         0.00000E+00
         0.00000E+00
         0.00000E+00
         0.00000E+00
         0.00000E+00
         0.00000E+00
         0.00000E+00
         0.00000E+00
         0.00000E+00
         0.00000E+00
         0.00000E+00
         0.00000E+00
         0.00000E+00
         0.00000E+00
         0.00000E+00
         0.00000E+00
         0.00000E+00
         0.00000E+00
         0.00000E+00
         0.00000E+00
         0.00000E+00
         0.00000E+00
         0.00000E+00
         0.00000E+00
         0.00000E+00
         0.00000E+00
         0.00000E+00
         0.00000E+00
         0.00000E+00
         0.00000E+00
         0.00000E+00
         0.00000E+00
         0.00000E+00
         0.00000E+00
         0.00000E+00
         0.00000E+00
         0.00000E+00
         0.00000E+00
         0.00000E+00
         0.00000E+00
         0.00000E+00
         0.00000E+00
         0.00000E+00
         0.00000E+00
         0.00000E+00
         0.00000E+00
         0.00000E+00
         0.00000E+00
         0.00000E+00
         0.00000E+00
         0.00000E+00
         0.00000E+00
         0.00000E+00
         0.00000E+00
         0.00000E+00
         0.00000E+00
         0.00000E+00
         0.00000E+00
         0.00000E+00
         0.00000E+00
         0.00000E+00
         0.00000E+00
         0.00000E+00
         0.00000E+00
         0.00000E+00
         0.00000E+00
         0.00000E+00
         0.00000E+00
         0.00000E+00
         0.00000E+00
         0.00000E+00
         0.00000E+00
         0.00000E+00
         0.00000E+00
         0.00000E+00
         0.00000E+00
         0.00000E+00
         0.00000E+00
         0.00000E+00
         0.00000E+00
         0.00000E+00
         0.00000E+00
         0.00000E+00
         0.00000E+00
         0.00000E+00
         0.00000E+00
         0.00000E+00
         0.00000E+00
         0.00000E+00
         0.00000E+00
         0.00000E+00
         0.00000E+00
         0.00000E+00
         0.00000E+00
         0.00000E+00
         0.00000E+00
         0.00000E+00
         0.00000E+00
         0.00000E+00
         0.00000E+00
         0.00000E+00
         0.00000E+00
         0.00000E+00
         0.00000E+00
         0.00000E+00
         0.00000E+00
         0.00000E+00
         0.00000E+00
         0.00000E+00
         0.00000E+00
         0.00000E+00
         0.00000E+00
         0.00000E+00
         0.00000E+00
         0.00000E+00
         0.00000E+00
         0.00000E+00
         0.00000E+00
         0.00000E+00
         0.00000E+00
         0.00000E+00
         0.00000E+00
         0.00000E+00
         0.00000E+00
         0.00000E+00
         0.00000E+00
         0.00000E+00
         0.00000E+00
         0.00000E+00
         0.00000E+00
         0.00000E+00
         0.00000E+00
         0.00000E+00
         0.00000E+00
         0.00000E+00
         0.00000E+00
         0.00000E+00
         0.00000E+00
         0.00000E+00
         0.00000E+00
         0.00000E+00
         0.00000E+00
         0.00000E+00
         0.00000E+00
         0.00000E+00
         0.00000E+00
         0.00000E+00
         0.00000E+00
         0.00000E+00
         0.00000E+00
         0.00000E+00
         0.00000E+00
         0.00000E+00
         0.00000E+00
         0.00000E+00
         0.00000E+00
         0.00000E+00
         0.00000E+00
         0.00000E+00
         0.00000E+00
         0.00000E+00
         0.00000E+00
         0.00000E+00
         0.00000E+00
         0.00000E+00
         0.00000E+00
         0.00000E+00
         0.00000E+00
         0.00000E+00
         0.00000E+00
         0.00000E+00
         0.00000E+00
         0.00000E+00
         0.00000E+00
         0.00000E+00
         0.00000E+00
         0.00000E+00
         0.00000E+00
         0.00000E+00
         0.00000E+00
         0.00000E+00
         0.00000E+00
         0.00000E+00
         0.00000E+00
         0.00000E+00
         0.00000E+00
         0.00000E+00
         0.00000E+00
         0.00000E+00
         0.00000E+00
         0.00000E+00
         0.00000E+00
         0.00000E+00
         0.00000E+00
         0.00000E+00
         0.00000E+00
         0.00000E+00
         0.00000E+00
         0.00000E+00
         0.00000E+00
         0.00000E+00
         0.00000E+00
         0.00000E+00
         0.00000E+00
         0.00000E+00
         0.00000E+00
         0.00000E+00
         0.00000E+00
         0.00000E+00
         0.00000E+00
         0.00000E+00
         0.00000E+00
         0.00000E+00
         0.00000E+00
         0.00000E+00
         0.00000E+00
         0.00000E+00
         0.00000E+00
         0.00000E+00
         0.00000E+00
         0.00000E+00
         0.00000E+00
         0.00000E+00
         0.00000E+00
         0.00000E+00
         0.00000E+00
         0.00000E+00
         0.00000E+00
         0.00000E+00
         0.00000E+00
         0.00000E+00
         0.00000E+00
         0.00000E+00
         0.00000E+00
         0.00000E+00
         0.00000E+00
         0.00000E+00
         0.00000E+00
         0.00000E+00
         0.00000E+00
         0.00000E+00
         0.00000E+00
         0.00000E+00
         0.00000E+00
         0.00000E+00
         0.00000E+00
         0.00000E+00
         0.00000E+00
         0.00000E+00
         0.00000E+00
         0.00000E+00
         0.00000E+00
         0.00000E+00
         0.00000E+00
         0.00000E+00
         0.00000E+00
         0.00000E+00
         0.00000E+00
         0.00000E+00
         0.00000E+00
         0.00000E+00
         0.00000E+00
         0.00000E+00
         0.00000E+00
         0.00000E+00
         0.00000E+00
         0.00000E+00
         0.00000E+00
         0.00000E+00
         0.00000E+00
         0.00000E+00
         0.00000E+00
         0.00000E+00
         0.00000E+00
         0.00000E+00
         0.00000E+00
         0.00000E+00
         0.00000E+00
         0.00000E+00
         0.00000E+00
         0.00000E+00
         0.00000E+00
         0.00000E+00
         0.00000E+00
         0.00000E+00
         0.00000E+00
         0.00000E+00
         0.00000E+00
         0.00000E+00
         0.00000E+00
         0.00000E+00
         0.00000E+00
         0.00000E+00
         0.00000E+00
         0.00000E+00
         0.00000E+00
         0.00000E+00
         0.00000E+00
         0.00000E+00
         0.00000E+00
         0.00000E+00
         0.00000E+00
         0.00000E+00
         0.00000E+00
         0.00000E+00
         0.00000E+00
         0.00000E+00
         0.00000E+00
         0.00000E+00
         0.00000E+00
         0.00000E+00
         0.00000E+00
         0.00000E+00
         0.00000E+00
         0.00000E+00
         0.00000E+00
         0.00000E+00
         0.00000E+00
         0.00000E+00
         0.00000E+00
         0.00000E+00
         0.00000E+00
         0.00000E+00
         0.00000E+00
         0.00000E+00
         0.00000E+00
         0.00000E+00
         0.00000E+00
         0.00000E+00
         0.00000E+00
         0.00000E+00
         0.00000E+00
         0.00000E+00
         0.00000E+00
         0.00000E+00
         0.00000E+00
         0.00000E+00
         0.00000E+00
         0.00000E+00
         0.00000E+00
         0.00000E+00
         0.00000E+00
         0.00000E+00
         0.00000E+00
         0.00000E+00
         0.00000E+00
         0.00000E+00
         0.00000E+00
         0.00000E+00
         0.00000E+00
         0.00000E+00
         0.00000E+00
         0.00000E+00
         0.00000E+00
         0.00000E+00
         0.00000E+00
         0.00000E+00
         0.00000E+00
         0.00000E+00
         0.00000E+00
         0.00000E+00
         0.00000E+00
         0.00000E+00
         0.00000E+00
         0.00000E+00
         0.00000E+00
         0.00000E+00
         0.00000E+00
         0.00000E+00
         0.00000E+00
         0.00000E+00
         0.00000E+00
         0.00000E+00
         0.00000E+00
         0.00000E+00
         0.00000E+00
         0.00000E+00
         0.00000E+00
         0.00000E+00
         0.00000E+00
         0.00000E+00
         0.00000E+00
         0.00000E+00
         0.00000E+00
         0.00000E+00
         0.00000E+00
         0.00000E+00
         0.00000E+00
         0.00000E+00
         0.00000E+00
         0.00000E+00
         0.00000E+00
         0.00000E+00
         0.00000E+00
         0.00000E+00
         0.00000E+00
         0.00000E+00
         0.00000E+00
         0.00000E+00
         0.00000E+00
         0.00000E+00
         0.00000E+00
         0.00000E+00
         0.00000E+00
         0.00000E+00
         0.00000E+00
         0.00000E+00
         0.00000E+00
         0.00000E+00
         0.00000E+00
         0.00000E+00
         0.00000E+00
         0.00000E+00
         0.00000E+00
         0.00000E+00
         0.00000E+00
         0.00000E+00
         0.00000E+00
         0.00000E+00
         0.00000E+00
         0.00000E+00
         0.00000E+00
         0.00000E+00
         0.00000E+00
         0.00000E+00
         0.00000E+00
         0.00000E+00
         0.00000E+00
         0.00000E+00
         0.00000E+00
         0.00000E+00
         0.00000E+00
         0.00000E+00
         0.00000E+00
         0.00000E+00
         0.00000E+00
         0.00000E+00
         0.00000E+00
         0.00000E+00
         0.00000E+00
         0.00000E+00
         0.00000E+00
         0.00000E+00
         0.00000E+00
         0.00000E+00
         0.00000E+00
         0.00000E+00
         0.00000E+00
         0.00000E+00
         0.00000E+00
         0.00000E+00
         0.00000E+00
         0.00000E+00
         0.00000E+00
         0.00000E+00
         0.00000E+00
         0.00000E+00
         0.00000E+00
         0.00000E+00
         0.00000E+00
         0.00000E+00
         0.00000E+00
         0.00000E+00
         0.00000E+00
         0.00000E+00
         0.00000E+00
         0.00000E+00
         0.00000E+00
         0.00000E+00
         0.00000E+00
         0.00000E+00
         0.00000E+00
         0.00000E+00
         0.00000E+00
         0.00000E+00
         0.00000E+00
         0.00000E+00
         0.00000E+00
         0.00000E+00
         0.00000E+00
         0.00000E+00
         0.00000E+00
         0.00000E+00
         0.00000E+00
         0.00000E+00
         0.00000E+00
         0.00000E+00
         0.00000E+00
         0.00000E+00
         0.00000E+00
         0.00000E+00
         0.00000E+00
         0.00000E+00
         0.00000E+00
         0.00000E+00
         0.00000E+00
         0.00000E+00
         0.00000E+00
         0.00000E+00
         0.00000E+00
         0.00000E+00
         0.00000E+00
         0.00000E+00
         0.00000E+00
         0.00000E+00
         0.00000E+00
         0.00000E+00
         0.00000E+00
         0.00000E+00
         0.00000E+00
         0.00000E+00
         0.00000E+00
         0.00000E+00
         0.00000E+00
         0.00000E+00
         0.00000E+00
         0.00000E+00
         0.00000E+00
         0.00000E+00
         0.00000E+00
         0.00000E+00
         0.00000E+00
         0.00000E+00
         0.00000E+00
         0.00000E+00
         0.00000E+00
         0.00000E+00
         0.00000E+00
         0.00000E+00
         0.00000E+00
         0.00000E+00
         0.00000E+00
         0.00000E+00
         0.00000E+00
         0.00000E+00
         0.00000E+00
         0.00000E+00
         0.00000E+00
         0.00000E+00
         0.00000E+00
         0.00000E+00
         0.00000E+00
         0.00000E+00
         0.00000E+00
         0.00000E+00
         0.00000E+00
         0.00000E+00
         0.00000E+00
         0.00000E+00
         0.00000E+00
         0.00000E+00
         0.00000E+00
         0.00000E+00
         0.00000E+00
         0.00000E+00
         0.00000E+00
         0.00000E+00
         0.00000E+00
         0.00000E+00
         0.00000E+00
         0.00000E+00
         0.00000E+00
         0.00000E+00
         0.00000E+00
         0.00000E+00
         0.00000E+00
         0.00000E+00
         0.00000E+00
         0.00000E+00
         0.00000E+00
         0.00000E+00
         0.00000E+00
         0.00000E+00
         0.00000E+00
         0.00000E+00
         0.00000E+00
         0.00000E+00
         0.00000E+00
         0.00000E+00
         0.00000E+00
         0.00000E+00
         0.00000E+00
         0.00000E+00
         0.00000E+00
         0.00000E+00
         0.00000E+00
         0.00000E+00
         0.00000E+00
         0.00000E+00
         0.00000E+00
         0.00000E+00
         0.00000E+00
         0.00000E+00
         0.00000E+00
         0.00000E+00
         0.00000E+00
         0.00000E+00
         0.00000E+00
         0.00000E+00
         0.00000E+00
         0.00000E+00
         0.00000E+00
         0.00000E+00
         0.00000E+00
         0.00000E+00
         0.00000E+00
         0.00000E+00
         0.00000E+00
         0.00000E+00
         0.00000E+00
         0.00000E+00
         0.00000E+00
         0.00000E+00
         0.00000E+00
         0.00000E+00
         0.00000E+00
         0.00000E+00
         0.00000E+00
         0.00000E+00
         0.00000E+00
         0.00000E+00
         0.00000E+00
         0.00000E+00
         0.00000E+00
         0.00000E+00
         0.00000E+00
         0.00000E+00
         0.00000E+00
         0.00000E+00
         0.00000E+00
         0.00000E+00
         0.00000E+00
         0.00000E+00
         0.00000E+00
         0.00000E+00
         0.00000E+00
         0.00000E+00
         0.00000E+00
         0.00000E+00
         0.00000E+00
         0.00000E+00
         0.00000E+00
         0.00000E+00
         0.00000E+00
         0.00000E+00
         0.00000E+00
         0.00000E+00
         0.00000E+00
         0.00000E+00
         0.00000E+00
         0.00000E+00
         0.00000E+00
         0.00000E+00
         0.00000E+00
         0.00000E+00
         0.00000E+00
         0.00000E+00
         0.00000E+00
         0.00000E+00
         0.00000E+00
         0.00000E+00
         0.00000E+00
         0.00000E+00
         0.00000E+00
         0.00000E+00
         0.00000E+00
         0.00000E+00
         0.00000E+00
         0.00000E+00
         0.00000E+00
         0.00000E+00
         0.00000E+00
         0.00000E+00
         0.00000E+00
         0.00000E+00
         0.00000E+00
         0.00000E+00
         0.00000E+00
         0.00000E+00
         0.00000E+00
         0.00000E+00
         0.00000E+00
         0.00000E+00
         0.00000E+00
         0.00000E+00
         0.00000E+00
         0.00000E+00
         0.00000E+00
         0.00000E+00
         0.00000E+00
         0.00000E+00
         0.00000E+00
         0.00000E+00
         0.00000E+00
         0.00000E+00
         0.00000E+00
         0.00000E+00
         0.00000E+00
         0.00000E+00
         0.00000E+00
         0.00000E+00
         0.00000E+00
         0.00000E+00
         0.00000E+00
         0.00000E+00
         0.00000E+00
         0.00000E+00
         0.00000E+00
         0.00000E+00
         0.00000E+00
         0.00000E+00
         0.00000E+00
         0.00000E+00
         0.00000E+00
         0.00000E+00
         0.00000E+00
         0.00000E+00
         0.00000E+00
         0.00000E+00
         0.00000E+00
         0.00000E+00
         0.00000E+00
         0.00000E+00
         0.00000E+00
         0.00000E+00
         0.00000E+00
         0.00000E+00
         0.00000E+00
         0.00000E+00
         0.00000E+00
         0.00000E+00
         0.00000E+00
         0.00000E+00
         0.00000E+00
         0.00000E+00
         0.00000E+00
         0.00000E+00
         0.00000E+00
         0.00000E+00
         0.00000E+00
         0.00000E+00
         0.00000E+00
         0.00000E+00
         0.00000E+00
         0.00000E+00
         0.00000E+00
         0.00000E+00
         0.00000E+00
         0.00000E+00
         0.00000E+00
         0.00000E+00
         0.00000E+00
         0.00000E+00
         0.00000E+00
         0.00000E+00
         0.00000E+00
         0.00000E+00
         0.00000E+00
         0.00000E+00
         0.00000E+00
         0.00000E+00
         0.00000E+00
         0.00000E+00
         0.00000E+00
         0.00000E+00
         0.00000E+00
         0.00000E+00
         0.00000E+00
         0.00000E+00
         0.00000E+00
         0.00000E+00
         0.00000E+00
         0.00000E+00
         0.00000E+00
         0.00000E+00
         0.00000E+00
         0.00000E+00
         0.00000E+00
         0.00000E+00
         0.00000E+00
         0.00000E+00
         0.00000E+00
         0.00000E+00
         0.00000E+00
         0.00000E+00
         0.00000E+00
         0.00000E+00
         0.00000E+00
         0.00000E+00
         0.00000E+00
         0.00000E+00
         0.00000E+00
         0.00000E+00
         0.00000E+00
         0.00000E+00
         0.00000E+00
         0.00000E+00
         0.00000E+00
         0.00000E+00
         0.00000E+00
         0.00000E+00
         0.00000E+00
         0.00000E+00
         0.00000E+00
         0.00000E+00
         0.00000E+00
         0.00000E+00
         0.00000E+00
         0.00000E+00
         0.00000E+00
         0.00000E+00
         0.00000E+00
  
SCALARS                     velocity_y  double 1
LOOKUP_TABLE default
         0.00000E+00
         0.00000E+00
         0.00000E+00
         0.00000E+00
         0.00000E+00
         0.00000E+00
         0.00000E+00
         0.00000E+00
         0.00000E+00
         0.00000E+00
         0.00000E+00
         0.00000E+00
         0.00000E+00
         0.00000E+00
         0.00000E+00
         0.00000E+00
         0.00000E+00
         0.00000E+00
         0.00000E+00
         0.00000E+00
         0.00000E+00
         0.00000E+00
         0.00000E+00
         0.00000E+00
         0.00000E+00
         0.00000E+00
         0.00000E+00
         0.00000E+00
         0.00000E+00
         0.00000E+00
         0.00000E+00
         0.00000E+00
         0.00000E+00
         0.00000E+00
         0.00000E+00
         0.00000E+00
         0.00000E+00
         0.00000E+00
         0.00000E+00
         0.00000E+00
         0.00000E+00
         0.00000E+00
         0.00000E+00
         0.00000E+00
         0.00000E+00
         0.00000E+00
         0.00000E+00
         0.00000E+00
         0.00000E+00
         0.00000E+00
         0.00000E+00
         0.00000E+00
         0.00000E+00
         0.00000E+00
         0.00000E+00
         0.00000E+00
         0.00000E+00
         0.00000E+00
         0.00000E+00
         0.00000E+00
         0.00000E+00
         0.00000E+00
         0.00000E+00
         0.00000E+00
         0.00000E+00
         0.00000E+00
         0.00000E+00
         0.00000E+00
         0.00000E+00
         0.00000E+00
         0.00000E+00
         0.00000E+00
         0.00000E+00
         0.00000E+00
         0.00000E+00
         0.00000E+00
         0.00000E+00
         0.00000E+00
         0.00000E+00
         0.00000E+00
         0.00000E+00
         0.00000E+00
         0.00000E+00
         0.00000E+00
         0.00000E+00
         0.00000E+00
         0.00000E+00
         0.00000E+00
         0.00000E+00
         0.00000E+00
         0.00000E+00
         0.00000E+00
         0.00000E+00
         0.00000E+00
         0.00000E+00
         0.00000E+00
         0.00000E+00
         0.00000E+00
         0.00000E+00
         0.00000E+00
         0.00000E+00
         0.00000E+00
         0.00000E+00
         0.00000E+00
         0.00000E+00
         0.00000E+00
         0.00000E+00
         0.00000E+00
         0.00000E+00
         0.00000E+00
         0.00000E+00
         0.00000E+00
         0.00000E+00
         0.00000E+00
         0.00000E+00
         0.00000E+00
         0.00000E+00
         0.00000E+00
         0.00000E+00
         0.00000E+00
         0.00000E+00
         0.00000E+00
         0.00000E+00
         0.00000E+00
         0.00000E+00
         0.00000E+00
         0.00000E+00
         0.00000E+00
         0.00000E+00
         0.00000E+00
         0.00000E+00
         0.00000E+00
         0.00000E+00
         0.00000E+00
         0.00000E+00
         0.00000E+00
         0.00000E+00
         0.00000E+00
         0.00000E+00
         0.00000E+00
         0.00000E+00
         0.00000E+00
         0.00000E+00
         0.00000E+00
         0.00000E+00
         0.00000E+00
         0.00000E+00
         0.00000E+00
         0.00000E+00
         0.00000E+00
         0.00000E+00
         0.00000E+00
         0.00000E+00
         0.00000E+00
         0.00000E+00
         0.00000E+00
         0.00000E+00
         0.00000E+00
         0.00000E+00
         0.00000E+00
         0.00000E+00
         0.00000E+00
         0.00000E+00
         0.00000E+00
         0.00000E+00
         0.00000E+00
         0.00000E+00
         0.00000E+00
         0.00000E+00
         0.00000E+00
         0.00000E+00
         0.00000E+00
         0.00000E+00
         0.00000E+00
         0.00000E+00
         0.00000E+00
         0.00000E+00
         0.00000E+00
         0.00000E+00
         0.00000E+00
         0.00000E+00
         0.00000E+00
         0.00000E+00
         0.00000E+00
         0.00000E+00
         0.00000E+00
         0.00000E+00
         0.00000E+00
         0.00000E+00
         0.00000E+00
         0.00000E+00
         0.00000E+00
         0.00000E+00
         0.00000E+00
         0.00000E+00
         0.00000E+00
         0.00000E+00
         0.00000E+00
         0.00000E+00
         0.00000E+00
         0.00000E+00
         0.00000E+00
         0.00000E+00
         0.00000E+00
         0.00000E+00
         0.00000E+00
         0.00000E+00
         0.00000E+00
         0.00000E+00
         0.00000E+00
         0.00000E+00
         0.00000E+00
         0.00000E+00
         0.00000E+00
         0.00000E+00
         0.00000E+00
         0.00000E+00
         0.00000E+00
         0.00000E+00
         0.00000E+00
         0.00000E+00
         0.00000E+00
         0.00000E+00
         0.00000E+00
         0.00000E+00
         0.00000E+00
         0.00000E+00
         0.00000E+00
         0.00000E+00
         0.00000E+00
         0.00000E+00
         0.00000E+00
         0.00000E+00
         0.00000E+00
         0.00000E+00
         0.00000E+00
         0.00000E+00
         0.00000E+00
         0.00000E+00
         0.00000E+00
         0.00000E+00
         0.00000E+00
         0.00000E+00
         0.00000E+00
         0.00000E+00
         0.00000E+00
         0.00000E+00
         0.00000E+00
         0.00000E+00
         0.00000E+00
         0.00000E+00
         0.00000E+00
         0.00000E+00
         0.00000E+00
         0.00000E+00
         0.00000E+00
         0.00000E+00
         0.00000E+00
         0.00000E+00
         0.00000E+00
         0.00000E+00
         0.00000E+00
         0.00000E+00
         0.00000E+00
         0.00000E+00
         0.00000E+00
         0.00000E+00
         0.00000E+00
         0.00000E+00
         0.00000E+00
         0.00000E+00
         0.00000E+00
         0.00000E+00
         0.00000E+00
         0.00000E+00
         0.00000E+00
         0.00000E+00
         0.00000E+00
         0.00000E+00
         0.00000E+00
         0.00000E+00
         0.00000E+00
         0.00000E+00
         0.00000E+00
         0.00000E+00
         0.00000E+00
         0.00000E+00
         0.00000E+00
         0.00000E+00
         0.00000E+00
         0.00000E+00
         0.00000E+00
         0.00000E+00
         0.00000E+00
         0.00000E+00
         0.00000E+00
         0.00000E+00
         0.00000E+00
         0.00000E+00
         0.00000E+00
         0.00000E+00
         0.00000E+00
         0.00000E+00
         0.00000E+00
         0.00000E+00
         0.00000E+00
         0.00000E+00
         0.00000E+00
         0.00000E+00
         0.00000E+00
         0.00000E+00
         0.00000E+00
         0.00000E+00
         0.00000E+00
         0.00000E+00
         0.00000E+00
         0.00000E+00
         0.00000E+00
         0.00000E+00
         0.00000E+00
         0.00000E+00
         0.00000E+00
         0.00000E+00
         0.00000E+00
         0.00000E+00
         0.00000E+00
         0.00000E+00
         0.00000E+00
         0.00000E+00
         0.00000E+00
         0.00000E+00
         0.00000E+00
         0.00000E+00
         0.00000E+00
         0.00000E+00
         0.00000E+00
         0.00000E+00
         0.00000E+00
         0.00000E+00
         0.00000E+00
         0.00000E+00
         0.00000E+00
         0.00000E+00
         0.00000E+00
         0.00000E+00
         0.00000E+00
         0.00000E+00
         0.00000E+00
         0.00000E+00
         0.00000E+00
         0.00000E+00
         0.00000E+00
         0.00000E+00
         0.00000E+00
         0.00000E+00
         0.00000E+00
         0.00000E+00
         0.00000E+00
         0.00000E+00
         0.00000E+00
         0.00000E+00
         0.00000E+00
         0.00000E+00
         0.00000E+00
         0.00000E+00
         0.00000E+00
         0.00000E+00
         0.00000E+00
         0.00000E+00
         0.00000E+00
         0.00000E+00
         0.00000E+00
         0.00000E+00
         0.00000E+00
         0.00000E+00
         0.00000E+00
         0.00000E+00
         0.00000E+00
         0.00000E+00
         0.00000E+00
         0.00000E+00
         0.00000E+00
         0.00000E+00
         0.00000E+00
         0.00000E+00
         0.00000E+00
         0.00000E+00
         0.00000E+00
         0.00000E+00
         0.00000E+00
         0.00000E+00
         0.00000E+00
         0.00000E+00
         0.00000E+00
         0.00000E+00
         0.00000E+00
         0.00000E+00
         0.00000E+00
         0.00000E+00
         0.00000E+00
         0.00000E+00
         0.00000E+00
         0.00000E+00
         0.00000E+00
         0.00000E+00
         0.00000E+00
         0.00000E+00
         0.00000E+00
         0.00000E+00
         0.00000E+00
         0.00000E+00
         0.00000E+00
         0.00000E+00
         0.00000E+00
         0.00000E+00
         0.00000E+00
         0.00000E+00
         0.00000E+00
         0.00000E+00
         0.00000E+00
         0.00000E+00
         0.00000E+00
         0.00000E+00
         0.00000E+00
         0.00000E+00
         0.00000E+00
         0.00000E+00
         0.00000E+00
         0.00000E+00
         0.00000E+00
         0.00000E+00
         0.00000E+00
         0.00000E+00
         0.00000E+00
         0.00000E+00
         0.00000E+00
         0.00000E+00
         0.00000E+00
         0.00000E+00
         0.00000E+00
         0.00000E+00
         0.00000E+00
         0.00000E+00
         0.00000E+00
         0.00000E+00
         0.00000E+00
         0.00000E+00
         0.00000E+00
         0.00000E+00
         0.00000E+00
         0.00000E+00
         0.00000E+00
         0.00000E+00
         0.00000E+00
         0.00000E+00
         0.00000E+00
         0.00000E+00
         0.00000E+00
         0.00000E+00
         0.00000E+00
         0.00000E+00
         0.00000E+00
         0.00000E+00
         0.00000E+00
         0.00000E+00
         0.00000E+00
         0.00000E+00
         0.00000E+00
         0.00000E+00
         0.00000E+00
         0.00000E+00
         0.00000E+00
         0.00000E+00
         0.00000E+00
         0.00000E+00
         0.00000E+00
         0.00000E+00
         0.00000E+00
         0.00000E+00
         0.00000E+00
         0.00000E+00
         0.00000E+00
         0.00000E+00
         0.00000E+00
         0.00000E+00
         0.00000E+00
         0.00000E+00
         0.00000E+00
         0.00000E+00
         0.00000E+00
         0.00000E+00
         0.00000E+00
         0.00000E+00
         0.00000E+00
         0.00000E+00
         0.00000E+00
         0.00000E+00
         0.00000E+00
         0.00000E+00
         0.00000E+00
         0.00000E+00
         0.00000E+00
         0.00000E+00
         0.00000E+00
         0.00000E+00
         0.00000E+00
         0.00000E+00
         0.00000E+00
         0.00000E+00
         0.00000E+00
         0.00000E+00
         0.00000E+00
         0.00000E+00
         0.00000E+00
         0.00000E+00
         0.00000E+00
         0.00000E+00
         0.00000E+00
         0.00000E+00
         0.00000E+00
         0.00000E+00
         0.00000E+00
         0.00000E+00
         0.00000E+00
         0.00000E+00
         0.00000E+00
         0.00000E+00
         0.00000E+00
         0.00000E+00
         0.00000E+00
         0.00000E+00
         0.00000E+00
         0.00000E+00
         0.00000E+00
         0.00000E+00
         0.00000E+00
         0.00000E+00
         0.00000E+00
         0.00000E+00
         0.00000E+00
         0.00000E+00
         0.00000E+00
         0.00000E+00
         0.00000E+00
         0.00000E+00
         0.00000E+00
         0.00000E+00
         0.00000E+00
         0.00000E+00
         0.00000E+00
         0.00000E+00
         0.00000E+00
         0.00000E+00
         0.00000E+00
         0.00000E+00
         0.00000E+00
         0.00000E+00
         0.00000E+00
         0.00000E+00
         0.00000E+00
         0.00000E+00
         0.00000E+00
         0.00000E+00
         0.00000E+00
         0.00000E+00
         0.00000E+00
         0.00000E+00
         0.00000E+00
         0.00000E+00
         0.00000E+00
         0.00000E+00
         0.00000E+00
         0.00000E+00
         0.00000E+00
         0.00000E+00
         0.00000E+00
         0.00000E+00
         0.00000E+00
         0.00000E+00
         0.00000E+00
         0.00000E+00
         0.00000E+00
         0.00000E+00
         0.00000E+00
         0.00000E+00
         0.00000E+00
         0.00000E+00
         0.00000E+00
         0.00000E+00
         0.00000E+00
         0.00000E+00
         0.00000E+00
         0.00000E+00
         0.00000E+00
         0.00000E+00
         0.00000E+00
         0.00000E+00
         0.00000E+00
         0.00000E+00
         0.00000E+00
         0.00000E+00
         0.00000E+00
         0.00000E+00
         0.00000E+00
         0.00000E+00
         0.00000E+00
         0.00000E+00
         0.00000E+00
         0.00000E+00
         0.00000E+00
         0.00000E+00
         0.00000E+00
         0.00000E+00
         0.00000E+00
         0.00000E+00
         0.00000E+00
         0.00000E+00
         0.00000E+00
         0.00000E+00
         0.00000E+00
         0.00000E+00
         0.00000E+00
         0.00000E+00
         0.00000E+00
         0.00000E+00
         0.00000E+00
         0.00000E+00
         0.00000E+00
         0.00000E+00
         0.00000E+00
         0.00000E+00
         0.00000E+00
         0.00000E+00
         0.00000E+00
         0.00000E+00
         0.00000E+00
         0.00000E+00
         0.00000E+00
         0.00000E+00
         0.00000E+00
         0.00000E+00
         0.00000E+00
         0.00000E+00
         0.00000E+00
         0.00000E+00
         0.00000E+00
         0.00000E+00
         0.00000E+00
         0.00000E+00
         0.00000E+00
         0.00000E+00
         0.00000E+00
         0.00000E+00
         0.00000E+00
         0.00000E+00
         0.00000E+00
         0.00000E+00
         0.00000E+00
         0.00000E+00
         0.00000E+00
         0.00000E+00
         0.00000E+00
         0.00000E+00
         0.00000E+00
         0.00000E+00
         0.00000E+00
         0.00000E+00
         0.00000E+00
         0.00000E+00
         0.00000E+00
         0.00000E+00
         0.00000E+00
         0.00000E+00
         0.00000E+00
         0.00000E+00
         0.00000E+00
         0.00000E+00
         0.00000E+00
         0.00000E+00
         0.00000E+00
         0.00000E+00
         0.00000E+00
         0.00000E+00
         0.00000E+00
         0.00000E+00
         0.00000E+00
         0.00000E+00
         0.00000E+00
         0.00000E+00
         0.00000E+00
         0.00000E+00
         0.00000E+00
         0.00000E+00
         0.00000E+00
         0.00000E+00
         0.00000E+00
         0.00000E+00
         0.00000E+00
         0.00000E+00
         0.00000E+00
         0.00000E+00
         0.00000E+00
         0.00000E+00
         0.00000E+00
         0.00000E+00
         0.00000E+00
         0.00000E+00
         0.00000E+00
         0.00000E+00
         0.00000E+00
         0.00000E+00
         0.00000E+00
         0.00000E+00
         0.00000E+00
         0.00000E+00
         0.00000E+00
         0.00000E+00
         0.00000E+00
         0.00000E+00
         0.00000E+00
         0.00000E+00
         0.00000E+00
         0.00000E+00
         0.00000E+00
         0.00000E+00
         0.00000E+00
         0.00000E+00
         0.00000E+00
         0.00000E+00
         0.00000E+00
         0.00000E+00
         0.00000E+00
         0.00000E+00
         0.00000E+00
         0.00000E+00
         0.00000E+00
         0.00000E+00
         0.00000E+00
         0.00000E+00
         0.00000E+00
         0.00000E+00
         0.00000E+00
         0.00000E+00
         0.00000E+00
         0.00000E+00
         0.00000E+00
         0.00000E+00
         0.00000E+00
         0.00000E+00
         0.00000E+00
         0.00000E+00
         0.00000E+00
         0.00000E+00
         0.00000E+00
         0.00000E+00
         0.00000E+00
         0.00000E+00
         0.00000E+00
         0.00000E+00
         0.00000E+00
         0.00000E+00
         0.00000E+00
         0.00000E+00
         0.00000E+00
         0.00000E+00
         0.00000E+00
         0.00000E+00
         0.00000E+00
         0.00000E+00
         0.00000E+00
         0.00000E+00
         0.00000E+00
         0.00000E+00
         0.00000E+00
         0.00000E+00
         0.00000E+00
         0.00000E+00
         0.00000E+00
         0.00000E+00
         0.00000E+00
         0.00000E+00
         0.00000E+00
         0.00000E+00
         0.00000E+00
         0.00000E+00
         0.00000E+00
         0.00000E+00
         0.00000E+00
         0.00000E+00
         0.00000E+00
         0.00000E+00
         0.00000E+00
         0.00000E+00
         0.00000E+00
         0.00000E+00
         0.00000E+00
         0.00000E+00
         0.00000E+00
         0.00000E+00
         0.00000E+00
         0.00000E+00
         0.00000E+00
         0.00000E+00
         0.00000E+00
         0.00000E+00
         0.00000E+00
         0.00000E+00
         0.00000E+00
         0.00000E+00
         0.00000E+00
         0.00000E+00
         0.00000E+00
         0.00000E+00
         0.00000E+00
         0.00000E+00
         0.00000E+00
         0.00000E+00
         0.00000E+00
         0.00000E+00
         0.00000E+00
         0.00000E+00
         0.00000E+00
         0.00000E+00
         0.00000E+00
         0.00000E+00
         0.00000E+00
         0.00000E+00
         0.00000E+00
         0.00000E+00
         0.00000E+00
         0.00000E+00
         0.00000E+00
         0.00000E+00
         0.00000E+00
         0.00000E+00
         0.00000E+00
         0.00000E+00
         0.00000E+00
         0.00000E+00
         0.00000E+00
         0.00000E+00
         0.00000E+00
         0.00000E+00
         0.00000E+00
         0.00000E+00
         0.00000E+00
         0.00000E+00
         0.00000E+00
         0.00000E+00
         0.00000E+00
         0.00000E+00
         0.00000E+00
         0.00000E+00
         0.00000E+00
         0.00000E+00
         0.00000E+00
         0.00000E+00
         0.00000E+00
         0.00000E+00
         0.00000E+00
         0.00000E+00
         0.00000E+00
         0.00000E+00
         0.00000E+00
         0.00000E+00
         0.00000E+00
         0.00000E+00
         0.00000E+00
         0.00000E+00
         0.00000E+00
         0.00000E+00
         0.00000E+00
         0.00000E+00
         0.00000E+00
         0.00000E+00
         0.00000E+00
         0.00000E+00
         0.00000E+00
         0.00000E+00
         0.00000E+00
         0.00000E+00
         0.00000E+00
         0.00000E+00
         0.00000E+00
         0.00000E+00
         0.00000E+00
         0.00000E+00
         0.00000E+00
         0.00000E+00
         0.00000E+00
         0.00000E+00
         0.00000E+00
         0.00000E+00
         0.00000E+00
         0.00000E+00
         0.00000E+00
         0.00000E+00
         0.00000E+00
         0.00000E+00
         0.00000E+00
         0.00000E+00
         0.00000E+00
         0.00000E+00
         0.00000E+00
         0.00000E+00
         0.00000E+00
         0.00000E+00
         0.00000E+00
         0.00000E+00
         0.00000E+00
         0.00000E+00
         0.00000E+00
         0.00000E+00
         0.00000E+00
         0.00000E+00
         0.00000E+00
         0.00000E+00
         0.00000E+00
         0.00000E+00
         0.00000E+00
         0.00000E+00
         0.00000E+00
         0.00000E+00
         0.00000E+00
         0.00000E+00
         0.00000E+00
         0.00000E+00
         0.00000E+00
         0.00000E+00
         0.00000E+00
         0.00000E+00
         0.00000E+00
         0.00000E+00
         0.00000E+00
         0.00000E+00
         0.00000E+00
         0.00000E+00
         0.00000E+00
         0.00000E+00
         0.00000E+00
         0.00000E+00
         0.00000E+00
         0.00000E+00
         0.00000E+00
         0.00000E+00
         0.00000E+00
         0.00000E+00
         0.00000E+00
         0.00000E+00
         0.00000E+00
         0.00000E+00
         0.00000E+00
         0.00000E+00
         0.00000E+00
         0.00000E+00
         0.00000E+00
         0.00000E+00
         0.00000E+00
         0.00000E+00
         0.00000E+00
         0.00000E+00
         0.00000E+00
         0.00000E+00
         0.00000E+00
         0.00000E+00
         0.00000E+00
         0.00000E+00
         0.00000E+00
         0.00000E+00
         0.00000E+00
         0.00000E+00
         0.00000E+00
         0.00000E+00
         0.00000E+00
         0.00000E+00
         0.00000E+00
         0.00000E+00
         0.00000E+00
         0.00000E+00
         0.00000E+00
         0.00000E+00
         0.00000E+00
         0.00000E+00
         0.00000E+00
         0.00000E+00
         0.00000E+00
         0.00000E+00
         0.00000E+00
         0.00000E+00
         0.00000E+00
         0.00000E+00
         0.00000E+00
         0.00000E+00
         0.00000E+00
         0.00000E+00
         0.00000E+00
         0.00000E+00
         0.00000E+00
         0.00000E+00
         0.00000E+00
         0.00000E+00
         0.00000E+00
         0.00000E+00
         0.00000E+00
         0.00000E+00
         0.00000E+00
         0.00000E+00
         0.00000E+00
         0.00000E+00
         0.00000E+00
         0.00000E+00
         0.00000E+00
         0.00000E+00
         0.00000E+00
         0.00000E+00
         0.00000E+00
         0.00000E+00
         0.00000E+00
         0.00000E+00
         0.00000E+00
         0.00000E+00
         0.00000E+00
         0.00000E+00
         0.00000E+00
         0.00000E+00
         0.00000E+00
         0.00000E+00
         0.00000E+00
         0.00000E+00
         0.00000E+00
         0.00000E+00
         0.00000E+00
         0.00000E+00
         0.00000E+00
         0.00000E+00
         0.00000E+00
         0.00000E+00
         0.00000E+00
         0.00000E+00
         0.00000E+00
         0.00000E+00
         0.00000E+00
         0.00000E+00
         0.00000E+00
         0.00000E+00
         0.00000E+00
         0.00000E+00
         0.00000E+00
         0.00000E+00
         0.00000E+00
         0.00000E+00
         0.00000E+00
         0.00000E+00
         0.00000E+00
         0.00000E+00
         0.00000E+00
         0.00000E+00
         0.00000E+00
         0.00000E+00
         0.00000E+00
         0.00000E+00
         0.00000E+00
         0.00000E+00
         0.00000E+00
         0.00000E+00
         0.00000E+00
         0.00000E+00
         0.00000E+00
         0.00000E+00
         0.00000E+00
         0.00000E+00
         0.00000E+00
         0.00000E+00
         0.00000E+00
         0.00000E+00
         0.00000E+00
         0.00000E+00
         0.00000E+00
         0.00000E+00
         0.00000E+00
         0.00000E+00
         0.00000E+00
         0.00000E+00
         0.00000E+00
         0.00000E+00
         0.00000E+00
         0.00000E+00
         0.00000E+00
         0.00000E+00
         0.00000E+00
         0.00000E+00
         0.00000E+00
         0.00000E+00
         0.00000E+00
         0.00000E+00
         0.00000E+00
         0.00000E+00
         0.00000E+00
         0.00000E+00
         0.00000E+00
         0.00000E+00
         0.00000E+00
         0.00000E+00
         0.00000E+00
         0.00000E+00
         0.00000E+00
         0.00000E+00
         0.00000E+00
         0.00000E+00
         0.00000E+00
         0.00000E+00
         0.00000E+00
         0.00000E+00
         0.00000E+00
         0.00000E+00
         0.00000E+00
         0.00000E+00
         0.00000E+00
         0.00000E+00
         0.00000E+00
         0.00000E+00
         0.00000E+00
         0.00000E+00
         0.00000E+00
         0.00000E+00
         0.00000E+00
         0.00000E+00
         0.00000E+00
         0.00000E+00
         0.00000E+00
         0.00000E+00
         0.00000E+00
         0.00000E+00
         0.00000E+00
         0.00000E+00
         0.00000E+00
         0.00000E+00
         0.00000E+00
         0.00000E+00
         0.00000E+00
         0.00000E+00
         0.00000E+00
         0.00000E+00
         0.00000E+00
         0.00000E+00
         0.00000E+00
         0.00000E+00
         0.00000E+00
         0.00000E+00
         0.00000E+00
         0.00000E+00
         0.00000E+00
         0.00000E+00
         0.00000E+00
         0.00000E+00
         0.00000E+00
         0.00000E+00
         0.00000E+00
         0.00000E+00
         0.00000E+00
         0.00000E+00
         0.00000E+00
         0.00000E+00
         0.00000E+00
         0.00000E+00
         0.00000E+00
         0.00000E+00
         0.00000E+00
         0.00000E+00
         0.00000E+00
         0.00000E+00
         0.00000E+00
         0.00000E+00
         0.00000E+00
         0.00000E+00
         0.00000E+00
         0.00000E+00
         0.00000E+00
         0.00000E+00
         0.00000E+00
         0.00000E+00
         0.00000E+00
         0.00000E+00
         0.00000E+00
         0.00000E+00
         0.00000E+00
         0.00000E+00
         0.00000E+00
         0.00000E+00
         0.00000E+00
         0.00000E+00
         0.00000E+00
         0.00000E+00
         0.00000E+00
         0.00000E+00
         0.00000E+00
         0.00000E+00
         0.00000E+00
         0.00000E+00
         0.00000E+00
         0.00000E+00
         0.00000E+00
         0.00000E+00
         0.00000E+00
         0.00000E+00
         0.00000E+00
         0.00000E+00
         0.00000E+00
         0.00000E+00
         0.00000E+00
         0.00000E+00
         0.00000E+00
         0.00000E+00
         0.00000E+00
         0.00000E+00
         0.00000E+00
         0.00000E+00
         0.00000E+00
         0.00000E+00
         0.00000E+00
         0.00000E+00
         0.00000E+00
         0.00000E+00
         0.00000E+00
         0.00000E+00
         0.00000E+00
         0.00000E+00
         0.00000E+00
         0.00000E+00
         0.00000E+00
         0.00000E+00
         0.00000E+00
         0.00000E+00
         0.00000E+00
         0.00000E+00
         0.00000E+00
         0.00000E+00
         0.00000E+00
         0.00000E+00
         0.00000E+00
         0.00000E+00
         0.00000E+00
         0.00000E+00
         0.00000E+00
         0.00000E+00
         0.00000E+00
         0.00000E+00
         0.00000E+00
         0.00000E+00
         0.00000E+00
         0.00000E+00
         0.00000E+00
         0.00000E+00
         0.00000E+00
         0.00000E+00
         0.00000E+00
         0.00000E+00
         0.00000E+00
         0.00000E+00
         0.00000E+00
         0.00000E+00
         0.00000E+00
         0.00000E+00
         0.00000E+00
         0.00000E+00
         0.00000E+00
         0.00000E+00
         0.00000E+00
         0.00000E+00
         0.00000E+00
         0.00000E+00
         0.00000E+00
         0.00000E+00
         0.00000E+00
         0.00000E+00
         0.00000E+00
         0.00000E+00
         0.00000E+00
         0.00000E+00
         0.00000E+00
         0.00000E+00
         0.00000E+00
         0.00000E+00
         0.00000E+00
         0.00000E+00
         0.00000E+00
         0.00000E+00
         0.00000E+00
         0.00000E+00
         0.00000E+00
         0.00000E+00
         0.00000E+00
         0.00000E+00
         0.00000E+00
         0.00000E+00
         0.00000E+00
         0.00000E+00
         0.00000E+00
         0.00000E+00
         0.00000E+00
         0.00000E+00
         0.00000E+00
         0.00000E+00
         0.00000E+00
         0.00000E+00
         0.00000E+00
         0.00000E+00
         0.00000E+00
         0.00000E+00
         0.00000E+00
         0.00000E+00
         0.00000E+00
         0.00000E+00
         0.00000E+00
         0.00000E+00
         0.00000E+00
         0.00000E+00
         0.00000E+00
         0.00000E+00
         0.00000E+00
         0.00000E+00
         0.00000E+00
         0.00000E+00
         0.00000E+00
         0.00000E+00
         0.00000E+00
         0.00000E+00
         0.00000E+00
         0.00000E+00
         0.00000E+00
         0.00000E+00
         0.00000E+00
         0.00000E+00
         0.00000E+00
         0.00000E+00
         0.00000E+00
         0.00000E+00
         0.00000E+00
         0.00000E+00
         0.00000E+00
         0.00000E+00
         0.00000E+00
         0.00000E+00
         0.00000E+00
         0.00000E+00
         0.00000E+00
         0.00000E+00
         0.00000E+00
         0.00000E+00
         0.00000E+00
         0.00000E+00
         0.00000E+00
         0.00000E+00
         0.00000E+00
         0.00000E+00
         0.00000E+00
         0.00000E+00
         0.00000E+00
         0.00000E+00
         0.00000E+00
         0.00000E+00
         0.00000E+00
         0.00000E+00
         0.00000E+00
         0.00000E+00
         0.00000E+00
         0.00000E+00
         0.00000E+00
         0.00000E+00
         0.00000E+00
         0.00000E+00
         0.00000E+00
         0.00000E+00
         0.00000E+00
         0.00000E+00
         0.00000E+00
         0.00000E+00
         0.00000E+00
         0.00000E+00
         0.00000E+00
         0.00000E+00
         0.00000E+00
         0.00000E+00
         0.00000E+00
         0.00000E+00
         0.00000E+00
         0.00000E+00
         0.00000E+00
         0.00000E+00
         0.00000E+00
         0.00000E+00
         0.00000E+00
         0.00000E+00
         0.00000E+00
         0.00000E+00
         0.00000E+00
         0.00000E+00
         0.00000E+00
         0.00000E+00
         0.00000E+00
         0.00000E+00
         0.00000E+00
         0.00000E+00
         0.00000E+00
         0.00000E+00
         0.00000E+00
         0.00000E+00
         0.00000E+00
         0.00000E+00
         0.00000E+00
         0.00000E+00
         0.00000E+00
         0.00000E+00
         0.00000E+00
         0.00000E+00
         0.00000E+00
         0.00000E+00
         0.00000E+00
         0.00000E+00
         0.00000E+00
         0.00000E+00
         0.00000E+00
         0.00000E+00
         0.00000E+00
         0.00000E+00
         0.00000E+00
         0.00000E+00
         0.00000E+00
         0.00000E+00
         0.00000E+00
         0.00000E+00
         0.00000E+00
         0.00000E+00
         0.00000E+00
         0.00000E+00
         0.00000E+00
         0.00000E+00
         0.00000E+00
         0.00000E+00
         0.00000E+00
         0.00000E+00
         0.00000E+00
         0.00000E+00
         0.00000E+00
         0.00000E+00
         0.00000E+00
         0.00000E+00
         0.00000E+00
         0.00000E+00
         0.00000E+00
         0.00000E+00
         0.00000E+00
         0.00000E+00
         0.00000E+00
         0.00000E+00
         0.00000E+00
         0.00000E+00
         0.00000E+00
         0.00000E+00
         0.00000E+00
         0.00000E+00
         0.00000E+00
         0.00000E+00
         0.00000E+00
         0.00000E+00
         0.00000E+00
         0.00000E+00
         0.00000E+00
         0.00000E+00
         0.00000E+00
         0.00000E+00
         0.00000E+00
         0.00000E+00
         0.00000E+00
         0.00000E+00
         0.00000E+00
         0.00000E+00
         0.00000E+00
         0.00000E+00
         0.00000E+00
         0.00000E+00
         0.00000E+00
         0.00000E+00
         0.00000E+00
         0.00000E+00
         0.00000E+00
         0.00000E+00
         0.00000E+00
         0.00000E+00
         0.00000E+00
         0.00000E+00
         0.00000E+00
         0.00000E+00
         0.00000E+00
         0.00000E+00
         0.00000E+00
         0.00000E+00
         0.00000E+00
         0.00000E+00
         0.00000E+00
         0.00000E+00
         0.00000E+00
         0.00000E+00
         0.00000E+00
         0.00000E+00
         0.00000E+00
         0.00000E+00
         0.00000E+00
         0.00000E+00
         0.00000E+00
         0.00000E+00
         0.00000E+00
         0.00000E+00
         0.00000E+00
         0.00000E+00
         0.00000E+00
         0.00000E+00
         0.00000E+00
         0.00000E+00
         0.00000E+00
         0.00000E+00
         0.00000E+00
         0.00000E+00
         0.00000E+00
         0.00000E+00
         0.00000E+00
         0.00000E+00
         0.00000E+00
         0.00000E+00
         0.00000E+00
         0.00000E+00
         0.00000E+00
         0.00000E+00
         0.00000E+00
         0.00000E+00
         0.00000E+00
         0.00000E+00
         0.00000E+00
         0.00000E+00
         0.00000E+00
         0.00000E+00
         0.00000E+00
         0.00000E+00
         0.00000E+00
         0.00000E+00
         0.00000E+00
         0.00000E+00
         0.00000E+00
         0.00000E+00
         0.00000E+00
         0.00000E+00
         0.00000E+00
         0.00000E+00
         0.00000E+00
         0.00000E+00
         0.00000E+00
         0.00000E+00
         0.00000E+00
         0.00000E+00
         0.00000E+00
         0.00000E+00
         0.00000E+00
         0.00000E+00
         0.00000E+00
         0.00000E+00
         0.00000E+00
         0.00000E+00
         0.00000E+00
         0.00000E+00
         0.00000E+00
         0.00000E+00
         0.00000E+00
         0.00000E+00
         0.00000E+00
         0.00000E+00
         0.00000E+00
         0.00000E+00
         0.00000E+00
         0.00000E+00
         0.00000E+00
         0.00000E+00
         0.00000E+00
         0.00000E+00
         0.00000E+00
         0.00000E+00
         0.00000E+00
         0.00000E+00
         0.00000E+00
         0.00000E+00
         0.00000E+00
         0.00000E+00
         0.00000E+00
         0.00000E+00
         0.00000E+00
         0.00000E+00
         0.00000E+00
         0.00000E+00
         0.00000E+00
         0.00000E+00
         0.00000E+00
         0.00000E+00
         0.00000E+00
         0.00000E+00
         0.00000E+00
         0.00000E+00
         0.00000E+00
         0.00000E+00
         0.00000E+00
         0.00000E+00
         0.00000E+00
         0.00000E+00
         0.00000E+00
         0.00000E+00
         0.00000E+00
         0.00000E+00
         0.00000E+00
         0.00000E+00
         0.00000E+00
         0.00000E+00
         0.00000E+00
         0.00000E+00
         0.00000E+00
         0.00000E+00
         0.00000E+00
         0.00000E+00
         0.00000E+00
         0.00000E+00
         0.00000E+00
         0.00000E+00
         0.00000E+00
         0.00000E+00
         0.00000E+00
         0.00000E+00
         0.00000E+00
         0.00000E+00
         0.00000E+00
         0.00000E+00
         0.00000E+00
         0.00000E+00
         0.00000E+00
         0.00000E+00
         0.00000E+00
         0.00000E+00
         0.00000E+00
         0.00000E+00
         0.00000E+00
         0.00000E+00
         0.00000E+00
         0.00000E+00
         0.00000E+00
         0.00000E+00
         0.00000E+00
         0.00000E+00
         0.00000E+00
         0.00000E+00
         0.00000E+00
         0.00000E+00
         0.00000E+00
         0.00000E+00
         0.00000E+00
         0.00000E+00
         0.00000E+00
         0.00000E+00
         0.00000E+00
         0.00000E+00
         0.00000E+00
         0.00000E+00
         0.00000E+00
         0.00000E+00
         0.00000E+00
         0.00000E+00
         0.00000E+00
         0.00000E+00
         0.00000E+00
         0.00000E+00
         0.00000E+00
         0.00000E+00
         0.00000E+00
         0.00000E+00
         0.00000E+00
         0.00000E+00
         0.00000E+00
         0.00000E+00
         0.00000E+00
         0.00000E+00
         0.00000E+00
         0.00000E+00
         0.00000E+00
         0.00000E+00
         0.00000E+00
         0.00000E+00
         0.00000E+00
         0.00000E+00
         0.00000E+00
         0.00000E+00
         0.00000E+00
         0.00000E+00
         0.00000E+00
         0.00000E+00
         0.00000E+00
         0.00000E+00
         0.00000E+00
         0.00000E+00
         0.00000E+00
         0.00000E+00
         0.00000E+00
         0.00000E+00
         0.00000E+00
         0.00000E+00
         0.00000E+00
         0.00000E+00
         0.00000E+00
         0.00000E+00
         0.00000E+00
         0.00000E+00
         0.00000E+00
         0.00000E+00
         0.00000E+00
         0.00000E+00
         0.00000E+00
         0.00000E+00
         0.00000E+00
         0.00000E+00
         0.00000E+00
         0.00000E+00
         0.00000E+00
         0.00000E+00
         0.00000E+00
         0.00000E+00
         0.00000E+00
         0.00000E+00
         0.00000E+00
         0.00000E+00
         0.00000E+00
         0.00000E+00
         0.00000E+00
         0.00000E+00
         0.00000E+00
         0.00000E+00
         0.00000E+00
         0.00000E+00
         0.00000E+00
         0.00000E+00
         0.00000E+00
         0.00000E+00
         0.00000E+00
         0.00000E+00
         0.00000E+00
         0.00000E+00
         0.00000E+00
         0.00000E+00
         0.00000E+00
         0.00000E+00
         0.00000E+00
         0.00000E+00
         0.00000E+00
         0.00000E+00
         0.00000E+00
         0.00000E+00
         0.00000E+00
         0.00000E+00
         0.00000E+00
         0.00000E+00
         0.00000E+00
         0.00000E+00
         0.00000E+00
         0.00000E+00
         0.00000E+00
         0.00000E+00
         0.00000E+00
         0.00000E+00
         0.00000E+00
         0.00000E+00
         0.00000E+00
         0.00000E+00
         0.00000E+00
         0.00000E+00
         0.00000E+00
         0.00000E+00
         0.00000E+00
         0.00000E+00
         0.00000E+00
         0.00000E+00
         0.00000E+00
         0.00000E+00
         0.00000E+00
         0.00000E+00
         0.00000E+00
         0.00000E+00
         0.00000E+00
         0.00000E+00
         0.00000E+00
         0.00000E+00
         0.00000E+00
         0.00000E+00
         0.00000E+00
         0.00000E+00
         0.00000E+00
         0.00000E+00
         0.00000E+00
         0.00000E+00
         0.00000E+00
         0.00000E+00
         0.00000E+00
         0.00000E+00
         0.00000E+00
         0.00000E+00
         0.00000E+00
         0.00000E+00
         0.00000E+00
         0.00000E+00
         0.00000E+00
         0.00000E+00
         0.00000E+00
         0.00000E+00
         0.00000E+00
         0.00000E+00
         0.00000E+00
         0.00000E+00
         0.00000E+00
         0.00000E+00
         0.00000E+00
         0.00000E+00
         0.00000E+00
         0.00000E+00
         0.00000E+00
         0.00000E+00
         0.00000E+00
         0.00000E+00
         0.00000E+00
         0.00000E+00
         0.00000E+00
         0.00000E+00
         0.00000E+00
         0.00000E+00
         0.00000E+00
         0.00000E+00
         0.00000E+00
         0.00000E+00
         0.00000E+00
         0.00000E+00
         0.00000E+00
         0.00000E+00
         0.00000E+00
         0.00000E+00
         0.00000E+00
         0.00000E+00
         0.00000E+00
         0.00000E+00
         0.00000E+00
         0.00000E+00
         0.00000E+00
         0.00000E+00
         0.00000E+00
         0.00000E+00
         0.00000E+00
         0.00000E+00
         0.00000E+00
         0.00000E+00
         0.00000E+00
         0.00000E+00
         0.00000E+00
         0.00000E+00
         0.00000E+00
         0.00000E+00
         0.00000E+00
         0.00000E+00
         0.00000E+00
         0.00000E+00
         0.00000E+00
         0.00000E+00
         0.00000E+00
         0.00000E+00
         0.00000E+00
         0.00000E+00
         0.00000E+00
         0.00000E+00
         0.00000E+00
         0.00000E+00
         0.00000E+00
         0.00000E+00
         0.00000E+00
         0.00000E+00
         0.00000E+00
         0.00000E+00
         0.00000E+00
         0.00000E+00
         0.00000E+00
         0.00000E+00
         0.00000E+00
         0.00000E+00
         0.00000E+00
         0.00000E+00
         0.00000E+00
         0.00000E+00
         0.00000E+00
         0.00000E+00
         0.00000E+00
         0.00000E+00
         0.00000E+00
         0.00000E+00
         0.00000E+00
         0.00000E+00
         0.00000E+00
         0.00000E+00
         0.00000E+00
         0.00000E+00
         0.00000E+00
         0.00000E+00
         0.00000E+00
         0.00000E+00
         0.00000E+00
         0.00000E+00
         0.00000E+00
         0.00000E+00
         0.00000E+00
         0.00000E+00
         0.00000E+00
         0.00000E+00
         0.00000E+00
         0.00000E+00
         0.00000E+00
         0.00000E+00
         0.00000E+00
         0.00000E+00
         0.00000E+00
         0.00000E+00
         0.00000E+00
         0.00000E+00
         0.00000E+00
         0.00000E+00
         0.00000E+00
         0.00000E+00
         0.00000E+00
         0.00000E+00
         0.00000E+00
         0.00000E+00
         0.00000E+00
         0.00000E+00
         0.00000E+00
         0.00000E+00
         0.00000E+00
         0.00000E+00
         0.00000E+00
         0.00000E+00
         0.00000E+00
         0.00000E+00
         0.00000E+00
         0.00000E+00
         0.00000E+00
  
SCALARS                     velocity_z  double 1
LOOKUP_TABLE default
        -0.37300E+03
        -0.37300E+03
        -0.37300E+03
        -0.37300E+03
         0.00000E+00
         0.00000E+00
         0.00000E+00
         0.00000E+00
        -0.37300E+03
        -0.37300E+03
         0.00000E+00
         0.00000E+00
        -0.37300E+03
        -0.37300E+03
         0.00000E+00
         0.00000E+00
        -0.37300E+03
        -0.37300E+03
         0.00000E+00
         0.00000E+00
        -0.37300E+03
        -0.37300E+03
        -0.37300E+03
         0.00000E+00
         0.00000E+00
         0.00000E+00
        -0.37300E+03
        -0.37300E+03
         0.00000E+00
         0.00000E+00
        -0.37300E+03
        -0.37300E+03
        -0.37300E+03
         0.00000E+00
         0.00000E+00
         0.00000E+00
        -0.37300E+03
        -0.37300E+03
         0.00000E+00
         0.00000E+00
        -0.37300E+03
        -0.37300E+03
         0.00000E+00
         0.00000E+00
        -0.37300E+03
        -0.37300E+03
         0.00000E+00
         0.00000E+00
        -0.37300E+03
         0.00000E+00
        -0.37300E+03
         0.00000E+00
        -0.37300E+03
         0.00000E+00
        -0.37300E+03
         0.00000E+00
        -0.37300E+03
        -0.37300E+03
         0.00000E+00
         0.00000E+00
        -0.37300E+03
        -0.37300E+03
         0.00000E+00
         0.00000E+00
        -0.37300E+03
         0.00000E+00
        -0.37300E+03
         0.00000E+00
        -0.37300E+03
        -0.37300E+03
         0.00000E+00
         0.00000E+00
        -0.37300E+03
         0.00000E+00
        -0.37300E+03
         0.00000E+00
        -0.37300E+03
         0.00000E+00
        -0.37300E+03
         0.00000E+00
        -0.37300E+03
        -0.37300E+03
         0.00000E+00
         0.00000E+00
        -0.37300E+03
         0.00000E+00
        -0.37300E+03
         0.00000E+00
        -0.37300E+03
         0.00000E+00
        -0.37300E+03
        -0.37300E+03
         0.00000E+00
         0.00000E+00
        -0.37300E+03
         0.00000E+00
        -0.37300E+03
         0.00000E+00
        -0.37300E+03
         0.00000E+00
        -0.37300E+03
        -0.37300E+03
         0.00000E+00
         0.00000E+00
        -0.37300E+03
        -0.37300E+03
         0.00000E+00
         0.00000E+00
        -0.37300E+03
         0.00000E+00
        -0.37300E+03
         0.00000E+00
        -0.37300E+03
         0.00000E+00
        -0.37300E+03
         0.00000E+00
        -0.37300E+03
         0.00000E+00
        -0.37300E+03
         0.00000E+00
        -0.37300E+03
         0.00000E+00
        -0.37300E+03
         0.00000E+00
        -0.37300E+03
         0.00000E+00
        -0.37300E+03
         0.00000E+00
        -0.37300E+03
         0.00000E+00
        -0.37300E+03
         0.00000E+00
        -0.37300E+03
         0.00000E+00
        -0.37300E+03
         0.00000E+00
        -0.37300E+03
         0.00000E+00
        -0.37300E+03
         0.00000E+00
        -0.37300E+03
         0.00000E+00
        -0.37300E+03
         0.00000E+00
        -0.37300E+03
         0.00000E+00
        -0.37300E+03
         0.00000E+00
        -0.37300E+03
         0.00000E+00
        -0.37300E+03
         0.00000E+00
        -0.37300E+03
         0.00000E+00
        -0.37300E+03
         0.00000E+00
        -0.37300E+03
        -0.37300E+03
        -0.37300E+03
        -0.37300E+03
        -0.37300E+03
        -0.37300E+03
        -0.37300E+03
        -0.37300E+03
        -0.37300E+03
        -0.37300E+03
        -0.37300E+03
        -0.37300E+03
        -0.37300E+03
        -0.37300E+03
        -0.37300E+03
        -0.37300E+03
        -0.37300E+03
        -0.37300E+03
        -0.37300E+03
        -0.37300E+03
        -0.37300E+03
        -0.37300E+03
        -0.37300E+03
        -0.37300E+03
        -0.37300E+03
        -0.37300E+03
        -0.37300E+03
        -0.37300E+03
        -0.37300E+03
        -0.37300E+03
        -0.37300E+03
        -0.37300E+03
        -0.37300E+03
        -0.37300E+03
        -0.37300E+03
        -0.37300E+03
        -0.37300E+03
        -0.37300E+03
        -0.37300E+03
        -0.37300E+03
        -0.37300E+03
        -0.37300E+03
        -0.37300E+03
        -0.37300E+03
        -0.37300E+03
        -0.37300E+03
        -0.37300E+03
        -0.37300E+03
        -0.37300E+03
        -0.37300E+03
        -0.37300E+03
        -0.37300E+03
        -0.37300E+03
        -0.37300E+03
        -0.37300E+03
        -0.37300E+03
        -0.37300E+03
        -0.37300E+03
        -0.37300E+03
        -0.37300E+03
        -0.37300E+03
        -0.37300E+03
        -0.37300E+03
        -0.37300E+03
        -0.37300E+03
        -0.37300E+03
        -0.37300E+03
        -0.37300E+03
        -0.37300E+03
        -0.37300E+03
        -0.37300E+03
        -0.37300E+03
        -0.37300E+03
        -0.37300E+03
        -0.37300E+03
        -0.37300E+03
        -0.37300E+03
        -0.37300E+03
        -0.37300E+03
        -0.37300E+03
        -0.37300E+03
        -0.37300E+03
        -0.37300E+03
        -0.37300E+03
        -0.37300E+03
        -0.37300E+03
        -0.37300E+03
        -0.37300E+03
        -0.37300E+03
        -0.37300E+03
        -0.37300E+03
        -0.37300E+03
        -0.37300E+03
        -0.37300E+03
        -0.37300E+03
        -0.37300E+03
        -0.37300E+03
        -0.37300E+03
        -0.37300E+03
        -0.37300E+03
        -0.37300E+03
        -0.37300E+03
        -0.37300E+03
        -0.37300E+03
        -0.37300E+03
        -0.37300E+03
        -0.37300E+03
        -0.37300E+03
        -0.37300E+03
        -0.37300E+03
        -0.37300E+03
        -0.37300E+03
        -0.37300E+03
        -0.37300E+03
        -0.37300E+03
        -0.37300E+03
        -0.37300E+03
        -0.37300E+03
        -0.37300E+03
        -0.37300E+03
        -0.37300E+03
        -0.37300E+03
        -0.37300E+03
        -0.37300E+03
        -0.37300E+03
        -0.37300E+03
        -0.37300E+03
        -0.37300E+03
        -0.37300E+03
        -0.37300E+03
        -0.37300E+03
        -0.37300E+03
        -0.37300E+03
        -0.37300E+03
        -0.37300E+03
        -0.37300E+03
        -0.37300E+03
        -0.37300E+03
        -0.37300E+03
        -0.37300E+03
        -0.37300E+03
        -0.37300E+03
        -0.37300E+03
        -0.37300E+03
        -0.37300E+03
        -0.37300E+03
        -0.37300E+03
        -0.37300E+03
        -0.37300E+03
        -0.37300E+03
        -0.37300E+03
        -0.37300E+03
        -0.37300E+03
        -0.37300E+03
        -0.37300E+03
        -0.37300E+03
        -0.37300E+03
        -0.37300E+03
        -0.37300E+03
        -0.37300E+03
        -0.37300E+03
        -0.37300E+03
        -0.37300E+03
        -0.37300E+03
        -0.37300E+03
        -0.37300E+03
        -0.37300E+03
        -0.37300E+03
        -0.37300E+03
        -0.37300E+03
        -0.37300E+03
        -0.37300E+03
        -0.37300E+03
        -0.37300E+03
        -0.37300E+03
        -0.37300E+03
        -0.37300E+03
        -0.37300E+03
        -0.37300E+03
        -0.37300E+03
        -0.37300E+03
        -0.37300E+03
        -0.37300E+03
        -0.37300E+03
        -0.37300E+03
        -0.37300E+03
        -0.37300E+03
        -0.37300E+03
        -0.37300E+03
        -0.37300E+03
        -0.37300E+03
        -0.37300E+03
        -0.37300E+03
        -0.37300E+03
        -0.37300E+03
        -0.37300E+03
        -0.37300E+03
        -0.37300E+03
        -0.37300E+03
        -0.37300E+03
        -0.37300E+03
        -0.37300E+03
        -0.37300E+03
        -0.37300E+03
        -0.37300E+03
        -0.37300E+03
        -0.37300E+03
        -0.37300E+03
        -0.37300E+03
        -0.37300E+03
        -0.37300E+03
        -0.37300E+03
        -0.37300E+03
        -0.37300E+03
        -0.37300E+03
        -0.37300E+03
        -0.37300E+03
        -0.37300E+03
        -0.37300E+03
        -0.37300E+03
        -0.37300E+03
        -0.37300E+03
        -0.37300E+03
        -0.37300E+03
        -0.37300E+03
        -0.37300E+03
        -0.37300E+03
        -0.37300E+03
        -0.37300E+03
        -0.37300E+03
        -0.37300E+03
        -0.37300E+03
        -0.37300E+03
        -0.37300E+03
        -0.37300E+03
        -0.37300E+03
        -0.37300E+03
        -0.37300E+03
        -0.37300E+03
        -0.37300E+03
        -0.37300E+03
        -0.37300E+03
        -0.37300E+03
        -0.37300E+03
        -0.37300E+03
        -0.37300E+03
        -0.37300E+03
        -0.37300E+03
        -0.37300E+03
        -0.37300E+03
        -0.37300E+03
        -0.37300E+03
        -0.37300E+03
        -0.37300E+03
        -0.37300E+03
        -0.37300E+03
        -0.37300E+03
        -0.37300E+03
        -0.37300E+03
        -0.37300E+03
        -0.37300E+03
        -0.37300E+03
        -0.37300E+03
        -0.37300E+03
        -0.37300E+03
        -0.37300E+03
        -0.37300E+03
        -0.37300E+03
        -0.37300E+03
        -0.37300E+03
        -0.37300E+03
        -0.37300E+03
        -0.37300E+03
        -0.37300E+03
        -0.37300E+03
        -0.37300E+03
        -0.37300E+03
        -0.37300E+03
        -0.37300E+03
        -0.37300E+03
        -0.37300E+03
        -0.37300E+03
        -0.37300E+03
        -0.37300E+03
        -0.37300E+03
        -0.37300E+03
        -0.37300E+03
        -0.37300E+03
        -0.37300E+03
        -0.37300E+03
        -0.37300E+03
        -0.37300E+03
        -0.37300E+03
        -0.37300E+03
        -0.37300E+03
        -0.37300E+03
        -0.37300E+03
        -0.37300E+03
        -0.37300E+03
        -0.37300E+03
        -0.37300E+03
        -0.37300E+03
        -0.37300E+03
        -0.37300E+03
        -0.37300E+03
        -0.37300E+03
        -0.37300E+03
        -0.37300E+03
        -0.37300E+03
        -0.37300E+03
        -0.37300E+03
        -0.37300E+03
        -0.37300E+03
        -0.37300E+03
        -0.37300E+03
        -0.37300E+03
        -0.37300E+03
        -0.37300E+03
        -0.37300E+03
        -0.37300E+03
        -0.37300E+03
        -0.37300E+03
        -0.37300E+03
        -0.37300E+03
        -0.37300E+03
        -0.37300E+03
        -0.37300E+03
        -0.37300E+03
        -0.37300E+03
        -0.37300E+03
        -0.37300E+03
        -0.37300E+03
        -0.37300E+03
        -0.37300E+03
        -0.37300E+03
        -0.37300E+03
        -0.37300E+03
        -0.37300E+03
        -0.37300E+03
        -0.37300E+03
        -0.37300E+03
        -0.37300E+03
        -0.37300E+03
        -0.37300E+03
        -0.37300E+03
        -0.37300E+03
        -0.37300E+03
        -0.37300E+03
        -0.37300E+03
        -0.37300E+03
        -0.37300E+03
        -0.37300E+03
        -0.37300E+03
        -0.37300E+03
        -0.37300E+03
        -0.37300E+03
        -0.37300E+03
        -0.37300E+03
        -0.37300E+03
        -0.37300E+03
        -0.37300E+03
        -0.37300E+03
        -0.37300E+03
        -0.37300E+03
        -0.37300E+03
        -0.37300E+03
        -0.37300E+03
        -0.37300E+03
        -0.37300E+03
        -0.37300E+03
        -0.37300E+03
        -0.37300E+03
        -0.37300E+03
        -0.37300E+03
        -0.37300E+03
        -0.37300E+03
        -0.37300E+03
        -0.37300E+03
        -0.37300E+03
        -0.37300E+03
        -0.37300E+03
        -0.37300E+03
        -0.37300E+03
        -0.37300E+03
        -0.37300E+03
        -0.37300E+03
        -0.37300E+03
        -0.37300E+03
        -0.37300E+03
        -0.37300E+03
        -0.37300E+03
        -0.37300E+03
        -0.37300E+03
        -0.37300E+03
        -0.37300E+03
        -0.37300E+03
        -0.37300E+03
        -0.37300E+03
        -0.37300E+03
        -0.37300E+03
        -0.37300E+03
        -0.37300E+03
        -0.37300E+03
        -0.37300E+03
        -0.37300E+03
        -0.37300E+03
        -0.37300E+03
        -0.37300E+03
        -0.37300E+03
        -0.37300E+03
        -0.37300E+03
        -0.37300E+03
        -0.37300E+03
        -0.37300E+03
        -0.37300E+03
        -0.37300E+03
        -0.37300E+03
        -0.37300E+03
        -0.37300E+03
        -0.37300E+03
        -0.37300E+03
        -0.37300E+03
        -0.37300E+03
        -0.37300E+03
        -0.37300E+03
        -0.37300E+03
        -0.37300E+03
        -0.37300E+03
        -0.37300E+03
        -0.37300E+03
        -0.37300E+03
        -0.37300E+03
        -0.37300E+03
        -0.37300E+03
        -0.37300E+03
        -0.37300E+03
        -0.37300E+03
        -0.37300E+03
        -0.37300E+03
        -0.37300E+03
        -0.37300E+03
        -0.37300E+03
        -0.37300E+03
        -0.37300E+03
        -0.37300E+03
        -0.37300E+03
        -0.37300E+03
        -0.37300E+03
        -0.37300E+03
        -0.37300E+03
        -0.37300E+03
        -0.37300E+03
        -0.37300E+03
        -0.37300E+03
        -0.37300E+03
        -0.37300E+03
        -0.37300E+03
        -0.37300E+03
        -0.37300E+03
        -0.37300E+03
        -0.37300E+03
        -0.37300E+03
        -0.37300E+03
        -0.37300E+03
        -0.37300E+03
        -0.37300E+03
        -0.37300E+03
        -0.37300E+03
        -0.37300E+03
        -0.37300E+03
        -0.37300E+03
        -0.37300E+03
        -0.37300E+03
        -0.37300E+03
        -0.37300E+03
        -0.37300E+03
        -0.37300E+03
        -0.37300E+03
        -0.37300E+03
        -0.37300E+03
        -0.37300E+03
        -0.37300E+03
        -0.37300E+03
        -0.37300E+03
        -0.37300E+03
        -0.37300E+03
        -0.37300E+03
        -0.37300E+03
        -0.37300E+03
        -0.37300E+03
        -0.37300E+03
        -0.37300E+03
        -0.37300E+03
        -0.37300E+03
        -0.37300E+03
        -0.37300E+03
        -0.37300E+03
        -0.37300E+03
        -0.37300E+03
        -0.37300E+03
        -0.37300E+03
        -0.37300E+03
        -0.37300E+03
        -0.37300E+03
        -0.37300E+03
        -0.37300E+03
        -0.37300E+03
        -0.37300E+03
        -0.37300E+03
        -0.37300E+03
        -0.37300E+03
        -0.37300E+03
        -0.37300E+03
        -0.37300E+03
        -0.37300E+03
        -0.37300E+03
        -0.37300E+03
        -0.37300E+03
        -0.37300E+03
        -0.37300E+03
        -0.37300E+03
        -0.37300E+03
        -0.37300E+03
        -0.37300E+03
        -0.37300E+03
        -0.37300E+03
        -0.37300E+03
        -0.37300E+03
        -0.37300E+03
        -0.37300E+03
        -0.37300E+03
        -0.37300E+03
        -0.37300E+03
        -0.37300E+03
        -0.37300E+03
        -0.37300E+03
        -0.37300E+03
        -0.37300E+03
        -0.37300E+03
        -0.37300E+03
        -0.37300E+03
        -0.37300E+03
        -0.37300E+03
        -0.37300E+03
        -0.37300E+03
        -0.37300E+03
        -0.37300E+03
        -0.37300E+03
        -0.37300E+03
        -0.37300E+03
        -0.37300E+03
        -0.37300E+03
        -0.37300E+03
        -0.37300E+03
        -0.37300E+03
        -0.37300E+03
        -0.37300E+03
        -0.37300E+03
        -0.37300E+03
        -0.37300E+03
        -0.37300E+03
        -0.37300E+03
        -0.37300E+03
        -0.37300E+03
        -0.37300E+03
        -0.37300E+03
        -0.37300E+03
        -0.37300E+03
        -0.37300E+03
        -0.37300E+03
        -0.37300E+03
        -0.37300E+03
        -0.37300E+03
        -0.37300E+03
        -0.37300E+03
        -0.37300E+03
        -0.37300E+03
        -0.37300E+03
        -0.37300E+03
        -0.37300E+03
        -0.37300E+03
        -0.37300E+03
        -0.37300E+03
        -0.37300E+03
        -0.37300E+03
        -0.37300E+03
        -0.37300E+03
        -0.37300E+03
        -0.37300E+03
        -0.37300E+03
        -0.37300E+03
        -0.37300E+03
        -0.37300E+03
        -0.37300E+03
        -0.37300E+03
        -0.37300E+03
        -0.37300E+03
        -0.37300E+03
        -0.37300E+03
        -0.37300E+03
        -0.37300E+03
        -0.37300E+03
        -0.37300E+03
        -0.37300E+03
        -0.37300E+03
        -0.37300E+03
        -0.37300E+03
        -0.37300E+03
        -0.37300E+03
        -0.37300E+03
        -0.37300E+03
        -0.37300E+03
        -0.37300E+03
        -0.37300E+03
        -0.37300E+03
        -0.37300E+03
        -0.37300E+03
        -0.37300E+03
        -0.37300E+03
        -0.37300E+03
        -0.37300E+03
        -0.37300E+03
        -0.37300E+03
        -0.37300E+03
        -0.37300E+03
        -0.37300E+03
        -0.37300E+03
        -0.37300E+03
        -0.37300E+03
        -0.37300E+03
        -0.37300E+03
        -0.37300E+03
        -0.37300E+03
        -0.37300E+03
        -0.37300E+03
        -0.37300E+03
        -0.37300E+03
        -0.37300E+03
        -0.37300E+03
        -0.37300E+03
        -0.37300E+03
        -0.37300E+03
        -0.37300E+03
        -0.37300E+03
        -0.37300E+03
        -0.37300E+03
        -0.37300E+03
        -0.37300E+03
        -0.37300E+03
        -0.37300E+03
        -0.37300E+03
        -0.37300E+03
        -0.37300E+03
        -0.37300E+03
        -0.37300E+03
        -0.37300E+03
        -0.37300E+03
        -0.37300E+03
        -0.37300E+03
        -0.37300E+03
        -0.37300E+03
        -0.37300E+03
        -0.37300E+03
        -0.37300E+03
        -0.37300E+03
        -0.37300E+03
        -0.37300E+03
        -0.37300E+03
        -0.37300E+03
        -0.37300E+03
        -0.37300E+03
        -0.37300E+03
        -0.37300E+03
        -0.37300E+03
        -0.37300E+03
        -0.37300E+03
        -0.37300E+03
        -0.37300E+03
        -0.37300E+03
        -0.37300E+03
        -0.37300E+03
        -0.37300E+03
        -0.37300E+03
        -0.37300E+03
        -0.37300E+03
        -0.37300E+03
        -0.37300E+03
        -0.37300E+03
        -0.37300E+03
        -0.37300E+03
        -0.37300E+03
        -0.37300E+03
        -0.37300E+03
        -0.37300E+03
        -0.37300E+03
        -0.37300E+03
        -0.37300E+03
        -0.37300E+03
        -0.37300E+03
        -0.37300E+03
        -0.37300E+03
        -0.37300E+03
        -0.37300E+03
        -0.37300E+03
        -0.37300E+03
        -0.37300E+03
        -0.37300E+03
        -0.37300E+03
        -0.37300E+03
        -0.37300E+03
        -0.37300E+03
        -0.37300E+03
        -0.37300E+03
        -0.37300E+03
        -0.37300E+03
        -0.37300E+03
        -0.37300E+03
        -0.37300E+03
        -0.37300E+03
        -0.37300E+03
        -0.37300E+03
        -0.37300E+03
        -0.37300E+03
        -0.37300E+03
        -0.37300E+03
        -0.37300E+03
        -0.37300E+03
        -0.37300E+03
        -0.37300E+03
        -0.37300E+03
        -0.37300E+03
        -0.37300E+03
        -0.37300E+03
        -0.37300E+03
        -0.37300E+03
        -0.37300E+03
        -0.37300E+03
        -0.37300E+03
        -0.37300E+03
        -0.37300E+03
        -0.37300E+03
        -0.37300E+03
        -0.37300E+03
        -0.37300E+03
        -0.37300E+03
        -0.37300E+03
        -0.37300E+03
        -0.37300E+03
        -0.37300E+03
        -0.37300E+03
        -0.37300E+03
        -0.37300E+03
        -0.37300E+03
        -0.37300E+03
        -0.37300E+03
        -0.37300E+03
        -0.37300E+03
        -0.37300E+03
        -0.37300E+03
        -0.37300E+03
        -0.37300E+03
        -0.37300E+03
        -0.37300E+03
        -0.37300E+03
        -0.37300E+03
        -0.37300E+03
        -0.37300E+03
        -0.37300E+03
        -0.37300E+03
        -0.37300E+03
        -0.37300E+03
        -0.37300E+03
        -0.37300E+03
        -0.37300E+03
        -0.37300E+03
        -0.37300E+03
        -0.37300E+03
        -0.37300E+03
        -0.37300E+03
        -0.37300E+03
        -0.37300E+03
        -0.37300E+03
        -0.37300E+03
        -0.37300E+03
        -0.37300E+03
        -0.37300E+03
        -0.37300E+03
        -0.37300E+03
        -0.37300E+03
        -0.37300E+03
        -0.37300E+03
        -0.37300E+03
        -0.37300E+03
        -0.37300E+03
        -0.37300E+03
        -0.37300E+03
        -0.37300E+03
        -0.37300E+03
        -0.37300E+03
        -0.37300E+03
        -0.37300E+03
        -0.37300E+03
        -0.37300E+03
        -0.37300E+03
        -0.37300E+03
        -0.37300E+03
        -0.37300E+03
        -0.37300E+03
        -0.37300E+03
        -0.37300E+03
        -0.37300E+03
        -0.37300E+03
        -0.37300E+03
        -0.37300E+03
        -0.37300E+03
        -0.37300E+03
        -0.37300E+03
        -0.37300E+03
        -0.37300E+03
        -0.37300E+03
        -0.37300E+03
        -0.37300E+03
        -0.37300E+03
        -0.37300E+03
        -0.37300E+03
        -0.37300E+03
        -0.37300E+03
        -0.37300E+03
        -0.37300E+03
        -0.37300E+03
        -0.37300E+03
        -0.37300E+03
        -0.37300E+03
        -0.37300E+03
        -0.37300E+03
        -0.37300E+03
        -0.37300E+03
        -0.37300E+03
        -0.37300E+03
        -0.37300E+03
        -0.37300E+03
        -0.37300E+03
        -0.37300E+03
        -0.37300E+03
        -0.37300E+03
        -0.37300E+03
        -0.37300E+03
        -0.37300E+03
        -0.37300E+03
        -0.37300E+03
        -0.37300E+03
        -0.37300E+03
        -0.37300E+03
        -0.37300E+03
        -0.37300E+03
        -0.37300E+03
        -0.37300E+03
        -0.37300E+03
        -0.37300E+03
        -0.37300E+03
        -0.37300E+03
        -0.37300E+03
        -0.37300E+03
        -0.37300E+03
        -0.37300E+03
        -0.37300E+03
        -0.37300E+03
        -0.37300E+03
        -0.37300E+03
        -0.37300E+03
        -0.37300E+03
        -0.37300E+03
        -0.37300E+03
        -0.37300E+03
        -0.37300E+03
        -0.37300E+03
        -0.37300E+03
        -0.37300E+03
        -0.37300E+03
        -0.37300E+03
        -0.37300E+03
        -0.37300E+03
        -0.37300E+03
        -0.37300E+03
        -0.37300E+03
        -0.37300E+03
        -0.37300E+03
        -0.37300E+03
        -0.37300E+03
        -0.37300E+03
        -0.37300E+03
        -0.37300E+03
        -0.37300E+03
        -0.37300E+03
        -0.37300E+03
        -0.37300E+03
        -0.37300E+03
        -0.37300E+03
        -0.37300E+03
        -0.37300E+03
        -0.37300E+03
        -0.37300E+03
        -0.37300E+03
        -0.37300E+03
        -0.37300E+03
        -0.37300E+03
        -0.37300E+03
        -0.37300E+03
        -0.37300E+03
        -0.37300E+03
        -0.37300E+03
        -0.37300E+03
        -0.37300E+03
        -0.37300E+03
        -0.37300E+03
        -0.37300E+03
        -0.37300E+03
        -0.37300E+03
        -0.37300E+03
        -0.37300E+03
        -0.37300E+03
        -0.37300E+03
        -0.37300E+03
        -0.37300E+03
        -0.37300E+03
        -0.37300E+03
        -0.37300E+03
        -0.37300E+03
        -0.37300E+03
        -0.37300E+03
        -0.37300E+03
        -0.37300E+03
        -0.37300E+03
        -0.37300E+03
        -0.37300E+03
        -0.37300E+03
        -0.37300E+03
        -0.37300E+03
        -0.37300E+03
        -0.37300E+03
        -0.37300E+03
        -0.37300E+03
        -0.37300E+03
        -0.37300E+03
        -0.37300E+03
        -0.37300E+03
        -0.37300E+03
        -0.37300E+03
        -0.37300E+03
        -0.37300E+03
        -0.37300E+03
        -0.37300E+03
        -0.37300E+03
        -0.37300E+03
        -0.37300E+03
        -0.37300E+03
        -0.37300E+03
        -0.37300E+03
        -0.37300E+03
        -0.37300E+03
        -0.37300E+03
        -0.37300E+03
        -0.37300E+03
        -0.37300E+03
        -0.37300E+03
        -0.37300E+03
        -0.37300E+03
        -0.37300E+03
        -0.37300E+03
        -0.37300E+03
        -0.37300E+03
        -0.37300E+03
        -0.37300E+03
        -0.37300E+03
        -0.37300E+03
        -0.37300E+03
        -0.37300E+03
        -0.37300E+03
        -0.37300E+03
        -0.37300E+03
        -0.37300E+03
        -0.37300E+03
        -0.37300E+03
        -0.37300E+03
        -0.37300E+03
        -0.37300E+03
        -0.37300E+03
        -0.37300E+03
        -0.37300E+03
        -0.37300E+03
        -0.37300E+03
        -0.37300E+03
        -0.37300E+03
        -0.37300E+03
        -0.37300E+03
        -0.37300E+03
        -0.37300E+03
        -0.37300E+03
        -0.37300E+03
        -0.37300E+03
        -0.37300E+03
        -0.37300E+03
        -0.37300E+03
        -0.37300E+03
        -0.37300E+03
        -0.37300E+03
        -0.37300E+03
        -0.37300E+03
        -0.37300E+03
        -0.37300E+03
        -0.37300E+03
        -0.37300E+03
        -0.37300E+03
        -0.37300E+03
        -0.37300E+03
        -0.37300E+03
        -0.37300E+03
        -0.37300E+03
        -0.37300E+03
        -0.37300E+03
        -0.37300E+03
        -0.37300E+03
        -0.37300E+03
        -0.37300E+03
        -0.37300E+03
        -0.37300E+03
        -0.37300E+03
        -0.37300E+03
        -0.37300E+03
        -0.37300E+03
        -0.37300E+03
        -0.37300E+03
        -0.37300E+03
        -0.37300E+03
        -0.37300E+03
        -0.37300E+03
        -0.37300E+03
        -0.37300E+03
        -0.37300E+03
        -0.37300E+03
        -0.37300E+03
        -0.37300E+03
        -0.37300E+03
        -0.37300E+03
        -0.37300E+03
        -0.37300E+03
        -0.37300E+03
        -0.37300E+03
        -0.37300E+03
        -0.37300E+03
        -0.37300E+03
        -0.37300E+03
        -0.37300E+03
        -0.37300E+03
        -0.37300E+03
        -0.37300E+03
        -0.37300E+03
        -0.37300E+03
        -0.37300E+03
        -0.37300E+03
        -0.37300E+03
        -0.37300E+03
        -0.37300E+03
        -0.37300E+03
        -0.37300E+03
        -0.37300E+03
        -0.37300E+03
        -0.37300E+03
        -0.37300E+03
        -0.37300E+03
        -0.37300E+03
        -0.37300E+03
        -0.37300E+03
        -0.37300E+03
        -0.37300E+03
        -0.37300E+03
        -0.37300E+03
        -0.37300E+03
        -0.37300E+03
        -0.37300E+03
        -0.37300E+03
        -0.37300E+03
        -0.37300E+03
        -0.37300E+03
        -0.37300E+03
        -0.37300E+03
        -0.37300E+03
        -0.37300E+03
        -0.37300E+03
        -0.37300E+03
        -0.37300E+03
        -0.37300E+03
        -0.37300E+03
        -0.37300E+03
        -0.37300E+03
        -0.37300E+03
        -0.37300E+03
        -0.37300E+03
        -0.37300E+03
        -0.37300E+03
        -0.37300E+03
        -0.37300E+03
        -0.37300E+03
        -0.37300E+03
        -0.37300E+03
        -0.37300E+03
        -0.37300E+03
        -0.37300E+03
        -0.37300E+03
        -0.37300E+03
        -0.37300E+03
        -0.37300E+03
        -0.37300E+03
        -0.37300E+03
        -0.37300E+03
        -0.37300E+03
        -0.37300E+03
        -0.37300E+03
        -0.37300E+03
        -0.37300E+03
        -0.37300E+03
        -0.37300E+03
        -0.37300E+03
        -0.37300E+03
        -0.37300E+03
        -0.37300E+03
        -0.37300E+03
        -0.37300E+03
        -0.37300E+03
        -0.37300E+03
        -0.37300E+03
        -0.37300E+03
        -0.37300E+03
        -0.37300E+03
        -0.37300E+03
        -0.37300E+03
        -0.37300E+03
        -0.37300E+03
        -0.37300E+03
        -0.37300E+03
        -0.37300E+03
        -0.37300E+03
        -0.37300E+03
        -0.37300E+03
        -0.37300E+03
        -0.37300E+03
        -0.37300E+03
        -0.37300E+03
        -0.37300E+03
        -0.37300E+03
        -0.37300E+03
        -0.37300E+03
        -0.37300E+03
        -0.37300E+03
        -0.37300E+03
        -0.37300E+03
        -0.37300E+03
        -0.37300E+03
        -0.37300E+03
        -0.37300E+03
        -0.37300E+03
        -0.37300E+03
        -0.37300E+03
        -0.37300E+03
        -0.37300E+03
        -0.37300E+03
        -0.37300E+03
        -0.37300E+03
        -0.37300E+03
        -0.37300E+03
        -0.37300E+03
        -0.37300E+03
        -0.37300E+03
        -0.37300E+03
        -0.37300E+03
        -0.37300E+03
        -0.37300E+03
        -0.37300E+03
        -0.37300E+03
        -0.37300E+03
        -0.37300E+03
        -0.37300E+03
        -0.37300E+03
        -0.37300E+03
        -0.37300E+03
        -0.37300E+03
        -0.37300E+03
        -0.37300E+03
        -0.37300E+03
        -0.37300E+03
        -0.37300E+03
        -0.37300E+03
        -0.37300E+03
        -0.37300E+03
        -0.37300E+03
        -0.37300E+03
        -0.37300E+03
        -0.37300E+03
        -0.37300E+03
        -0.37300E+03
        -0.37300E+03
        -0.37300E+03
        -0.37300E+03
        -0.37300E+03
        -0.37300E+03
        -0.37300E+03
        -0.37300E+03
        -0.37300E+03
        -0.37300E+03
        -0.37300E+03
        -0.37300E+03
        -0.37300E+03
        -0.37300E+03
        -0.37300E+03
        -0.37300E+03
        -0.37300E+03
        -0.37300E+03
        -0.37300E+03
        -0.37300E+03
        -0.37300E+03
        -0.37300E+03
        -0.37300E+03
        -0.37300E+03
        -0.37300E+03
        -0.37300E+03
        -0.37300E+03
        -0.37300E+03
        -0.37300E+03
        -0.37300E+03
        -0.37300E+03
        -0.37300E+03
        -0.37300E+03
        -0.37300E+03
        -0.37300E+03
        -0.37300E+03
        -0.37300E+03
        -0.37300E+03
        -0.37300E+03
        -0.37300E+03
        -0.37300E+03
        -0.37300E+03
        -0.37300E+03
        -0.37300E+03
        -0.37300E+03
        -0.37300E+03
        -0.37300E+03
        -0.37300E+03
        -0.37300E+03
        -0.37300E+03
        -0.37300E+03
        -0.37300E+03
        -0.37300E+03
        -0.37300E+03
        -0.37300E+03
        -0.37300E+03
        -0.37300E+03
        -0.37300E+03
        -0.37300E+03
        -0.37300E+03
        -0.37300E+03
        -0.37300E+03
        -0.37300E+03
        -0.37300E+03
        -0.37300E+03
        -0.37300E+03
        -0.37300E+03
        -0.37300E+03
        -0.37300E+03
        -0.37300E+03
        -0.37300E+03
        -0.37300E+03
        -0.37300E+03
        -0.37300E+03
        -0.37300E+03
        -0.37300E+03
        -0.37300E+03
        -0.37300E+03
        -0.37300E+03
        -0.37300E+03
        -0.37300E+03
        -0.37300E+03
        -0.37300E+03
        -0.37300E+03
        -0.37300E+03
        -0.37300E+03
        -0.37300E+03
        -0.37300E+03
        -0.37300E+03
        -0.37300E+03
        -0.37300E+03
        -0.37300E+03
        -0.37300E+03
        -0.37300E+03
        -0.37300E+03
        -0.37300E+03
        -0.37300E+03
        -0.37300E+03
        -0.37300E+03
        -0.37300E+03
        -0.37300E+03
        -0.37300E+03
        -0.37300E+03
        -0.37300E+03
        -0.37300E+03
        -0.37300E+03
        -0.37300E+03
        -0.37300E+03
        -0.37300E+03
        -0.37300E+03
        -0.37300E+03
        -0.37300E+03
        -0.37300E+03
        -0.37300E+03
        -0.37300E+03
        -0.37300E+03
        -0.37300E+03
        -0.37300E+03
        -0.37300E+03
        -0.37300E+03
        -0.37300E+03
        -0.37300E+03
        -0.37300E+03
        -0.37300E+03
        -0.37300E+03
        -0.37300E+03
        -0.37300E+03
        -0.37300E+03
        -0.37300E+03
        -0.37300E+03
        -0.37300E+03
        -0.37300E+03
        -0.37300E+03
        -0.37300E+03
        -0.37300E+03
        -0.37300E+03
        -0.37300E+03
        -0.37300E+03
        -0.37300E+03
        -0.37300E+03
        -0.37300E+03
        -0.37300E+03
        -0.37300E+03
        -0.37300E+03
        -0.37300E+03
        -0.37300E+03
        -0.37300E+03
        -0.37300E+03
        -0.37300E+03
        -0.37300E+03
        -0.37300E+03
        -0.37300E+03
        -0.37300E+03
        -0.37300E+03
        -0.37300E+03
        -0.37300E+03
        -0.37300E+03
        -0.37300E+03
        -0.37300E+03
        -0.37300E+03
        -0.37300E+03
        -0.37300E+03
        -0.37300E+03
        -0.37300E+03
        -0.37300E+03
        -0.37300E+03
        -0.37300E+03
        -0.37300E+03
        -0.37300E+03
        -0.37300E+03
        -0.37300E+03
        -0.37300E+03
        -0.37300E+03
        -0.37300E+03
        -0.37300E+03
        -0.37300E+03
        -0.37300E+03
        -0.37300E+03
        -0.37300E+03
        -0.37300E+03
        -0.37300E+03
        -0.37300E+03
        -0.37300E+03
        -0.37300E+03
        -0.37300E+03
        -0.37300E+03
        -0.37300E+03
        -0.37300E+03
        -0.37300E+03
        -0.37300E+03
        -0.37300E+03
        -0.37300E+03
        -0.37300E+03
        -0.37300E+03
        -0.37300E+03
        -0.37300E+03
        -0.37300E+03
        -0.37300E+03
        -0.37300E+03
        -0.37300E+03
        -0.37300E+03
        -0.37300E+03
        -0.37300E+03
        -0.37300E+03
        -0.37300E+03
        -0.37300E+03
        -0.37300E+03
        -0.37300E+03
        -0.37300E+03
        -0.37300E+03
        -0.37300E+03
        -0.37300E+03
        -0.37300E+03
        -0.37300E+03
        -0.37300E+03
        -0.37300E+03
        -0.37300E+03
        -0.37300E+03
        -0.37300E+03
        -0.37300E+03
        -0.37300E+03
        -0.37300E+03
        -0.37300E+03
        -0.37300E+03
        -0.37300E+03
        -0.37300E+03
        -0.37300E+03
        -0.37300E+03
        -0.37300E+03
        -0.37300E+03
        -0.37300E+03
        -0.37300E+03
        -0.37300E+03
        -0.37300E+03
        -0.37300E+03
        -0.37300E+03
        -0.37300E+03
        -0.37300E+03
        -0.37300E+03
        -0.37300E+03
        -0.37300E+03
        -0.37300E+03
        -0.37300E+03
        -0.37300E+03
        -0.37300E+03
        -0.37300E+03
        -0.37300E+03
        -0.37300E+03
        -0.37300E+03
        -0.37300E+03
        -0.37300E+03
        -0.37300E+03
        -0.37300E+03
        -0.37300E+03
        -0.37300E+03
        -0.37300E+03
        -0.37300E+03
        -0.37300E+03
        -0.37300E+03
        -0.37300E+03
        -0.37300E+03
        -0.37300E+03
        -0.37300E+03
        -0.37300E+03
        -0.37300E+03
        -0.37300E+03
        -0.37300E+03
        -0.37300E+03
        -0.37300E+03
        -0.37300E+03
        -0.37300E+03
        -0.37300E+03
        -0.37300E+03
        -0.37300E+03
        -0.37300E+03
        -0.37300E+03
        -0.37300E+03
        -0.37300E+03
        -0.37300E+03
        -0.37300E+03
        -0.37300E+03
        -0.37300E+03
        -0.37300E+03
        -0.37300E+03
        -0.37300E+03
        -0.37300E+03
        -0.37300E+03
        -0.37300E+03
        -0.37300E+03
        -0.37300E+03
        -0.37300E+03
        -0.37300E+03
        -0.37300E+03
        -0.37300E+03
        -0.37300E+03
        -0.37300E+03
        -0.37300E+03
        -0.37300E+03
        -0.37300E+03
        -0.37300E+03
        -0.37300E+03
        -0.37300E+03
        -0.37300E+03
        -0.37300E+03
        -0.37300E+03
        -0.37300E+03
        -0.37300E+03
        -0.37300E+03
        -0.37300E+03
        -0.37300E+03
        -0.37300E+03
        -0.37300E+03
        -0.37300E+03
        -0.37300E+03
        -0.37300E+03
        -0.37300E+03
        -0.37300E+03
        -0.37300E+03
        -0.37300E+03
        -0.37300E+03
        -0.37300E+03
        -0.37300E+03
        -0.37300E+03
        -0.37300E+03
        -0.37300E+03
        -0.37300E+03
        -0.37300E+03
        -0.37300E+03
        -0.37300E+03
        -0.37300E+03
        -0.37300E+03
        -0.37300E+03
        -0.37300E+03
        -0.37300E+03
        -0.37300E+03
        -0.37300E+03
        -0.37300E+03
        -0.37300E+03
        -0.37300E+03
        -0.37300E+03
        -0.37300E+03
        -0.37300E+03
        -0.37300E+03
        -0.37300E+03
        -0.37300E+03
        -0.37300E+03
        -0.37300E+03
        -0.37300E+03
        -0.37300E+03
        -0.37300E+03
        -0.37300E+03
        -0.37300E+03
        -0.37300E+03
        -0.37300E+03
        -0.37300E+03
        -0.37300E+03
        -0.37300E+03
        -0.37300E+03
        -0.37300E+03
        -0.37300E+03
        -0.37300E+03
        -0.37300E+03
        -0.37300E+03
        -0.37300E+03
        -0.37300E+03
        -0.37300E+03
        -0.37300E+03
        -0.37300E+03
        -0.37300E+03
        -0.37300E+03
        -0.37300E+03
        -0.37300E+03
        -0.37300E+03
        -0.37300E+03
        -0.37300E+03
        -0.37300E+03
        -0.37300E+03
        -0.37300E+03
        -0.37300E+03
        -0.37300E+03
        -0.37300E+03
        -0.37300E+03
        -0.37300E+03
        -0.37300E+03
        -0.37300E+03
        -0.37300E+03
        -0.37300E+03
        -0.37300E+03
        -0.37300E+03
        -0.37300E+03
        -0.37300E+03
        -0.37300E+03
        -0.37300E+03
        -0.37300E+03
        -0.37300E+03
        -0.37300E+03
        -0.37300E+03
        -0.37300E+03
        -0.37300E+03
        -0.37300E+03
        -0.37300E+03
        -0.37300E+03
        -0.37300E+03
        -0.37300E+03
        -0.37300E+03
        -0.37300E+03
        -0.37300E+03
        -0.37300E+03
        -0.37300E+03
        -0.37300E+03
        -0.37300E+03
        -0.37300E+03
        -0.37300E+03
        -0.37300E+03
        -0.37300E+03
        -0.37300E+03
        -0.37300E+03
        -0.37300E+03
        -0.37300E+03
        -0.37300E+03
        -0.37300E+03
        -0.37300E+03
        -0.37300E+03
        -0.37300E+03
        -0.37300E+03
        -0.37300E+03
        -0.37300E+03
        -0.37300E+03
        -0.37300E+03
        -0.37300E+03
        -0.37300E+03
        -0.37300E+03
        -0.37300E+03
        -0.37300E+03
        -0.37300E+03
        -0.37300E+03
        -0.37300E+03
        -0.37300E+03
        -0.37300E+03
        -0.37300E+03
        -0.37300E+03
        -0.37300E+03
        -0.37300E+03
        -0.37300E+03
        -0.37300E+03
        -0.37300E+03
        -0.37300E+03
        -0.37300E+03
        -0.37300E+03
        -0.37300E+03
        -0.37300E+03
        -0.37300E+03
        -0.37300E+03
        -0.37300E+03
        -0.37300E+03
        -0.37300E+03
        -0.37300E+03
        -0.37300E+03
        -0.37300E+03
        -0.37300E+03
        -0.37300E+03
        -0.37300E+03
        -0.37300E+03
        -0.37300E+03
        -0.37300E+03
        -0.37300E+03
        -0.37300E+03
        -0.37300E+03
        -0.37300E+03
        -0.37300E+03
        -0.37300E+03
        -0.37300E+03
        -0.37300E+03
        -0.37300E+03
        -0.37300E+03
        -0.37300E+03
        -0.37300E+03
        -0.37300E+03
        -0.37300E+03
        -0.37300E+03
        -0.37300E+03
        -0.37300E+03
        -0.37300E+03
        -0.37300E+03
        -0.37300E+03
        -0.37300E+03
        -0.37300E+03
        -0.37300E+03
        -0.37300E+03
        -0.37300E+03
        -0.37300E+03
        -0.37300E+03
        -0.37300E+03
        -0.37300E+03
        -0.37300E+03
        -0.37300E+03
        -0.37300E+03
        -0.37300E+03
        -0.37300E+03
        -0.37300E+03
        -0.37300E+03
        -0.37300E+03
        -0.37300E+03
        -0.37300E+03
        -0.37300E+03
        -0.37300E+03
        -0.37300E+03
        -0.37300E+03
        -0.37300E+03
        -0.37300E+03
        -0.37300E+03
        -0.37300E+03
        -0.37300E+03
        -0.37300E+03
        -0.37300E+03
        -0.37300E+03
        -0.37300E+03
        -0.37300E+03
        -0.37300E+03
        -0.37300E+03
        -0.37300E+03
        -0.37300E+03
        -0.37300E+03
        -0.37300E+03
        -0.37300E+03
        -0.37300E+03
        -0.37300E+03
        -0.37300E+03
        -0.37300E+03
        -0.37300E+03
        -0.37300E+03
        -0.37300E+03
        -0.37300E+03
        -0.37300E+03
        -0.37300E+03
        -0.37300E+03
        -0.37300E+03
        -0.37300E+03
        -0.37300E+03
        -0.37300E+03
        -0.37300E+03
        -0.37300E+03
        -0.37300E+03
        -0.37300E+03
        -0.37300E+03
        -0.37300E+03
        -0.37300E+03
        -0.37300E+03
        -0.37300E+03
        -0.37300E+03
        -0.37300E+03
        -0.37300E+03
        -0.37300E+03
        -0.37300E+03
        -0.37300E+03
        -0.37300E+03
        -0.37300E+03
        -0.37300E+03
        -0.37300E+03
        -0.37300E+03
        -0.37300E+03
        -0.37300E+03
        -0.37300E+03
        -0.37300E+03
        -0.37300E+03
        -0.37300E+03
        -0.37300E+03
        -0.37300E+03
        -0.37300E+03
        -0.37300E+03
        -0.37300E+03
        -0.37300E+03
        -0.37300E+03
        -0.37300E+03
        -0.37300E+03
        -0.37300E+03
        -0.37300E+03
        -0.37300E+03
        -0.37300E+03
        -0.37300E+03
        -0.37300E+03
        -0.37300E+03
        -0.37300E+03
        -0.37300E+03
        -0.37300E+03
        -0.37300E+03
        -0.37300E+03
        -0.37300E+03
        -0.37300E+03
        -0.37300E+03
        -0.37300E+03
        -0.37300E+03
        -0.37300E+03
        -0.37300E+03
        -0.37300E+03
  
SCALARS                 acceleration_x  double 1
LOOKUP_TABLE default
         0.00000E+00
         0.00000E+00
         0.00000E+00
         0.00000E+00
         0.00000E+00
         0.00000E+00
         0.00000E+00
         0.00000E+00
         0.00000E+00
         0.00000E+00
         0.00000E+00
         0.00000E+00
         0.00000E+00
         0.00000E+00
         0.00000E+00
         0.00000E+00
         0.00000E+00
         0.00000E+00
         0.00000E+00
         0.00000E+00
         0.00000E+00
         0.00000E+00
         0.00000E+00
         0.00000E+00
         0.00000E+00
         0.00000E+00
         0.00000E+00
         0.00000E+00
         0.00000E+00
         0.00000E+00
         0.00000E+00
         0.00000E+00
         0.00000E+00
         0.00000E+00
         0.00000E+00
         0.00000E+00
         0.00000E+00
         0.00000E+00
         0.00000E+00
         0.00000E+00
         0.00000E+00
         0.00000E+00
         0.00000E+00
         0.00000E+00
         0.00000E+00
         0.00000E+00
         0.00000E+00
         0.00000E+00
         0.00000E+00
         0.00000E+00
         0.00000E+00
         0.00000E+00
         0.00000E+00
         0.00000E+00
         0.00000E+00
         0.00000E+00
         0.00000E+00
         0.00000E+00
         0.00000E+00
         0.00000E+00
         0.00000E+00
         0.00000E+00
         0.00000E+00
         0.00000E+00
         0.00000E+00
         0.00000E+00
         0.00000E+00
         0.00000E+00
         0.00000E+00
         0.00000E+00
         0.00000E+00
         0.00000E+00
         0.00000E+00
         0.00000E+00
         0.00000E+00
         0.00000E+00
         0.00000E+00
         0.00000E+00
         0.00000E+00
         0.00000E+00
         0.00000E+00
         0.00000E+00
         0.00000E+00
         0.00000E+00
         0.00000E+00
         0.00000E+00
         0.00000E+00
         0.00000E+00
         0.00000E+00
         0.00000E+00
         0.00000E+00
         0.00000E+00
         0.00000E+00
         0.00000E+00
         0.00000E+00
         0.00000E+00
         0.00000E+00
         0.00000E+00
         0.00000E+00
         0.00000E+00
         0.00000E+00
         0.00000E+00
         0.00000E+00
         0.00000E+00
         0.00000E+00
         0.00000E+00
         0.00000E+00
         0.00000E+00
         0.00000E+00
         0.00000E+00
         0.00000E+00
         0.00000E+00
         0.00000E+00
         0.00000E+00
         0.00000E+00
         0.00000E+00
         0.00000E+00
         0.00000E+00
         0.00000E+00
         0.00000E+00
         0.00000E+00
         0.00000E+00
         0.00000E+00
         0.00000E+00
         0.00000E+00
         0.00000E+00
         0.00000E+00
         0.00000E+00
         0.00000E+00
         0.00000E+00
         0.00000E+00
         0.00000E+00
         0.00000E+00
         0.00000E+00
         0.00000E+00
         0.00000E+00
         0.00000E+00
         0.00000E+00
         0.00000E+00
         0.00000E+00
         0.00000E+00
         0.00000E+00
         0.00000E+00
         0.00000E+00
         0.00000E+00
         0.00000E+00
         0.00000E+00
         0.00000E+00
         0.00000E+00
         0.00000E+00
         0.00000E+00
         0.00000E+00
         0.00000E+00
         0.00000E+00
         0.00000E+00
         0.00000E+00
         0.00000E+00
         0.00000E+00
         0.00000E+00
         0.00000E+00
         0.00000E+00
         0.00000E+00
         0.00000E+00
         0.00000E+00
         0.00000E+00
         0.00000E+00
         0.00000E+00
         0.00000E+00
         0.00000E+00
         0.00000E+00
         0.00000E+00
         0.00000E+00
         0.00000E+00
         0.00000E+00
         0.00000E+00
         0.00000E+00
         0.00000E+00
         0.00000E+00
         0.00000E+00
         0.00000E+00
         0.00000E+00
         0.00000E+00
         0.00000E+00
         0.00000E+00
         0.00000E+00
         0.00000E+00
         0.00000E+00
         0.00000E+00
         0.00000E+00
         0.00000E+00
         0.00000E+00
         0.00000E+00
         0.00000E+00
         0.00000E+00
         0.00000E+00
         0.00000E+00
         0.00000E+00
         0.00000E+00
         0.00000E+00
         0.00000E+00
         0.00000E+00
         0.00000E+00
         0.00000E+00
         0.00000E+00
         0.00000E+00
         0.00000E+00
         0.00000E+00
         0.00000E+00
         0.00000E+00
         0.00000E+00
         0.00000E+00
         0.00000E+00
         0.00000E+00
         0.00000E+00
         0.00000E+00
         0.00000E+00
         0.00000E+00
         0.00000E+00
         0.00000E+00
         0.00000E+00
         0.00000E+00
         0.00000E+00
         0.00000E+00
         0.00000E+00
         0.00000E+00
         0.00000E+00
         0.00000E+00
         0.00000E+00
         0.00000E+00
         0.00000E+00
         0.00000E+00
         0.00000E+00
         0.00000E+00
         0.00000E+00
         0.00000E+00
         0.00000E+00
         0.00000E+00
         0.00000E+00
         0.00000E+00
         0.00000E+00
         0.00000E+00
         0.00000E+00
         0.00000E+00
         0.00000E+00
         0.00000E+00
         0.00000E+00
         0.00000E+00
         0.00000E+00
         0.00000E+00
         0.00000E+00
         0.00000E+00
         0.00000E+00
         0.00000E+00
         0.00000E+00
         0.00000E+00
         0.00000E+00
         0.00000E+00
         0.00000E+00
         0.00000E+00
         0.00000E+00
         0.00000E+00
         0.00000E+00
         0.00000E+00
         0.00000E+00
         0.00000E+00
         0.00000E+00
         0.00000E+00
         0.00000E+00
         0.00000E+00
         0.00000E+00
         0.00000E+00
         0.00000E+00
         0.00000E+00
         0.00000E+00
         0.00000E+00
         0.00000E+00
         0.00000E+00
         0.00000E+00
         0.00000E+00
         0.00000E+00
         0.00000E+00
         0.00000E+00
         0.00000E+00
         0.00000E+00
         0.00000E+00
         0.00000E+00
         0.00000E+00
         0.00000E+00
         0.00000E+00
         0.00000E+00
         0.00000E+00
         0.00000E+00
         0.00000E+00
         0.00000E+00
         0.00000E+00
         0.00000E+00
         0.00000E+00
         0.00000E+00
         0.00000E+00
         0.00000E+00
         0.00000E+00
         0.00000E+00
         0.00000E+00
         0.00000E+00
         0.00000E+00
         0.00000E+00
         0.00000E+00
         0.00000E+00
         0.00000E+00
         0.00000E+00
         0.00000E+00
         0.00000E+00
         0.00000E+00
         0.00000E+00
         0.00000E+00
         0.00000E+00
         0.00000E+00
         0.00000E+00
         0.00000E+00
         0.00000E+00
         0.00000E+00
         0.00000E+00
         0.00000E+00
         0.00000E+00
         0.00000E+00
         0.00000E+00
         0.00000E+00
         0.00000E+00
         0.00000E+00
         0.00000E+00
         0.00000E+00
         0.00000E+00
         0.00000E+00
         0.00000E+00
         0.00000E+00
         0.00000E+00
         0.00000E+00
         0.00000E+00
         0.00000E+00
         0.00000E+00
         0.00000E+00
         0.00000E+00
         0.00000E+00
         0.00000E+00
         0.00000E+00
         0.00000E+00
         0.00000E+00
         0.00000E+00
         0.00000E+00
         0.00000E+00
         0.00000E+00
         0.00000E+00
         0.00000E+00
         0.00000E+00
         0.00000E+00
         0.00000E+00
         0.00000E+00
         0.00000E+00
         0.00000E+00
         0.00000E+00
         0.00000E+00
         0.00000E+00
         0.00000E+00
         0.00000E+00
         0.00000E+00
         0.00000E+00
         0.00000E+00
         0.00000E+00
         0.00000E+00
         0.00000E+00
         0.00000E+00
         0.00000E+00
         0.00000E+00
         0.00000E+00
         0.00000E+00
         0.00000E+00
         0.00000E+00
         0.00000E+00
         0.00000E+00
         0.00000E+00
         0.00000E+00
         0.00000E+00
         0.00000E+00
         0.00000E+00
         0.00000E+00
         0.00000E+00
         0.00000E+00
         0.00000E+00
         0.00000E+00
         0.00000E+00
         0.00000E+00
         0.00000E+00
         0.00000E+00
         0.00000E+00
         0.00000E+00
         0.00000E+00
         0.00000E+00
         0.00000E+00
         0.00000E+00
         0.00000E+00
         0.00000E+00
         0.00000E+00
         0.00000E+00
         0.00000E+00
         0.00000E+00
         0.00000E+00
         0.00000E+00
         0.00000E+00
         0.00000E+00
         0.00000E+00
         0.00000E+00
         0.00000E+00
         0.00000E+00
         0.00000E+00
         0.00000E+00
         0.00000E+00
         0.00000E+00
         0.00000E+00
         0.00000E+00
         0.00000E+00
         0.00000E+00
         0.00000E+00
         0.00000E+00
         0.00000E+00
         0.00000E+00
         0.00000E+00
         0.00000E+00
         0.00000E+00
         0.00000E+00
         0.00000E+00
         0.00000E+00
         0.00000E+00
         0.00000E+00
         0.00000E+00
         0.00000E+00
         0.00000E+00
         0.00000E+00
         0.00000E+00
         0.00000E+00
         0.00000E+00
         0.00000E+00
         0.00000E+00
         0.00000E+00
         0.00000E+00
         0.00000E+00
         0.00000E+00
         0.00000E+00
         0.00000E+00
         0.00000E+00
         0.00000E+00
         0.00000E+00
         0.00000E+00
         0.00000E+00
         0.00000E+00
         0.00000E+00
         0.00000E+00
         0.00000E+00
         0.00000E+00
         0.00000E+00
         0.00000E+00
         0.00000E+00
         0.00000E+00
         0.00000E+00
         0.00000E+00
         0.00000E+00
         0.00000E+00
         0.00000E+00
         0.00000E+00
         0.00000E+00
         0.00000E+00
         0.00000E+00
         0.00000E+00
         0.00000E+00
         0.00000E+00
         0.00000E+00
         0.00000E+00
         0.00000E+00
         0.00000E+00
         0.00000E+00
         0.00000E+00
         0.00000E+00
         0.00000E+00
         0.00000E+00
         0.00000E+00
         0.00000E+00
         0.00000E+00
         0.00000E+00
         0.00000E+00
         0.00000E+00
         0.00000E+00
         0.00000E+00
         0.00000E+00
         0.00000E+00
         0.00000E+00
         0.00000E+00
         0.00000E+00
         0.00000E+00
         0.00000E+00
         0.00000E+00
         0.00000E+00
         0.00000E+00
         0.00000E+00
         0.00000E+00
         0.00000E+00
         0.00000E+00
         0.00000E+00
         0.00000E+00
         0.00000E+00
         0.00000E+00
         0.00000E+00
         0.00000E+00
         0.00000E+00
         0.00000E+00
         0.00000E+00
         0.00000E+00
         0.00000E+00
         0.00000E+00
         0.00000E+00
         0.00000E+00
         0.00000E+00
         0.00000E+00
         0.00000E+00
         0.00000E+00
         0.00000E+00
         0.00000E+00
         0.00000E+00
         0.00000E+00
         0.00000E+00
         0.00000E+00
         0.00000E+00
         0.00000E+00
         0.00000E+00
         0.00000E+00
         0.00000E+00
         0.00000E+00
         0.00000E+00
         0.00000E+00
         0.00000E+00
         0.00000E+00
         0.00000E+00
         0.00000E+00
         0.00000E+00
         0.00000E+00
         0.00000E+00
         0.00000E+00
         0.00000E+00
         0.00000E+00
         0.00000E+00
         0.00000E+00
         0.00000E+00
         0.00000E+00
         0.00000E+00
         0.00000E+00
         0.00000E+00
         0.00000E+00
         0.00000E+00
         0.00000E+00
         0.00000E+00
         0.00000E+00
         0.00000E+00
         0.00000E+00
         0.00000E+00
         0.00000E+00
         0.00000E+00
         0.00000E+00
         0.00000E+00
         0.00000E+00
         0.00000E+00
         0.00000E+00
         0.00000E+00
         0.00000E+00
         0.00000E+00
         0.00000E+00
         0.00000E+00
         0.00000E+00
         0.00000E+00
         0.00000E+00
         0.00000E+00
         0.00000E+00
         0.00000E+00
         0.00000E+00
         0.00000E+00
         0.00000E+00
         0.00000E+00
         0.00000E+00
         0.00000E+00
         0.00000E+00
         0.00000E+00
         0.00000E+00
         0.00000E+00
         0.00000E+00
         0.00000E+00
         0.00000E+00
         0.00000E+00
         0.00000E+00
         0.00000E+00
         0.00000E+00
         0.00000E+00
         0.00000E+00
         0.00000E+00
         0.00000E+00
         0.00000E+00
         0.00000E+00
         0.00000E+00
         0.00000E+00
         0.00000E+00
         0.00000E+00
         0.00000E+00
         0.00000E+00
         0.00000E+00
         0.00000E+00
         0.00000E+00
         0.00000E+00
         0.00000E+00
         0.00000E+00
         0.00000E+00
         0.00000E+00
         0.00000E+00
         0.00000E+00
         0.00000E+00
         0.00000E+00
         0.00000E+00
         0.00000E+00
         0.00000E+00
         0.00000E+00
         0.00000E+00
         0.00000E+00
         0.00000E+00
         0.00000E+00
         0.00000E+00
         0.00000E+00
         0.00000E+00
         0.00000E+00
         0.00000E+00
         0.00000E+00
         0.00000E+00
         0.00000E+00
         0.00000E+00
         0.00000E+00
         0.00000E+00
         0.00000E+00
         0.00000E+00
         0.00000E+00
         0.00000E+00
         0.00000E+00
         0.00000E+00
         0.00000E+00
         0.00000E+00
         0.00000E+00
         0.00000E+00
         0.00000E+00
         0.00000E+00
         0.00000E+00
         0.00000E+00
         0.00000E+00
         0.00000E+00
         0.00000E+00
         0.00000E+00
         0.00000E+00
         0.00000E+00
         0.00000E+00
         0.00000E+00
         0.00000E+00
         0.00000E+00
         0.00000E+00
         0.00000E+00
         0.00000E+00
         0.00000E+00
         0.00000E+00
         0.00000E+00
         0.00000E+00
         0.00000E+00
         0.00000E+00
         0.00000E+00
         0.00000E+00
         0.00000E+00
         0.00000E+00
         0.00000E+00
         0.00000E+00
         0.00000E+00
         0.00000E+00
         0.00000E+00
         0.00000E+00
         0.00000E+00
         0.00000E+00
         0.00000E+00
         0.00000E+00
         0.00000E+00
         0.00000E+00
         0.00000E+00
         0.00000E+00
         0.00000E+00
         0.00000E+00
         0.00000E+00
         0.00000E+00
         0.00000E+00
         0.00000E+00
         0.00000E+00
         0.00000E+00
         0.00000E+00
         0.00000E+00
         0.00000E+00
         0.00000E+00
         0.00000E+00
         0.00000E+00
         0.00000E+00
         0.00000E+00
         0.00000E+00
         0.00000E+00
         0.00000E+00
         0.00000E+00
         0.00000E+00
         0.00000E+00
         0.00000E+00
         0.00000E+00
         0.00000E+00
         0.00000E+00
         0.00000E+00
         0.00000E+00
         0.00000E+00
         0.00000E+00
         0.00000E+00
         0.00000E+00
         0.00000E+00
         0.00000E+00
         0.00000E+00
         0.00000E+00
         0.00000E+00
         0.00000E+00
         0.00000E+00
         0.00000E+00
         0.00000E+00
         0.00000E+00
         0.00000E+00
         0.00000E+00
         0.00000E+00
         0.00000E+00
         0.00000E+00
         0.00000E+00
         0.00000E+00
         0.00000E+00
         0.00000E+00
         0.00000E+00
         0.00000E+00
         0.00000E+00
         0.00000E+00
         0.00000E+00
         0.00000E+00
         0.00000E+00
         0.00000E+00
         0.00000E+00
         0.00000E+00
         0.00000E+00
         0.00000E+00
         0.00000E+00
         0.00000E+00
         0.00000E+00
         0.00000E+00
         0.00000E+00
         0.00000E+00
         0.00000E+00
         0.00000E+00
         0.00000E+00
         0.00000E+00
         0.00000E+00
         0.00000E+00
         0.00000E+00
         0.00000E+00
         0.00000E+00
         0.00000E+00
         0.00000E+00
         0.00000E+00
         0.00000E+00
         0.00000E+00
         0.00000E+00
         0.00000E+00
         0.00000E+00
         0.00000E+00
         0.00000E+00
         0.00000E+00
         0.00000E+00
         0.00000E+00
         0.00000E+00
         0.00000E+00
         0.00000E+00
         0.00000E+00
         0.00000E+00
         0.00000E+00
         0.00000E+00
         0.00000E+00
         0.00000E+00
         0.00000E+00
         0.00000E+00
         0.00000E+00
         0.00000E+00
         0.00000E+00
         0.00000E+00
         0.00000E+00
         0.00000E+00
         0.00000E+00
         0.00000E+00
         0.00000E+00
         0.00000E+00
         0.00000E+00
         0.00000E+00
         0.00000E+00
         0.00000E+00
         0.00000E+00
         0.00000E+00
         0.00000E+00
         0.00000E+00
         0.00000E+00
         0.00000E+00
         0.00000E+00
         0.00000E+00
         0.00000E+00
         0.00000E+00
         0.00000E+00
         0.00000E+00
         0.00000E+00
         0.00000E+00
         0.00000E+00
         0.00000E+00
         0.00000E+00
         0.00000E+00
         0.00000E+00
         0.00000E+00
         0.00000E+00
         0.00000E+00
         0.00000E+00
         0.00000E+00
         0.00000E+00
         0.00000E+00
         0.00000E+00
         0.00000E+00
         0.00000E+00
         0.00000E+00
         0.00000E+00
         0.00000E+00
         0.00000E+00
         0.00000E+00
         0.00000E+00
         0.00000E+00
         0.00000E+00
         0.00000E+00
         0.00000E+00
         0.00000E+00
         0.00000E+00
         0.00000E+00
         0.00000E+00
         0.00000E+00
         0.00000E+00
         0.00000E+00
         0.00000E+00
         0.00000E+00
         0.00000E+00
         0.00000E+00
         0.00000E+00
         0.00000E+00
         0.00000E+00
         0.00000E+00
         0.00000E+00
         0.00000E+00
         0.00000E+00
         0.00000E+00
         0.00000E+00
         0.00000E+00
         0.00000E+00
         0.00000E+00
         0.00000E+00
         0.00000E+00
         0.00000E+00
         0.00000E+00
         0.00000E+00
         0.00000E+00
         0.00000E+00
         0.00000E+00
         0.00000E+00
         0.00000E+00
         0.00000E+00
         0.00000E+00
         0.00000E+00
         0.00000E+00
         0.00000E+00
         0.00000E+00
         0.00000E+00
         0.00000E+00
         0.00000E+00
         0.00000E+00
         0.00000E+00
         0.00000E+00
         0.00000E+00
         0.00000E+00
         0.00000E+00
         0.00000E+00
         0.00000E+00
         0.00000E+00
         0.00000E+00
         0.00000E+00
         0.00000E+00
         0.00000E+00
         0.00000E+00
         0.00000E+00
         0.00000E+00
         0.00000E+00
         0.00000E+00
         0.00000E+00
         0.00000E+00
         0.00000E+00
         0.00000E+00
         0.00000E+00
         0.00000E+00
         0.00000E+00
         0.00000E+00
         0.00000E+00
         0.00000E+00
         0.00000E+00
         0.00000E+00
         0.00000E+00
         0.00000E+00
         0.00000E+00
         0.00000E+00
         0.00000E+00
         0.00000E+00
         0.00000E+00
         0.00000E+00
         0.00000E+00
         0.00000E+00
         0.00000E+00
         0.00000E+00
         0.00000E+00
         0.00000E+00
         0.00000E+00
         0.00000E+00
         0.00000E+00
         0.00000E+00
         0.00000E+00
         0.00000E+00
         0.00000E+00
         0.00000E+00
         0.00000E+00
         0.00000E+00
         0.00000E+00
         0.00000E+00
         0.00000E+00
         0.00000E+00
         0.00000E+00
         0.00000E+00
         0.00000E+00
         0.00000E+00
         0.00000E+00
         0.00000E+00
         0.00000E+00
         0.00000E+00
         0.00000E+00
         0.00000E+00
         0.00000E+00
         0.00000E+00
         0.00000E+00
         0.00000E+00
         0.00000E+00
         0.00000E+00
         0.00000E+00
         0.00000E+00
         0.00000E+00
         0.00000E+00
         0.00000E+00
         0.00000E+00
         0.00000E+00
         0.00000E+00
         0.00000E+00
         0.00000E+00
         0.00000E+00
         0.00000E+00
         0.00000E+00
         0.00000E+00
         0.00000E+00
         0.00000E+00
         0.00000E+00
         0.00000E+00
         0.00000E+00
         0.00000E+00
         0.00000E+00
         0.00000E+00
         0.00000E+00
         0.00000E+00
         0.00000E+00
         0.00000E+00
         0.00000E+00
         0.00000E+00
         0.00000E+00
         0.00000E+00
         0.00000E+00
         0.00000E+00
         0.00000E+00
         0.00000E+00
         0.00000E+00
         0.00000E+00
         0.00000E+00
         0.00000E+00
         0.00000E+00
         0.00000E+00
         0.00000E+00
         0.00000E+00
         0.00000E+00
         0.00000E+00
         0.00000E+00
         0.00000E+00
         0.00000E+00
         0.00000E+00
         0.00000E+00
         0.00000E+00
         0.00000E+00
         0.00000E+00
         0.00000E+00
         0.00000E+00
         0.00000E+00
         0.00000E+00
         0.00000E+00
         0.00000E+00
         0.00000E+00
         0.00000E+00
         0.00000E+00
         0.00000E+00
         0.00000E+00
         0.00000E+00
         0.00000E+00
         0.00000E+00
         0.00000E+00
         0.00000E+00
         0.00000E+00
         0.00000E+00
         0.00000E+00
         0.00000E+00
         0.00000E+00
         0.00000E+00
         0.00000E+00
         0.00000E+00
         0.00000E+00
         0.00000E+00
         0.00000E+00
         0.00000E+00
         0.00000E+00
         0.00000E+00
         0.00000E+00
         0.00000E+00
         0.00000E+00
         0.00000E+00
         0.00000E+00
         0.00000E+00
         0.00000E+00
         0.00000E+00
         0.00000E+00
         0.00000E+00
         0.00000E+00
         0.00000E+00
         0.00000E+00
         0.00000E+00
         0.00000E+00
         0.00000E+00
         0.00000E+00
         0.00000E+00
         0.00000E+00
         0.00000E+00
         0.00000E+00
         0.00000E+00
         0.00000E+00
         0.00000E+00
         0.00000E+00
         0.00000E+00
         0.00000E+00
         0.00000E+00
         0.00000E+00
         0.00000E+00
         0.00000E+00
         0.00000E+00
         0.00000E+00
         0.00000E+00
         0.00000E+00
         0.00000E+00
         0.00000E+00
         0.00000E+00
         0.00000E+00
         0.00000E+00
         0.00000E+00
         0.00000E+00
         0.00000E+00
         0.00000E+00
         0.00000E+00
         0.00000E+00
         0.00000E+00
         0.00000E+00
         0.00000E+00
         0.00000E+00
         0.00000E+00
         0.00000E+00
         0.00000E+00
         0.00000E+00
         0.00000E+00
         0.00000E+00
         0.00000E+00
         0.00000E+00
         0.00000E+00
         0.00000E+00
         0.00000E+00
         0.00000E+00
         0.00000E+00
         0.00000E+00
         0.00000E+00
         0.00000E+00
         0.00000E+00
         0.00000E+00
         0.00000E+00
         0.00000E+00
         0.00000E+00
         0.00000E+00
         0.00000E+00
         0.00000E+00
         0.00000E+00
         0.00000E+00
         0.00000E+00
         0.00000E+00
         0.00000E+00
         0.00000E+00
         0.00000E+00
         0.00000E+00
         0.00000E+00
         0.00000E+00
         0.00000E+00
         0.00000E+00
         0.00000E+00
         0.00000E+00
         0.00000E+00
         0.00000E+00
         0.00000E+00
         0.00000E+00
         0.00000E+00
         0.00000E+00
         0.00000E+00
         0.00000E+00
         0.00000E+00
         0.00000E+00
         0.00000E+00
         0.00000E+00
         0.00000E+00
         0.00000E+00
         0.00000E+00
         0.00000E+00
         0.00000E+00
         0.00000E+00
         0.00000E+00
         0.00000E+00
         0.00000E+00
         0.00000E+00
         0.00000E+00
         0.00000E+00
         0.00000E+00
         0.00000E+00
         0.00000E+00
         0.00000E+00
         0.00000E+00
         0.00000E+00
         0.00000E+00
         0.00000E+00
         0.00000E+00
         0.00000E+00
         0.00000E+00
         0.00000E+00
         0.00000E+00
         0.00000E+00
         0.00000E+00
         0.00000E+00
         0.00000E+00
         0.00000E+00
         0.00000E+00
         0.00000E+00
         0.00000E+00
         0.00000E+00
         0.00000E+00
         0.00000E+00
         0.00000E+00
         0.00000E+00
         0.00000E+00
         0.00000E+00
         0.00000E+00
         0.00000E+00
         0.00000E+00
         0.00000E+00
         0.00000E+00
         0.00000E+00
         0.00000E+00
         0.00000E+00
         0.00000E+00
         0.00000E+00
         0.00000E+00
         0.00000E+00
         0.00000E+00
         0.00000E+00
         0.00000E+00
         0.00000E+00
         0.00000E+00
         0.00000E+00
         0.00000E+00
         0.00000E+00
         0.00000E+00
         0.00000E+00
         0.00000E+00
         0.00000E+00
         0.00000E+00
         0.00000E+00
         0.00000E+00
         0.00000E+00
         0.00000E+00
         0.00000E+00
         0.00000E+00
         0.00000E+00
         0.00000E+00
         0.00000E+00
         0.00000E+00
         0.00000E+00
         0.00000E+00
         0.00000E+00
         0.00000E+00
         0.00000E+00
         0.00000E+00
         0.00000E+00
         0.00000E+00
         0.00000E+00
         0.00000E+00
         0.00000E+00
         0.00000E+00
         0.00000E+00
         0.00000E+00
         0.00000E+00
         0.00000E+00
         0.00000E+00
         0.00000E+00
         0.00000E+00
         0.00000E+00
         0.00000E+00
         0.00000E+00
         0.00000E+00
         0.00000E+00
         0.00000E+00
         0.00000E+00
         0.00000E+00
         0.00000E+00
         0.00000E+00
         0.00000E+00
         0.00000E+00
         0.00000E+00
         0.00000E+00
         0.00000E+00
         0.00000E+00
         0.00000E+00
         0.00000E+00
         0.00000E+00
         0.00000E+00
         0.00000E+00
         0.00000E+00
         0.00000E+00
         0.00000E+00
         0.00000E+00
         0.00000E+00
         0.00000E+00
         0.00000E+00
         0.00000E+00
         0.00000E+00
         0.00000E+00
         0.00000E+00
         0.00000E+00
         0.00000E+00
         0.00000E+00
         0.00000E+00
         0.00000E+00
         0.00000E+00
         0.00000E+00
         0.00000E+00
         0.00000E+00
         0.00000E+00
         0.00000E+00
         0.00000E+00
         0.00000E+00
         0.00000E+00
         0.00000E+00
         0.00000E+00
         0.00000E+00
         0.00000E+00
         0.00000E+00
         0.00000E+00
         0.00000E+00
         0.00000E+00
         0.00000E+00
         0.00000E+00
         0.00000E+00
         0.00000E+00
         0.00000E+00
         0.00000E+00
         0.00000E+00
         0.00000E+00
         0.00000E+00
         0.00000E+00
         0.00000E+00
         0.00000E+00
         0.00000E+00
         0.00000E+00
         0.00000E+00
         0.00000E+00
         0.00000E+00
         0.00000E+00
         0.00000E+00
         0.00000E+00
         0.00000E+00
         0.00000E+00
         0.00000E+00
         0.00000E+00
         0.00000E+00
         0.00000E+00
         0.00000E+00
         0.00000E+00
         0.00000E+00
         0.00000E+00
         0.00000E+00
         0.00000E+00
         0.00000E+00
         0.00000E+00
         0.00000E+00
         0.00000E+00
         0.00000E+00
         0.00000E+00
         0.00000E+00
         0.00000E+00
         0.00000E+00
         0.00000E+00
         0.00000E+00
         0.00000E+00
         0.00000E+00
         0.00000E+00
         0.00000E+00
         0.00000E+00
         0.00000E+00
         0.00000E+00
         0.00000E+00
         0.00000E+00
         0.00000E+00
         0.00000E+00
         0.00000E+00
         0.00000E+00
         0.00000E+00
         0.00000E+00
         0.00000E+00
         0.00000E+00
         0.00000E+00
         0.00000E+00
         0.00000E+00
         0.00000E+00
         0.00000E+00
         0.00000E+00
         0.00000E+00
         0.00000E+00
         0.00000E+00
         0.00000E+00
         0.00000E+00
         0.00000E+00
         0.00000E+00
         0.00000E+00
         0.00000E+00
         0.00000E+00
         0.00000E+00
         0.00000E+00
         0.00000E+00
         0.00000E+00
         0.00000E+00
         0.00000E+00
         0.00000E+00
         0.00000E+00
         0.00000E+00
         0.00000E+00
         0.00000E+00
         0.00000E+00
         0.00000E+00
         0.00000E+00
         0.00000E+00
         0.00000E+00
         0.00000E+00
         0.00000E+00
         0.00000E+00
         0.00000E+00
         0.00000E+00
         0.00000E+00
         0.00000E+00
         0.00000E+00
         0.00000E+00
         0.00000E+00
         0.00000E+00
         0.00000E+00
         0.00000E+00
         0.00000E+00
         0.00000E+00
         0.00000E+00
         0.00000E+00
         0.00000E+00
         0.00000E+00
         0.00000E+00
         0.00000E+00
         0.00000E+00
         0.00000E+00
         0.00000E+00
         0.00000E+00
         0.00000E+00
         0.00000E+00
         0.00000E+00
         0.00000E+00
         0.00000E+00
         0.00000E+00
         0.00000E+00
         0.00000E+00
         0.00000E+00
         0.00000E+00
         0.00000E+00
         0.00000E+00
         0.00000E+00
         0.00000E+00
         0.00000E+00
         0.00000E+00
         0.00000E+00
         0.00000E+00
         0.00000E+00
         0.00000E+00
         0.00000E+00
         0.00000E+00
         0.00000E+00
         0.00000E+00
         0.00000E+00
         0.00000E+00
         0.00000E+00
         0.00000E+00
         0.00000E+00
         0.00000E+00
         0.00000E+00
         0.00000E+00
         0.00000E+00
         0.00000E+00
         0.00000E+00
         0.00000E+00
         0.00000E+00
         0.00000E+00
         0.00000E+00
         0.00000E+00
         0.00000E+00
         0.00000E+00
         0.00000E+00
         0.00000E+00
         0.00000E+00
         0.00000E+00
         0.00000E+00
         0.00000E+00
         0.00000E+00
         0.00000E+00
         0.00000E+00
         0.00000E+00
         0.00000E+00
         0.00000E+00
         0.00000E+00
         0.00000E+00
         0.00000E+00
         0.00000E+00
         0.00000E+00
         0.00000E+00
         0.00000E+00
         0.00000E+00
         0.00000E+00
         0.00000E+00
         0.00000E+00
         0.00000E+00
         0.00000E+00
         0.00000E+00
         0.00000E+00
         0.00000E+00
         0.00000E+00
         0.00000E+00
         0.00000E+00
         0.00000E+00
         0.00000E+00
         0.00000E+00
         0.00000E+00
         0.00000E+00
         0.00000E+00
         0.00000E+00
         0.00000E+00
         0.00000E+00
         0.00000E+00
         0.00000E+00
         0.00000E+00
         0.00000E+00
         0.00000E+00
         0.00000E+00
         0.00000E+00
         0.00000E+00
         0.00000E+00
         0.00000E+00
         0.00000E+00
         0.00000E+00
         0.00000E+00
         0.00000E+00
         0.00000E+00
         0.00000E+00
         0.00000E+00
         0.00000E+00
         0.00000E+00
         0.00000E+00
         0.00000E+00
         0.00000E+00
         0.00000E+00
         0.00000E+00
         0.00000E+00
         0.00000E+00
         0.00000E+00
         0.00000E+00
         0.00000E+00
         0.00000E+00
         0.00000E+00
         0.00000E+00
         0.00000E+00
         0.00000E+00
         0.00000E+00
         0.00000E+00
         0.00000E+00
         0.00000E+00
         0.00000E+00
         0.00000E+00
         0.00000E+00
         0.00000E+00
         0.00000E+00
         0.00000E+00
         0.00000E+00
         0.00000E+00
         0.00000E+00
         0.00000E+00
         0.00000E+00
         0.00000E+00
         0.00000E+00
         0.00000E+00
         0.00000E+00
         0.00000E+00
         0.00000E+00
         0.00000E+00
         0.00000E+00
         0.00000E+00
         0.00000E+00
         0.00000E+00
         0.00000E+00
         0.00000E+00
         0.00000E+00
         0.00000E+00
         0.00000E+00
         0.00000E+00
         0.00000E+00
         0.00000E+00
         0.00000E+00
         0.00000E+00
         0.00000E+00
         0.00000E+00
         0.00000E+00
         0.00000E+00
         0.00000E+00
         0.00000E+00
         0.00000E+00
         0.00000E+00
         0.00000E+00
         0.00000E+00
         0.00000E+00
         0.00000E+00
         0.00000E+00
         0.00000E+00
         0.00000E+00
         0.00000E+00
         0.00000E+00
         0.00000E+00
         0.00000E+00
         0.00000E+00
         0.00000E+00
         0.00000E+00
         0.00000E+00
         0.00000E+00
         0.00000E+00
         0.00000E+00
         0.00000E+00
         0.00000E+00
         0.00000E+00
         0.00000E+00
         0.00000E+00
         0.00000E+00
         0.00000E+00
         0.00000E+00
         0.00000E+00
         0.00000E+00
         0.00000E+00
         0.00000E+00
         0.00000E+00
         0.00000E+00
         0.00000E+00
         0.00000E+00
         0.00000E+00
         0.00000E+00
         0.00000E+00
         0.00000E+00
         0.00000E+00
         0.00000E+00
         0.00000E+00
         0.00000E+00
         0.00000E+00
         0.00000E+00
         0.00000E+00
         0.00000E+00
         0.00000E+00
         0.00000E+00
         0.00000E+00
         0.00000E+00
         0.00000E+00
         0.00000E+00
         0.00000E+00
         0.00000E+00
         0.00000E+00
         0.00000E+00
         0.00000E+00
         0.00000E+00
         0.00000E+00
         0.00000E+00
         0.00000E+00
         0.00000E+00
         0.00000E+00
         0.00000E+00
         0.00000E+00
         0.00000E+00
         0.00000E+00
         0.00000E+00
         0.00000E+00
         0.00000E+00
         0.00000E+00
         0.00000E+00
         0.00000E+00
         0.00000E+00
         0.00000E+00
         0.00000E+00
         0.00000E+00
         0.00000E+00
         0.00000E+00
         0.00000E+00
         0.00000E+00
         0.00000E+00
         0.00000E+00
         0.00000E+00
         0.00000E+00
         0.00000E+00
         0.00000E+00
         0.00000E+00
         0.00000E+00
         0.00000E+00
         0.00000E+00
         0.00000E+00
         0.00000E+00
         0.00000E+00
         0.00000E+00
         0.00000E+00
         0.00000E+00
         0.00000E+00
         0.00000E+00
         0.00000E+00
         0.00000E+00
         0.00000E+00
         0.00000E+00
         0.00000E+00
         0.00000E+00
         0.00000E+00
         0.00000E+00
         0.00000E+00
         0.00000E+00
         0.00000E+00
         0.00000E+00
         0.00000E+00
         0.00000E+00
         0.00000E+00
         0.00000E+00
         0.00000E+00
         0.00000E+00
         0.00000E+00
         0.00000E+00
         0.00000E+00
         0.00000E+00
         0.00000E+00
         0.00000E+00
         0.00000E+00
         0.00000E+00
         0.00000E+00
         0.00000E+00
         0.00000E+00
         0.00000E+00
         0.00000E+00
         0.00000E+00
         0.00000E+00
         0.00000E+00
         0.00000E+00
         0.00000E+00
         0.00000E+00
         0.00000E+00
         0.00000E+00
         0.00000E+00
         0.00000E+00
         0.00000E+00
         0.00000E+00
         0.00000E+00
         0.00000E+00
         0.00000E+00
         0.00000E+00
         0.00000E+00
         0.00000E+00
         0.00000E+00
         0.00000E+00
         0.00000E+00
         0.00000E+00
         0.00000E+00
         0.00000E+00
         0.00000E+00
         0.00000E+00
         0.00000E+00
         0.00000E+00
         0.00000E+00
         0.00000E+00
         0.00000E+00
         0.00000E+00
         0.00000E+00
         0.00000E+00
         0.00000E+00
         0.00000E+00
         0.00000E+00
         0.00000E+00
         0.00000E+00
         0.00000E+00
         0.00000E+00
         0.00000E+00
         0.00000E+00
         0.00000E+00
         0.00000E+00
         0.00000E+00
         0.00000E+00
         0.00000E+00
         0.00000E+00
         0.00000E+00
         0.00000E+00
         0.00000E+00
         0.00000E+00
         0.00000E+00
         0.00000E+00
         0.00000E+00
         0.00000E+00
         0.00000E+00
         0.00000E+00
         0.00000E+00
         0.00000E+00
         0.00000E+00
         0.00000E+00
         0.00000E+00
         0.00000E+00
         0.00000E+00
         0.00000E+00
         0.00000E+00
         0.00000E+00
         0.00000E+00
         0.00000E+00
         0.00000E+00
         0.00000E+00
         0.00000E+00
         0.00000E+00
         0.00000E+00
         0.00000E+00
         0.00000E+00
         0.00000E+00
         0.00000E+00
         0.00000E+00
         0.00000E+00
         0.00000E+00
         0.00000E+00
         0.00000E+00
         0.00000E+00
         0.00000E+00
         0.00000E+00
         0.00000E+00
         0.00000E+00
         0.00000E+00
         0.00000E+00
         0.00000E+00
         0.00000E+00
         0.00000E+00
         0.00000E+00
         0.00000E+00
         0.00000E+00
         0.00000E+00
         0.00000E+00
         0.00000E+00
         0.00000E+00
         0.00000E+00
         0.00000E+00
         0.00000E+00
         0.00000E+00
         0.00000E+00
         0.00000E+00
         0.00000E+00
         0.00000E+00
         0.00000E+00
         0.00000E+00
         0.00000E+00
         0.00000E+00
         0.00000E+00
         0.00000E+00
         0.00000E+00
         0.00000E+00
         0.00000E+00
         0.00000E+00
         0.00000E+00
         0.00000E+00
         0.00000E+00
         0.00000E+00
         0.00000E+00
         0.00000E+00
         0.00000E+00
         0.00000E+00
         0.00000E+00
         0.00000E+00
         0.00000E+00
         0.00000E+00
         0.00000E+00
         0.00000E+00
         0.00000E+00
         0.00000E+00
         0.00000E+00
         0.00000E+00
         0.00000E+00
         0.00000E+00
         0.00000E+00
         0.00000E+00
         0.00000E+00
         0.00000E+00
         0.00000E+00
         0.00000E+00
         0.00000E+00
         0.00000E+00
         0.00000E+00
         0.00000E+00
         0.00000E+00
         0.00000E+00
         0.00000E+00
         0.00000E+00
         0.00000E+00
         0.00000E+00
         0.00000E+00
         0.00000E+00
         0.00000E+00
         0.00000E+00
         0.00000E+00
         0.00000E+00
         0.00000E+00
         0.00000E+00
         0.00000E+00
         0.00000E+00
         0.00000E+00
         0.00000E+00
         0.00000E+00
         0.00000E+00
         0.00000E+00
         0.00000E+00
         0.00000E+00
         0.00000E+00
         0.00000E+00
         0.00000E+00
         0.00000E+00
         0.00000E+00
         0.00000E+00
         0.00000E+00
         0.00000E+00
         0.00000E+00
         0.00000E+00
         0.00000E+00
         0.00000E+00
         0.00000E+00
         0.00000E+00
         0.00000E+00
         0.00000E+00
         0.00000E+00
         0.00000E+00
         0.00000E+00
         0.00000E+00
         0.00000E+00
         0.00000E+00
         0.00000E+00
         0.00000E+00
         0.00000E+00
         0.00000E+00
         0.00000E+00
         0.00000E+00
         0.00000E+00
         0.00000E+00
         0.00000E+00
         0.00000E+00
         0.00000E+00
         0.00000E+00
         0.00000E+00
         0.00000E+00
         0.00000E+00
         0.00000E+00
         0.00000E+00
         0.00000E+00
         0.00000E+00
         0.00000E+00
         0.00000E+00
         0.00000E+00
         0.00000E+00
         0.00000E+00
         0.00000E+00
         0.00000E+00
         0.00000E+00
         0.00000E+00
         0.00000E+00
         0.00000E+00
         0.00000E+00
         0.00000E+00
         0.00000E+00
         0.00000E+00
         0.00000E+00
         0.00000E+00
         0.00000E+00
         0.00000E+00
         0.00000E+00
         0.00000E+00
         0.00000E+00
         0.00000E+00
         0.00000E+00
         0.00000E+00
         0.00000E+00
         0.00000E+00
         0.00000E+00
         0.00000E+00
         0.00000E+00
         0.00000E+00
         0.00000E+00
         0.00000E+00
         0.00000E+00
         0.00000E+00
         0.00000E+00
         0.00000E+00
  
SCALARS                 acceleration_y  double 1
LOOKUP_TABLE default
         0.00000E+00
         0.00000E+00
         0.00000E+00
         0.00000E+00
         0.00000E+00
         0.00000E+00
         0.00000E+00
         0.00000E+00
         0.00000E+00
         0.00000E+00
         0.00000E+00
         0.00000E+00
         0.00000E+00
         0.00000E+00
         0.00000E+00
         0.00000E+00
         0.00000E+00
         0.00000E+00
         0.00000E+00
         0.00000E+00
         0.00000E+00
         0.00000E+00
         0.00000E+00
         0.00000E+00
         0.00000E+00
         0.00000E+00
         0.00000E+00
         0.00000E+00
         0.00000E+00
         0.00000E+00
         0.00000E+00
         0.00000E+00
         0.00000E+00
         0.00000E+00
         0.00000E+00
         0.00000E+00
         0.00000E+00
         0.00000E+00
         0.00000E+00
         0.00000E+00
         0.00000E+00
         0.00000E+00
         0.00000E+00
         0.00000E+00
         0.00000E+00
         0.00000E+00
         0.00000E+00
         0.00000E+00
         0.00000E+00
         0.00000E+00
         0.00000E+00
         0.00000E+00
         0.00000E+00
         0.00000E+00
         0.00000E+00
         0.00000E+00
         0.00000E+00
         0.00000E+00
         0.00000E+00
         0.00000E+00
         0.00000E+00
         0.00000E+00
         0.00000E+00
         0.00000E+00
         0.00000E+00
         0.00000E+00
         0.00000E+00
         0.00000E+00
         0.00000E+00
         0.00000E+00
         0.00000E+00
         0.00000E+00
         0.00000E+00
         0.00000E+00
         0.00000E+00
         0.00000E+00
         0.00000E+00
         0.00000E+00
         0.00000E+00
         0.00000E+00
         0.00000E+00
         0.00000E+00
         0.00000E+00
         0.00000E+00
         0.00000E+00
         0.00000E+00
         0.00000E+00
         0.00000E+00
         0.00000E+00
         0.00000E+00
         0.00000E+00
         0.00000E+00
         0.00000E+00
         0.00000E+00
         0.00000E+00
         0.00000E+00
         0.00000E+00
         0.00000E+00
         0.00000E+00
         0.00000E+00
         0.00000E+00
         0.00000E+00
         0.00000E+00
         0.00000E+00
         0.00000E+00
         0.00000E+00
         0.00000E+00
         0.00000E+00
         0.00000E+00
         0.00000E+00
         0.00000E+00
         0.00000E+00
         0.00000E+00
         0.00000E+00
         0.00000E+00
         0.00000E+00
         0.00000E+00
         0.00000E+00
         0.00000E+00
         0.00000E+00
         0.00000E+00
         0.00000E+00
         0.00000E+00
         0.00000E+00
         0.00000E+00
         0.00000E+00
         0.00000E+00
         0.00000E+00
         0.00000E+00
         0.00000E+00
         0.00000E+00
         0.00000E+00
         0.00000E+00
         0.00000E+00
         0.00000E+00
         0.00000E+00
         0.00000E+00
         0.00000E+00
         0.00000E+00
         0.00000E+00
         0.00000E+00
         0.00000E+00
         0.00000E+00
         0.00000E+00
         0.00000E+00
         0.00000E+00
         0.00000E+00
         0.00000E+00
         0.00000E+00
         0.00000E+00
         0.00000E+00
         0.00000E+00
         0.00000E+00
         0.00000E+00
         0.00000E+00
         0.00000E+00
         0.00000E+00
         0.00000E+00
         0.00000E+00
         0.00000E+00
         0.00000E+00
         0.00000E+00
         0.00000E+00
         0.00000E+00
         0.00000E+00
         0.00000E+00
         0.00000E+00
         0.00000E+00
         0.00000E+00
         0.00000E+00
         0.00000E+00
         0.00000E+00
         0.00000E+00
         0.00000E+00
         0.00000E+00
         0.00000E+00
         0.00000E+00
         0.00000E+00
         0.00000E+00
         0.00000E+00
         0.00000E+00
         0.00000E+00
         0.00000E+00
         0.00000E+00
         0.00000E+00
         0.00000E+00
         0.00000E+00
         0.00000E+00
         0.00000E+00
         0.00000E+00
         0.00000E+00
         0.00000E+00
         0.00000E+00
         0.00000E+00
         0.00000E+00
         0.00000E+00
         0.00000E+00
         0.00000E+00
         0.00000E+00
         0.00000E+00
         0.00000E+00
         0.00000E+00
         0.00000E+00
         0.00000E+00
         0.00000E+00
         0.00000E+00
         0.00000E+00
         0.00000E+00
         0.00000E+00
         0.00000E+00
         0.00000E+00
         0.00000E+00
         0.00000E+00
         0.00000E+00
         0.00000E+00
         0.00000E+00
         0.00000E+00
         0.00000E+00
         0.00000E+00
         0.00000E+00
         0.00000E+00
         0.00000E+00
         0.00000E+00
         0.00000E+00
         0.00000E+00
         0.00000E+00
         0.00000E+00
         0.00000E+00
         0.00000E+00
         0.00000E+00
         0.00000E+00
         0.00000E+00
         0.00000E+00
         0.00000E+00
         0.00000E+00
         0.00000E+00
         0.00000E+00
         0.00000E+00
         0.00000E+00
         0.00000E+00
         0.00000E+00
         0.00000E+00
         0.00000E+00
         0.00000E+00
         0.00000E+00
         0.00000E+00
         0.00000E+00
         0.00000E+00
         0.00000E+00
         0.00000E+00
         0.00000E+00
         0.00000E+00
         0.00000E+00
         0.00000E+00
         0.00000E+00
         0.00000E+00
         0.00000E+00
         0.00000E+00
         0.00000E+00
         0.00000E+00
         0.00000E+00
         0.00000E+00
         0.00000E+00
         0.00000E+00
         0.00000E+00
         0.00000E+00
         0.00000E+00
         0.00000E+00
         0.00000E+00
         0.00000E+00
         0.00000E+00
         0.00000E+00
         0.00000E+00
         0.00000E+00
         0.00000E+00
         0.00000E+00
         0.00000E+00
         0.00000E+00
         0.00000E+00
         0.00000E+00
         0.00000E+00
         0.00000E+00
         0.00000E+00
         0.00000E+00
         0.00000E+00
         0.00000E+00
         0.00000E+00
         0.00000E+00
         0.00000E+00
         0.00000E+00
         0.00000E+00
         0.00000E+00
         0.00000E+00
         0.00000E+00
         0.00000E+00
         0.00000E+00
         0.00000E+00
         0.00000E+00
         0.00000E+00
         0.00000E+00
         0.00000E+00
         0.00000E+00
         0.00000E+00
         0.00000E+00
         0.00000E+00
         0.00000E+00
         0.00000E+00
         0.00000E+00
         0.00000E+00
         0.00000E+00
         0.00000E+00
         0.00000E+00
         0.00000E+00
         0.00000E+00
         0.00000E+00
         0.00000E+00
         0.00000E+00
         0.00000E+00
         0.00000E+00
         0.00000E+00
         0.00000E+00
         0.00000E+00
         0.00000E+00
         0.00000E+00
         0.00000E+00
         0.00000E+00
         0.00000E+00
         0.00000E+00
         0.00000E+00
         0.00000E+00
         0.00000E+00
         0.00000E+00
         0.00000E+00
         0.00000E+00
         0.00000E+00
         0.00000E+00
         0.00000E+00
         0.00000E+00
         0.00000E+00
         0.00000E+00
         0.00000E+00
         0.00000E+00
         0.00000E+00
         0.00000E+00
         0.00000E+00
         0.00000E+00
         0.00000E+00
         0.00000E+00
         0.00000E+00
         0.00000E+00
         0.00000E+00
         0.00000E+00
         0.00000E+00
         0.00000E+00
         0.00000E+00
         0.00000E+00
         0.00000E+00
         0.00000E+00
         0.00000E+00
         0.00000E+00
         0.00000E+00
         0.00000E+00
         0.00000E+00
         0.00000E+00
         0.00000E+00
         0.00000E+00
         0.00000E+00
         0.00000E+00
         0.00000E+00
         0.00000E+00
         0.00000E+00
         0.00000E+00
         0.00000E+00
         0.00000E+00
         0.00000E+00
         0.00000E+00
         0.00000E+00
         0.00000E+00
         0.00000E+00
         0.00000E+00
         0.00000E+00
         0.00000E+00
         0.00000E+00
         0.00000E+00
         0.00000E+00
         0.00000E+00
         0.00000E+00
         0.00000E+00
         0.00000E+00
         0.00000E+00
         0.00000E+00
         0.00000E+00
         0.00000E+00
         0.00000E+00
         0.00000E+00
         0.00000E+00
         0.00000E+00
         0.00000E+00
         0.00000E+00
         0.00000E+00
         0.00000E+00
         0.00000E+00
         0.00000E+00
         0.00000E+00
         0.00000E+00
         0.00000E+00
         0.00000E+00
         0.00000E+00
         0.00000E+00
         0.00000E+00
         0.00000E+00
         0.00000E+00
         0.00000E+00
         0.00000E+00
         0.00000E+00
         0.00000E+00
         0.00000E+00
         0.00000E+00
         0.00000E+00
         0.00000E+00
         0.00000E+00
         0.00000E+00
         0.00000E+00
         0.00000E+00
         0.00000E+00
         0.00000E+00
         0.00000E+00
         0.00000E+00
         0.00000E+00
         0.00000E+00
         0.00000E+00
         0.00000E+00
         0.00000E+00
         0.00000E+00
         0.00000E+00
         0.00000E+00
         0.00000E+00
         0.00000E+00
         0.00000E+00
         0.00000E+00
         0.00000E+00
         0.00000E+00
         0.00000E+00
         0.00000E+00
         0.00000E+00
         0.00000E+00
         0.00000E+00
         0.00000E+00
         0.00000E+00
         0.00000E+00
         0.00000E+00
         0.00000E+00
         0.00000E+00
         0.00000E+00
         0.00000E+00
         0.00000E+00
         0.00000E+00
         0.00000E+00
         0.00000E+00
         0.00000E+00
         0.00000E+00
         0.00000E+00
         0.00000E+00
         0.00000E+00
         0.00000E+00
         0.00000E+00
         0.00000E+00
         0.00000E+00
         0.00000E+00
         0.00000E+00
         0.00000E+00
         0.00000E+00
         0.00000E+00
         0.00000E+00
         0.00000E+00
         0.00000E+00
         0.00000E+00
         0.00000E+00
         0.00000E+00
         0.00000E+00
         0.00000E+00
         0.00000E+00
         0.00000E+00
         0.00000E+00
         0.00000E+00
         0.00000E+00
         0.00000E+00
         0.00000E+00
         0.00000E+00
         0.00000E+00
         0.00000E+00
         0.00000E+00
         0.00000E+00
         0.00000E+00
         0.00000E+00
         0.00000E+00
         0.00000E+00
         0.00000E+00
         0.00000E+00
         0.00000E+00
         0.00000E+00
         0.00000E+00
         0.00000E+00
         0.00000E+00
         0.00000E+00
         0.00000E+00
         0.00000E+00
         0.00000E+00
         0.00000E+00
         0.00000E+00
         0.00000E+00
         0.00000E+00
         0.00000E+00
         0.00000E+00
         0.00000E+00
         0.00000E+00
         0.00000E+00
         0.00000E+00
         0.00000E+00
         0.00000E+00
         0.00000E+00
         0.00000E+00
         0.00000E+00
         0.00000E+00
         0.00000E+00
         0.00000E+00
         0.00000E+00
         0.00000E+00
         0.00000E+00
         0.00000E+00
         0.00000E+00
         0.00000E+00
         0.00000E+00
         0.00000E+00
         0.00000E+00
         0.00000E+00
         0.00000E+00
         0.00000E+00
         0.00000E+00
         0.00000E+00
         0.00000E+00
         0.00000E+00
         0.00000E+00
         0.00000E+00
         0.00000E+00
         0.00000E+00
         0.00000E+00
         0.00000E+00
         0.00000E+00
         0.00000E+00
         0.00000E+00
         0.00000E+00
         0.00000E+00
         0.00000E+00
         0.00000E+00
         0.00000E+00
         0.00000E+00
         0.00000E+00
         0.00000E+00
         0.00000E+00
         0.00000E+00
         0.00000E+00
         0.00000E+00
         0.00000E+00
         0.00000E+00
         0.00000E+00
         0.00000E+00
         0.00000E+00
         0.00000E+00
         0.00000E+00
         0.00000E+00
         0.00000E+00
         0.00000E+00
         0.00000E+00
         0.00000E+00
         0.00000E+00
         0.00000E+00
         0.00000E+00
         0.00000E+00
         0.00000E+00
         0.00000E+00
         0.00000E+00
         0.00000E+00
         0.00000E+00
         0.00000E+00
         0.00000E+00
         0.00000E+00
         0.00000E+00
         0.00000E+00
         0.00000E+00
         0.00000E+00
         0.00000E+00
         0.00000E+00
         0.00000E+00
         0.00000E+00
         0.00000E+00
         0.00000E+00
         0.00000E+00
         0.00000E+00
         0.00000E+00
         0.00000E+00
         0.00000E+00
         0.00000E+00
         0.00000E+00
         0.00000E+00
         0.00000E+00
         0.00000E+00
         0.00000E+00
         0.00000E+00
         0.00000E+00
         0.00000E+00
         0.00000E+00
         0.00000E+00
         0.00000E+00
         0.00000E+00
         0.00000E+00
         0.00000E+00
         0.00000E+00
         0.00000E+00
         0.00000E+00
         0.00000E+00
         0.00000E+00
         0.00000E+00
         0.00000E+00
         0.00000E+00
         0.00000E+00
         0.00000E+00
         0.00000E+00
         0.00000E+00
         0.00000E+00
         0.00000E+00
         0.00000E+00
         0.00000E+00
         0.00000E+00
         0.00000E+00
         0.00000E+00
         0.00000E+00
         0.00000E+00
         0.00000E+00
         0.00000E+00
         0.00000E+00
         0.00000E+00
         0.00000E+00
         0.00000E+00
         0.00000E+00
         0.00000E+00
         0.00000E+00
         0.00000E+00
         0.00000E+00
         0.00000E+00
         0.00000E+00
         0.00000E+00
         0.00000E+00
         0.00000E+00
         0.00000E+00
         0.00000E+00
         0.00000E+00
         0.00000E+00
         0.00000E+00
         0.00000E+00
         0.00000E+00
         0.00000E+00
         0.00000E+00
         0.00000E+00
         0.00000E+00
         0.00000E+00
         0.00000E+00
         0.00000E+00
         0.00000E+00
         0.00000E+00
         0.00000E+00
         0.00000E+00
         0.00000E+00
         0.00000E+00
         0.00000E+00
         0.00000E+00
         0.00000E+00
         0.00000E+00
         0.00000E+00
         0.00000E+00
         0.00000E+00
         0.00000E+00
         0.00000E+00
         0.00000E+00
         0.00000E+00
         0.00000E+00
         0.00000E+00
         0.00000E+00
         0.00000E+00
         0.00000E+00
         0.00000E+00
         0.00000E+00
         0.00000E+00
         0.00000E+00
         0.00000E+00
         0.00000E+00
         0.00000E+00
         0.00000E+00
         0.00000E+00
         0.00000E+00
         0.00000E+00
         0.00000E+00
         0.00000E+00
         0.00000E+00
         0.00000E+00
         0.00000E+00
         0.00000E+00
         0.00000E+00
         0.00000E+00
         0.00000E+00
         0.00000E+00
         0.00000E+00
         0.00000E+00
         0.00000E+00
         0.00000E+00
         0.00000E+00
         0.00000E+00
         0.00000E+00
         0.00000E+00
         0.00000E+00
         0.00000E+00
         0.00000E+00
         0.00000E+00
         0.00000E+00
         0.00000E+00
         0.00000E+00
         0.00000E+00
         0.00000E+00
         0.00000E+00
         0.00000E+00
         0.00000E+00
         0.00000E+00
         0.00000E+00
         0.00000E+00
         0.00000E+00
         0.00000E+00
         0.00000E+00
         0.00000E+00
         0.00000E+00
         0.00000E+00
         0.00000E+00
         0.00000E+00
         0.00000E+00
         0.00000E+00
         0.00000E+00
         0.00000E+00
         0.00000E+00
         0.00000E+00
         0.00000E+00
         0.00000E+00
         0.00000E+00
         0.00000E+00
         0.00000E+00
         0.00000E+00
         0.00000E+00
         0.00000E+00
         0.00000E+00
         0.00000E+00
         0.00000E+00
         0.00000E+00
         0.00000E+00
         0.00000E+00
         0.00000E+00
         0.00000E+00
         0.00000E+00
         0.00000E+00
         0.00000E+00
         0.00000E+00
         0.00000E+00
         0.00000E+00
         0.00000E+00
         0.00000E+00
         0.00000E+00
         0.00000E+00
         0.00000E+00
         0.00000E+00
         0.00000E+00
         0.00000E+00
         0.00000E+00
         0.00000E+00
         0.00000E+00
         0.00000E+00
         0.00000E+00
         0.00000E+00
         0.00000E+00
         0.00000E+00
         0.00000E+00
         0.00000E+00
         0.00000E+00
         0.00000E+00
         0.00000E+00
         0.00000E+00
         0.00000E+00
         0.00000E+00
         0.00000E+00
         0.00000E+00
         0.00000E+00
         0.00000E+00
         0.00000E+00
         0.00000E+00
         0.00000E+00
         0.00000E+00
         0.00000E+00
         0.00000E+00
         0.00000E+00
         0.00000E+00
         0.00000E+00
         0.00000E+00
         0.00000E+00
         0.00000E+00
         0.00000E+00
         0.00000E+00
         0.00000E+00
         0.00000E+00
         0.00000E+00
         0.00000E+00
         0.00000E+00
         0.00000E+00
         0.00000E+00
         0.00000E+00
         0.00000E+00
         0.00000E+00
         0.00000E+00
         0.00000E+00
         0.00000E+00
         0.00000E+00
         0.00000E+00
         0.00000E+00
         0.00000E+00
         0.00000E+00
         0.00000E+00
         0.00000E+00
         0.00000E+00
         0.00000E+00
         0.00000E+00
         0.00000E+00
         0.00000E+00
         0.00000E+00
         0.00000E+00
         0.00000E+00
         0.00000E+00
         0.00000E+00
         0.00000E+00
         0.00000E+00
         0.00000E+00
         0.00000E+00
         0.00000E+00
         0.00000E+00
         0.00000E+00
         0.00000E+00
         0.00000E+00
         0.00000E+00
         0.00000E+00
         0.00000E+00
         0.00000E+00
         0.00000E+00
         0.00000E+00
         0.00000E+00
         0.00000E+00
         0.00000E+00
         0.00000E+00
         0.00000E+00
         0.00000E+00
         0.00000E+00
         0.00000E+00
         0.00000E+00
         0.00000E+00
         0.00000E+00
         0.00000E+00
         0.00000E+00
         0.00000E+00
         0.00000E+00
         0.00000E+00
         0.00000E+00
         0.00000E+00
         0.00000E+00
         0.00000E+00
         0.00000E+00
         0.00000E+00
         0.00000E+00
         0.00000E+00
         0.00000E+00
         0.00000E+00
         0.00000E+00
         0.00000E+00
         0.00000E+00
         0.00000E+00
         0.00000E+00
         0.00000E+00
         0.00000E+00
         0.00000E+00
         0.00000E+00
         0.00000E+00
         0.00000E+00
         0.00000E+00
         0.00000E+00
         0.00000E+00
         0.00000E+00
         0.00000E+00
         0.00000E+00
         0.00000E+00
         0.00000E+00
         0.00000E+00
         0.00000E+00
         0.00000E+00
         0.00000E+00
         0.00000E+00
         0.00000E+00
         0.00000E+00
         0.00000E+00
         0.00000E+00
         0.00000E+00
         0.00000E+00
         0.00000E+00
         0.00000E+00
         0.00000E+00
         0.00000E+00
         0.00000E+00
         0.00000E+00
         0.00000E+00
         0.00000E+00
         0.00000E+00
         0.00000E+00
         0.00000E+00
         0.00000E+00
         0.00000E+00
         0.00000E+00
         0.00000E+00
         0.00000E+00
         0.00000E+00
         0.00000E+00
         0.00000E+00
         0.00000E+00
         0.00000E+00
         0.00000E+00
         0.00000E+00
         0.00000E+00
         0.00000E+00
         0.00000E+00
         0.00000E+00
         0.00000E+00
         0.00000E+00
         0.00000E+00
         0.00000E+00
         0.00000E+00
         0.00000E+00
         0.00000E+00
         0.00000E+00
         0.00000E+00
         0.00000E+00
         0.00000E+00
         0.00000E+00
         0.00000E+00
         0.00000E+00
         0.00000E+00
         0.00000E+00
         0.00000E+00
         0.00000E+00
         0.00000E+00
         0.00000E+00
         0.00000E+00
         0.00000E+00
         0.00000E+00
         0.00000E+00
         0.00000E+00
         0.00000E+00
         0.00000E+00
         0.00000E+00
         0.00000E+00
         0.00000E+00
         0.00000E+00
         0.00000E+00
         0.00000E+00
         0.00000E+00
         0.00000E+00
         0.00000E+00
         0.00000E+00
         0.00000E+00
         0.00000E+00
         0.00000E+00
         0.00000E+00
         0.00000E+00
         0.00000E+00
         0.00000E+00
         0.00000E+00
         0.00000E+00
         0.00000E+00
         0.00000E+00
         0.00000E+00
         0.00000E+00
         0.00000E+00
         0.00000E+00
         0.00000E+00
         0.00000E+00
         0.00000E+00
         0.00000E+00
         0.00000E+00
         0.00000E+00
         0.00000E+00
         0.00000E+00
         0.00000E+00
         0.00000E+00
         0.00000E+00
         0.00000E+00
         0.00000E+00
         0.00000E+00
         0.00000E+00
         0.00000E+00
         0.00000E+00
         0.00000E+00
         0.00000E+00
         0.00000E+00
         0.00000E+00
         0.00000E+00
         0.00000E+00
         0.00000E+00
         0.00000E+00
         0.00000E+00
         0.00000E+00
         0.00000E+00
         0.00000E+00
         0.00000E+00
         0.00000E+00
         0.00000E+00
         0.00000E+00
         0.00000E+00
         0.00000E+00
         0.00000E+00
         0.00000E+00
         0.00000E+00
         0.00000E+00
         0.00000E+00
         0.00000E+00
         0.00000E+00
         0.00000E+00
         0.00000E+00
         0.00000E+00
         0.00000E+00
         0.00000E+00
         0.00000E+00
         0.00000E+00
         0.00000E+00
         0.00000E+00
         0.00000E+00
         0.00000E+00
         0.00000E+00
         0.00000E+00
         0.00000E+00
         0.00000E+00
         0.00000E+00
         0.00000E+00
         0.00000E+00
         0.00000E+00
         0.00000E+00
         0.00000E+00
         0.00000E+00
         0.00000E+00
         0.00000E+00
         0.00000E+00
         0.00000E+00
         0.00000E+00
         0.00000E+00
         0.00000E+00
         0.00000E+00
         0.00000E+00
         0.00000E+00
         0.00000E+00
         0.00000E+00
         0.00000E+00
         0.00000E+00
         0.00000E+00
         0.00000E+00
         0.00000E+00
         0.00000E+00
         0.00000E+00
         0.00000E+00
         0.00000E+00
         0.00000E+00
         0.00000E+00
         0.00000E+00
         0.00000E+00
         0.00000E+00
         0.00000E+00
         0.00000E+00
         0.00000E+00
         0.00000E+00
         0.00000E+00
         0.00000E+00
         0.00000E+00
         0.00000E+00
         0.00000E+00
         0.00000E+00
         0.00000E+00
         0.00000E+00
         0.00000E+00
         0.00000E+00
         0.00000E+00
         0.00000E+00
         0.00000E+00
         0.00000E+00
         0.00000E+00
         0.00000E+00
         0.00000E+00
         0.00000E+00
         0.00000E+00
         0.00000E+00
         0.00000E+00
         0.00000E+00
         0.00000E+00
         0.00000E+00
         0.00000E+00
         0.00000E+00
         0.00000E+00
         0.00000E+00
         0.00000E+00
         0.00000E+00
         0.00000E+00
         0.00000E+00
         0.00000E+00
         0.00000E+00
         0.00000E+00
         0.00000E+00
         0.00000E+00
         0.00000E+00
         0.00000E+00
         0.00000E+00
         0.00000E+00
         0.00000E+00
         0.00000E+00
         0.00000E+00
         0.00000E+00
         0.00000E+00
         0.00000E+00
         0.00000E+00
         0.00000E+00
         0.00000E+00
         0.00000E+00
         0.00000E+00
         0.00000E+00
         0.00000E+00
         0.00000E+00
         0.00000E+00
         0.00000E+00
         0.00000E+00
         0.00000E+00
         0.00000E+00
         0.00000E+00
         0.00000E+00
         0.00000E+00
         0.00000E+00
         0.00000E+00
         0.00000E+00
         0.00000E+00
         0.00000E+00
         0.00000E+00
         0.00000E+00
         0.00000E+00
         0.00000E+00
         0.00000E+00
         0.00000E+00
         0.00000E+00
         0.00000E+00
         0.00000E+00
         0.00000E+00
         0.00000E+00
         0.00000E+00
         0.00000E+00
         0.00000E+00
         0.00000E+00
         0.00000E+00
         0.00000E+00
         0.00000E+00
         0.00000E+00
         0.00000E+00
         0.00000E+00
         0.00000E+00
         0.00000E+00
         0.00000E+00
         0.00000E+00
         0.00000E+00
         0.00000E+00
         0.00000E+00
         0.00000E+00
         0.00000E+00
         0.00000E+00
         0.00000E+00
         0.00000E+00
         0.00000E+00
         0.00000E+00
         0.00000E+00
         0.00000E+00
         0.00000E+00
         0.00000E+00
         0.00000E+00
         0.00000E+00
         0.00000E+00
         0.00000E+00
         0.00000E+00
         0.00000E+00
         0.00000E+00
         0.00000E+00
         0.00000E+00
         0.00000E+00
         0.00000E+00
         0.00000E+00
         0.00000E+00
         0.00000E+00
         0.00000E+00
         0.00000E+00
         0.00000E+00
         0.00000E+00
         0.00000E+00
         0.00000E+00
         0.00000E+00
         0.00000E+00
         0.00000E+00
         0.00000E+00
         0.00000E+00
         0.00000E+00
         0.00000E+00
         0.00000E+00
         0.00000E+00
         0.00000E+00
         0.00000E+00
         0.00000E+00
         0.00000E+00
         0.00000E+00
         0.00000E+00
         0.00000E+00
         0.00000E+00
         0.00000E+00
         0.00000E+00
         0.00000E+00
         0.00000E+00
         0.00000E+00
         0.00000E+00
         0.00000E+00
         0.00000E+00
         0.00000E+00
         0.00000E+00
         0.00000E+00
         0.00000E+00
         0.00000E+00
         0.00000E+00
         0.00000E+00
         0.00000E+00
         0.00000E+00
         0.00000E+00
         0.00000E+00
         0.00000E+00
         0.00000E+00
         0.00000E+00
         0.00000E+00
         0.00000E+00
         0.00000E+00
         0.00000E+00
         0.00000E+00
         0.00000E+00
         0.00000E+00
         0.00000E+00
         0.00000E+00
         0.00000E+00
         0.00000E+00
         0.00000E+00
         0.00000E+00
         0.00000E+00
         0.00000E+00
         0.00000E+00
         0.00000E+00
         0.00000E+00
         0.00000E+00
         0.00000E+00
         0.00000E+00
         0.00000E+00
         0.00000E+00
         0.00000E+00
         0.00000E+00
         0.00000E+00
         0.00000E+00
         0.00000E+00
         0.00000E+00
         0.00000E+00
         0.00000E+00
         0.00000E+00
         0.00000E+00
         0.00000E+00
         0.00000E+00
         0.00000E+00
         0.00000E+00
         0.00000E+00
         0.00000E+00
         0.00000E+00
         0.00000E+00
         0.00000E+00
         0.00000E+00
         0.00000E+00
         0.00000E+00
         0.00000E+00
         0.00000E+00
         0.00000E+00
         0.00000E+00
         0.00000E+00
         0.00000E+00
         0.00000E+00
         0.00000E+00
         0.00000E+00
         0.00000E+00
         0.00000E+00
         0.00000E+00
         0.00000E+00
         0.00000E+00
         0.00000E+00
         0.00000E+00
         0.00000E+00
         0.00000E+00
         0.00000E+00
         0.00000E+00
         0.00000E+00
         0.00000E+00
         0.00000E+00
         0.00000E+00
         0.00000E+00
         0.00000E+00
         0.00000E+00
         0.00000E+00
         0.00000E+00
         0.00000E+00
         0.00000E+00
         0.00000E+00
         0.00000E+00
         0.00000E+00
         0.00000E+00
         0.00000E+00
         0.00000E+00
         0.00000E+00
         0.00000E+00
         0.00000E+00
         0.00000E+00
         0.00000E+00
         0.00000E+00
         0.00000E+00
         0.00000E+00
         0.00000E+00
         0.00000E+00
         0.00000E+00
         0.00000E+00
         0.00000E+00
         0.00000E+00
         0.00000E+00
         0.00000E+00
         0.00000E+00
         0.00000E+00
         0.00000E+00
         0.00000E+00
         0.00000E+00
         0.00000E+00
         0.00000E+00
         0.00000E+00
         0.00000E+00
         0.00000E+00
         0.00000E+00
         0.00000E+00
         0.00000E+00
         0.00000E+00
         0.00000E+00
         0.00000E+00
         0.00000E+00
         0.00000E+00
         0.00000E+00
         0.00000E+00
         0.00000E+00
         0.00000E+00
         0.00000E+00
         0.00000E+00
         0.00000E+00
         0.00000E+00
         0.00000E+00
         0.00000E+00
         0.00000E+00
         0.00000E+00
         0.00000E+00
         0.00000E+00
         0.00000E+00
         0.00000E+00
         0.00000E+00
         0.00000E+00
         0.00000E+00
         0.00000E+00
         0.00000E+00
         0.00000E+00
         0.00000E+00
         0.00000E+00
         0.00000E+00
         0.00000E+00
         0.00000E+00
         0.00000E+00
         0.00000E+00
         0.00000E+00
         0.00000E+00
         0.00000E+00
         0.00000E+00
         0.00000E+00
         0.00000E+00
         0.00000E+00
         0.00000E+00
         0.00000E+00
         0.00000E+00
         0.00000E+00
         0.00000E+00
         0.00000E+00
         0.00000E+00
         0.00000E+00
         0.00000E+00
         0.00000E+00
         0.00000E+00
         0.00000E+00
         0.00000E+00
         0.00000E+00
         0.00000E+00
         0.00000E+00
         0.00000E+00
         0.00000E+00
         0.00000E+00
         0.00000E+00
         0.00000E+00
         0.00000E+00
         0.00000E+00
         0.00000E+00
         0.00000E+00
         0.00000E+00
         0.00000E+00
         0.00000E+00
         0.00000E+00
         0.00000E+00
         0.00000E+00
         0.00000E+00
         0.00000E+00
         0.00000E+00
         0.00000E+00
         0.00000E+00
         0.00000E+00
         0.00000E+00
         0.00000E+00
         0.00000E+00
         0.00000E+00
         0.00000E+00
         0.00000E+00
         0.00000E+00
         0.00000E+00
         0.00000E+00
         0.00000E+00
         0.00000E+00
         0.00000E+00
         0.00000E+00
         0.00000E+00
         0.00000E+00
         0.00000E+00
         0.00000E+00
         0.00000E+00
         0.00000E+00
         0.00000E+00
         0.00000E+00
         0.00000E+00
         0.00000E+00
         0.00000E+00
         0.00000E+00
         0.00000E+00
         0.00000E+00
         0.00000E+00
         0.00000E+00
         0.00000E+00
         0.00000E+00
         0.00000E+00
         0.00000E+00
         0.00000E+00
         0.00000E+00
         0.00000E+00
         0.00000E+00
         0.00000E+00
         0.00000E+00
         0.00000E+00
         0.00000E+00
         0.00000E+00
         0.00000E+00
         0.00000E+00
         0.00000E+00
         0.00000E+00
         0.00000E+00
         0.00000E+00
         0.00000E+00
         0.00000E+00
         0.00000E+00
         0.00000E+00
         0.00000E+00
         0.00000E+00
         0.00000E+00
         0.00000E+00
         0.00000E+00
         0.00000E+00
         0.00000E+00
         0.00000E+00
         0.00000E+00
         0.00000E+00
         0.00000E+00
         0.00000E+00
         0.00000E+00
         0.00000E+00
         0.00000E+00
         0.00000E+00
         0.00000E+00
         0.00000E+00
         0.00000E+00
         0.00000E+00
         0.00000E+00
         0.00000E+00
         0.00000E+00
         0.00000E+00
         0.00000E+00
         0.00000E+00
         0.00000E+00
         0.00000E+00
         0.00000E+00
         0.00000E+00
         0.00000E+00
         0.00000E+00
         0.00000E+00
         0.00000E+00
         0.00000E+00
         0.00000E+00
         0.00000E+00
         0.00000E+00
         0.00000E+00
         0.00000E+00
         0.00000E+00
         0.00000E+00
         0.00000E+00
         0.00000E+00
         0.00000E+00
         0.00000E+00
         0.00000E+00
         0.00000E+00
         0.00000E+00
         0.00000E+00
         0.00000E+00
         0.00000E+00
         0.00000E+00
         0.00000E+00
         0.00000E+00
         0.00000E+00
         0.00000E+00
         0.00000E+00
         0.00000E+00
         0.00000E+00
         0.00000E+00
         0.00000E+00
         0.00000E+00
         0.00000E+00
         0.00000E+00
         0.00000E+00
         0.00000E+00
         0.00000E+00
         0.00000E+00
         0.00000E+00
         0.00000E+00
         0.00000E+00
         0.00000E+00
         0.00000E+00
         0.00000E+00
         0.00000E+00
         0.00000E+00
         0.00000E+00
         0.00000E+00
         0.00000E+00
         0.00000E+00
         0.00000E+00
         0.00000E+00
         0.00000E+00
         0.00000E+00
         0.00000E+00
         0.00000E+00
         0.00000E+00
         0.00000E+00
         0.00000E+00
         0.00000E+00
         0.00000E+00
         0.00000E+00
         0.00000E+00
         0.00000E+00
         0.00000E+00
         0.00000E+00
         0.00000E+00
         0.00000E+00
         0.00000E+00
         0.00000E+00
         0.00000E+00
         0.00000E+00
         0.00000E+00
         0.00000E+00
         0.00000E+00
         0.00000E+00
         0.00000E+00
         0.00000E+00
         0.00000E+00
         0.00000E+00
         0.00000E+00
         0.00000E+00
         0.00000E+00
         0.00000E+00
         0.00000E+00
         0.00000E+00
         0.00000E+00
         0.00000E+00
         0.00000E+00
         0.00000E+00
         0.00000E+00
         0.00000E+00
         0.00000E+00
         0.00000E+00
         0.00000E+00
         0.00000E+00
         0.00000E+00
         0.00000E+00
         0.00000E+00
         0.00000E+00
         0.00000E+00
         0.00000E+00
         0.00000E+00
         0.00000E+00
         0.00000E+00
         0.00000E+00
         0.00000E+00
         0.00000E+00
         0.00000E+00
         0.00000E+00
         0.00000E+00
         0.00000E+00
         0.00000E+00
         0.00000E+00
         0.00000E+00
         0.00000E+00
         0.00000E+00
         0.00000E+00
         0.00000E+00
         0.00000E+00
         0.00000E+00
         0.00000E+00
         0.00000E+00
         0.00000E+00
         0.00000E+00
         0.00000E+00
         0.00000E+00
         0.00000E+00
         0.00000E+00
         0.00000E+00
         0.00000E+00
         0.00000E+00
         0.00000E+00
         0.00000E+00
         0.00000E+00
         0.00000E+00
         0.00000E+00
         0.00000E+00
         0.00000E+00
         0.00000E+00
         0.00000E+00
         0.00000E+00
         0.00000E+00
         0.00000E+00
         0.00000E+00
         0.00000E+00
         0.00000E+00
         0.00000E+00
         0.00000E+00
         0.00000E+00
         0.00000E+00
         0.00000E+00
         0.00000E+00
         0.00000E+00
         0.00000E+00
         0.00000E+00
         0.00000E+00
         0.00000E+00
         0.00000E+00
         0.00000E+00
         0.00000E+00
         0.00000E+00
         0.00000E+00
         0.00000E+00
         0.00000E+00
         0.00000E+00
         0.00000E+00
         0.00000E+00
         0.00000E+00
         0.00000E+00
         0.00000E+00
         0.00000E+00
         0.00000E+00
         0.00000E+00
         0.00000E+00
         0.00000E+00
         0.00000E+00
         0.00000E+00
         0.00000E+00
         0.00000E+00
         0.00000E+00
         0.00000E+00
         0.00000E+00
         0.00000E+00
         0.00000E+00
         0.00000E+00
         0.00000E+00
         0.00000E+00
         0.00000E+00
         0.00000E+00
         0.00000E+00
         0.00000E+00
         0.00000E+00
         0.00000E+00
         0.00000E+00
         0.00000E+00
         0.00000E+00
         0.00000E+00
         0.00000E+00
         0.00000E+00
         0.00000E+00
         0.00000E+00
         0.00000E+00
         0.00000E+00
         0.00000E+00
         0.00000E+00
         0.00000E+00
         0.00000E+00
         0.00000E+00
         0.00000E+00
         0.00000E+00
         0.00000E+00
         0.00000E+00
         0.00000E+00
         0.00000E+00
         0.00000E+00
         0.00000E+00
         0.00000E+00
         0.00000E+00
         0.00000E+00
         0.00000E+00
         0.00000E+00
         0.00000E+00
         0.00000E+00
         0.00000E+00
         0.00000E+00
         0.00000E+00
         0.00000E+00
         0.00000E+00
         0.00000E+00
         0.00000E+00
         0.00000E+00
         0.00000E+00
         0.00000E+00
         0.00000E+00
         0.00000E+00
         0.00000E+00
         0.00000E+00
         0.00000E+00
         0.00000E+00
         0.00000E+00
         0.00000E+00
         0.00000E+00
         0.00000E+00
         0.00000E+00
         0.00000E+00
         0.00000E+00
         0.00000E+00
         0.00000E+00
         0.00000E+00
         0.00000E+00
         0.00000E+00
         0.00000E+00
         0.00000E+00
         0.00000E+00
         0.00000E+00
         0.00000E+00
         0.00000E+00
         0.00000E+00
         0.00000E+00
         0.00000E+00
         0.00000E+00
         0.00000E+00
         0.00000E+00
         0.00000E+00
         0.00000E+00
         0.00000E+00
         0.00000E+00
         0.00000E+00
         0.00000E+00
         0.00000E+00
         0.00000E+00
         0.00000E+00
         0.00000E+00
         0.00000E+00
         0.00000E+00
         0.00000E+00
         0.00000E+00
         0.00000E+00
         0.00000E+00
         0.00000E+00
         0.00000E+00
         0.00000E+00
         0.00000E+00
         0.00000E+00
         0.00000E+00
         0.00000E+00
         0.00000E+00
         0.00000E+00
         0.00000E+00
         0.00000E+00
         0.00000E+00
         0.00000E+00
         0.00000E+00
         0.00000E+00
         0.00000E+00
         0.00000E+00
         0.00000E+00
         0.00000E+00
         0.00000E+00
         0.00000E+00
         0.00000E+00
         0.00000E+00
         0.00000E+00
         0.00000E+00
         0.00000E+00
         0.00000E+00
         0.00000E+00
         0.00000E+00
         0.00000E+00
         0.00000E+00
         0.00000E+00
         0.00000E+00
         0.00000E+00
         0.00000E+00
         0.00000E+00
         0.00000E+00
         0.00000E+00
         0.00000E+00
         0.00000E+00
         0.00000E+00
         0.00000E+00
         0.00000E+00
         0.00000E+00
         0.00000E+00
         0.00000E+00
         0.00000E+00
         0.00000E+00
         0.00000E+00
         0.00000E+00
         0.00000E+00
         0.00000E+00
         0.00000E+00
         0.00000E+00
         0.00000E+00
         0.00000E+00
         0.00000E+00
         0.00000E+00
         0.00000E+00
         0.00000E+00
         0.00000E+00
         0.00000E+00
         0.00000E+00
         0.00000E+00
         0.00000E+00
         0.00000E+00
         0.00000E+00
         0.00000E+00
         0.00000E+00
         0.00000E+00
         0.00000E+00
         0.00000E+00
         0.00000E+00
         0.00000E+00
         0.00000E+00
         0.00000E+00
         0.00000E+00
         0.00000E+00
         0.00000E+00
         0.00000E+00
         0.00000E+00
         0.00000E+00
         0.00000E+00
         0.00000E+00
         0.00000E+00
         0.00000E+00
         0.00000E+00
         0.00000E+00
         0.00000E+00
         0.00000E+00
         0.00000E+00
         0.00000E+00
         0.00000E+00
         0.00000E+00
         0.00000E+00
         0.00000E+00
         0.00000E+00
         0.00000E+00
         0.00000E+00
         0.00000E+00
         0.00000E+00
         0.00000E+00
         0.00000E+00
         0.00000E+00
         0.00000E+00
         0.00000E+00
         0.00000E+00
         0.00000E+00
         0.00000E+00
         0.00000E+00
         0.00000E+00
         0.00000E+00
         0.00000E+00
         0.00000E+00
         0.00000E+00
         0.00000E+00
         0.00000E+00
         0.00000E+00
         0.00000E+00
         0.00000E+00
         0.00000E+00
         0.00000E+00
         0.00000E+00
         0.00000E+00
         0.00000E+00
         0.00000E+00
         0.00000E+00
         0.00000E+00
         0.00000E+00
         0.00000E+00
         0.00000E+00
         0.00000E+00
         0.00000E+00
         0.00000E+00
         0.00000E+00
         0.00000E+00
         0.00000E+00
         0.00000E+00
         0.00000E+00
         0.00000E+00
         0.00000E+00
         0.00000E+00
         0.00000E+00
         0.00000E+00
         0.00000E+00
         0.00000E+00
  
SCALARS                 acceleration_z  double 1
LOOKUP_TABLE default
         0.00000E+00
         0.00000E+00
         0.00000E+00
         0.00000E+00
         0.00000E+00
         0.00000E+00
         0.00000E+00
         0.00000E+00
         0.00000E+00
         0.00000E+00
         0.00000E+00
         0.00000E+00
         0.00000E+00
         0.00000E+00
         0.00000E+00
         0.00000E+00
         0.00000E+00
         0.00000E+00
         0.00000E+00
         0.00000E+00
         0.00000E+00
         0.00000E+00
         0.00000E+00
         0.00000E+00
         0.00000E+00
         0.00000E+00
         0.00000E+00
         0.00000E+00
         0.00000E+00
         0.00000E+00
         0.00000E+00
         0.00000E+00
         0.00000E+00
         0.00000E+00
         0.00000E+00
         0.00000E+00
         0.00000E+00
         0.00000E+00
         0.00000E+00
         0.00000E+00
         0.00000E+00
         0.00000E+00
         0.00000E+00
         0.00000E+00
         0.00000E+00
         0.00000E+00
         0.00000E+00
         0.00000E+00
         0.00000E+00
         0.00000E+00
         0.00000E+00
         0.00000E+00
         0.00000E+00
         0.00000E+00
         0.00000E+00
         0.00000E+00
         0.00000E+00
         0.00000E+00
         0.00000E+00
         0.00000E+00
         0.00000E+00
         0.00000E+00
         0.00000E+00
         0.00000E+00
         0.00000E+00
         0.00000E+00
         0.00000E+00
         0.00000E+00
         0.00000E+00
         0.00000E+00
         0.00000E+00
         0.00000E+00
         0.00000E+00
         0.00000E+00
         0.00000E+00
         0.00000E+00
         0.00000E+00
         0.00000E+00
         0.00000E+00
         0.00000E+00
         0.00000E+00
         0.00000E+00
         0.00000E+00
         0.00000E+00
         0.00000E+00
         0.00000E+00
         0.00000E+00
         0.00000E+00
         0.00000E+00
         0.00000E+00
         0.00000E+00
         0.00000E+00
         0.00000E+00
         0.00000E+00
         0.00000E+00
         0.00000E+00
         0.00000E+00
         0.00000E+00
         0.00000E+00
         0.00000E+00
         0.00000E+00
         0.00000E+00
         0.00000E+00
         0.00000E+00
         0.00000E+00
         0.00000E+00
         0.00000E+00
         0.00000E+00
         0.00000E+00
         0.00000E+00
         0.00000E+00
         0.00000E+00
         0.00000E+00
         0.00000E+00
         0.00000E+00
         0.00000E+00
         0.00000E+00
         0.00000E+00
         0.00000E+00
         0.00000E+00
         0.00000E+00
         0.00000E+00
         0.00000E+00
         0.00000E+00
         0.00000E+00
         0.00000E+00
         0.00000E+00
         0.00000E+00
         0.00000E+00
         0.00000E+00
         0.00000E+00
         0.00000E+00
         0.00000E+00
         0.00000E+00
         0.00000E+00
         0.00000E+00
         0.00000E+00
         0.00000E+00
         0.00000E+00
         0.00000E+00
         0.00000E+00
         0.00000E+00
         0.00000E+00
         0.00000E+00
         0.00000E+00
         0.00000E+00
         0.00000E+00
         0.00000E+00
         0.00000E+00
         0.00000E+00
         0.00000E+00
         0.00000E+00
         0.00000E+00
         0.00000E+00
         0.00000E+00
         0.00000E+00
         0.00000E+00
         0.00000E+00
         0.00000E+00
         0.00000E+00
         0.00000E+00
         0.00000E+00
         0.00000E+00
         0.00000E+00
         0.00000E+00
         0.00000E+00
         0.00000E+00
         0.00000E+00
         0.00000E+00
         0.00000E+00
         0.00000E+00
         0.00000E+00
         0.00000E+00
         0.00000E+00
         0.00000E+00
         0.00000E+00
         0.00000E+00
         0.00000E+00
         0.00000E+00
         0.00000E+00
         0.00000E+00
         0.00000E+00
         0.00000E+00
         0.00000E+00
         0.00000E+00
         0.00000E+00
         0.00000E+00
         0.00000E+00
         0.00000E+00
         0.00000E+00
         0.00000E+00
         0.00000E+00
         0.00000E+00
         0.00000E+00
         0.00000E+00
         0.00000E+00
         0.00000E+00
         0.00000E+00
         0.00000E+00
         0.00000E+00
         0.00000E+00
         0.00000E+00
         0.00000E+00
         0.00000E+00
         0.00000E+00
         0.00000E+00
         0.00000E+00
         0.00000E+00
         0.00000E+00
         0.00000E+00
         0.00000E+00
         0.00000E+00
         0.00000E+00
         0.00000E+00
         0.00000E+00
         0.00000E+00
         0.00000E+00
         0.00000E+00
         0.00000E+00
         0.00000E+00
         0.00000E+00
         0.00000E+00
         0.00000E+00
         0.00000E+00
         0.00000E+00
         0.00000E+00
         0.00000E+00
         0.00000E+00
         0.00000E+00
         0.00000E+00
         0.00000E+00
         0.00000E+00
         0.00000E+00
         0.00000E+00
         0.00000E+00
         0.00000E+00
         0.00000E+00
         0.00000E+00
         0.00000E+00
         0.00000E+00
         0.00000E+00
         0.00000E+00
         0.00000E+00
         0.00000E+00
         0.00000E+00
         0.00000E+00
         0.00000E+00
         0.00000E+00
         0.00000E+00
         0.00000E+00
         0.00000E+00
         0.00000E+00
         0.00000E+00
         0.00000E+00
         0.00000E+00
         0.00000E+00
         0.00000E+00
         0.00000E+00
         0.00000E+00
         0.00000E+00
         0.00000E+00
         0.00000E+00
         0.00000E+00
         0.00000E+00
         0.00000E+00
         0.00000E+00
         0.00000E+00
         0.00000E+00
         0.00000E+00
         0.00000E+00
         0.00000E+00
         0.00000E+00
         0.00000E+00
         0.00000E+00
         0.00000E+00
         0.00000E+00
         0.00000E+00
         0.00000E+00
         0.00000E+00
         0.00000E+00
         0.00000E+00
         0.00000E+00
         0.00000E+00
         0.00000E+00
         0.00000E+00
         0.00000E+00
         0.00000E+00
         0.00000E+00
         0.00000E+00
         0.00000E+00
         0.00000E+00
         0.00000E+00
         0.00000E+00
         0.00000E+00
         0.00000E+00
         0.00000E+00
         0.00000E+00
         0.00000E+00
         0.00000E+00
         0.00000E+00
         0.00000E+00
         0.00000E+00
         0.00000E+00
         0.00000E+00
         0.00000E+00
         0.00000E+00
         0.00000E+00
         0.00000E+00
         0.00000E+00
         0.00000E+00
         0.00000E+00
         0.00000E+00
         0.00000E+00
         0.00000E+00
         0.00000E+00
         0.00000E+00
         0.00000E+00
         0.00000E+00
         0.00000E+00
         0.00000E+00
         0.00000E+00
         0.00000E+00
         0.00000E+00
         0.00000E+00
         0.00000E+00
         0.00000E+00
         0.00000E+00
         0.00000E+00
         0.00000E+00
         0.00000E+00
         0.00000E+00
         0.00000E+00
         0.00000E+00
         0.00000E+00
         0.00000E+00
         0.00000E+00
         0.00000E+00
         0.00000E+00
         0.00000E+00
         0.00000E+00
         0.00000E+00
         0.00000E+00
         0.00000E+00
         0.00000E+00
         0.00000E+00
         0.00000E+00
         0.00000E+00
         0.00000E+00
         0.00000E+00
         0.00000E+00
         0.00000E+00
         0.00000E+00
         0.00000E+00
         0.00000E+00
         0.00000E+00
         0.00000E+00
         0.00000E+00
         0.00000E+00
         0.00000E+00
         0.00000E+00
         0.00000E+00
         0.00000E+00
         0.00000E+00
         0.00000E+00
         0.00000E+00
         0.00000E+00
         0.00000E+00
         0.00000E+00
         0.00000E+00
         0.00000E+00
         0.00000E+00
         0.00000E+00
         0.00000E+00
         0.00000E+00
         0.00000E+00
         0.00000E+00
         0.00000E+00
         0.00000E+00
         0.00000E+00
         0.00000E+00
         0.00000E+00
         0.00000E+00
         0.00000E+00
         0.00000E+00
         0.00000E+00
         0.00000E+00
         0.00000E+00
         0.00000E+00
         0.00000E+00
         0.00000E+00
         0.00000E+00
         0.00000E+00
         0.00000E+00
         0.00000E+00
         0.00000E+00
         0.00000E+00
         0.00000E+00
         0.00000E+00
         0.00000E+00
         0.00000E+00
         0.00000E+00
         0.00000E+00
         0.00000E+00
         0.00000E+00
         0.00000E+00
         0.00000E+00
         0.00000E+00
         0.00000E+00
         0.00000E+00
         0.00000E+00
         0.00000E+00
         0.00000E+00
         0.00000E+00
         0.00000E+00
         0.00000E+00
         0.00000E+00
         0.00000E+00
         0.00000E+00
         0.00000E+00
         0.00000E+00
         0.00000E+00
         0.00000E+00
         0.00000E+00
         0.00000E+00
         0.00000E+00
         0.00000E+00
         0.00000E+00
         0.00000E+00
         0.00000E+00
         0.00000E+00
         0.00000E+00
         0.00000E+00
         0.00000E+00
         0.00000E+00
         0.00000E+00
         0.00000E+00
         0.00000E+00
         0.00000E+00
         0.00000E+00
         0.00000E+00
         0.00000E+00
         0.00000E+00
         0.00000E+00
         0.00000E+00
         0.00000E+00
         0.00000E+00
         0.00000E+00
         0.00000E+00
         0.00000E+00
         0.00000E+00
         0.00000E+00
         0.00000E+00
         0.00000E+00
         0.00000E+00
         0.00000E+00
         0.00000E+00
         0.00000E+00
         0.00000E+00
         0.00000E+00
         0.00000E+00
         0.00000E+00
         0.00000E+00
         0.00000E+00
         0.00000E+00
         0.00000E+00
         0.00000E+00
         0.00000E+00
         0.00000E+00
         0.00000E+00
         0.00000E+00
         0.00000E+00
         0.00000E+00
         0.00000E+00
         0.00000E+00
         0.00000E+00
         0.00000E+00
         0.00000E+00
         0.00000E+00
         0.00000E+00
         0.00000E+00
         0.00000E+00
         0.00000E+00
         0.00000E+00
         0.00000E+00
         0.00000E+00
         0.00000E+00
         0.00000E+00
         0.00000E+00
         0.00000E+00
         0.00000E+00
         0.00000E+00
         0.00000E+00
         0.00000E+00
         0.00000E+00
         0.00000E+00
         0.00000E+00
         0.00000E+00
         0.00000E+00
         0.00000E+00
         0.00000E+00
         0.00000E+00
         0.00000E+00
         0.00000E+00
         0.00000E+00
         0.00000E+00
         0.00000E+00
         0.00000E+00
         0.00000E+00
         0.00000E+00
         0.00000E+00
         0.00000E+00
         0.00000E+00
         0.00000E+00
         0.00000E+00
         0.00000E+00
         0.00000E+00
         0.00000E+00
         0.00000E+00
         0.00000E+00
         0.00000E+00
         0.00000E+00
         0.00000E+00
         0.00000E+00
         0.00000E+00
         0.00000E+00
         0.00000E+00
         0.00000E+00
         0.00000E+00
         0.00000E+00
         0.00000E+00
         0.00000E+00
         0.00000E+00
         0.00000E+00
         0.00000E+00
         0.00000E+00
         0.00000E+00
         0.00000E+00
         0.00000E+00
         0.00000E+00
         0.00000E+00
         0.00000E+00
         0.00000E+00
         0.00000E+00
         0.00000E+00
         0.00000E+00
         0.00000E+00
         0.00000E+00
         0.00000E+00
         0.00000E+00
         0.00000E+00
         0.00000E+00
         0.00000E+00
         0.00000E+00
         0.00000E+00
         0.00000E+00
         0.00000E+00
         0.00000E+00
         0.00000E+00
         0.00000E+00
         0.00000E+00
         0.00000E+00
         0.00000E+00
         0.00000E+00
         0.00000E+00
         0.00000E+00
         0.00000E+00
         0.00000E+00
         0.00000E+00
         0.00000E+00
         0.00000E+00
         0.00000E+00
         0.00000E+00
         0.00000E+00
         0.00000E+00
         0.00000E+00
         0.00000E+00
         0.00000E+00
         0.00000E+00
         0.00000E+00
         0.00000E+00
         0.00000E+00
         0.00000E+00
         0.00000E+00
         0.00000E+00
         0.00000E+00
         0.00000E+00
         0.00000E+00
         0.00000E+00
         0.00000E+00
         0.00000E+00
         0.00000E+00
         0.00000E+00
         0.00000E+00
         0.00000E+00
         0.00000E+00
         0.00000E+00
         0.00000E+00
         0.00000E+00
         0.00000E+00
         0.00000E+00
         0.00000E+00
         0.00000E+00
         0.00000E+00
         0.00000E+00
         0.00000E+00
         0.00000E+00
         0.00000E+00
         0.00000E+00
         0.00000E+00
         0.00000E+00
         0.00000E+00
         0.00000E+00
         0.00000E+00
         0.00000E+00
         0.00000E+00
         0.00000E+00
         0.00000E+00
         0.00000E+00
         0.00000E+00
         0.00000E+00
         0.00000E+00
         0.00000E+00
         0.00000E+00
         0.00000E+00
         0.00000E+00
         0.00000E+00
         0.00000E+00
         0.00000E+00
         0.00000E+00
         0.00000E+00
         0.00000E+00
         0.00000E+00
         0.00000E+00
         0.00000E+00
         0.00000E+00
         0.00000E+00
         0.00000E+00
         0.00000E+00
         0.00000E+00
         0.00000E+00
         0.00000E+00
         0.00000E+00
         0.00000E+00
         0.00000E+00
         0.00000E+00
         0.00000E+00
         0.00000E+00
         0.00000E+00
         0.00000E+00
         0.00000E+00
         0.00000E+00
         0.00000E+00
         0.00000E+00
         0.00000E+00
         0.00000E+00
         0.00000E+00
         0.00000E+00
         0.00000E+00
         0.00000E+00
         0.00000E+00
         0.00000E+00
         0.00000E+00
         0.00000E+00
         0.00000E+00
         0.00000E+00
         0.00000E+00
         0.00000E+00
         0.00000E+00
         0.00000E+00
         0.00000E+00
         0.00000E+00
         0.00000E+00
         0.00000E+00
         0.00000E+00
         0.00000E+00
         0.00000E+00
         0.00000E+00
         0.00000E+00
         0.00000E+00
         0.00000E+00
         0.00000E+00
         0.00000E+00
         0.00000E+00
         0.00000E+00
         0.00000E+00
         0.00000E+00
         0.00000E+00
         0.00000E+00
         0.00000E+00
         0.00000E+00
         0.00000E+00
         0.00000E+00
         0.00000E+00
         0.00000E+00
         0.00000E+00
         0.00000E+00
         0.00000E+00
         0.00000E+00
         0.00000E+00
         0.00000E+00
         0.00000E+00
         0.00000E+00
         0.00000E+00
         0.00000E+00
         0.00000E+00
         0.00000E+00
         0.00000E+00
         0.00000E+00
         0.00000E+00
         0.00000E+00
         0.00000E+00
         0.00000E+00
         0.00000E+00
         0.00000E+00
         0.00000E+00
         0.00000E+00
         0.00000E+00
         0.00000E+00
         0.00000E+00
         0.00000E+00
         0.00000E+00
         0.00000E+00
         0.00000E+00
         0.00000E+00
         0.00000E+00
         0.00000E+00
         0.00000E+00
         0.00000E+00
         0.00000E+00
         0.00000E+00
         0.00000E+00
         0.00000E+00
         0.00000E+00
         0.00000E+00
         0.00000E+00
         0.00000E+00
         0.00000E+00
         0.00000E+00
         0.00000E+00
         0.00000E+00
         0.00000E+00
         0.00000E+00
         0.00000E+00
         0.00000E+00
         0.00000E+00
         0.00000E+00
         0.00000E+00
         0.00000E+00
         0.00000E+00
         0.00000E+00
         0.00000E+00
         0.00000E+00
         0.00000E+00
         0.00000E+00
         0.00000E+00
         0.00000E+00
         0.00000E+00
         0.00000E+00
         0.00000E+00
         0.00000E+00
         0.00000E+00
         0.00000E+00
         0.00000E+00
         0.00000E+00
         0.00000E+00
         0.00000E+00
         0.00000E+00
         0.00000E+00
         0.00000E+00
         0.00000E+00
         0.00000E+00
         0.00000E+00
         0.00000E+00
         0.00000E+00
         0.00000E+00
         0.00000E+00
         0.00000E+00
         0.00000E+00
         0.00000E+00
         0.00000E+00
         0.00000E+00
         0.00000E+00
         0.00000E+00
         0.00000E+00
         0.00000E+00
         0.00000E+00
         0.00000E+00
         0.00000E+00
         0.00000E+00
         0.00000E+00
         0.00000E+00
         0.00000E+00
         0.00000E+00
         0.00000E+00
         0.00000E+00
         0.00000E+00
         0.00000E+00
         0.00000E+00
         0.00000E+00
         0.00000E+00
         0.00000E+00
         0.00000E+00
         0.00000E+00
         0.00000E+00
         0.00000E+00
         0.00000E+00
         0.00000E+00
         0.00000E+00
         0.00000E+00
         0.00000E+00
         0.00000E+00
         0.00000E+00
         0.00000E+00
         0.00000E+00
         0.00000E+00
         0.00000E+00
         0.00000E+00
         0.00000E+00
         0.00000E+00
         0.00000E+00
         0.00000E+00
         0.00000E+00
         0.00000E+00
         0.00000E+00
         0.00000E+00
         0.00000E+00
         0.00000E+00
         0.00000E+00
         0.00000E+00
         0.00000E+00
         0.00000E+00
         0.00000E+00
         0.00000E+00
         0.00000E+00
         0.00000E+00
         0.00000E+00
         0.00000E+00
         0.00000E+00
         0.00000E+00
         0.00000E+00
         0.00000E+00
         0.00000E+00
         0.00000E+00
         0.00000E+00
         0.00000E+00
         0.00000E+00
         0.00000E+00
         0.00000E+00
         0.00000E+00
         0.00000E+00
         0.00000E+00
         0.00000E+00
         0.00000E+00
         0.00000E+00
         0.00000E+00
         0.00000E+00
         0.00000E+00
         0.00000E+00
         0.00000E+00
         0.00000E+00
         0.00000E+00
         0.00000E+00
         0.00000E+00
         0.00000E+00
         0.00000E+00
         0.00000E+00
         0.00000E+00
         0.00000E+00
         0.00000E+00
         0.00000E+00
         0.00000E+00
         0.00000E+00
         0.00000E+00
         0.00000E+00
         0.00000E+00
         0.00000E+00
         0.00000E+00
         0.00000E+00
         0.00000E+00
         0.00000E+00
         0.00000E+00
         0.00000E+00
         0.00000E+00
         0.00000E+00
         0.00000E+00
         0.00000E+00
         0.00000E+00
         0.00000E+00
         0.00000E+00
         0.00000E+00
         0.00000E+00
         0.00000E+00
         0.00000E+00
         0.00000E+00
         0.00000E+00
         0.00000E+00
         0.00000E+00
         0.00000E+00
         0.00000E+00
         0.00000E+00
         0.00000E+00
         0.00000E+00
         0.00000E+00
         0.00000E+00
         0.00000E+00
         0.00000E+00
         0.00000E+00
         0.00000E+00
         0.00000E+00
         0.00000E+00
         0.00000E+00
         0.00000E+00
         0.00000E+00
         0.00000E+00
         0.00000E+00
         0.00000E+00
         0.00000E+00
         0.00000E+00
         0.00000E+00
         0.00000E+00
         0.00000E+00
         0.00000E+00
         0.00000E+00
         0.00000E+00
         0.00000E+00
         0.00000E+00
         0.00000E+00
         0.00000E+00
         0.00000E+00
         0.00000E+00
         0.00000E+00
         0.00000E+00
         0.00000E+00
         0.00000E+00
         0.00000E+00
         0.00000E+00
         0.00000E+00
         0.00000E+00
         0.00000E+00
         0.00000E+00
         0.00000E+00
         0.00000E+00
         0.00000E+00
         0.00000E+00
         0.00000E+00
         0.00000E+00
         0.00000E+00
         0.00000E+00
         0.00000E+00
         0.00000E+00
         0.00000E+00
         0.00000E+00
         0.00000E+00
         0.00000E+00
         0.00000E+00
         0.00000E+00
         0.00000E+00
         0.00000E+00
         0.00000E+00
         0.00000E+00
         0.00000E+00
         0.00000E+00
         0.00000E+00
         0.00000E+00
         0.00000E+00
         0.00000E+00
         0.00000E+00
         0.00000E+00
         0.00000E+00
         0.00000E+00
         0.00000E+00
         0.00000E+00
         0.00000E+00
         0.00000E+00
         0.00000E+00
         0.00000E+00
         0.00000E+00
         0.00000E+00
         0.00000E+00
         0.00000E+00
         0.00000E+00
         0.00000E+00
         0.00000E+00
         0.00000E+00
         0.00000E+00
         0.00000E+00
         0.00000E+00
         0.00000E+00
         0.00000E+00
         0.00000E+00
         0.00000E+00
         0.00000E+00
         0.00000E+00
         0.00000E+00
         0.00000E+00
         0.00000E+00
         0.00000E+00
         0.00000E+00
         0.00000E+00
         0.00000E+00
         0.00000E+00
         0.00000E+00
         0.00000E+00
         0.00000E+00
         0.00000E+00
         0.00000E+00
         0.00000E+00
         0.00000E+00
         0.00000E+00
         0.00000E+00
         0.00000E+00
         0.00000E+00
         0.00000E+00
         0.00000E+00
         0.00000E+00
         0.00000E+00
         0.00000E+00
         0.00000E+00
         0.00000E+00
         0.00000E+00
         0.00000E+00
         0.00000E+00
         0.00000E+00
         0.00000E+00
         0.00000E+00
         0.00000E+00
         0.00000E+00
         0.00000E+00
         0.00000E+00
         0.00000E+00
         0.00000E+00
         0.00000E+00
         0.00000E+00
         0.00000E+00
         0.00000E+00
         0.00000E+00
         0.00000E+00
         0.00000E+00
         0.00000E+00
         0.00000E+00
         0.00000E+00
         0.00000E+00
         0.00000E+00
         0.00000E+00
         0.00000E+00
         0.00000E+00
         0.00000E+00
         0.00000E+00
         0.00000E+00
         0.00000E+00
         0.00000E+00
         0.00000E+00
         0.00000E+00
         0.00000E+00
         0.00000E+00
         0.00000E+00
         0.00000E+00
         0.00000E+00
         0.00000E+00
         0.00000E+00
         0.00000E+00
         0.00000E+00
         0.00000E+00
         0.00000E+00
         0.00000E+00
         0.00000E+00
         0.00000E+00
         0.00000E+00
         0.00000E+00
         0.00000E+00
         0.00000E+00
         0.00000E+00
         0.00000E+00
         0.00000E+00
         0.00000E+00
         0.00000E+00
         0.00000E+00
         0.00000E+00
         0.00000E+00
         0.00000E+00
         0.00000E+00
         0.00000E+00
         0.00000E+00
         0.00000E+00
         0.00000E+00
         0.00000E+00
         0.00000E+00
         0.00000E+00
         0.00000E+00
         0.00000E+00
         0.00000E+00
         0.00000E+00
         0.00000E+00
         0.00000E+00
         0.00000E+00
         0.00000E+00
         0.00000E+00
         0.00000E+00
         0.00000E+00
         0.00000E+00
         0.00000E+00
         0.00000E+00
         0.00000E+00
         0.00000E+00
         0.00000E+00
         0.00000E+00
         0.00000E+00
         0.00000E+00
         0.00000E+00
         0.00000E+00
         0.00000E+00
         0.00000E+00
         0.00000E+00
         0.00000E+00
         0.00000E+00
         0.00000E+00
         0.00000E+00
         0.00000E+00
         0.00000E+00
         0.00000E+00
         0.00000E+00
         0.00000E+00
         0.00000E+00
         0.00000E+00
         0.00000E+00
         0.00000E+00
         0.00000E+00
         0.00000E+00
         0.00000E+00
         0.00000E+00
         0.00000E+00
         0.00000E+00
         0.00000E+00
         0.00000E+00
         0.00000E+00
         0.00000E+00
         0.00000E+00
         0.00000E+00
         0.00000E+00
         0.00000E+00
         0.00000E+00
         0.00000E+00
         0.00000E+00
         0.00000E+00
         0.00000E+00
         0.00000E+00
         0.00000E+00
         0.00000E+00
         0.00000E+00
         0.00000E+00
         0.00000E+00
         0.00000E+00
         0.00000E+00
         0.00000E+00
         0.00000E+00
         0.00000E+00
         0.00000E+00
         0.00000E+00
         0.00000E+00
         0.00000E+00
         0.00000E+00
         0.00000E+00
         0.00000E+00
         0.00000E+00
         0.00000E+00
         0.00000E+00
         0.00000E+00
         0.00000E+00
         0.00000E+00
         0.00000E+00
         0.00000E+00
         0.00000E+00
         0.00000E+00
         0.00000E+00
         0.00000E+00
         0.00000E+00
         0.00000E+00
         0.00000E+00
         0.00000E+00
         0.00000E+00
         0.00000E+00
         0.00000E+00
         0.00000E+00
         0.00000E+00
         0.00000E+00
         0.00000E+00
         0.00000E+00
         0.00000E+00
         0.00000E+00
         0.00000E+00
         0.00000E+00
         0.00000E+00
         0.00000E+00
         0.00000E+00
         0.00000E+00
         0.00000E+00
         0.00000E+00
         0.00000E+00
         0.00000E+00
         0.00000E+00
         0.00000E+00
         0.00000E+00
         0.00000E+00
         0.00000E+00
         0.00000E+00
         0.00000E+00
         0.00000E+00
         0.00000E+00
         0.00000E+00
         0.00000E+00
         0.00000E+00
         0.00000E+00
         0.00000E+00
         0.00000E+00
         0.00000E+00
         0.00000E+00
         0.00000E+00
         0.00000E+00
         0.00000E+00
         0.00000E+00
         0.00000E+00
         0.00000E+00
         0.00000E+00
         0.00000E+00
         0.00000E+00
         0.00000E+00
         0.00000E+00
         0.00000E+00
         0.00000E+00
         0.00000E+00
         0.00000E+00
         0.00000E+00
         0.00000E+00
         0.00000E+00
         0.00000E+00
         0.00000E+00
         0.00000E+00
         0.00000E+00
         0.00000E+00
         0.00000E+00
         0.00000E+00
         0.00000E+00
         0.00000E+00
         0.00000E+00
         0.00000E+00
         0.00000E+00
         0.00000E+00
         0.00000E+00
         0.00000E+00
         0.00000E+00
         0.00000E+00
         0.00000E+00
         0.00000E+00
         0.00000E+00
         0.00000E+00
         0.00000E+00
         0.00000E+00
         0.00000E+00
         0.00000E+00
         0.00000E+00
         0.00000E+00
         0.00000E+00
         0.00000E+00
         0.00000E+00
         0.00000E+00
         0.00000E+00
         0.00000E+00
         0.00000E+00
         0.00000E+00
         0.00000E+00
         0.00000E+00
         0.00000E+00
         0.00000E+00
         0.00000E+00
         0.00000E+00
         0.00000E+00
         0.00000E+00
         0.00000E+00
         0.00000E+00
         0.00000E+00
         0.00000E+00
         0.00000E+00
         0.00000E+00
         0.00000E+00
         0.00000E+00
         0.00000E+00
         0.00000E+00
         0.00000E+00
         0.00000E+00
         0.00000E+00
         0.00000E+00
         0.00000E+00
         0.00000E+00
         0.00000E+00
         0.00000E+00
         0.00000E+00
         0.00000E+00
         0.00000E+00
         0.00000E+00
         0.00000E+00
         0.00000E+00
         0.00000E+00
         0.00000E+00
         0.00000E+00
         0.00000E+00
         0.00000E+00
         0.00000E+00
         0.00000E+00
         0.00000E+00
         0.00000E+00
         0.00000E+00
         0.00000E+00
         0.00000E+00
         0.00000E+00
         0.00000E+00
         0.00000E+00
         0.00000E+00
         0.00000E+00
         0.00000E+00
         0.00000E+00
         0.00000E+00
         0.00000E+00
         0.00000E+00
         0.00000E+00
         0.00000E+00
         0.00000E+00
         0.00000E+00
         0.00000E+00
         0.00000E+00
         0.00000E+00
         0.00000E+00
         0.00000E+00
         0.00000E+00
         0.00000E+00
         0.00000E+00
         0.00000E+00
         0.00000E+00
         0.00000E+00
         0.00000E+00
         0.00000E+00
         0.00000E+00
         0.00000E+00
         0.00000E+00
         0.00000E+00
         0.00000E+00
         0.00000E+00
         0.00000E+00
         0.00000E+00
         0.00000E+00
         0.00000E+00
         0.00000E+00
         0.00000E+00
         0.00000E+00
         0.00000E+00
         0.00000E+00
         0.00000E+00
         0.00000E+00
         0.00000E+00
         0.00000E+00
         0.00000E+00
         0.00000E+00
         0.00000E+00
         0.00000E+00
         0.00000E+00
         0.00000E+00
         0.00000E+00
         0.00000E+00
         0.00000E+00
         0.00000E+00
         0.00000E+00
         0.00000E+00
         0.00000E+00
         0.00000E+00
         0.00000E+00
         0.00000E+00
         0.00000E+00
         0.00000E+00
         0.00000E+00
         0.00000E+00
         0.00000E+00
         0.00000E+00
         0.00000E+00
         0.00000E+00
         0.00000E+00
         0.00000E+00
         0.00000E+00
         0.00000E+00
         0.00000E+00
         0.00000E+00
         0.00000E+00
         0.00000E+00
         0.00000E+00
         0.00000E+00
         0.00000E+00
         0.00000E+00
         0.00000E+00
         0.00000E+00
         0.00000E+00
         0.00000E+00
         0.00000E+00
         0.00000E+00
         0.00000E+00
         0.00000E+00
         0.00000E+00
         0.00000E+00
         0.00000E+00
         0.00000E+00
         0.00000E+00
         0.00000E+00
         0.00000E+00
         0.00000E+00
         0.00000E+00
         0.00000E+00
         0.00000E+00
         0.00000E+00
         0.00000E+00
         0.00000E+00
         0.00000E+00
         0.00000E+00
         0.00000E+00
         0.00000E+00
         0.00000E+00
         0.00000E+00
         0.00000E+00
         0.00000E+00
         0.00000E+00
         0.00000E+00
         0.00000E+00
         0.00000E+00
         0.00000E+00
         0.00000E+00
         0.00000E+00
         0.00000E+00
         0.00000E+00
         0.00000E+00
         0.00000E+00
         0.00000E+00
         0.00000E+00
         0.00000E+00
         0.00000E+00
         0.00000E+00
         0.00000E+00
         0.00000E+00
         0.00000E+00
         0.00000E+00
         0.00000E+00
         0.00000E+00
         0.00000E+00
         0.00000E+00
         0.00000E+00
         0.00000E+00
         0.00000E+00
         0.00000E+00
         0.00000E+00
         0.00000E+00
         0.00000E+00
         0.00000E+00
         0.00000E+00
         0.00000E+00
         0.00000E+00
         0.00000E+00
         0.00000E+00
         0.00000E+00
         0.00000E+00
         0.00000E+00
         0.00000E+00
         0.00000E+00
         0.00000E+00
         0.00000E+00
         0.00000E+00
         0.00000E+00
         0.00000E+00
         0.00000E+00
         0.00000E+00
         0.00000E+00
         0.00000E+00
         0.00000E+00
         0.00000E+00
         0.00000E+00
         0.00000E+00
         0.00000E+00
         0.00000E+00
         0.00000E+00
         0.00000E+00
         0.00000E+00
         0.00000E+00
         0.00000E+00
         0.00000E+00
         0.00000E+00
         0.00000E+00
         0.00000E+00
         0.00000E+00
         0.00000E+00
         0.00000E+00
         0.00000E+00
         0.00000E+00
         0.00000E+00
         0.00000E+00
         0.00000E+00
         0.00000E+00
         0.00000E+00
         0.00000E+00
         0.00000E+00
         0.00000E+00
         0.00000E+00
         0.00000E+00
         0.00000E+00
         0.00000E+00
         0.00000E+00
         0.00000E+00
         0.00000E+00
         0.00000E+00
         0.00000E+00
         0.00000E+00
         0.00000E+00
         0.00000E+00
         0.00000E+00
         0.00000E+00
         0.00000E+00
         0.00000E+00
         0.00000E+00
         0.00000E+00
         0.00000E+00
         0.00000E+00
         0.00000E+00
         0.00000E+00
         0.00000E+00
         0.00000E+00
         0.00000E+00
         0.00000E+00
         0.00000E+00
         0.00000E+00
         0.00000E+00
         0.00000E+00
         0.00000E+00
         0.00000E+00
         0.00000E+00
         0.00000E+00
         0.00000E+00
         0.00000E+00
         0.00000E+00
         0.00000E+00
         0.00000E+00
         0.00000E+00
         0.00000E+00
         0.00000E+00
         0.00000E+00
         0.00000E+00
         0.00000E+00
         0.00000E+00
         0.00000E+00
         0.00000E+00
         0.00000E+00
         0.00000E+00
         0.00000E+00
         0.00000E+00
         0.00000E+00
         0.00000E+00
         0.00000E+00
         0.00000E+00
         0.00000E+00
         0.00000E+00
         0.00000E+00
         0.00000E+00
         0.00000E+00
         0.00000E+00
         0.00000E+00
         0.00000E+00
         0.00000E+00
         0.00000E+00
         0.00000E+00
         0.00000E+00
         0.00000E+00
         0.00000E+00
         0.00000E+00
         0.00000E+00
         0.00000E+00
         0.00000E+00
         0.00000E+00
         0.00000E+00
         0.00000E+00
         0.00000E+00
         0.00000E+00
         0.00000E+00
         0.00000E+00
         0.00000E+00
         0.00000E+00
         0.00000E+00
         0.00000E+00
         0.00000E+00
         0.00000E+00
         0.00000E+00
         0.00000E+00
         0.00000E+00
         0.00000E+00
         0.00000E+00
         0.00000E+00
         0.00000E+00
         0.00000E+00
         0.00000E+00
         0.00000E+00
         0.00000E+00
         0.00000E+00
         0.00000E+00
         0.00000E+00
         0.00000E+00
         0.00000E+00
         0.00000E+00
         0.00000E+00
         0.00000E+00
         0.00000E+00
         0.00000E+00
         0.00000E+00
         0.00000E+00
         0.00000E+00
         0.00000E+00
         0.00000E+00
         0.00000E+00
         0.00000E+00
         0.00000E+00
         0.00000E+00
         0.00000E+00
         0.00000E+00
         0.00000E+00
         0.00000E+00
         0.00000E+00
         0.00000E+00
         0.00000E+00
         0.00000E+00
         0.00000E+00
         0.00000E+00
         0.00000E+00
         0.00000E+00
         0.00000E+00
         0.00000E+00
         0.00000E+00
         0.00000E+00
         0.00000E+00
         0.00000E+00
         0.00000E+00
         0.00000E+00
         0.00000E+00
         0.00000E+00
         0.00000E+00
         0.00000E+00
         0.00000E+00
         0.00000E+00
         0.00000E+00
         0.00000E+00
         0.00000E+00
         0.00000E+00
         0.00000E+00
         0.00000E+00
         0.00000E+00
         0.00000E+00
         0.00000E+00
         0.00000E+00
         0.00000E+00
         0.00000E+00
         0.00000E+00
         0.00000E+00
         0.00000E+00
         0.00000E+00
         0.00000E+00
         0.00000E+00
         0.00000E+00
         0.00000E+00
         0.00000E+00
         0.00000E+00
         0.00000E+00
         0.00000E+00
         0.00000E+00
         0.00000E+00
         0.00000E+00
         0.00000E+00
         0.00000E+00
         0.00000E+00
         0.00000E+00
         0.00000E+00
         0.00000E+00
         0.00000E+00
         0.00000E+00
         0.00000E+00
         0.00000E+00
         0.00000E+00
         0.00000E+00
         0.00000E+00
         0.00000E+00
         0.00000E+00
         0.00000E+00
         0.00000E+00
         0.00000E+00
         0.00000E+00
         0.00000E+00
         0.00000E+00
         0.00000E+00
         0.00000E+00
         0.00000E+00
         0.00000E+00
         0.00000E+00
         0.00000E+00
         0.00000E+00
         0.00000E+00
         0.00000E+00
         0.00000E+00
         0.00000E+00
         0.00000E+00
         0.00000E+00
         0.00000E+00
         0.00000E+00
         0.00000E+00
         0.00000E+00
         0.00000E+00
         0.00000E+00
         0.00000E+00
         0.00000E+00
         0.00000E+00
         0.00000E+00
         0.00000E+00
         0.00000E+00
         0.00000E+00
         0.00000E+00
         0.00000E+00
         0.00000E+00
         0.00000E+00
         0.00000E+00
         0.00000E+00
         0.00000E+00
         0.00000E+00
         0.00000E+00
         0.00000E+00
         0.00000E+00
         0.00000E+00
         0.00000E+00
         0.00000E+00
         0.00000E+00
         0.00000E+00
         0.00000E+00
         0.00000E+00
         0.00000E+00
         0.00000E+00
         0.00000E+00
         0.00000E+00
         0.00000E+00
         0.00000E+00
         0.00000E+00
         0.00000E+00
         0.00000E+00
         0.00000E+00
         0.00000E+00
         0.00000E+00
         0.00000E+00
         0.00000E+00
         0.00000E+00
         0.00000E+00
         0.00000E+00
         0.00000E+00
         0.00000E+00
         0.00000E+00
         0.00000E+00
         0.00000E+00
         0.00000E+00
         0.00000E+00
         0.00000E+00
         0.00000E+00
         0.00000E+00
         0.00000E+00
         0.00000E+00
         0.00000E+00
         0.00000E+00
         0.00000E+00
         0.00000E+00
         0.00000E+00
         0.00000E+00
         0.00000E+00
         0.00000E+00
         0.00000E+00
         0.00000E+00
         0.00000E+00
         0.00000E+00
         0.00000E+00
         0.00000E+00
         0.00000E+00
         0.00000E+00
         0.00000E+00
         0.00000E+00
         0.00000E+00
         0.00000E+00
         0.00000E+00
         0.00000E+00
         0.00000E+00
         0.00000E+00
         0.00000E+00
         0.00000E+00
         0.00000E+00
         0.00000E+00
         0.00000E+00
         0.00000E+00
         0.00000E+00
         0.00000E+00
         0.00000E+00
         0.00000E+00
         0.00000E+00
         0.00000E+00
         0.00000E+00
         0.00000E+00
         0.00000E+00
         0.00000E+00
         0.00000E+00
         0.00000E+00
         0.00000E+00
         0.00000E+00
         0.00000E+00
         0.00000E+00
         0.00000E+00
         0.00000E+00
         0.00000E+00
         0.00000E+00
         0.00000E+00
         0.00000E+00
         0.00000E+00
         0.00000E+00
         0.00000E+00
         0.00000E+00
         0.00000E+00
         0.00000E+00
         0.00000E+00
         0.00000E+00
         0.00000E+00
         0.00000E+00
         0.00000E+00
         0.00000E+00
         0.00000E+00
         0.00000E+00
         0.00000E+00
         0.00000E+00
         0.00000E+00
         0.00000E+00
         0.00000E+00
         0.00000E+00
         0.00000E+00
         0.00000E+00
         0.00000E+00
         0.00000E+00
         0.00000E+00
         0.00000E+00
         0.00000E+00
         0.00000E+00
         0.00000E+00
         0.00000E+00
         0.00000E+00
         0.00000E+00
         0.00000E+00
         0.00000E+00
         0.00000E+00
         0.00000E+00
         0.00000E+00
         0.00000E+00
         0.00000E+00
         0.00000E+00
         0.00000E+00
         0.00000E+00
         0.00000E+00
         0.00000E+00
         0.00000E+00
         0.00000E+00
         0.00000E+00
         0.00000E+00
         0.00000E+00
         0.00000E+00
         0.00000E+00
         0.00000E+00
         0.00000E+00
         0.00000E+00
         0.00000E+00
         0.00000E+00
         0.00000E+00
         0.00000E+00
         0.00000E+00
         0.00000E+00
         0.00000E+00
         0.00000E+00
         0.00000E+00
         0.00000E+00
         0.00000E+00
         0.00000E+00
         0.00000E+00
         0.00000E+00
         0.00000E+00
         0.00000E+00
         0.00000E+00
         0.00000E+00
         0.00000E+00
         0.00000E+00
         0.00000E+00
         0.00000E+00
         0.00000E+00
         0.00000E+00
         0.00000E+00
         0.00000E+00
         0.00000E+00
         0.00000E+00
         0.00000E+00
         0.00000E+00
         0.00000E+00
         0.00000E+00
         0.00000E+00
         0.00000E+00
         0.00000E+00
         0.00000E+00
         0.00000E+00
         0.00000E+00
         0.00000E+00
         0.00000E+00
         0.00000E+00
         0.00000E+00
         0.00000E+00
         0.00000E+00
         0.00000E+00
         0.00000E+00
         0.00000E+00
         0.00000E+00
         0.00000E+00
         0.00000E+00
         0.00000E+00
         0.00000E+00
         0.00000E+00
         0.00000E+00
         0.00000E+00
         0.00000E+00
         0.00000E+00
         0.00000E+00
         0.00000E+00
         0.00000E+00
         0.00000E+00
         0.00000E+00
         0.00000E+00
         0.00000E+00
         0.00000E+00
         0.00000E+00
         0.00000E+00
         0.00000E+00
         0.00000E+00
         0.00000E+00
         0.00000E+00
         0.00000E+00
         0.00000E+00
         0.00000E+00
         0.00000E+00
         0.00000E+00
  
SCALARS                         fint_x  double 1
LOOKUP_TABLE default
         0.00000E+00
         0.00000E+00
         0.00000E+00
         0.00000E+00
         0.00000E+00
         0.00000E+00
         0.00000E+00
         0.00000E+00
         0.00000E+00
         0.00000E+00
         0.00000E+00
         0.00000E+00
         0.00000E+00
         0.00000E+00
         0.00000E+00
         0.00000E+00
         0.00000E+00
         0.00000E+00
         0.00000E+00
         0.00000E+00
         0.00000E+00
         0.00000E+00
         0.00000E+00
         0.00000E+00
         0.00000E+00
         0.00000E+00
         0.00000E+00
         0.00000E+00
         0.00000E+00
         0.00000E+00
         0.00000E+00
         0.00000E+00
         0.00000E+00
         0.00000E+00
         0.00000E+00
         0.00000E+00
         0.00000E+00
         0.00000E+00
         0.00000E+00
         0.00000E+00
         0.00000E+00
         0.00000E+00
         0.00000E+00
         0.00000E+00
         0.00000E+00
         0.00000E+00
         0.00000E+00
         0.00000E+00
         0.00000E+00
         0.00000E+00
         0.00000E+00
         0.00000E+00
         0.00000E+00
         0.00000E+00
         0.00000E+00
         0.00000E+00
         0.00000E+00
         0.00000E+00
         0.00000E+00
         0.00000E+00
         0.00000E+00
         0.00000E+00
         0.00000E+00
         0.00000E+00
         0.00000E+00
         0.00000E+00
         0.00000E+00
         0.00000E+00
         0.00000E+00
         0.00000E+00
         0.00000E+00
         0.00000E+00
         0.00000E+00
         0.00000E+00
         0.00000E+00
         0.00000E+00
         0.00000E+00
         0.00000E+00
         0.00000E+00
         0.00000E+00
         0.00000E+00
         0.00000E+00
         0.00000E+00
         0.00000E+00
         0.00000E+00
         0.00000E+00
         0.00000E+00
         0.00000E+00
         0.00000E+00
         0.00000E+00
         0.00000E+00
         0.00000E+00
         0.00000E+00
         0.00000E+00
         0.00000E+00
         0.00000E+00
         0.00000E+00
         0.00000E+00
         0.00000E+00
         0.00000E+00
         0.00000E+00
         0.00000E+00
         0.00000E+00
         0.00000E+00
         0.00000E+00
         0.00000E+00
         0.00000E+00
         0.00000E+00
         0.00000E+00
         0.00000E+00
         0.00000E+00
         0.00000E+00
         0.00000E+00
         0.00000E+00
         0.00000E+00
         0.00000E+00
         0.00000E+00
         0.00000E+00
         0.00000E+00
         0.00000E+00
         0.00000E+00
         0.00000E+00
         0.00000E+00
         0.00000E+00
         0.00000E+00
         0.00000E+00
         0.00000E+00
         0.00000E+00
         0.00000E+00
         0.00000E+00
         0.00000E+00
         0.00000E+00
         0.00000E+00
         0.00000E+00
         0.00000E+00
         0.00000E+00
         0.00000E+00
         0.00000E+00
         0.00000E+00
         0.00000E+00
         0.00000E+00
         0.00000E+00
         0.00000E+00
         0.00000E+00
         0.00000E+00
         0.00000E+00
         0.00000E+00
         0.00000E+00
         0.00000E+00
         0.00000E+00
         0.00000E+00
         0.00000E+00
         0.00000E+00
         0.00000E+00
         0.00000E+00
         0.00000E+00
         0.00000E+00
         0.00000E+00
         0.00000E+00
         0.00000E+00
         0.00000E+00
         0.00000E+00
         0.00000E+00
         0.00000E+00
         0.00000E+00
         0.00000E+00
         0.00000E+00
         0.00000E+00
         0.00000E+00
         0.00000E+00
         0.00000E+00
         0.00000E+00
         0.00000E+00
         0.00000E+00
         0.00000E+00
         0.00000E+00
         0.00000E+00
         0.00000E+00
         0.00000E+00
         0.00000E+00
         0.00000E+00
         0.00000E+00
         0.00000E+00
         0.00000E+00
         0.00000E+00
         0.00000E+00
         0.00000E+00
         0.00000E+00
         0.00000E+00
         0.00000E+00
         0.00000E+00
         0.00000E+00
         0.00000E+00
         0.00000E+00
         0.00000E+00
         0.00000E+00
         0.00000E+00
         0.00000E+00
         0.00000E+00
         0.00000E+00
         0.00000E+00
         0.00000E+00
         0.00000E+00
         0.00000E+00
         0.00000E+00
         0.00000E+00
         0.00000E+00
         0.00000E+00
         0.00000E+00
         0.00000E+00
         0.00000E+00
         0.00000E+00
         0.00000E+00
         0.00000E+00
         0.00000E+00
         0.00000E+00
         0.00000E+00
         0.00000E+00
         0.00000E+00
         0.00000E+00
         0.00000E+00
         0.00000E+00
         0.00000E+00
         0.00000E+00
         0.00000E+00
         0.00000E+00
         0.00000E+00
         0.00000E+00
         0.00000E+00
         0.00000E+00
         0.00000E+00
         0.00000E+00
         0.00000E+00
         0.00000E+00
         0.00000E+00
         0.00000E+00
         0.00000E+00
         0.00000E+00
         0.00000E+00
         0.00000E+00
         0.00000E+00
         0.00000E+00
         0.00000E+00
         0.00000E+00
         0.00000E+00
         0.00000E+00
         0.00000E+00
         0.00000E+00
         0.00000E+00
         0.00000E+00
         0.00000E+00
         0.00000E+00
         0.00000E+00
         0.00000E+00
         0.00000E+00
         0.00000E+00
         0.00000E+00
         0.00000E+00
         0.00000E+00
         0.00000E+00
         0.00000E+00
         0.00000E+00
         0.00000E+00
         0.00000E+00
         0.00000E+00
         0.00000E+00
         0.00000E+00
         0.00000E+00
         0.00000E+00
         0.00000E+00
         0.00000E+00
         0.00000E+00
         0.00000E+00
         0.00000E+00
         0.00000E+00
         0.00000E+00
         0.00000E+00
         0.00000E+00
         0.00000E+00
         0.00000E+00
         0.00000E+00
         0.00000E+00
         0.00000E+00
         0.00000E+00
         0.00000E+00
         0.00000E+00
         0.00000E+00
         0.00000E+00
         0.00000E+00
         0.00000E+00
         0.00000E+00
         0.00000E+00
         0.00000E+00
         0.00000E+00
         0.00000E+00
         0.00000E+00
         0.00000E+00
         0.00000E+00
         0.00000E+00
         0.00000E+00
         0.00000E+00
         0.00000E+00
         0.00000E+00
         0.00000E+00
         0.00000E+00
         0.00000E+00
         0.00000E+00
         0.00000E+00
         0.00000E+00
         0.00000E+00
         0.00000E+00
         0.00000E+00
         0.00000E+00
         0.00000E+00
         0.00000E+00
         0.00000E+00
         0.00000E+00
         0.00000E+00
         0.00000E+00
         0.00000E+00
         0.00000E+00
         0.00000E+00
         0.00000E+00
         0.00000E+00
         0.00000E+00
         0.00000E+00
         0.00000E+00
         0.00000E+00
         0.00000E+00
         0.00000E+00
         0.00000E+00
         0.00000E+00
         0.00000E+00
         0.00000E+00
         0.00000E+00
         0.00000E+00
         0.00000E+00
         0.00000E+00
         0.00000E+00
         0.00000E+00
         0.00000E+00
         0.00000E+00
         0.00000E+00
         0.00000E+00
         0.00000E+00
         0.00000E+00
         0.00000E+00
         0.00000E+00
         0.00000E+00
         0.00000E+00
         0.00000E+00
         0.00000E+00
         0.00000E+00
         0.00000E+00
         0.00000E+00
         0.00000E+00
         0.00000E+00
         0.00000E+00
         0.00000E+00
         0.00000E+00
         0.00000E+00
         0.00000E+00
         0.00000E+00
         0.00000E+00
         0.00000E+00
         0.00000E+00
         0.00000E+00
         0.00000E+00
         0.00000E+00
         0.00000E+00
         0.00000E+00
         0.00000E+00
         0.00000E+00
         0.00000E+00
         0.00000E+00
         0.00000E+00
         0.00000E+00
         0.00000E+00
         0.00000E+00
         0.00000E+00
         0.00000E+00
         0.00000E+00
         0.00000E+00
         0.00000E+00
         0.00000E+00
         0.00000E+00
         0.00000E+00
         0.00000E+00
         0.00000E+00
         0.00000E+00
         0.00000E+00
         0.00000E+00
         0.00000E+00
         0.00000E+00
         0.00000E+00
         0.00000E+00
         0.00000E+00
         0.00000E+00
         0.00000E+00
         0.00000E+00
         0.00000E+00
         0.00000E+00
         0.00000E+00
         0.00000E+00
         0.00000E+00
         0.00000E+00
         0.00000E+00
         0.00000E+00
         0.00000E+00
         0.00000E+00
         0.00000E+00
         0.00000E+00
         0.00000E+00
         0.00000E+00
         0.00000E+00
         0.00000E+00
         0.00000E+00
         0.00000E+00
         0.00000E+00
         0.00000E+00
         0.00000E+00
         0.00000E+00
         0.00000E+00
         0.00000E+00
         0.00000E+00
         0.00000E+00
         0.00000E+00
         0.00000E+00
         0.00000E+00
         0.00000E+00
         0.00000E+00
         0.00000E+00
         0.00000E+00
         0.00000E+00
         0.00000E+00
         0.00000E+00
         0.00000E+00
         0.00000E+00
         0.00000E+00
         0.00000E+00
         0.00000E+00
         0.00000E+00
         0.00000E+00
         0.00000E+00
         0.00000E+00
         0.00000E+00
         0.00000E+00
         0.00000E+00
         0.00000E+00
         0.00000E+00
         0.00000E+00
         0.00000E+00
         0.00000E+00
         0.00000E+00
         0.00000E+00
         0.00000E+00
         0.00000E+00
         0.00000E+00
         0.00000E+00
         0.00000E+00
         0.00000E+00
         0.00000E+00
         0.00000E+00
         0.00000E+00
         0.00000E+00
         0.00000E+00
         0.00000E+00
         0.00000E+00
         0.00000E+00
         0.00000E+00
         0.00000E+00
         0.00000E+00
         0.00000E+00
         0.00000E+00
         0.00000E+00
         0.00000E+00
         0.00000E+00
         0.00000E+00
         0.00000E+00
         0.00000E+00
         0.00000E+00
         0.00000E+00
         0.00000E+00
         0.00000E+00
         0.00000E+00
         0.00000E+00
         0.00000E+00
         0.00000E+00
         0.00000E+00
         0.00000E+00
         0.00000E+00
         0.00000E+00
         0.00000E+00
         0.00000E+00
         0.00000E+00
         0.00000E+00
         0.00000E+00
         0.00000E+00
         0.00000E+00
         0.00000E+00
         0.00000E+00
         0.00000E+00
         0.00000E+00
         0.00000E+00
         0.00000E+00
         0.00000E+00
         0.00000E+00
         0.00000E+00
         0.00000E+00
         0.00000E+00
         0.00000E+00
         0.00000E+00
         0.00000E+00
         0.00000E+00
         0.00000E+00
         0.00000E+00
         0.00000E+00
         0.00000E+00
         0.00000E+00
         0.00000E+00
         0.00000E+00
         0.00000E+00
         0.00000E+00
         0.00000E+00
         0.00000E+00
         0.00000E+00
         0.00000E+00
         0.00000E+00
         0.00000E+00
         0.00000E+00
         0.00000E+00
         0.00000E+00
         0.00000E+00
         0.00000E+00
         0.00000E+00
         0.00000E+00
         0.00000E+00
         0.00000E+00
         0.00000E+00
         0.00000E+00
         0.00000E+00
         0.00000E+00
         0.00000E+00
         0.00000E+00
         0.00000E+00
         0.00000E+00
         0.00000E+00
         0.00000E+00
         0.00000E+00
         0.00000E+00
         0.00000E+00
         0.00000E+00
         0.00000E+00
         0.00000E+00
         0.00000E+00
         0.00000E+00
         0.00000E+00
         0.00000E+00
         0.00000E+00
         0.00000E+00
         0.00000E+00
         0.00000E+00
         0.00000E+00
         0.00000E+00
         0.00000E+00
         0.00000E+00
         0.00000E+00
         0.00000E+00
         0.00000E+00
         0.00000E+00
         0.00000E+00
         0.00000E+00
         0.00000E+00
         0.00000E+00
         0.00000E+00
         0.00000E+00
         0.00000E+00
         0.00000E+00
         0.00000E+00
         0.00000E+00
         0.00000E+00
         0.00000E+00
         0.00000E+00
         0.00000E+00
         0.00000E+00
         0.00000E+00
         0.00000E+00
         0.00000E+00
         0.00000E+00
         0.00000E+00
         0.00000E+00
         0.00000E+00
         0.00000E+00
         0.00000E+00
         0.00000E+00
         0.00000E+00
         0.00000E+00
         0.00000E+00
         0.00000E+00
         0.00000E+00
         0.00000E+00
         0.00000E+00
         0.00000E+00
         0.00000E+00
         0.00000E+00
         0.00000E+00
         0.00000E+00
         0.00000E+00
         0.00000E+00
         0.00000E+00
         0.00000E+00
         0.00000E+00
         0.00000E+00
         0.00000E+00
         0.00000E+00
         0.00000E+00
         0.00000E+00
         0.00000E+00
         0.00000E+00
         0.00000E+00
         0.00000E+00
         0.00000E+00
         0.00000E+00
         0.00000E+00
         0.00000E+00
         0.00000E+00
         0.00000E+00
         0.00000E+00
         0.00000E+00
         0.00000E+00
         0.00000E+00
         0.00000E+00
         0.00000E+00
         0.00000E+00
         0.00000E+00
         0.00000E+00
         0.00000E+00
         0.00000E+00
         0.00000E+00
         0.00000E+00
         0.00000E+00
         0.00000E+00
         0.00000E+00
         0.00000E+00
         0.00000E+00
         0.00000E+00
         0.00000E+00
         0.00000E+00
         0.00000E+00
         0.00000E+00
         0.00000E+00
         0.00000E+00
         0.00000E+00
         0.00000E+00
         0.00000E+00
         0.00000E+00
         0.00000E+00
         0.00000E+00
         0.00000E+00
         0.00000E+00
         0.00000E+00
         0.00000E+00
         0.00000E+00
         0.00000E+00
         0.00000E+00
         0.00000E+00
         0.00000E+00
         0.00000E+00
         0.00000E+00
         0.00000E+00
         0.00000E+00
         0.00000E+00
         0.00000E+00
         0.00000E+00
         0.00000E+00
         0.00000E+00
         0.00000E+00
         0.00000E+00
         0.00000E+00
         0.00000E+00
         0.00000E+00
         0.00000E+00
         0.00000E+00
         0.00000E+00
         0.00000E+00
         0.00000E+00
         0.00000E+00
         0.00000E+00
         0.00000E+00
         0.00000E+00
         0.00000E+00
         0.00000E+00
         0.00000E+00
         0.00000E+00
         0.00000E+00
         0.00000E+00
         0.00000E+00
         0.00000E+00
         0.00000E+00
         0.00000E+00
         0.00000E+00
         0.00000E+00
         0.00000E+00
         0.00000E+00
         0.00000E+00
         0.00000E+00
         0.00000E+00
         0.00000E+00
         0.00000E+00
         0.00000E+00
         0.00000E+00
         0.00000E+00
         0.00000E+00
         0.00000E+00
         0.00000E+00
         0.00000E+00
         0.00000E+00
         0.00000E+00
         0.00000E+00
         0.00000E+00
         0.00000E+00
         0.00000E+00
         0.00000E+00
         0.00000E+00
         0.00000E+00
         0.00000E+00
         0.00000E+00
         0.00000E+00
         0.00000E+00
         0.00000E+00
         0.00000E+00
         0.00000E+00
         0.00000E+00
         0.00000E+00
         0.00000E+00
         0.00000E+00
         0.00000E+00
         0.00000E+00
         0.00000E+00
         0.00000E+00
         0.00000E+00
         0.00000E+00
         0.00000E+00
         0.00000E+00
         0.00000E+00
         0.00000E+00
         0.00000E+00
         0.00000E+00
         0.00000E+00
         0.00000E+00
         0.00000E+00
         0.00000E+00
         0.00000E+00
         0.00000E+00
         0.00000E+00
         0.00000E+00
         0.00000E+00
         0.00000E+00
         0.00000E+00
         0.00000E+00
         0.00000E+00
         0.00000E+00
         0.00000E+00
         0.00000E+00
         0.00000E+00
         0.00000E+00
         0.00000E+00
         0.00000E+00
         0.00000E+00
         0.00000E+00
         0.00000E+00
         0.00000E+00
         0.00000E+00
         0.00000E+00
         0.00000E+00
         0.00000E+00
         0.00000E+00
         0.00000E+00
         0.00000E+00
         0.00000E+00
         0.00000E+00
         0.00000E+00
         0.00000E+00
         0.00000E+00
         0.00000E+00
         0.00000E+00
         0.00000E+00
         0.00000E+00
         0.00000E+00
         0.00000E+00
         0.00000E+00
         0.00000E+00
         0.00000E+00
         0.00000E+00
         0.00000E+00
         0.00000E+00
         0.00000E+00
         0.00000E+00
         0.00000E+00
         0.00000E+00
         0.00000E+00
         0.00000E+00
         0.00000E+00
         0.00000E+00
         0.00000E+00
         0.00000E+00
         0.00000E+00
         0.00000E+00
         0.00000E+00
         0.00000E+00
         0.00000E+00
         0.00000E+00
         0.00000E+00
         0.00000E+00
         0.00000E+00
         0.00000E+00
         0.00000E+00
         0.00000E+00
         0.00000E+00
         0.00000E+00
         0.00000E+00
         0.00000E+00
         0.00000E+00
         0.00000E+00
         0.00000E+00
         0.00000E+00
         0.00000E+00
         0.00000E+00
         0.00000E+00
         0.00000E+00
         0.00000E+00
         0.00000E+00
         0.00000E+00
         0.00000E+00
         0.00000E+00
         0.00000E+00
         0.00000E+00
         0.00000E+00
         0.00000E+00
         0.00000E+00
         0.00000E+00
         0.00000E+00
         0.00000E+00
         0.00000E+00
         0.00000E+00
         0.00000E+00
         0.00000E+00
         0.00000E+00
         0.00000E+00
         0.00000E+00
         0.00000E+00
         0.00000E+00
         0.00000E+00
         0.00000E+00
         0.00000E+00
         0.00000E+00
         0.00000E+00
         0.00000E+00
         0.00000E+00
         0.00000E+00
         0.00000E+00
         0.00000E+00
         0.00000E+00
         0.00000E+00
         0.00000E+00
         0.00000E+00
         0.00000E+00
         0.00000E+00
         0.00000E+00
         0.00000E+00
         0.00000E+00
         0.00000E+00
         0.00000E+00
         0.00000E+00
         0.00000E+00
         0.00000E+00
         0.00000E+00
         0.00000E+00
         0.00000E+00
         0.00000E+00
         0.00000E+00
         0.00000E+00
         0.00000E+00
         0.00000E+00
         0.00000E+00
         0.00000E+00
         0.00000E+00
         0.00000E+00
         0.00000E+00
         0.00000E+00
         0.00000E+00
         0.00000E+00
         0.00000E+00
         0.00000E+00
         0.00000E+00
         0.00000E+00
         0.00000E+00
         0.00000E+00
         0.00000E+00
         0.00000E+00
         0.00000E+00
         0.00000E+00
         0.00000E+00
         0.00000E+00
         0.00000E+00
         0.00000E+00
         0.00000E+00
         0.00000E+00
         0.00000E+00
         0.00000E+00
         0.00000E+00
         0.00000E+00
         0.00000E+00
         0.00000E+00
         0.00000E+00
         0.00000E+00
         0.00000E+00
         0.00000E+00
         0.00000E+00
         0.00000E+00
         0.00000E+00
         0.00000E+00
         0.00000E+00
         0.00000E+00
         0.00000E+00
         0.00000E+00
         0.00000E+00
         0.00000E+00
         0.00000E+00
         0.00000E+00
         0.00000E+00
         0.00000E+00
         0.00000E+00
         0.00000E+00
         0.00000E+00
         0.00000E+00
         0.00000E+00
         0.00000E+00
         0.00000E+00
         0.00000E+00
         0.00000E+00
         0.00000E+00
         0.00000E+00
         0.00000E+00
         0.00000E+00
         0.00000E+00
         0.00000E+00
         0.00000E+00
         0.00000E+00
         0.00000E+00
         0.00000E+00
         0.00000E+00
         0.00000E+00
         0.00000E+00
         0.00000E+00
         0.00000E+00
         0.00000E+00
         0.00000E+00
         0.00000E+00
         0.00000E+00
         0.00000E+00
         0.00000E+00
         0.00000E+00
         0.00000E+00
         0.00000E+00
         0.00000E+00
         0.00000E+00
         0.00000E+00
         0.00000E+00
         0.00000E+00
         0.00000E+00
         0.00000E+00
         0.00000E+00
         0.00000E+00
         0.00000E+00
         0.00000E+00
         0.00000E+00
         0.00000E+00
         0.00000E+00
         0.00000E+00
         0.00000E+00
         0.00000E+00
         0.00000E+00
         0.00000E+00
         0.00000E+00
         0.00000E+00
         0.00000E+00
         0.00000E+00
         0.00000E+00
         0.00000E+00
         0.00000E+00
         0.00000E+00
         0.00000E+00
         0.00000E+00
         0.00000E+00
         0.00000E+00
         0.00000E+00
         0.00000E+00
         0.00000E+00
         0.00000E+00
         0.00000E+00
         0.00000E+00
         0.00000E+00
         0.00000E+00
         0.00000E+00
         0.00000E+00
         0.00000E+00
         0.00000E+00
         0.00000E+00
         0.00000E+00
         0.00000E+00
         0.00000E+00
         0.00000E+00
         0.00000E+00
         0.00000E+00
         0.00000E+00
         0.00000E+00
         0.00000E+00
         0.00000E+00
         0.00000E+00
         0.00000E+00
         0.00000E+00
         0.00000E+00
         0.00000E+00
         0.00000E+00
         0.00000E+00
         0.00000E+00
         0.00000E+00
         0.00000E+00
         0.00000E+00
         0.00000E+00
         0.00000E+00
         0.00000E+00
         0.00000E+00
         0.00000E+00
         0.00000E+00
         0.00000E+00
         0.00000E+00
         0.00000E+00
         0.00000E+00
         0.00000E+00
         0.00000E+00
         0.00000E+00
         0.00000E+00
         0.00000E+00
         0.00000E+00
         0.00000E+00
         0.00000E+00
         0.00000E+00
         0.00000E+00
         0.00000E+00
         0.00000E+00
         0.00000E+00
         0.00000E+00
         0.00000E+00
         0.00000E+00
         0.00000E+00
         0.00000E+00
         0.00000E+00
         0.00000E+00
         0.00000E+00
         0.00000E+00
         0.00000E+00
         0.00000E+00
         0.00000E+00
         0.00000E+00
         0.00000E+00
         0.00000E+00
         0.00000E+00
         0.00000E+00
         0.00000E+00
         0.00000E+00
         0.00000E+00
         0.00000E+00
         0.00000E+00
         0.00000E+00
         0.00000E+00
         0.00000E+00
         0.00000E+00
         0.00000E+00
         0.00000E+00
         0.00000E+00
         0.00000E+00
         0.00000E+00
         0.00000E+00
         0.00000E+00
         0.00000E+00
         0.00000E+00
         0.00000E+00
         0.00000E+00
         0.00000E+00
         0.00000E+00
         0.00000E+00
         0.00000E+00
         0.00000E+00
         0.00000E+00
         0.00000E+00
         0.00000E+00
         0.00000E+00
         0.00000E+00
         0.00000E+00
         0.00000E+00
         0.00000E+00
         0.00000E+00
         0.00000E+00
         0.00000E+00
         0.00000E+00
         0.00000E+00
         0.00000E+00
         0.00000E+00
         0.00000E+00
         0.00000E+00
         0.00000E+00
         0.00000E+00
         0.00000E+00
         0.00000E+00
         0.00000E+00
         0.00000E+00
         0.00000E+00
         0.00000E+00
         0.00000E+00
         0.00000E+00
         0.00000E+00
         0.00000E+00
         0.00000E+00
         0.00000E+00
         0.00000E+00
         0.00000E+00
         0.00000E+00
         0.00000E+00
         0.00000E+00
         0.00000E+00
         0.00000E+00
         0.00000E+00
         0.00000E+00
         0.00000E+00
         0.00000E+00
         0.00000E+00
         0.00000E+00
         0.00000E+00
         0.00000E+00
         0.00000E+00
         0.00000E+00
         0.00000E+00
         0.00000E+00
         0.00000E+00
         0.00000E+00
         0.00000E+00
         0.00000E+00
         0.00000E+00
         0.00000E+00
         0.00000E+00
         0.00000E+00
         0.00000E+00
         0.00000E+00
         0.00000E+00
         0.00000E+00
         0.00000E+00
         0.00000E+00
         0.00000E+00
         0.00000E+00
         0.00000E+00
         0.00000E+00
         0.00000E+00
         0.00000E+00
         0.00000E+00
         0.00000E+00
         0.00000E+00
         0.00000E+00
         0.00000E+00
         0.00000E+00
         0.00000E+00
         0.00000E+00
         0.00000E+00
         0.00000E+00
         0.00000E+00
         0.00000E+00
         0.00000E+00
         0.00000E+00
         0.00000E+00
         0.00000E+00
         0.00000E+00
         0.00000E+00
         0.00000E+00
         0.00000E+00
         0.00000E+00
         0.00000E+00
         0.00000E+00
         0.00000E+00
         0.00000E+00
         0.00000E+00
         0.00000E+00
         0.00000E+00
         0.00000E+00
         0.00000E+00
         0.00000E+00
         0.00000E+00
         0.00000E+00
         0.00000E+00
         0.00000E+00
         0.00000E+00
         0.00000E+00
         0.00000E+00
         0.00000E+00
         0.00000E+00
         0.00000E+00
         0.00000E+00
         0.00000E+00
         0.00000E+00
         0.00000E+00
         0.00000E+00
         0.00000E+00
         0.00000E+00
         0.00000E+00
         0.00000E+00
         0.00000E+00
         0.00000E+00
         0.00000E+00
         0.00000E+00
         0.00000E+00
         0.00000E+00
         0.00000E+00
         0.00000E+00
         0.00000E+00
         0.00000E+00
         0.00000E+00
         0.00000E+00
         0.00000E+00
         0.00000E+00
         0.00000E+00
         0.00000E+00
         0.00000E+00
         0.00000E+00
         0.00000E+00
         0.00000E+00
         0.00000E+00
         0.00000E+00
         0.00000E+00
         0.00000E+00
         0.00000E+00
         0.00000E+00
         0.00000E+00
         0.00000E+00
         0.00000E+00
         0.00000E+00
         0.00000E+00
         0.00000E+00
         0.00000E+00
         0.00000E+00
         0.00000E+00
         0.00000E+00
         0.00000E+00
         0.00000E+00
         0.00000E+00
         0.00000E+00
         0.00000E+00
         0.00000E+00
         0.00000E+00
         0.00000E+00
         0.00000E+00
         0.00000E+00
         0.00000E+00
         0.00000E+00
         0.00000E+00
         0.00000E+00
         0.00000E+00
         0.00000E+00
         0.00000E+00
         0.00000E+00
         0.00000E+00
         0.00000E+00
         0.00000E+00
         0.00000E+00
         0.00000E+00
         0.00000E+00
         0.00000E+00
         0.00000E+00
         0.00000E+00
         0.00000E+00
         0.00000E+00
         0.00000E+00
         0.00000E+00
         0.00000E+00
         0.00000E+00
         0.00000E+00
         0.00000E+00
         0.00000E+00
         0.00000E+00
         0.00000E+00
         0.00000E+00
         0.00000E+00
         0.00000E+00
         0.00000E+00
         0.00000E+00
         0.00000E+00
         0.00000E+00
         0.00000E+00
         0.00000E+00
         0.00000E+00
         0.00000E+00
         0.00000E+00
         0.00000E+00
         0.00000E+00
         0.00000E+00
         0.00000E+00
         0.00000E+00
         0.00000E+00
         0.00000E+00
         0.00000E+00
         0.00000E+00
         0.00000E+00
         0.00000E+00
         0.00000E+00
         0.00000E+00
         0.00000E+00
         0.00000E+00
         0.00000E+00
         0.00000E+00
         0.00000E+00
         0.00000E+00
         0.00000E+00
         0.00000E+00
         0.00000E+00
         0.00000E+00
         0.00000E+00
         0.00000E+00
         0.00000E+00
         0.00000E+00
         0.00000E+00
         0.00000E+00
         0.00000E+00
         0.00000E+00
         0.00000E+00
         0.00000E+00
         0.00000E+00
         0.00000E+00
         0.00000E+00
         0.00000E+00
         0.00000E+00
         0.00000E+00
         0.00000E+00
         0.00000E+00
         0.00000E+00
         0.00000E+00
         0.00000E+00
         0.00000E+00
         0.00000E+00
         0.00000E+00
         0.00000E+00
         0.00000E+00
         0.00000E+00
         0.00000E+00
         0.00000E+00
         0.00000E+00
         0.00000E+00
         0.00000E+00
         0.00000E+00
         0.00000E+00
         0.00000E+00
         0.00000E+00
         0.00000E+00
         0.00000E+00
         0.00000E+00
         0.00000E+00
         0.00000E+00
         0.00000E+00
         0.00000E+00
         0.00000E+00
         0.00000E+00
         0.00000E+00
         0.00000E+00
         0.00000E+00
         0.00000E+00
         0.00000E+00
         0.00000E+00
         0.00000E+00
         0.00000E+00
         0.00000E+00
         0.00000E+00
         0.00000E+00
         0.00000E+00
         0.00000E+00
         0.00000E+00
         0.00000E+00
         0.00000E+00
         0.00000E+00
         0.00000E+00
         0.00000E+00
         0.00000E+00
         0.00000E+00
         0.00000E+00
         0.00000E+00
         0.00000E+00
         0.00000E+00
         0.00000E+00
         0.00000E+00
         0.00000E+00
         0.00000E+00
         0.00000E+00
         0.00000E+00
         0.00000E+00
         0.00000E+00
         0.00000E+00
         0.00000E+00
         0.00000E+00
         0.00000E+00
         0.00000E+00
         0.00000E+00
         0.00000E+00
         0.00000E+00
         0.00000E+00
         0.00000E+00
         0.00000E+00
         0.00000E+00
         0.00000E+00
         0.00000E+00
         0.00000E+00
         0.00000E+00
         0.00000E+00
         0.00000E+00
         0.00000E+00
         0.00000E+00
         0.00000E+00
         0.00000E+00
         0.00000E+00
         0.00000E+00
         0.00000E+00
         0.00000E+00
         0.00000E+00
         0.00000E+00
         0.00000E+00
         0.00000E+00
         0.00000E+00
         0.00000E+00
         0.00000E+00
         0.00000E+00
         0.00000E+00
         0.00000E+00
         0.00000E+00
         0.00000E+00
         0.00000E+00
         0.00000E+00
         0.00000E+00
         0.00000E+00
         0.00000E+00
         0.00000E+00
         0.00000E+00
         0.00000E+00
         0.00000E+00
         0.00000E+00
         0.00000E+00
         0.00000E+00
         0.00000E+00
         0.00000E+00
         0.00000E+00
         0.00000E+00
         0.00000E+00
         0.00000E+00
         0.00000E+00
         0.00000E+00
         0.00000E+00
         0.00000E+00
         0.00000E+00
         0.00000E+00
         0.00000E+00
         0.00000E+00
         0.00000E+00
         0.00000E+00
         0.00000E+00
         0.00000E+00
         0.00000E+00
         0.00000E+00
         0.00000E+00
         0.00000E+00
         0.00000E+00
         0.00000E+00
         0.00000E+00
         0.00000E+00
         0.00000E+00
         0.00000E+00
         0.00000E+00
         0.00000E+00
         0.00000E+00
         0.00000E+00
         0.00000E+00
         0.00000E+00
         0.00000E+00
         0.00000E+00
         0.00000E+00
         0.00000E+00
         0.00000E+00
         0.00000E+00
         0.00000E+00
         0.00000E+00
         0.00000E+00
         0.00000E+00
         0.00000E+00
         0.00000E+00
         0.00000E+00
         0.00000E+00
         0.00000E+00
         0.00000E+00
         0.00000E+00
         0.00000E+00
         0.00000E+00
         0.00000E+00
         0.00000E+00
         0.00000E+00
         0.00000E+00
         0.00000E+00
         0.00000E+00
         0.00000E+00
         0.00000E+00
         0.00000E+00
         0.00000E+00
         0.00000E+00
         0.00000E+00
         0.00000E+00
         0.00000E+00
         0.00000E+00
         0.00000E+00
         0.00000E+00
         0.00000E+00
         0.00000E+00
         0.00000E+00
         0.00000E+00
         0.00000E+00
         0.00000E+00
         0.00000E+00
         0.00000E+00
         0.00000E+00
         0.00000E+00
         0.00000E+00
         0.00000E+00
         0.00000E+00
         0.00000E+00
         0.00000E+00
         0.00000E+00
         0.00000E+00
         0.00000E+00
         0.00000E+00
         0.00000E+00
         0.00000E+00
         0.00000E+00
         0.00000E+00
         0.00000E+00
         0.00000E+00
         0.00000E+00
         0.00000E+00
         0.00000E+00
         0.00000E+00
         0.00000E+00
         0.00000E+00
         0.00000E+00
         0.00000E+00
         0.00000E+00
         0.00000E+00
         0.00000E+00
         0.00000E+00
         0.00000E+00
         0.00000E+00
         0.00000E+00
         0.00000E+00
         0.00000E+00
         0.00000E+00
         0.00000E+00
         0.00000E+00
         0.00000E+00
         0.00000E+00
         0.00000E+00
         0.00000E+00
         0.00000E+00
         0.00000E+00
         0.00000E+00
         0.00000E+00
         0.00000E+00
         0.00000E+00
         0.00000E+00
         0.00000E+00
         0.00000E+00
         0.00000E+00
         0.00000E+00
         0.00000E+00
         0.00000E+00
         0.00000E+00
         0.00000E+00
         0.00000E+00
         0.00000E+00
         0.00000E+00
         0.00000E+00
         0.00000E+00
         0.00000E+00
         0.00000E+00
         0.00000E+00
         0.00000E+00
         0.00000E+00
         0.00000E+00
         0.00000E+00
         0.00000E+00
         0.00000E+00
         0.00000E+00
         0.00000E+00
         0.00000E+00
         0.00000E+00
         0.00000E+00
         0.00000E+00
         0.00000E+00
         0.00000E+00
         0.00000E+00
         0.00000E+00
         0.00000E+00
         0.00000E+00
         0.00000E+00
         0.00000E+00
         0.00000E+00
         0.00000E+00
         0.00000E+00
         0.00000E+00
         0.00000E+00
         0.00000E+00
         0.00000E+00
         0.00000E+00
         0.00000E+00
         0.00000E+00
         0.00000E+00
         0.00000E+00
         0.00000E+00
         0.00000E+00
         0.00000E+00
         0.00000E+00
         0.00000E+00
         0.00000E+00
         0.00000E+00
         0.00000E+00
         0.00000E+00
         0.00000E+00
         0.00000E+00
         0.00000E+00
         0.00000E+00
         0.00000E+00
         0.00000E+00
         0.00000E+00
         0.00000E+00
         0.00000E+00
         0.00000E+00
         0.00000E+00
         0.00000E+00
         0.00000E+00
         0.00000E+00
         0.00000E+00
         0.00000E+00
         0.00000E+00
         0.00000E+00
         0.00000E+00
         0.00000E+00
         0.00000E+00
         0.00000E+00
         0.00000E+00
         0.00000E+00
         0.00000E+00
         0.00000E+00
         0.00000E+00
         0.00000E+00
         0.00000E+00
         0.00000E+00
         0.00000E+00
         0.00000E+00
         0.00000E+00
         0.00000E+00
         0.00000E+00
         0.00000E+00
         0.00000E+00
         0.00000E+00
         0.00000E+00
         0.00000E+00
         0.00000E+00
         0.00000E+00
         0.00000E+00
         0.00000E+00
         0.00000E+00
         0.00000E+00
         0.00000E+00
         0.00000E+00
         0.00000E+00
         0.00000E+00
         0.00000E+00
         0.00000E+00
         0.00000E+00
         0.00000E+00
         0.00000E+00
         0.00000E+00
         0.00000E+00
         0.00000E+00
         0.00000E+00
         0.00000E+00
         0.00000E+00
         0.00000E+00
         0.00000E+00
         0.00000E+00
         0.00000E+00
         0.00000E+00
         0.00000E+00
         0.00000E+00
         0.00000E+00
         0.00000E+00
         0.00000E+00
         0.00000E+00
         0.00000E+00
         0.00000E+00
         0.00000E+00
         0.00000E+00
         0.00000E+00
         0.00000E+00
         0.00000E+00
         0.00000E+00
         0.00000E+00
         0.00000E+00
         0.00000E+00
         0.00000E+00
         0.00000E+00
         0.00000E+00
         0.00000E+00
         0.00000E+00
         0.00000E+00
         0.00000E+00
         0.00000E+00
         0.00000E+00
         0.00000E+00
         0.00000E+00
         0.00000E+00
         0.00000E+00
         0.00000E+00
         0.00000E+00
         0.00000E+00
         0.00000E+00
         0.00000E+00
         0.00000E+00
         0.00000E+00
         0.00000E+00
         0.00000E+00
         0.00000E+00
         0.00000E+00
         0.00000E+00
         0.00000E+00
         0.00000E+00
         0.00000E+00
         0.00000E+00
         0.00000E+00
         0.00000E+00
         0.00000E+00
         0.00000E+00
         0.00000E+00
         0.00000E+00
         0.00000E+00
         0.00000E+00
         0.00000E+00
         0.00000E+00
         0.00000E+00
         0.00000E+00
         0.00000E+00
         0.00000E+00
         0.00000E+00
         0.00000E+00
         0.00000E+00
         0.00000E+00
         0.00000E+00
         0.00000E+00
         0.00000E+00
         0.00000E+00
         0.00000E+00
         0.00000E+00
         0.00000E+00
         0.00000E+00
         0.00000E+00
         0.00000E+00
         0.00000E+00
         0.00000E+00
         0.00000E+00
         0.00000E+00
         0.00000E+00
         0.00000E+00
         0.00000E+00
         0.00000E+00
         0.00000E+00
         0.00000E+00
         0.00000E+00
         0.00000E+00
         0.00000E+00
         0.00000E+00
         0.00000E+00
         0.00000E+00
         0.00000E+00
         0.00000E+00
         0.00000E+00
         0.00000E+00
         0.00000E+00
         0.00000E+00
         0.00000E+00
         0.00000E+00
         0.00000E+00
         0.00000E+00
         0.00000E+00
         0.00000E+00
         0.00000E+00
         0.00000E+00
         0.00000E+00
         0.00000E+00
         0.00000E+00
         0.00000E+00
         0.00000E+00
         0.00000E+00
         0.00000E+00
         0.00000E+00
         0.00000E+00
         0.00000E+00
         0.00000E+00
         0.00000E+00
         0.00000E+00
         0.00000E+00
         0.00000E+00
         0.00000E+00
         0.00000E+00
         0.00000E+00
         0.00000E+00
         0.00000E+00
         0.00000E+00
         0.00000E+00
         0.00000E+00
         0.00000E+00
         0.00000E+00
         0.00000E+00
         0.00000E+00
         0.00000E+00
         0.00000E+00
         0.00000E+00
         0.00000E+00
         0.00000E+00
         0.00000E+00
         0.00000E+00
         0.00000E+00
         0.00000E+00
         0.00000E+00
         0.00000E+00
         0.00000E+00
         0.00000E+00
         0.00000E+00
         0.00000E+00
         0.00000E+00
         0.00000E+00
         0.00000E+00
         0.00000E+00
         0.00000E+00
         0.00000E+00
         0.00000E+00
         0.00000E+00
         0.00000E+00
         0.00000E+00
         0.00000E+00
         0.00000E+00
         0.00000E+00
         0.00000E+00
         0.00000E+00
         0.00000E+00
         0.00000E+00
         0.00000E+00
         0.00000E+00
         0.00000E+00
         0.00000E+00
         0.00000E+00
         0.00000E+00
         0.00000E+00
         0.00000E+00
         0.00000E+00
         0.00000E+00
         0.00000E+00
         0.00000E+00
         0.00000E+00
         0.00000E+00
         0.00000E+00
         0.00000E+00
         0.00000E+00
         0.00000E+00
         0.00000E+00
         0.00000E+00
         0.00000E+00
         0.00000E+00
         0.00000E+00
         0.00000E+00
         0.00000E+00
         0.00000E+00
         0.00000E+00
         0.00000E+00
         0.00000E+00
         0.00000E+00
         0.00000E+00
         0.00000E+00
         0.00000E+00
         0.00000E+00
         0.00000E+00
         0.00000E+00
         0.00000E+00
         0.00000E+00
         0.00000E+00
         0.00000E+00
         0.00000E+00
         0.00000E+00
         0.00000E+00
         0.00000E+00
         0.00000E+00
         0.00000E+00
         0.00000E+00
         0.00000E+00
         0.00000E+00
         0.00000E+00
         0.00000E+00
         0.00000E+00
         0.00000E+00
         0.00000E+00
         0.00000E+00
         0.00000E+00
         0.00000E+00
         0.00000E+00
         0.00000E+00
         0.00000E+00
         0.00000E+00
         0.00000E+00
         0.00000E+00
         0.00000E+00
         0.00000E+00
         0.00000E+00
         0.00000E+00
         0.00000E+00
         0.00000E+00
         0.00000E+00
         0.00000E+00
         0.00000E+00
         0.00000E+00
         0.00000E+00
         0.00000E+00
         0.00000E+00
         0.00000E+00
         0.00000E+00
         0.00000E+00
         0.00000E+00
         0.00000E+00
         0.00000E+00
         0.00000E+00
         0.00000E+00
         0.00000E+00
         0.00000E+00
  
SCALARS                         fint_y  double 1
LOOKUP_TABLE default
         0.00000E+00
         0.00000E+00
         0.00000E+00
         0.00000E+00
         0.00000E+00
         0.00000E+00
         0.00000E+00
         0.00000E+00
         0.00000E+00
         0.00000E+00
         0.00000E+00
         0.00000E+00
         0.00000E+00
         0.00000E+00
         0.00000E+00
         0.00000E+00
         0.00000E+00
         0.00000E+00
         0.00000E+00
         0.00000E+00
         0.00000E+00
         0.00000E+00
         0.00000E+00
         0.00000E+00
         0.00000E+00
         0.00000E+00
         0.00000E+00
         0.00000E+00
         0.00000E+00
         0.00000E+00
         0.00000E+00
         0.00000E+00
         0.00000E+00
         0.00000E+00
         0.00000E+00
         0.00000E+00
         0.00000E+00
         0.00000E+00
         0.00000E+00
         0.00000E+00
         0.00000E+00
         0.00000E+00
         0.00000E+00
         0.00000E+00
         0.00000E+00
         0.00000E+00
         0.00000E+00
         0.00000E+00
         0.00000E+00
         0.00000E+00
         0.00000E+00
         0.00000E+00
         0.00000E+00
         0.00000E+00
         0.00000E+00
         0.00000E+00
         0.00000E+00
         0.00000E+00
         0.00000E+00
         0.00000E+00
         0.00000E+00
         0.00000E+00
         0.00000E+00
         0.00000E+00
         0.00000E+00
         0.00000E+00
         0.00000E+00
         0.00000E+00
         0.00000E+00
         0.00000E+00
         0.00000E+00
         0.00000E+00
         0.00000E+00
         0.00000E+00
         0.00000E+00
         0.00000E+00
         0.00000E+00
         0.00000E+00
         0.00000E+00
         0.00000E+00
         0.00000E+00
         0.00000E+00
         0.00000E+00
         0.00000E+00
         0.00000E+00
         0.00000E+00
         0.00000E+00
         0.00000E+00
         0.00000E+00
         0.00000E+00
         0.00000E+00
         0.00000E+00
         0.00000E+00
         0.00000E+00
         0.00000E+00
         0.00000E+00
         0.00000E+00
         0.00000E+00
         0.00000E+00
         0.00000E+00
         0.00000E+00
         0.00000E+00
         0.00000E+00
         0.00000E+00
         0.00000E+00
         0.00000E+00
         0.00000E+00
         0.00000E+00
         0.00000E+00
         0.00000E+00
         0.00000E+00
         0.00000E+00
         0.00000E+00
         0.00000E+00
         0.00000E+00
         0.00000E+00
         0.00000E+00
         0.00000E+00
         0.00000E+00
         0.00000E+00
         0.00000E+00
         0.00000E+00
         0.00000E+00
         0.00000E+00
         0.00000E+00
         0.00000E+00
         0.00000E+00
         0.00000E+00
         0.00000E+00
         0.00000E+00
         0.00000E+00
         0.00000E+00
         0.00000E+00
         0.00000E+00
         0.00000E+00
         0.00000E+00
         0.00000E+00
         0.00000E+00
         0.00000E+00
         0.00000E+00
         0.00000E+00
         0.00000E+00
         0.00000E+00
         0.00000E+00
         0.00000E+00
         0.00000E+00
         0.00000E+00
         0.00000E+00
         0.00000E+00
         0.00000E+00
         0.00000E+00
         0.00000E+00
         0.00000E+00
         0.00000E+00
         0.00000E+00
         0.00000E+00
         0.00000E+00
         0.00000E+00
         0.00000E+00
         0.00000E+00
         0.00000E+00
         0.00000E+00
         0.00000E+00
         0.00000E+00
         0.00000E+00
         0.00000E+00
         0.00000E+00
         0.00000E+00
         0.00000E+00
         0.00000E+00
         0.00000E+00
         0.00000E+00
         0.00000E+00
         0.00000E+00
         0.00000E+00
         0.00000E+00
         0.00000E+00
         0.00000E+00
         0.00000E+00
         0.00000E+00
         0.00000E+00
         0.00000E+00
         0.00000E+00
         0.00000E+00
         0.00000E+00
         0.00000E+00
         0.00000E+00
         0.00000E+00
         0.00000E+00
         0.00000E+00
         0.00000E+00
         0.00000E+00
         0.00000E+00
         0.00000E+00
         0.00000E+00
         0.00000E+00
         0.00000E+00
         0.00000E+00
         0.00000E+00
         0.00000E+00
         0.00000E+00
         0.00000E+00
         0.00000E+00
         0.00000E+00
         0.00000E+00
         0.00000E+00
         0.00000E+00
         0.00000E+00
         0.00000E+00
         0.00000E+00
         0.00000E+00
         0.00000E+00
         0.00000E+00
         0.00000E+00
         0.00000E+00
         0.00000E+00
         0.00000E+00
         0.00000E+00
         0.00000E+00
         0.00000E+00
         0.00000E+00
         0.00000E+00
         0.00000E+00
         0.00000E+00
         0.00000E+00
         0.00000E+00
         0.00000E+00
         0.00000E+00
         0.00000E+00
         0.00000E+00
         0.00000E+00
         0.00000E+00
         0.00000E+00
         0.00000E+00
         0.00000E+00
         0.00000E+00
         0.00000E+00
         0.00000E+00
         0.00000E+00
         0.00000E+00
         0.00000E+00
         0.00000E+00
         0.00000E+00
         0.00000E+00
         0.00000E+00
         0.00000E+00
         0.00000E+00
         0.00000E+00
         0.00000E+00
         0.00000E+00
         0.00000E+00
         0.00000E+00
         0.00000E+00
         0.00000E+00
         0.00000E+00
         0.00000E+00
         0.00000E+00
         0.00000E+00
         0.00000E+00
         0.00000E+00
         0.00000E+00
         0.00000E+00
         0.00000E+00
         0.00000E+00
         0.00000E+00
         0.00000E+00
         0.00000E+00
         0.00000E+00
         0.00000E+00
         0.00000E+00
         0.00000E+00
         0.00000E+00
         0.00000E+00
         0.00000E+00
         0.00000E+00
         0.00000E+00
         0.00000E+00
         0.00000E+00
         0.00000E+00
         0.00000E+00
         0.00000E+00
         0.00000E+00
         0.00000E+00
         0.00000E+00
         0.00000E+00
         0.00000E+00
         0.00000E+00
         0.00000E+00
         0.00000E+00
         0.00000E+00
         0.00000E+00
         0.00000E+00
         0.00000E+00
         0.00000E+00
         0.00000E+00
         0.00000E+00
         0.00000E+00
         0.00000E+00
         0.00000E+00
         0.00000E+00
         0.00000E+00
         0.00000E+00
         0.00000E+00
         0.00000E+00
         0.00000E+00
         0.00000E+00
         0.00000E+00
         0.00000E+00
         0.00000E+00
         0.00000E+00
         0.00000E+00
         0.00000E+00
         0.00000E+00
         0.00000E+00
         0.00000E+00
         0.00000E+00
         0.00000E+00
         0.00000E+00
         0.00000E+00
         0.00000E+00
         0.00000E+00
         0.00000E+00
         0.00000E+00
         0.00000E+00
         0.00000E+00
         0.00000E+00
         0.00000E+00
         0.00000E+00
         0.00000E+00
         0.00000E+00
         0.00000E+00
         0.00000E+00
         0.00000E+00
         0.00000E+00
         0.00000E+00
         0.00000E+00
         0.00000E+00
         0.00000E+00
         0.00000E+00
         0.00000E+00
         0.00000E+00
         0.00000E+00
         0.00000E+00
         0.00000E+00
         0.00000E+00
         0.00000E+00
         0.00000E+00
         0.00000E+00
         0.00000E+00
         0.00000E+00
         0.00000E+00
         0.00000E+00
         0.00000E+00
         0.00000E+00
         0.00000E+00
         0.00000E+00
         0.00000E+00
         0.00000E+00
         0.00000E+00
         0.00000E+00
         0.00000E+00
         0.00000E+00
         0.00000E+00
         0.00000E+00
         0.00000E+00
         0.00000E+00
         0.00000E+00
         0.00000E+00
         0.00000E+00
         0.00000E+00
         0.00000E+00
         0.00000E+00
         0.00000E+00
         0.00000E+00
         0.00000E+00
         0.00000E+00
         0.00000E+00
         0.00000E+00
         0.00000E+00
         0.00000E+00
         0.00000E+00
         0.00000E+00
         0.00000E+00
         0.00000E+00
         0.00000E+00
         0.00000E+00
         0.00000E+00
         0.00000E+00
         0.00000E+00
         0.00000E+00
         0.00000E+00
         0.00000E+00
         0.00000E+00
         0.00000E+00
         0.00000E+00
         0.00000E+00
         0.00000E+00
         0.00000E+00
         0.00000E+00
         0.00000E+00
         0.00000E+00
         0.00000E+00
         0.00000E+00
         0.00000E+00
         0.00000E+00
         0.00000E+00
         0.00000E+00
         0.00000E+00
         0.00000E+00
         0.00000E+00
         0.00000E+00
         0.00000E+00
         0.00000E+00
         0.00000E+00
         0.00000E+00
         0.00000E+00
         0.00000E+00
         0.00000E+00
         0.00000E+00
         0.00000E+00
         0.00000E+00
         0.00000E+00
         0.00000E+00
         0.00000E+00
         0.00000E+00
         0.00000E+00
         0.00000E+00
         0.00000E+00
         0.00000E+00
         0.00000E+00
         0.00000E+00
         0.00000E+00
         0.00000E+00
         0.00000E+00
         0.00000E+00
         0.00000E+00
         0.00000E+00
         0.00000E+00
         0.00000E+00
         0.00000E+00
         0.00000E+00
         0.00000E+00
         0.00000E+00
         0.00000E+00
         0.00000E+00
         0.00000E+00
         0.00000E+00
         0.00000E+00
         0.00000E+00
         0.00000E+00
         0.00000E+00
         0.00000E+00
         0.00000E+00
         0.00000E+00
         0.00000E+00
         0.00000E+00
         0.00000E+00
         0.00000E+00
         0.00000E+00
         0.00000E+00
         0.00000E+00
         0.00000E+00
         0.00000E+00
         0.00000E+00
         0.00000E+00
         0.00000E+00
         0.00000E+00
         0.00000E+00
         0.00000E+00
         0.00000E+00
         0.00000E+00
         0.00000E+00
         0.00000E+00
         0.00000E+00
         0.00000E+00
         0.00000E+00
         0.00000E+00
         0.00000E+00
         0.00000E+00
         0.00000E+00
         0.00000E+00
         0.00000E+00
         0.00000E+00
         0.00000E+00
         0.00000E+00
         0.00000E+00
         0.00000E+00
         0.00000E+00
         0.00000E+00
         0.00000E+00
         0.00000E+00
         0.00000E+00
         0.00000E+00
         0.00000E+00
         0.00000E+00
         0.00000E+00
         0.00000E+00
         0.00000E+00
         0.00000E+00
         0.00000E+00
         0.00000E+00
         0.00000E+00
         0.00000E+00
         0.00000E+00
         0.00000E+00
         0.00000E+00
         0.00000E+00
         0.00000E+00
         0.00000E+00
         0.00000E+00
         0.00000E+00
         0.00000E+00
         0.00000E+00
         0.00000E+00
         0.00000E+00
         0.00000E+00
         0.00000E+00
         0.00000E+00
         0.00000E+00
         0.00000E+00
         0.00000E+00
         0.00000E+00
         0.00000E+00
         0.00000E+00
         0.00000E+00
         0.00000E+00
         0.00000E+00
         0.00000E+00
         0.00000E+00
         0.00000E+00
         0.00000E+00
         0.00000E+00
         0.00000E+00
         0.00000E+00
         0.00000E+00
         0.00000E+00
         0.00000E+00
         0.00000E+00
         0.00000E+00
         0.00000E+00
         0.00000E+00
         0.00000E+00
         0.00000E+00
         0.00000E+00
         0.00000E+00
         0.00000E+00
         0.00000E+00
         0.00000E+00
         0.00000E+00
         0.00000E+00
         0.00000E+00
         0.00000E+00
         0.00000E+00
         0.00000E+00
         0.00000E+00
         0.00000E+00
         0.00000E+00
         0.00000E+00
         0.00000E+00
         0.00000E+00
         0.00000E+00
         0.00000E+00
         0.00000E+00
         0.00000E+00
         0.00000E+00
         0.00000E+00
         0.00000E+00
         0.00000E+00
         0.00000E+00
         0.00000E+00
         0.00000E+00
         0.00000E+00
         0.00000E+00
         0.00000E+00
         0.00000E+00
         0.00000E+00
         0.00000E+00
         0.00000E+00
         0.00000E+00
         0.00000E+00
         0.00000E+00
         0.00000E+00
         0.00000E+00
         0.00000E+00
         0.00000E+00
         0.00000E+00
         0.00000E+00
         0.00000E+00
         0.00000E+00
         0.00000E+00
         0.00000E+00
         0.00000E+00
         0.00000E+00
         0.00000E+00
         0.00000E+00
         0.00000E+00
         0.00000E+00
         0.00000E+00
         0.00000E+00
         0.00000E+00
         0.00000E+00
         0.00000E+00
         0.00000E+00
         0.00000E+00
         0.00000E+00
         0.00000E+00
         0.00000E+00
         0.00000E+00
         0.00000E+00
         0.00000E+00
         0.00000E+00
         0.00000E+00
         0.00000E+00
         0.00000E+00
         0.00000E+00
         0.00000E+00
         0.00000E+00
         0.00000E+00
         0.00000E+00
         0.00000E+00
         0.00000E+00
         0.00000E+00
         0.00000E+00
         0.00000E+00
         0.00000E+00
         0.00000E+00
         0.00000E+00
         0.00000E+00
         0.00000E+00
         0.00000E+00
         0.00000E+00
         0.00000E+00
         0.00000E+00
         0.00000E+00
         0.00000E+00
         0.00000E+00
         0.00000E+00
         0.00000E+00
         0.00000E+00
         0.00000E+00
         0.00000E+00
         0.00000E+00
         0.00000E+00
         0.00000E+00
         0.00000E+00
         0.00000E+00
         0.00000E+00
         0.00000E+00
         0.00000E+00
         0.00000E+00
         0.00000E+00
         0.00000E+00
         0.00000E+00
         0.00000E+00
         0.00000E+00
         0.00000E+00
         0.00000E+00
         0.00000E+00
         0.00000E+00
         0.00000E+00
         0.00000E+00
         0.00000E+00
         0.00000E+00
         0.00000E+00
         0.00000E+00
         0.00000E+00
         0.00000E+00
         0.00000E+00
         0.00000E+00
         0.00000E+00
         0.00000E+00
         0.00000E+00
         0.00000E+00
         0.00000E+00
         0.00000E+00
         0.00000E+00
         0.00000E+00
         0.00000E+00
         0.00000E+00
         0.00000E+00
         0.00000E+00
         0.00000E+00
         0.00000E+00
         0.00000E+00
         0.00000E+00
         0.00000E+00
         0.00000E+00
         0.00000E+00
         0.00000E+00
         0.00000E+00
         0.00000E+00
         0.00000E+00
         0.00000E+00
         0.00000E+00
         0.00000E+00
         0.00000E+00
         0.00000E+00
         0.00000E+00
         0.00000E+00
         0.00000E+00
         0.00000E+00
         0.00000E+00
         0.00000E+00
         0.00000E+00
         0.00000E+00
         0.00000E+00
         0.00000E+00
         0.00000E+00
         0.00000E+00
         0.00000E+00
         0.00000E+00
         0.00000E+00
         0.00000E+00
         0.00000E+00
         0.00000E+00
         0.00000E+00
         0.00000E+00
         0.00000E+00
         0.00000E+00
         0.00000E+00
         0.00000E+00
         0.00000E+00
         0.00000E+00
         0.00000E+00
         0.00000E+00
         0.00000E+00
         0.00000E+00
         0.00000E+00
         0.00000E+00
         0.00000E+00
         0.00000E+00
         0.00000E+00
         0.00000E+00
         0.00000E+00
         0.00000E+00
         0.00000E+00
         0.00000E+00
         0.00000E+00
         0.00000E+00
         0.00000E+00
         0.00000E+00
         0.00000E+00
         0.00000E+00
         0.00000E+00
         0.00000E+00
         0.00000E+00
         0.00000E+00
         0.00000E+00
         0.00000E+00
         0.00000E+00
         0.00000E+00
         0.00000E+00
         0.00000E+00
         0.00000E+00
         0.00000E+00
         0.00000E+00
         0.00000E+00
         0.00000E+00
         0.00000E+00
         0.00000E+00
         0.00000E+00
         0.00000E+00
         0.00000E+00
         0.00000E+00
         0.00000E+00
         0.00000E+00
         0.00000E+00
         0.00000E+00
         0.00000E+00
         0.00000E+00
         0.00000E+00
         0.00000E+00
         0.00000E+00
         0.00000E+00
         0.00000E+00
         0.00000E+00
         0.00000E+00
         0.00000E+00
         0.00000E+00
         0.00000E+00
         0.00000E+00
         0.00000E+00
         0.00000E+00
         0.00000E+00
         0.00000E+00
         0.00000E+00
         0.00000E+00
         0.00000E+00
         0.00000E+00
         0.00000E+00
         0.00000E+00
         0.00000E+00
         0.00000E+00
         0.00000E+00
         0.00000E+00
         0.00000E+00
         0.00000E+00
         0.00000E+00
         0.00000E+00
         0.00000E+00
         0.00000E+00
         0.00000E+00
         0.00000E+00
         0.00000E+00
         0.00000E+00
         0.00000E+00
         0.00000E+00
         0.00000E+00
         0.00000E+00
         0.00000E+00
         0.00000E+00
         0.00000E+00
         0.00000E+00
         0.00000E+00
         0.00000E+00
         0.00000E+00
         0.00000E+00
         0.00000E+00
         0.00000E+00
         0.00000E+00
         0.00000E+00
         0.00000E+00
         0.00000E+00
         0.00000E+00
         0.00000E+00
         0.00000E+00
         0.00000E+00
         0.00000E+00
         0.00000E+00
         0.00000E+00
         0.00000E+00
         0.00000E+00
         0.00000E+00
         0.00000E+00
         0.00000E+00
         0.00000E+00
         0.00000E+00
         0.00000E+00
         0.00000E+00
         0.00000E+00
         0.00000E+00
         0.00000E+00
         0.00000E+00
         0.00000E+00
         0.00000E+00
         0.00000E+00
         0.00000E+00
         0.00000E+00
         0.00000E+00
         0.00000E+00
         0.00000E+00
         0.00000E+00
         0.00000E+00
         0.00000E+00
         0.00000E+00
         0.00000E+00
         0.00000E+00
         0.00000E+00
         0.00000E+00
         0.00000E+00
         0.00000E+00
         0.00000E+00
         0.00000E+00
         0.00000E+00
         0.00000E+00
         0.00000E+00
         0.00000E+00
         0.00000E+00
         0.00000E+00
         0.00000E+00
         0.00000E+00
         0.00000E+00
         0.00000E+00
         0.00000E+00
         0.00000E+00
         0.00000E+00
         0.00000E+00
         0.00000E+00
         0.00000E+00
         0.00000E+00
         0.00000E+00
         0.00000E+00
         0.00000E+00
         0.00000E+00
         0.00000E+00
         0.00000E+00
         0.00000E+00
         0.00000E+00
         0.00000E+00
         0.00000E+00
         0.00000E+00
         0.00000E+00
         0.00000E+00
         0.00000E+00
         0.00000E+00
         0.00000E+00
         0.00000E+00
         0.00000E+00
         0.00000E+00
         0.00000E+00
         0.00000E+00
         0.00000E+00
         0.00000E+00
         0.00000E+00
         0.00000E+00
         0.00000E+00
         0.00000E+00
         0.00000E+00
         0.00000E+00
         0.00000E+00
         0.00000E+00
         0.00000E+00
         0.00000E+00
         0.00000E+00
         0.00000E+00
         0.00000E+00
         0.00000E+00
         0.00000E+00
         0.00000E+00
         0.00000E+00
         0.00000E+00
         0.00000E+00
         0.00000E+00
         0.00000E+00
         0.00000E+00
         0.00000E+00
         0.00000E+00
         0.00000E+00
         0.00000E+00
         0.00000E+00
         0.00000E+00
         0.00000E+00
         0.00000E+00
         0.00000E+00
         0.00000E+00
         0.00000E+00
         0.00000E+00
         0.00000E+00
         0.00000E+00
         0.00000E+00
         0.00000E+00
         0.00000E+00
         0.00000E+00
         0.00000E+00
         0.00000E+00
         0.00000E+00
         0.00000E+00
         0.00000E+00
         0.00000E+00
         0.00000E+00
         0.00000E+00
         0.00000E+00
         0.00000E+00
         0.00000E+00
         0.00000E+00
         0.00000E+00
         0.00000E+00
         0.00000E+00
         0.00000E+00
         0.00000E+00
         0.00000E+00
         0.00000E+00
         0.00000E+00
         0.00000E+00
         0.00000E+00
         0.00000E+00
         0.00000E+00
         0.00000E+00
         0.00000E+00
         0.00000E+00
         0.00000E+00
         0.00000E+00
         0.00000E+00
         0.00000E+00
         0.00000E+00
         0.00000E+00
         0.00000E+00
         0.00000E+00
         0.00000E+00
         0.00000E+00
         0.00000E+00
         0.00000E+00
         0.00000E+00
         0.00000E+00
         0.00000E+00
         0.00000E+00
         0.00000E+00
         0.00000E+00
         0.00000E+00
         0.00000E+00
         0.00000E+00
         0.00000E+00
         0.00000E+00
         0.00000E+00
         0.00000E+00
         0.00000E+00
         0.00000E+00
         0.00000E+00
         0.00000E+00
         0.00000E+00
         0.00000E+00
         0.00000E+00
         0.00000E+00
         0.00000E+00
         0.00000E+00
         0.00000E+00
         0.00000E+00
         0.00000E+00
         0.00000E+00
         0.00000E+00
         0.00000E+00
         0.00000E+00
         0.00000E+00
         0.00000E+00
         0.00000E+00
         0.00000E+00
         0.00000E+00
         0.00000E+00
         0.00000E+00
         0.00000E+00
         0.00000E+00
         0.00000E+00
         0.00000E+00
         0.00000E+00
         0.00000E+00
         0.00000E+00
         0.00000E+00
         0.00000E+00
         0.00000E+00
         0.00000E+00
         0.00000E+00
         0.00000E+00
         0.00000E+00
         0.00000E+00
         0.00000E+00
         0.00000E+00
         0.00000E+00
         0.00000E+00
         0.00000E+00
         0.00000E+00
         0.00000E+00
         0.00000E+00
         0.00000E+00
         0.00000E+00
         0.00000E+00
         0.00000E+00
         0.00000E+00
         0.00000E+00
         0.00000E+00
         0.00000E+00
         0.00000E+00
         0.00000E+00
         0.00000E+00
         0.00000E+00
         0.00000E+00
         0.00000E+00
         0.00000E+00
         0.00000E+00
         0.00000E+00
         0.00000E+00
         0.00000E+00
         0.00000E+00
         0.00000E+00
         0.00000E+00
         0.00000E+00
         0.00000E+00
         0.00000E+00
         0.00000E+00
         0.00000E+00
         0.00000E+00
         0.00000E+00
         0.00000E+00
         0.00000E+00
         0.00000E+00
         0.00000E+00
         0.00000E+00
         0.00000E+00
         0.00000E+00
         0.00000E+00
         0.00000E+00
         0.00000E+00
         0.00000E+00
         0.00000E+00
         0.00000E+00
         0.00000E+00
         0.00000E+00
         0.00000E+00
         0.00000E+00
         0.00000E+00
         0.00000E+00
         0.00000E+00
         0.00000E+00
         0.00000E+00
         0.00000E+00
         0.00000E+00
         0.00000E+00
         0.00000E+00
         0.00000E+00
         0.00000E+00
         0.00000E+00
         0.00000E+00
         0.00000E+00
         0.00000E+00
         0.00000E+00
         0.00000E+00
         0.00000E+00
         0.00000E+00
         0.00000E+00
         0.00000E+00
         0.00000E+00
         0.00000E+00
         0.00000E+00
         0.00000E+00
         0.00000E+00
         0.00000E+00
         0.00000E+00
         0.00000E+00
         0.00000E+00
         0.00000E+00
         0.00000E+00
         0.00000E+00
         0.00000E+00
         0.00000E+00
         0.00000E+00
         0.00000E+00
         0.00000E+00
         0.00000E+00
         0.00000E+00
         0.00000E+00
         0.00000E+00
         0.00000E+00
         0.00000E+00
         0.00000E+00
         0.00000E+00
         0.00000E+00
         0.00000E+00
         0.00000E+00
         0.00000E+00
         0.00000E+00
         0.00000E+00
         0.00000E+00
         0.00000E+00
         0.00000E+00
         0.00000E+00
         0.00000E+00
         0.00000E+00
         0.00000E+00
         0.00000E+00
         0.00000E+00
         0.00000E+00
         0.00000E+00
         0.00000E+00
         0.00000E+00
         0.00000E+00
         0.00000E+00
         0.00000E+00
         0.00000E+00
         0.00000E+00
         0.00000E+00
         0.00000E+00
         0.00000E+00
         0.00000E+00
         0.00000E+00
         0.00000E+00
         0.00000E+00
         0.00000E+00
         0.00000E+00
         0.00000E+00
         0.00000E+00
         0.00000E+00
         0.00000E+00
         0.00000E+00
         0.00000E+00
         0.00000E+00
         0.00000E+00
         0.00000E+00
         0.00000E+00
         0.00000E+00
         0.00000E+00
         0.00000E+00
         0.00000E+00
         0.00000E+00
         0.00000E+00
         0.00000E+00
         0.00000E+00
         0.00000E+00
         0.00000E+00
         0.00000E+00
         0.00000E+00
         0.00000E+00
         0.00000E+00
         0.00000E+00
         0.00000E+00
         0.00000E+00
         0.00000E+00
         0.00000E+00
         0.00000E+00
         0.00000E+00
         0.00000E+00
         0.00000E+00
         0.00000E+00
         0.00000E+00
         0.00000E+00
         0.00000E+00
         0.00000E+00
         0.00000E+00
         0.00000E+00
         0.00000E+00
         0.00000E+00
         0.00000E+00
         0.00000E+00
         0.00000E+00
         0.00000E+00
         0.00000E+00
         0.00000E+00
         0.00000E+00
         0.00000E+00
         0.00000E+00
         0.00000E+00
         0.00000E+00
         0.00000E+00
         0.00000E+00
         0.00000E+00
         0.00000E+00
         0.00000E+00
         0.00000E+00
         0.00000E+00
         0.00000E+00
         0.00000E+00
         0.00000E+00
         0.00000E+00
         0.00000E+00
         0.00000E+00
         0.00000E+00
         0.00000E+00
         0.00000E+00
         0.00000E+00
         0.00000E+00
         0.00000E+00
         0.00000E+00
         0.00000E+00
         0.00000E+00
         0.00000E+00
         0.00000E+00
         0.00000E+00
         0.00000E+00
         0.00000E+00
         0.00000E+00
         0.00000E+00
         0.00000E+00
         0.00000E+00
         0.00000E+00
         0.00000E+00
         0.00000E+00
         0.00000E+00
         0.00000E+00
         0.00000E+00
         0.00000E+00
         0.00000E+00
         0.00000E+00
         0.00000E+00
         0.00000E+00
         0.00000E+00
         0.00000E+00
         0.00000E+00
         0.00000E+00
         0.00000E+00
         0.00000E+00
         0.00000E+00
         0.00000E+00
         0.00000E+00
         0.00000E+00
         0.00000E+00
         0.00000E+00
         0.00000E+00
         0.00000E+00
         0.00000E+00
         0.00000E+00
         0.00000E+00
         0.00000E+00
         0.00000E+00
         0.00000E+00
         0.00000E+00
         0.00000E+00
         0.00000E+00
         0.00000E+00
         0.00000E+00
         0.00000E+00
         0.00000E+00
         0.00000E+00
         0.00000E+00
         0.00000E+00
         0.00000E+00
         0.00000E+00
         0.00000E+00
         0.00000E+00
         0.00000E+00
         0.00000E+00
         0.00000E+00
         0.00000E+00
         0.00000E+00
         0.00000E+00
         0.00000E+00
         0.00000E+00
         0.00000E+00
         0.00000E+00
         0.00000E+00
         0.00000E+00
         0.00000E+00
         0.00000E+00
         0.00000E+00
         0.00000E+00
         0.00000E+00
         0.00000E+00
         0.00000E+00
         0.00000E+00
         0.00000E+00
         0.00000E+00
         0.00000E+00
         0.00000E+00
         0.00000E+00
         0.00000E+00
         0.00000E+00
         0.00000E+00
         0.00000E+00
         0.00000E+00
         0.00000E+00
         0.00000E+00
         0.00000E+00
         0.00000E+00
         0.00000E+00
         0.00000E+00
         0.00000E+00
         0.00000E+00
         0.00000E+00
         0.00000E+00
         0.00000E+00
         0.00000E+00
         0.00000E+00
         0.00000E+00
         0.00000E+00
         0.00000E+00
         0.00000E+00
         0.00000E+00
         0.00000E+00
         0.00000E+00
         0.00000E+00
         0.00000E+00
         0.00000E+00
         0.00000E+00
         0.00000E+00
         0.00000E+00
         0.00000E+00
         0.00000E+00
         0.00000E+00
         0.00000E+00
         0.00000E+00
         0.00000E+00
         0.00000E+00
         0.00000E+00
         0.00000E+00
         0.00000E+00
         0.00000E+00
         0.00000E+00
         0.00000E+00
         0.00000E+00
         0.00000E+00
         0.00000E+00
         0.00000E+00
         0.00000E+00
         0.00000E+00
         0.00000E+00
         0.00000E+00
         0.00000E+00
         0.00000E+00
         0.00000E+00
         0.00000E+00
         0.00000E+00
         0.00000E+00
         0.00000E+00
         0.00000E+00
         0.00000E+00
         0.00000E+00
         0.00000E+00
         0.00000E+00
         0.00000E+00
         0.00000E+00
         0.00000E+00
         0.00000E+00
         0.00000E+00
         0.00000E+00
         0.00000E+00
         0.00000E+00
         0.00000E+00
         0.00000E+00
         0.00000E+00
         0.00000E+00
         0.00000E+00
         0.00000E+00
         0.00000E+00
         0.00000E+00
         0.00000E+00
         0.00000E+00
         0.00000E+00
         0.00000E+00
         0.00000E+00
         0.00000E+00
         0.00000E+00
         0.00000E+00
         0.00000E+00
         0.00000E+00
         0.00000E+00
         0.00000E+00
         0.00000E+00
         0.00000E+00
         0.00000E+00
         0.00000E+00
         0.00000E+00
         0.00000E+00
         0.00000E+00
         0.00000E+00
         0.00000E+00
         0.00000E+00
         0.00000E+00
         0.00000E+00
         0.00000E+00
         0.00000E+00
         0.00000E+00
         0.00000E+00
         0.00000E+00
         0.00000E+00
         0.00000E+00
         0.00000E+00
         0.00000E+00
         0.00000E+00
         0.00000E+00
         0.00000E+00
         0.00000E+00
         0.00000E+00
         0.00000E+00
         0.00000E+00
         0.00000E+00
         0.00000E+00
         0.00000E+00
         0.00000E+00
         0.00000E+00
         0.00000E+00
         0.00000E+00
         0.00000E+00
         0.00000E+00
         0.00000E+00
         0.00000E+00
         0.00000E+00
         0.00000E+00
         0.00000E+00
         0.00000E+00
         0.00000E+00
         0.00000E+00
         0.00000E+00
         0.00000E+00
         0.00000E+00
         0.00000E+00
         0.00000E+00
         0.00000E+00
         0.00000E+00
         0.00000E+00
         0.00000E+00
         0.00000E+00
         0.00000E+00
         0.00000E+00
         0.00000E+00
         0.00000E+00
         0.00000E+00
         0.00000E+00
         0.00000E+00
         0.00000E+00
         0.00000E+00
         0.00000E+00
         0.00000E+00
         0.00000E+00
         0.00000E+00
         0.00000E+00
         0.00000E+00
         0.00000E+00
         0.00000E+00
         0.00000E+00
         0.00000E+00
         0.00000E+00
         0.00000E+00
         0.00000E+00
         0.00000E+00
         0.00000E+00
         0.00000E+00
         0.00000E+00
         0.00000E+00
         0.00000E+00
         0.00000E+00
         0.00000E+00
         0.00000E+00
         0.00000E+00
         0.00000E+00
         0.00000E+00
         0.00000E+00
         0.00000E+00
         0.00000E+00
         0.00000E+00
         0.00000E+00
         0.00000E+00
         0.00000E+00
         0.00000E+00
         0.00000E+00
         0.00000E+00
         0.00000E+00
         0.00000E+00
         0.00000E+00
         0.00000E+00
         0.00000E+00
         0.00000E+00
         0.00000E+00
         0.00000E+00
         0.00000E+00
         0.00000E+00
         0.00000E+00
         0.00000E+00
         0.00000E+00
         0.00000E+00
         0.00000E+00
         0.00000E+00
         0.00000E+00
         0.00000E+00
         0.00000E+00
         0.00000E+00
         0.00000E+00
         0.00000E+00
         0.00000E+00
         0.00000E+00
         0.00000E+00
         0.00000E+00
         0.00000E+00
         0.00000E+00
         0.00000E+00
         0.00000E+00
         0.00000E+00
         0.00000E+00
         0.00000E+00
         0.00000E+00
         0.00000E+00
         0.00000E+00
         0.00000E+00
         0.00000E+00
         0.00000E+00
         0.00000E+00
         0.00000E+00
         0.00000E+00
         0.00000E+00
         0.00000E+00
         0.00000E+00
         0.00000E+00
         0.00000E+00
         0.00000E+00
         0.00000E+00
         0.00000E+00
         0.00000E+00
         0.00000E+00
         0.00000E+00
         0.00000E+00
         0.00000E+00
         0.00000E+00
         0.00000E+00
         0.00000E+00
         0.00000E+00
         0.00000E+00
         0.00000E+00
         0.00000E+00
         0.00000E+00
         0.00000E+00
         0.00000E+00
         0.00000E+00
         0.00000E+00
         0.00000E+00
         0.00000E+00
         0.00000E+00
         0.00000E+00
         0.00000E+00
         0.00000E+00
         0.00000E+00
         0.00000E+00
         0.00000E+00
         0.00000E+00
         0.00000E+00
         0.00000E+00
         0.00000E+00
         0.00000E+00
         0.00000E+00
         0.00000E+00
         0.00000E+00
         0.00000E+00
         0.00000E+00
         0.00000E+00
         0.00000E+00
         0.00000E+00
         0.00000E+00
         0.00000E+00
         0.00000E+00
         0.00000E+00
         0.00000E+00
         0.00000E+00
         0.00000E+00
         0.00000E+00
         0.00000E+00
         0.00000E+00
         0.00000E+00
         0.00000E+00
         0.00000E+00
         0.00000E+00
         0.00000E+00
         0.00000E+00
         0.00000E+00
         0.00000E+00
         0.00000E+00
         0.00000E+00
         0.00000E+00
         0.00000E+00
         0.00000E+00
         0.00000E+00
         0.00000E+00
         0.00000E+00
         0.00000E+00
         0.00000E+00
         0.00000E+00
         0.00000E+00
         0.00000E+00
         0.00000E+00
         0.00000E+00
         0.00000E+00
         0.00000E+00
         0.00000E+00
         0.00000E+00
         0.00000E+00
         0.00000E+00
         0.00000E+00
         0.00000E+00
         0.00000E+00
         0.00000E+00
         0.00000E+00
         0.00000E+00
         0.00000E+00
         0.00000E+00
         0.00000E+00
         0.00000E+00
         0.00000E+00
         0.00000E+00
         0.00000E+00
         0.00000E+00
         0.00000E+00
         0.00000E+00
         0.00000E+00
         0.00000E+00
         0.00000E+00
         0.00000E+00
         0.00000E+00
         0.00000E+00
         0.00000E+00
         0.00000E+00
         0.00000E+00
         0.00000E+00
         0.00000E+00
         0.00000E+00
         0.00000E+00
         0.00000E+00
         0.00000E+00
         0.00000E+00
         0.00000E+00
         0.00000E+00
         0.00000E+00
         0.00000E+00
         0.00000E+00
         0.00000E+00
         0.00000E+00
         0.00000E+00
         0.00000E+00
         0.00000E+00
         0.00000E+00
         0.00000E+00
         0.00000E+00
         0.00000E+00
         0.00000E+00
         0.00000E+00
         0.00000E+00
         0.00000E+00
         0.00000E+00
         0.00000E+00
         0.00000E+00
         0.00000E+00
         0.00000E+00
         0.00000E+00
         0.00000E+00
         0.00000E+00
         0.00000E+00
         0.00000E+00
         0.00000E+00
         0.00000E+00
         0.00000E+00
         0.00000E+00
         0.00000E+00
         0.00000E+00
         0.00000E+00
         0.00000E+00
         0.00000E+00
         0.00000E+00
         0.00000E+00
         0.00000E+00
         0.00000E+00
         0.00000E+00
         0.00000E+00
         0.00000E+00
         0.00000E+00
         0.00000E+00
         0.00000E+00
         0.00000E+00
         0.00000E+00
         0.00000E+00
         0.00000E+00
         0.00000E+00
         0.00000E+00
         0.00000E+00
         0.00000E+00
         0.00000E+00
         0.00000E+00
         0.00000E+00
         0.00000E+00
         0.00000E+00
         0.00000E+00
         0.00000E+00
         0.00000E+00
         0.00000E+00
         0.00000E+00
         0.00000E+00
         0.00000E+00
         0.00000E+00
         0.00000E+00
         0.00000E+00
         0.00000E+00
         0.00000E+00
         0.00000E+00
         0.00000E+00
         0.00000E+00
         0.00000E+00
         0.00000E+00
         0.00000E+00
         0.00000E+00
         0.00000E+00
         0.00000E+00
         0.00000E+00
         0.00000E+00
         0.00000E+00
         0.00000E+00
         0.00000E+00
         0.00000E+00
         0.00000E+00
         0.00000E+00
         0.00000E+00
         0.00000E+00
         0.00000E+00
         0.00000E+00
         0.00000E+00
         0.00000E+00
         0.00000E+00
         0.00000E+00
         0.00000E+00
         0.00000E+00
         0.00000E+00
         0.00000E+00
         0.00000E+00
         0.00000E+00
         0.00000E+00
         0.00000E+00
         0.00000E+00
         0.00000E+00
         0.00000E+00
         0.00000E+00
         0.00000E+00
         0.00000E+00
         0.00000E+00
         0.00000E+00
         0.00000E+00
         0.00000E+00
         0.00000E+00
         0.00000E+00
         0.00000E+00
         0.00000E+00
         0.00000E+00
         0.00000E+00
         0.00000E+00
         0.00000E+00
         0.00000E+00
         0.00000E+00
         0.00000E+00
         0.00000E+00
         0.00000E+00
         0.00000E+00
         0.00000E+00
         0.00000E+00
         0.00000E+00
         0.00000E+00
         0.00000E+00
         0.00000E+00
         0.00000E+00
         0.00000E+00
         0.00000E+00
         0.00000E+00
         0.00000E+00
         0.00000E+00
         0.00000E+00
         0.00000E+00
         0.00000E+00
         0.00000E+00
         0.00000E+00
         0.00000E+00
         0.00000E+00
         0.00000E+00
         0.00000E+00
         0.00000E+00
         0.00000E+00
         0.00000E+00
         0.00000E+00
         0.00000E+00
         0.00000E+00
         0.00000E+00
         0.00000E+00
         0.00000E+00
         0.00000E+00
         0.00000E+00
         0.00000E+00
         0.00000E+00
         0.00000E+00
         0.00000E+00
         0.00000E+00
         0.00000E+00
         0.00000E+00
         0.00000E+00
         0.00000E+00
         0.00000E+00
         0.00000E+00
         0.00000E+00
         0.00000E+00
         0.00000E+00
         0.00000E+00
         0.00000E+00
         0.00000E+00
         0.00000E+00
         0.00000E+00
         0.00000E+00
         0.00000E+00
         0.00000E+00
         0.00000E+00
         0.00000E+00
         0.00000E+00
         0.00000E+00
         0.00000E+00
         0.00000E+00
         0.00000E+00
         0.00000E+00
         0.00000E+00
         0.00000E+00
         0.00000E+00
         0.00000E+00
         0.00000E+00
         0.00000E+00
         0.00000E+00
         0.00000E+00
         0.00000E+00
         0.00000E+00
         0.00000E+00
         0.00000E+00
         0.00000E+00
         0.00000E+00
         0.00000E+00
         0.00000E+00
         0.00000E+00
         0.00000E+00
         0.00000E+00
         0.00000E+00
         0.00000E+00
         0.00000E+00
         0.00000E+00
         0.00000E+00
         0.00000E+00
         0.00000E+00
         0.00000E+00
         0.00000E+00
         0.00000E+00
         0.00000E+00
         0.00000E+00
         0.00000E+00
         0.00000E+00
         0.00000E+00
         0.00000E+00
         0.00000E+00
         0.00000E+00
         0.00000E+00
         0.00000E+00
         0.00000E+00
         0.00000E+00
         0.00000E+00
         0.00000E+00
         0.00000E+00
         0.00000E+00
         0.00000E+00
         0.00000E+00
         0.00000E+00
         0.00000E+00
         0.00000E+00
         0.00000E+00
         0.00000E+00
         0.00000E+00
         0.00000E+00
         0.00000E+00
         0.00000E+00
         0.00000E+00
         0.00000E+00
         0.00000E+00
         0.00000E+00
         0.00000E+00
         0.00000E+00
         0.00000E+00
         0.00000E+00
         0.00000E+00
         0.00000E+00
         0.00000E+00
         0.00000E+00
         0.00000E+00
         0.00000E+00
         0.00000E+00
         0.00000E+00
         0.00000E+00
         0.00000E+00
         0.00000E+00
         0.00000E+00
         0.00000E+00
         0.00000E+00
         0.00000E+00
         0.00000E+00
         0.00000E+00
         0.00000E+00
         0.00000E+00
         0.00000E+00
         0.00000E+00
         0.00000E+00
         0.00000E+00
  
SCALARS                         fint_z  double 1
LOOKUP_TABLE default
         0.00000E+00
         0.00000E+00
         0.00000E+00
         0.00000E+00
         0.00000E+00
         0.00000E+00
         0.00000E+00
         0.00000E+00
         0.00000E+00
         0.00000E+00
         0.00000E+00
         0.00000E+00
         0.00000E+00
         0.00000E+00
         0.00000E+00
         0.00000E+00
         0.00000E+00
         0.00000E+00
         0.00000E+00
         0.00000E+00
         0.00000E+00
         0.00000E+00
         0.00000E+00
         0.00000E+00
         0.00000E+00
         0.00000E+00
         0.00000E+00
         0.00000E+00
         0.00000E+00
         0.00000E+00
         0.00000E+00
         0.00000E+00
         0.00000E+00
         0.00000E+00
         0.00000E+00
         0.00000E+00
         0.00000E+00
         0.00000E+00
         0.00000E+00
         0.00000E+00
         0.00000E+00
         0.00000E+00
         0.00000E+00
         0.00000E+00
         0.00000E+00
         0.00000E+00
         0.00000E+00
         0.00000E+00
         0.00000E+00
         0.00000E+00
         0.00000E+00
         0.00000E+00
         0.00000E+00
         0.00000E+00
         0.00000E+00
         0.00000E+00
         0.00000E+00
         0.00000E+00
         0.00000E+00
         0.00000E+00
         0.00000E+00
         0.00000E+00
         0.00000E+00
         0.00000E+00
         0.00000E+00
         0.00000E+00
         0.00000E+00
         0.00000E+00
         0.00000E+00
         0.00000E+00
         0.00000E+00
         0.00000E+00
         0.00000E+00
         0.00000E+00
         0.00000E+00
         0.00000E+00
         0.00000E+00
         0.00000E+00
         0.00000E+00
         0.00000E+00
         0.00000E+00
         0.00000E+00
         0.00000E+00
         0.00000E+00
         0.00000E+00
         0.00000E+00
         0.00000E+00
         0.00000E+00
         0.00000E+00
         0.00000E+00
         0.00000E+00
         0.00000E+00
         0.00000E+00
         0.00000E+00
         0.00000E+00
         0.00000E+00
         0.00000E+00
         0.00000E+00
         0.00000E+00
         0.00000E+00
         0.00000E+00
         0.00000E+00
         0.00000E+00
         0.00000E+00
         0.00000E+00
         0.00000E+00
         0.00000E+00
         0.00000E+00
         0.00000E+00
         0.00000E+00
         0.00000E+00
         0.00000E+00
         0.00000E+00
         0.00000E+00
         0.00000E+00
         0.00000E+00
         0.00000E+00
         0.00000E+00
         0.00000E+00
         0.00000E+00
         0.00000E+00
         0.00000E+00
         0.00000E+00
         0.00000E+00
         0.00000E+00
         0.00000E+00
         0.00000E+00
         0.00000E+00
         0.00000E+00
         0.00000E+00
         0.00000E+00
         0.00000E+00
         0.00000E+00
         0.00000E+00
         0.00000E+00
         0.00000E+00
         0.00000E+00
         0.00000E+00
         0.00000E+00
         0.00000E+00
         0.00000E+00
         0.00000E+00
         0.00000E+00
         0.00000E+00
         0.00000E+00
         0.00000E+00
         0.00000E+00
         0.00000E+00
         0.00000E+00
         0.00000E+00
         0.00000E+00
         0.00000E+00
         0.00000E+00
         0.00000E+00
         0.00000E+00
         0.00000E+00
         0.00000E+00
         0.00000E+00
         0.00000E+00
         0.00000E+00
         0.00000E+00
         0.00000E+00
         0.00000E+00
         0.00000E+00
         0.00000E+00
         0.00000E+00
         0.00000E+00
         0.00000E+00
         0.00000E+00
         0.00000E+00
         0.00000E+00
         0.00000E+00
         0.00000E+00
         0.00000E+00
         0.00000E+00
         0.00000E+00
         0.00000E+00
         0.00000E+00
         0.00000E+00
         0.00000E+00
         0.00000E+00
         0.00000E+00
         0.00000E+00
         0.00000E+00
         0.00000E+00
         0.00000E+00
         0.00000E+00
         0.00000E+00
         0.00000E+00
         0.00000E+00
         0.00000E+00
         0.00000E+00
         0.00000E+00
         0.00000E+00
         0.00000E+00
         0.00000E+00
         0.00000E+00
         0.00000E+00
         0.00000E+00
         0.00000E+00
         0.00000E+00
         0.00000E+00
         0.00000E+00
         0.00000E+00
         0.00000E+00
         0.00000E+00
         0.00000E+00
         0.00000E+00
         0.00000E+00
         0.00000E+00
         0.00000E+00
         0.00000E+00
         0.00000E+00
         0.00000E+00
         0.00000E+00
         0.00000E+00
         0.00000E+00
         0.00000E+00
         0.00000E+00
         0.00000E+00
         0.00000E+00
         0.00000E+00
         0.00000E+00
         0.00000E+00
         0.00000E+00
         0.00000E+00
         0.00000E+00
         0.00000E+00
         0.00000E+00
         0.00000E+00
         0.00000E+00
         0.00000E+00
         0.00000E+00
         0.00000E+00
         0.00000E+00
         0.00000E+00
         0.00000E+00
         0.00000E+00
         0.00000E+00
         0.00000E+00
         0.00000E+00
         0.00000E+00
         0.00000E+00
         0.00000E+00
         0.00000E+00
         0.00000E+00
         0.00000E+00
         0.00000E+00
         0.00000E+00
         0.00000E+00
         0.00000E+00
         0.00000E+00
         0.00000E+00
         0.00000E+00
         0.00000E+00
         0.00000E+00
         0.00000E+00
         0.00000E+00
         0.00000E+00
         0.00000E+00
         0.00000E+00
         0.00000E+00
         0.00000E+00
         0.00000E+00
         0.00000E+00
         0.00000E+00
         0.00000E+00
         0.00000E+00
         0.00000E+00
         0.00000E+00
         0.00000E+00
         0.00000E+00
         0.00000E+00
         0.00000E+00
         0.00000E+00
         0.00000E+00
         0.00000E+00
         0.00000E+00
         0.00000E+00
         0.00000E+00
         0.00000E+00
         0.00000E+00
         0.00000E+00
         0.00000E+00
         0.00000E+00
         0.00000E+00
         0.00000E+00
         0.00000E+00
         0.00000E+00
         0.00000E+00
         0.00000E+00
         0.00000E+00
         0.00000E+00
         0.00000E+00
         0.00000E+00
         0.00000E+00
         0.00000E+00
         0.00000E+00
         0.00000E+00
         0.00000E+00
         0.00000E+00
         0.00000E+00
         0.00000E+00
         0.00000E+00
         0.00000E+00
         0.00000E+00
         0.00000E+00
         0.00000E+00
         0.00000E+00
         0.00000E+00
         0.00000E+00
         0.00000E+00
         0.00000E+00
         0.00000E+00
         0.00000E+00
         0.00000E+00
         0.00000E+00
         0.00000E+00
         0.00000E+00
         0.00000E+00
         0.00000E+00
         0.00000E+00
         0.00000E+00
         0.00000E+00
         0.00000E+00
         0.00000E+00
         0.00000E+00
         0.00000E+00
         0.00000E+00
         0.00000E+00
         0.00000E+00
         0.00000E+00
         0.00000E+00
         0.00000E+00
         0.00000E+00
         0.00000E+00
         0.00000E+00
         0.00000E+00
         0.00000E+00
         0.00000E+00
         0.00000E+00
         0.00000E+00
         0.00000E+00
         0.00000E+00
         0.00000E+00
         0.00000E+00
         0.00000E+00
         0.00000E+00
         0.00000E+00
         0.00000E+00
         0.00000E+00
         0.00000E+00
         0.00000E+00
         0.00000E+00
         0.00000E+00
         0.00000E+00
         0.00000E+00
         0.00000E+00
         0.00000E+00
         0.00000E+00
         0.00000E+00
         0.00000E+00
         0.00000E+00
         0.00000E+00
         0.00000E+00
         0.00000E+00
         0.00000E+00
         0.00000E+00
         0.00000E+00
         0.00000E+00
         0.00000E+00
         0.00000E+00
         0.00000E+00
         0.00000E+00
         0.00000E+00
         0.00000E+00
         0.00000E+00
         0.00000E+00
         0.00000E+00
         0.00000E+00
         0.00000E+00
         0.00000E+00
         0.00000E+00
         0.00000E+00
         0.00000E+00
         0.00000E+00
         0.00000E+00
         0.00000E+00
         0.00000E+00
         0.00000E+00
         0.00000E+00
         0.00000E+00
         0.00000E+00
         0.00000E+00
         0.00000E+00
         0.00000E+00
         0.00000E+00
         0.00000E+00
         0.00000E+00
         0.00000E+00
         0.00000E+00
         0.00000E+00
         0.00000E+00
         0.00000E+00
         0.00000E+00
         0.00000E+00
         0.00000E+00
         0.00000E+00
         0.00000E+00
         0.00000E+00
         0.00000E+00
         0.00000E+00
         0.00000E+00
         0.00000E+00
         0.00000E+00
         0.00000E+00
         0.00000E+00
         0.00000E+00
         0.00000E+00
         0.00000E+00
         0.00000E+00
         0.00000E+00
         0.00000E+00
         0.00000E+00
         0.00000E+00
         0.00000E+00
         0.00000E+00
         0.00000E+00
         0.00000E+00
         0.00000E+00
         0.00000E+00
         0.00000E+00
         0.00000E+00
         0.00000E+00
         0.00000E+00
         0.00000E+00
         0.00000E+00
         0.00000E+00
         0.00000E+00
         0.00000E+00
         0.00000E+00
         0.00000E+00
         0.00000E+00
         0.00000E+00
         0.00000E+00
         0.00000E+00
         0.00000E+00
         0.00000E+00
         0.00000E+00
         0.00000E+00
         0.00000E+00
         0.00000E+00
         0.00000E+00
         0.00000E+00
         0.00000E+00
         0.00000E+00
         0.00000E+00
         0.00000E+00
         0.00000E+00
         0.00000E+00
         0.00000E+00
         0.00000E+00
         0.00000E+00
         0.00000E+00
         0.00000E+00
         0.00000E+00
         0.00000E+00
         0.00000E+00
         0.00000E+00
         0.00000E+00
         0.00000E+00
         0.00000E+00
         0.00000E+00
         0.00000E+00
         0.00000E+00
         0.00000E+00
         0.00000E+00
         0.00000E+00
         0.00000E+00
         0.00000E+00
         0.00000E+00
         0.00000E+00
         0.00000E+00
         0.00000E+00
         0.00000E+00
         0.00000E+00
         0.00000E+00
         0.00000E+00
         0.00000E+00
         0.00000E+00
         0.00000E+00
         0.00000E+00
         0.00000E+00
         0.00000E+00
         0.00000E+00
         0.00000E+00
         0.00000E+00
         0.00000E+00
         0.00000E+00
         0.00000E+00
         0.00000E+00
         0.00000E+00
         0.00000E+00
         0.00000E+00
         0.00000E+00
         0.00000E+00
         0.00000E+00
         0.00000E+00
         0.00000E+00
         0.00000E+00
         0.00000E+00
         0.00000E+00
         0.00000E+00
         0.00000E+00
         0.00000E+00
         0.00000E+00
         0.00000E+00
         0.00000E+00
         0.00000E+00
         0.00000E+00
         0.00000E+00
         0.00000E+00
         0.00000E+00
         0.00000E+00
         0.00000E+00
         0.00000E+00
         0.00000E+00
         0.00000E+00
         0.00000E+00
         0.00000E+00
         0.00000E+00
         0.00000E+00
         0.00000E+00
         0.00000E+00
         0.00000E+00
         0.00000E+00
         0.00000E+00
         0.00000E+00
         0.00000E+00
         0.00000E+00
         0.00000E+00
         0.00000E+00
         0.00000E+00
         0.00000E+00
         0.00000E+00
         0.00000E+00
         0.00000E+00
         0.00000E+00
         0.00000E+00
         0.00000E+00
         0.00000E+00
         0.00000E+00
         0.00000E+00
         0.00000E+00
         0.00000E+00
         0.00000E+00
         0.00000E+00
         0.00000E+00
         0.00000E+00
         0.00000E+00
         0.00000E+00
         0.00000E+00
         0.00000E+00
         0.00000E+00
         0.00000E+00
         0.00000E+00
         0.00000E+00
         0.00000E+00
         0.00000E+00
         0.00000E+00
         0.00000E+00
         0.00000E+00
         0.00000E+00
         0.00000E+00
         0.00000E+00
         0.00000E+00
         0.00000E+00
         0.00000E+00
         0.00000E+00
         0.00000E+00
         0.00000E+00
         0.00000E+00
         0.00000E+00
         0.00000E+00
         0.00000E+00
         0.00000E+00
         0.00000E+00
         0.00000E+00
         0.00000E+00
         0.00000E+00
         0.00000E+00
         0.00000E+00
         0.00000E+00
         0.00000E+00
         0.00000E+00
         0.00000E+00
         0.00000E+00
         0.00000E+00
         0.00000E+00
         0.00000E+00
         0.00000E+00
         0.00000E+00
         0.00000E+00
         0.00000E+00
         0.00000E+00
         0.00000E+00
         0.00000E+00
         0.00000E+00
         0.00000E+00
         0.00000E+00
         0.00000E+00
         0.00000E+00
         0.00000E+00
         0.00000E+00
         0.00000E+00
         0.00000E+00
         0.00000E+00
         0.00000E+00
         0.00000E+00
         0.00000E+00
         0.00000E+00
         0.00000E+00
         0.00000E+00
         0.00000E+00
         0.00000E+00
         0.00000E+00
         0.00000E+00
         0.00000E+00
         0.00000E+00
         0.00000E+00
         0.00000E+00
         0.00000E+00
         0.00000E+00
         0.00000E+00
         0.00000E+00
         0.00000E+00
         0.00000E+00
         0.00000E+00
         0.00000E+00
         0.00000E+00
         0.00000E+00
         0.00000E+00
         0.00000E+00
         0.00000E+00
         0.00000E+00
         0.00000E+00
         0.00000E+00
         0.00000E+00
         0.00000E+00
         0.00000E+00
         0.00000E+00
         0.00000E+00
         0.00000E+00
         0.00000E+00
         0.00000E+00
         0.00000E+00
         0.00000E+00
         0.00000E+00
         0.00000E+00
         0.00000E+00
         0.00000E+00
         0.00000E+00
         0.00000E+00
         0.00000E+00
         0.00000E+00
         0.00000E+00
         0.00000E+00
         0.00000E+00
         0.00000E+00
         0.00000E+00
         0.00000E+00
         0.00000E+00
         0.00000E+00
         0.00000E+00
         0.00000E+00
         0.00000E+00
         0.00000E+00
         0.00000E+00
         0.00000E+00
         0.00000E+00
         0.00000E+00
         0.00000E+00
         0.00000E+00
         0.00000E+00
         0.00000E+00
         0.00000E+00
         0.00000E+00
         0.00000E+00
         0.00000E+00
         0.00000E+00
         0.00000E+00
         0.00000E+00
         0.00000E+00
         0.00000E+00
         0.00000E+00
         0.00000E+00
         0.00000E+00
         0.00000E+00
         0.00000E+00
         0.00000E+00
         0.00000E+00
         0.00000E+00
         0.00000E+00
         0.00000E+00
         0.00000E+00
         0.00000E+00
         0.00000E+00
         0.00000E+00
         0.00000E+00
         0.00000E+00
         0.00000E+00
         0.00000E+00
         0.00000E+00
         0.00000E+00
         0.00000E+00
         0.00000E+00
         0.00000E+00
         0.00000E+00
         0.00000E+00
         0.00000E+00
         0.00000E+00
         0.00000E+00
         0.00000E+00
         0.00000E+00
         0.00000E+00
         0.00000E+00
         0.00000E+00
         0.00000E+00
         0.00000E+00
         0.00000E+00
         0.00000E+00
         0.00000E+00
         0.00000E+00
         0.00000E+00
         0.00000E+00
         0.00000E+00
         0.00000E+00
         0.00000E+00
         0.00000E+00
         0.00000E+00
         0.00000E+00
         0.00000E+00
         0.00000E+00
         0.00000E+00
         0.00000E+00
         0.00000E+00
         0.00000E+00
         0.00000E+00
         0.00000E+00
         0.00000E+00
         0.00000E+00
         0.00000E+00
         0.00000E+00
         0.00000E+00
         0.00000E+00
         0.00000E+00
         0.00000E+00
         0.00000E+00
         0.00000E+00
         0.00000E+00
         0.00000E+00
         0.00000E+00
         0.00000E+00
         0.00000E+00
         0.00000E+00
         0.00000E+00
         0.00000E+00
         0.00000E+00
         0.00000E+00
         0.00000E+00
         0.00000E+00
         0.00000E+00
         0.00000E+00
         0.00000E+00
         0.00000E+00
         0.00000E+00
         0.00000E+00
         0.00000E+00
         0.00000E+00
         0.00000E+00
         0.00000E+00
         0.00000E+00
         0.00000E+00
         0.00000E+00
         0.00000E+00
         0.00000E+00
         0.00000E+00
         0.00000E+00
         0.00000E+00
         0.00000E+00
         0.00000E+00
         0.00000E+00
         0.00000E+00
         0.00000E+00
         0.00000E+00
         0.00000E+00
         0.00000E+00
         0.00000E+00
         0.00000E+00
         0.00000E+00
         0.00000E+00
         0.00000E+00
         0.00000E+00
         0.00000E+00
         0.00000E+00
         0.00000E+00
         0.00000E+00
         0.00000E+00
         0.00000E+00
         0.00000E+00
         0.00000E+00
         0.00000E+00
         0.00000E+00
         0.00000E+00
         0.00000E+00
         0.00000E+00
         0.00000E+00
         0.00000E+00
         0.00000E+00
         0.00000E+00
         0.00000E+00
         0.00000E+00
         0.00000E+00
         0.00000E+00
         0.00000E+00
         0.00000E+00
         0.00000E+00
         0.00000E+00
         0.00000E+00
         0.00000E+00
         0.00000E+00
         0.00000E+00
         0.00000E+00
         0.00000E+00
         0.00000E+00
         0.00000E+00
         0.00000E+00
         0.00000E+00
         0.00000E+00
         0.00000E+00
         0.00000E+00
         0.00000E+00
         0.00000E+00
         0.00000E+00
         0.00000E+00
         0.00000E+00
         0.00000E+00
         0.00000E+00
         0.00000E+00
         0.00000E+00
         0.00000E+00
         0.00000E+00
         0.00000E+00
         0.00000E+00
         0.00000E+00
         0.00000E+00
         0.00000E+00
         0.00000E+00
         0.00000E+00
         0.00000E+00
         0.00000E+00
         0.00000E+00
         0.00000E+00
         0.00000E+00
         0.00000E+00
         0.00000E+00
         0.00000E+00
         0.00000E+00
         0.00000E+00
         0.00000E+00
         0.00000E+00
         0.00000E+00
         0.00000E+00
         0.00000E+00
         0.00000E+00
         0.00000E+00
         0.00000E+00
         0.00000E+00
         0.00000E+00
         0.00000E+00
         0.00000E+00
         0.00000E+00
         0.00000E+00
         0.00000E+00
         0.00000E+00
         0.00000E+00
         0.00000E+00
         0.00000E+00
         0.00000E+00
         0.00000E+00
         0.00000E+00
         0.00000E+00
         0.00000E+00
         0.00000E+00
         0.00000E+00
         0.00000E+00
         0.00000E+00
         0.00000E+00
         0.00000E+00
         0.00000E+00
         0.00000E+00
         0.00000E+00
         0.00000E+00
         0.00000E+00
         0.00000E+00
         0.00000E+00
         0.00000E+00
         0.00000E+00
         0.00000E+00
         0.00000E+00
         0.00000E+00
         0.00000E+00
         0.00000E+00
         0.00000E+00
         0.00000E+00
         0.00000E+00
         0.00000E+00
         0.00000E+00
         0.00000E+00
         0.00000E+00
         0.00000E+00
         0.00000E+00
         0.00000E+00
         0.00000E+00
         0.00000E+00
         0.00000E+00
         0.00000E+00
         0.00000E+00
         0.00000E+00
         0.00000E+00
         0.00000E+00
         0.00000E+00
         0.00000E+00
         0.00000E+00
         0.00000E+00
         0.00000E+00
         0.00000E+00
         0.00000E+00
         0.00000E+00
         0.00000E+00
         0.00000E+00
         0.00000E+00
         0.00000E+00
         0.00000E+00
         0.00000E+00
         0.00000E+00
         0.00000E+00
         0.00000E+00
         0.00000E+00
         0.00000E+00
         0.00000E+00
         0.00000E+00
         0.00000E+00
         0.00000E+00
         0.00000E+00
         0.00000E+00
         0.00000E+00
         0.00000E+00
         0.00000E+00
         0.00000E+00
         0.00000E+00
         0.00000E+00
         0.00000E+00
         0.00000E+00
         0.00000E+00
         0.00000E+00
         0.00000E+00
         0.00000E+00
         0.00000E+00
         0.00000E+00
         0.00000E+00
         0.00000E+00
         0.00000E+00
         0.00000E+00
         0.00000E+00
         0.00000E+00
         0.00000E+00
         0.00000E+00
         0.00000E+00
         0.00000E+00
         0.00000E+00
         0.00000E+00
         0.00000E+00
         0.00000E+00
         0.00000E+00
         0.00000E+00
         0.00000E+00
         0.00000E+00
         0.00000E+00
         0.00000E+00
         0.00000E+00
         0.00000E+00
         0.00000E+00
         0.00000E+00
         0.00000E+00
         0.00000E+00
         0.00000E+00
         0.00000E+00
         0.00000E+00
         0.00000E+00
         0.00000E+00
         0.00000E+00
         0.00000E+00
         0.00000E+00
         0.00000E+00
         0.00000E+00
         0.00000E+00
         0.00000E+00
         0.00000E+00
         0.00000E+00
         0.00000E+00
         0.00000E+00
         0.00000E+00
         0.00000E+00
         0.00000E+00
         0.00000E+00
         0.00000E+00
         0.00000E+00
         0.00000E+00
         0.00000E+00
         0.00000E+00
         0.00000E+00
         0.00000E+00
         0.00000E+00
         0.00000E+00
         0.00000E+00
         0.00000E+00
         0.00000E+00
         0.00000E+00
         0.00000E+00
         0.00000E+00
         0.00000E+00
         0.00000E+00
         0.00000E+00
         0.00000E+00
         0.00000E+00
         0.00000E+00
         0.00000E+00
         0.00000E+00
         0.00000E+00
         0.00000E+00
         0.00000E+00
         0.00000E+00
         0.00000E+00
         0.00000E+00
         0.00000E+00
         0.00000E+00
         0.00000E+00
         0.00000E+00
         0.00000E+00
         0.00000E+00
         0.00000E+00
         0.00000E+00
         0.00000E+00
         0.00000E+00
         0.00000E+00
         0.00000E+00
         0.00000E+00
         0.00000E+00
         0.00000E+00
         0.00000E+00
         0.00000E+00
         0.00000E+00
         0.00000E+00
         0.00000E+00
         0.00000E+00
         0.00000E+00
         0.00000E+00
         0.00000E+00
         0.00000E+00
         0.00000E+00
         0.00000E+00
         0.00000E+00
         0.00000E+00
         0.00000E+00
         0.00000E+00
         0.00000E+00
         0.00000E+00
         0.00000E+00
         0.00000E+00
         0.00000E+00
         0.00000E+00
         0.00000E+00
         0.00000E+00
         0.00000E+00
         0.00000E+00
         0.00000E+00
         0.00000E+00
         0.00000E+00
         0.00000E+00
         0.00000E+00
         0.00000E+00
         0.00000E+00
         0.00000E+00
         0.00000E+00
         0.00000E+00
         0.00000E+00
         0.00000E+00
         0.00000E+00
         0.00000E+00
         0.00000E+00
         0.00000E+00
         0.00000E+00
         0.00000E+00
         0.00000E+00
         0.00000E+00
         0.00000E+00
         0.00000E+00
         0.00000E+00
         0.00000E+00
         0.00000E+00
         0.00000E+00
         0.00000E+00
         0.00000E+00
         0.00000E+00
         0.00000E+00
         0.00000E+00
         0.00000E+00
         0.00000E+00
         0.00000E+00
         0.00000E+00
         0.00000E+00
         0.00000E+00
         0.00000E+00
         0.00000E+00
         0.00000E+00
         0.00000E+00
         0.00000E+00
         0.00000E+00
         0.00000E+00
         0.00000E+00
         0.00000E+00
         0.00000E+00
         0.00000E+00
         0.00000E+00
         0.00000E+00
         0.00000E+00
         0.00000E+00
         0.00000E+00
         0.00000E+00
         0.00000E+00
         0.00000E+00
         0.00000E+00
         0.00000E+00
         0.00000E+00
         0.00000E+00
         0.00000E+00
         0.00000E+00
         0.00000E+00
         0.00000E+00
         0.00000E+00
         0.00000E+00
         0.00000E+00
         0.00000E+00
         0.00000E+00
         0.00000E+00
         0.00000E+00
         0.00000E+00
         0.00000E+00
         0.00000E+00
         0.00000E+00
         0.00000E+00
         0.00000E+00
         0.00000E+00
         0.00000E+00
         0.00000E+00
         0.00000E+00
         0.00000E+00
         0.00000E+00
         0.00000E+00
         0.00000E+00
         0.00000E+00
         0.00000E+00
         0.00000E+00
         0.00000E+00
         0.00000E+00
         0.00000E+00
         0.00000E+00
         0.00000E+00
         0.00000E+00
         0.00000E+00
         0.00000E+00
         0.00000E+00
         0.00000E+00
         0.00000E+00
         0.00000E+00
         0.00000E+00
         0.00000E+00
         0.00000E+00
         0.00000E+00
         0.00000E+00
         0.00000E+00
         0.00000E+00
         0.00000E+00
         0.00000E+00
         0.00000E+00
         0.00000E+00
         0.00000E+00
         0.00000E+00
         0.00000E+00
         0.00000E+00
         0.00000E+00
         0.00000E+00
         0.00000E+00
         0.00000E+00
         0.00000E+00
         0.00000E+00
         0.00000E+00
         0.00000E+00
         0.00000E+00
         0.00000E+00
         0.00000E+00
         0.00000E+00
         0.00000E+00
         0.00000E+00
         0.00000E+00
         0.00000E+00
         0.00000E+00
         0.00000E+00
         0.00000E+00
         0.00000E+00
         0.00000E+00
         0.00000E+00
         0.00000E+00
         0.00000E+00
         0.00000E+00
         0.00000E+00
         0.00000E+00
         0.00000E+00
         0.00000E+00
         0.00000E+00
         0.00000E+00
         0.00000E+00
         0.00000E+00
         0.00000E+00
         0.00000E+00
         0.00000E+00
         0.00000E+00
         0.00000E+00
         0.00000E+00
         0.00000E+00
         0.00000E+00
         0.00000E+00
         0.00000E+00
         0.00000E+00
         0.00000E+00
         0.00000E+00
         0.00000E+00
         0.00000E+00
         0.00000E+00
         0.00000E+00
         0.00000E+00
         0.00000E+00
         0.00000E+00
         0.00000E+00
         0.00000E+00
         0.00000E+00
         0.00000E+00
         0.00000E+00
         0.00000E+00
         0.00000E+00
         0.00000E+00
         0.00000E+00
         0.00000E+00
         0.00000E+00
         0.00000E+00
         0.00000E+00
         0.00000E+00
         0.00000E+00
         0.00000E+00
         0.00000E+00
         0.00000E+00
         0.00000E+00
         0.00000E+00
         0.00000E+00
         0.00000E+00
         0.00000E+00
         0.00000E+00
         0.00000E+00
         0.00000E+00
         0.00000E+00
         0.00000E+00
         0.00000E+00
         0.00000E+00
         0.00000E+00
         0.00000E+00
         0.00000E+00
         0.00000E+00
         0.00000E+00
         0.00000E+00
         0.00000E+00
         0.00000E+00
         0.00000E+00
         0.00000E+00
         0.00000E+00
         0.00000E+00
         0.00000E+00
         0.00000E+00
         0.00000E+00
         0.00000E+00
         0.00000E+00
         0.00000E+00
         0.00000E+00
         0.00000E+00
         0.00000E+00
         0.00000E+00
         0.00000E+00
         0.00000E+00
         0.00000E+00
         0.00000E+00
         0.00000E+00
         0.00000E+00
         0.00000E+00
         0.00000E+00
         0.00000E+00
         0.00000E+00
         0.00000E+00
         0.00000E+00
         0.00000E+00
         0.00000E+00
         0.00000E+00
         0.00000E+00
         0.00000E+00
         0.00000E+00
         0.00000E+00
         0.00000E+00
         0.00000E+00
         0.00000E+00
         0.00000E+00
         0.00000E+00
         0.00000E+00
         0.00000E+00
         0.00000E+00
         0.00000E+00
         0.00000E+00
         0.00000E+00
         0.00000E+00
         0.00000E+00
         0.00000E+00
         0.00000E+00
         0.00000E+00
         0.00000E+00
         0.00000E+00
         0.00000E+00
         0.00000E+00
         0.00000E+00
         0.00000E+00
         0.00000E+00
         0.00000E+00
         0.00000E+00
         0.00000E+00
         0.00000E+00
         0.00000E+00
         0.00000E+00
         0.00000E+00
         0.00000E+00
         0.00000E+00
         0.00000E+00
         0.00000E+00
         0.00000E+00
         0.00000E+00
         0.00000E+00
         0.00000E+00
         0.00000E+00
         0.00000E+00
         0.00000E+00
         0.00000E+00
         0.00000E+00
         0.00000E+00
         0.00000E+00
         0.00000E+00
         0.00000E+00
         0.00000E+00
         0.00000E+00
         0.00000E+00
         0.00000E+00
         0.00000E+00
         0.00000E+00
         0.00000E+00
         0.00000E+00
         0.00000E+00
         0.00000E+00
         0.00000E+00
         0.00000E+00
         0.00000E+00
         0.00000E+00
         0.00000E+00
         0.00000E+00
         0.00000E+00
         0.00000E+00
         0.00000E+00
         0.00000E+00
         0.00000E+00
         0.00000E+00
         0.00000E+00
         0.00000E+00
         0.00000E+00
         0.00000E+00
         0.00000E+00
         0.00000E+00
         0.00000E+00
         0.00000E+00
         0.00000E+00
         0.00000E+00
         0.00000E+00
         0.00000E+00
         0.00000E+00
         0.00000E+00
         0.00000E+00
         0.00000E+00
         0.00000E+00
         0.00000E+00
         0.00000E+00
         0.00000E+00
         0.00000E+00
         0.00000E+00
         0.00000E+00
         0.00000E+00
         0.00000E+00
         0.00000E+00
         0.00000E+00
         0.00000E+00
         0.00000E+00
         0.00000E+00
         0.00000E+00
         0.00000E+00
         0.00000E+00
         0.00000E+00
         0.00000E+00
         0.00000E+00
         0.00000E+00
         0.00000E+00
         0.00000E+00
         0.00000E+00
         0.00000E+00
         0.00000E+00
         0.00000E+00
         0.00000E+00
         0.00000E+00
         0.00000E+00
         0.00000E+00
         0.00000E+00
         0.00000E+00
         0.00000E+00
         0.00000E+00
         0.00000E+00
         0.00000E+00
         0.00000E+00
         0.00000E+00
         0.00000E+00
         0.00000E+00
         0.00000E+00
         0.00000E+00
         0.00000E+00
         0.00000E+00
         0.00000E+00
         0.00000E+00
         0.00000E+00
         0.00000E+00
         0.00000E+00
         0.00000E+00
         0.00000E+00
         0.00000E+00
         0.00000E+00
         0.00000E+00
         0.00000E+00
         0.00000E+00
         0.00000E+00
         0.00000E+00
         0.00000E+00
         0.00000E+00
         0.00000E+00
         0.00000E+00
         0.00000E+00
         0.00000E+00
         0.00000E+00
         0.00000E+00
         0.00000E+00
         0.00000E+00
         0.00000E+00
         0.00000E+00
         0.00000E+00
         0.00000E+00
         0.00000E+00
         0.00000E+00
         0.00000E+00
         0.00000E+00
         0.00000E+00
         0.00000E+00
         0.00000E+00
         0.00000E+00
         0.00000E+00
         0.00000E+00
         0.00000E+00
         0.00000E+00
         0.00000E+00
         0.00000E+00
         0.00000E+00
         0.00000E+00
         0.00000E+00
         0.00000E+00
         0.00000E+00
         0.00000E+00
         0.00000E+00
         0.00000E+00
         0.00000E+00
         0.00000E+00
         0.00000E+00
         0.00000E+00
         0.00000E+00
         0.00000E+00
         0.00000E+00
         0.00000E+00
         0.00000E+00
         0.00000E+00
         0.00000E+00
         0.00000E+00
         0.00000E+00
         0.00000E+00
         0.00000E+00
         0.00000E+00
         0.00000E+00
         0.00000E+00
         0.00000E+00
         0.00000E+00
         0.00000E+00
         0.00000E+00
         0.00000E+00
         0.00000E+00
         0.00000E+00
         0.00000E+00
         0.00000E+00
         0.00000E+00
         0.00000E+00
         0.00000E+00
         0.00000E+00
         0.00000E+00
         0.00000E+00
         0.00000E+00
         0.00000E+00
         0.00000E+00
         0.00000E+00
         0.00000E+00
         0.00000E+00
         0.00000E+00
         0.00000E+00
         0.00000E+00
         0.00000E+00
         0.00000E+00
         0.00000E+00
         0.00000E+00
         0.00000E+00
         0.00000E+00
         0.00000E+00
         0.00000E+00
         0.00000E+00
         0.00000E+00
         0.00000E+00
         0.00000E+00
         0.00000E+00
         0.00000E+00
         0.00000E+00
         0.00000E+00
         0.00000E+00
         0.00000E+00
         0.00000E+00
         0.00000E+00
         0.00000E+00
         0.00000E+00
         0.00000E+00
         0.00000E+00
         0.00000E+00
         0.00000E+00
         0.00000E+00
         0.00000E+00
         0.00000E+00
         0.00000E+00
         0.00000E+00
         0.00000E+00
         0.00000E+00
         0.00000E+00
         0.00000E+00
         0.00000E+00
         0.00000E+00
         0.00000E+00
         0.00000E+00
         0.00000E+00
         0.00000E+00
         0.00000E+00
         0.00000E+00
         0.00000E+00
         0.00000E+00
         0.00000E+00
         0.00000E+00
         0.00000E+00
         0.00000E+00
         0.00000E+00
         0.00000E+00
         0.00000E+00
         0.00000E+00
         0.00000E+00
         0.00000E+00
         0.00000E+00
         0.00000E+00
         0.00000E+00
         0.00000E+00
         0.00000E+00
         0.00000E+00
         0.00000E+00
         0.00000E+00
         0.00000E+00
         0.00000E+00
         0.00000E+00
         0.00000E+00
         0.00000E+00
         0.00000E+00
         0.00000E+00
         0.00000E+00
         0.00000E+00
         0.00000E+00
         0.00000E+00
         0.00000E+00
         0.00000E+00
         0.00000E+00
         0.00000E+00
         0.00000E+00
         0.00000E+00
         0.00000E+00
         0.00000E+00
         0.00000E+00
         0.00000E+00
         0.00000E+00
         0.00000E+00
         0.00000E+00
         0.00000E+00
         0.00000E+00
         0.00000E+00
         0.00000E+00
         0.00000E+00
         0.00000E+00
         0.00000E+00
         0.00000E+00
         0.00000E+00
         0.00000E+00
         0.00000E+00
         0.00000E+00
         0.00000E+00
         0.00000E+00
         0.00000E+00
         0.00000E+00
         0.00000E+00
         0.00000E+00
         0.00000E+00
         0.00000E+00
         0.00000E+00
         0.00000E+00
         0.00000E+00
         0.00000E+00
         0.00000E+00
         0.00000E+00
         0.00000E+00
         0.00000E+00
         0.00000E+00
         0.00000E+00
         0.00000E+00
         0.00000E+00
         0.00000E+00
         0.00000E+00
         0.00000E+00
         0.00000E+00
         0.00000E+00
         0.00000E+00
         0.00000E+00
         0.00000E+00
         0.00000E+00
         0.00000E+00
         0.00000E+00
         0.00000E+00
         0.00000E+00
         0.00000E+00
         0.00000E+00
         0.00000E+00
         0.00000E+00
         0.00000E+00
         0.00000E+00
         0.00000E+00
         0.00000E+00
         0.00000E+00
         0.00000E+00
         0.00000E+00
         0.00000E+00
         0.00000E+00
         0.00000E+00
         0.00000E+00
         0.00000E+00
         0.00000E+00
         0.00000E+00
         0.00000E+00
         0.00000E+00
         0.00000E+00
         0.00000E+00
         0.00000E+00
         0.00000E+00
         0.00000E+00
         0.00000E+00
         0.00000E+00
         0.00000E+00
         0.00000E+00
         0.00000E+00
         0.00000E+00
         0.00000E+00
         0.00000E+00
         0.00000E+00
         0.00000E+00
         0.00000E+00
         0.00000E+00
         0.00000E+00
         0.00000E+00
         0.00000E+00
         0.00000E+00
         0.00000E+00
         0.00000E+00
         0.00000E+00
         0.00000E+00
         0.00000E+00
         0.00000E+00
         0.00000E+00
         0.00000E+00
         0.00000E+00
         0.00000E+00
         0.00000E+00
         0.00000E+00
         0.00000E+00
         0.00000E+00
         0.00000E+00
         0.00000E+00
         0.00000E+00
         0.00000E+00
         0.00000E+00
         0.00000E+00
         0.00000E+00
         0.00000E+00
         0.00000E+00
         0.00000E+00
         0.00000E+00
         0.00000E+00
         0.00000E+00
         0.00000E+00
         0.00000E+00
         0.00000E+00
         0.00000E+00
         0.00000E+00
         0.00000E+00
         0.00000E+00
         0.00000E+00
         0.00000E+00
         0.00000E+00
         0.00000E+00
         0.00000E+00
         0.00000E+00
         0.00000E+00
         0.00000E+00
         0.00000E+00
         0.00000E+00
         0.00000E+00
         0.00000E+00
         0.00000E+00
         0.00000E+00
         0.00000E+00
         0.00000E+00
         0.00000E+00
         0.00000E+00
         0.00000E+00
         0.00000E+00
         0.00000E+00
         0.00000E+00
         0.00000E+00
         0.00000E+00
         0.00000E+00
         0.00000E+00
         0.00000E+00
         0.00000E+00
         0.00000E+00
         0.00000E+00
         0.00000E+00
         0.00000E+00
         0.00000E+00
         0.00000E+00
         0.00000E+00
         0.00000E+00
         0.00000E+00
         0.00000E+00
         0.00000E+00
         0.00000E+00
         0.00000E+00
         0.00000E+00
         0.00000E+00
         0.00000E+00
         0.00000E+00
         0.00000E+00
         0.00000E+00
         0.00000E+00
         0.00000E+00
         0.00000E+00
         0.00000E+00
         0.00000E+00
         0.00000E+00
         0.00000E+00
         0.00000E+00
         0.00000E+00
         0.00000E+00
         0.00000E+00
         0.00000E+00
         0.00000E+00
         0.00000E+00
         0.00000E+00
         0.00000E+00
         0.00000E+00
         0.00000E+00
         0.00000E+00
         0.00000E+00
         0.00000E+00
         0.00000E+00
         0.00000E+00
         0.00000E+00
         0.00000E+00
         0.00000E+00
         0.00000E+00
         0.00000E+00
         0.00000E+00
         0.00000E+00
         0.00000E+00
         0.00000E+00
         0.00000E+00
         0.00000E+00
         0.00000E+00
         0.00000E+00
         0.00000E+00
         0.00000E+00
         0.00000E+00
         0.00000E+00
         0.00000E+00
         0.00000E+00
         0.00000E+00
         0.00000E+00
         0.00000E+00
         0.00000E+00
         0.00000E+00
         0.00000E+00
         0.00000E+00
         0.00000E+00
         0.00000E+00
         0.00000E+00
         0.00000E+00
         0.00000E+00
         0.00000E+00
         0.00000E+00
         0.00000E+00
         0.00000E+00
         0.00000E+00
         0.00000E+00
         0.00000E+00
         0.00000E+00
         0.00000E+00
         0.00000E+00
         0.00000E+00
         0.00000E+00
         0.00000E+00
         0.00000E+00
         0.00000E+00
         0.00000E+00
         0.00000E+00
         0.00000E+00
         0.00000E+00
         0.00000E+00
         0.00000E+00
         0.00000E+00
         0.00000E+00
         0.00000E+00
         0.00000E+00
         0.00000E+00
         0.00000E+00
         0.00000E+00
         0.00000E+00
         0.00000E+00
         0.00000E+00
         0.00000E+00
         0.00000E+00
         0.00000E+00
         0.00000E+00
         0.00000E+00
         0.00000E+00
         0.00000E+00
         0.00000E+00
         0.00000E+00
         0.00000E+00
         0.00000E+00
         0.00000E+00
         0.00000E+00
         0.00000E+00
         0.00000E+00
         0.00000E+00
         0.00000E+00
         0.00000E+00
         0.00000E+00
         0.00000E+00
         0.00000E+00
         0.00000E+00
         0.00000E+00
         0.00000E+00
         0.00000E+00
         0.00000E+00
         0.00000E+00
         0.00000E+00
         0.00000E+00
         0.00000E+00
         0.00000E+00
         0.00000E+00
         0.00000E+00
         0.00000E+00
         0.00000E+00
         0.00000E+00
         0.00000E+00
         0.00000E+00
         0.00000E+00
         0.00000E+00
         0.00000E+00
         0.00000E+00
         0.00000E+00
         0.00000E+00
         0.00000E+00
         0.00000E+00
         0.00000E+00
         0.00000E+00
         0.00000E+00
         0.00000E+00
         0.00000E+00
         0.00000E+00
         0.00000E+00
         0.00000E+00
         0.00000E+00
         0.00000E+00
         0.00000E+00
         0.00000E+00
         0.00000E+00
         0.00000E+00
         0.00000E+00
         0.00000E+00
         0.00000E+00
         0.00000E+00
  
SCALARS        characteristic_distance  double 1
LOOKUP_TABLE default
         0.00000E+00
         0.00000E+00
         0.00000E+00
         0.00000E+00
         0.00000E+00
         0.00000E+00
         0.00000E+00
         0.00000E+00
         0.00000E+00
         0.00000E+00
         0.00000E+00
         0.00000E+00
         0.00000E+00
         0.00000E+00
         0.00000E+00
         0.00000E+00
         0.00000E+00
         0.00000E+00
         0.00000E+00
         0.00000E+00
         0.00000E+00
         0.00000E+00
         0.00000E+00
         0.00000E+00
         0.00000E+00
         0.00000E+00
         0.00000E+00
         0.00000E+00
         0.00000E+00
         0.00000E+00
         0.00000E+00
         0.00000E+00
         0.00000E+00
         0.00000E+00
         0.00000E+00
         0.00000E+00
         0.00000E+00
         0.00000E+00
         0.00000E+00
         0.00000E+00
         0.00000E+00
         0.00000E+00
         0.00000E+00
         0.00000E+00
         0.00000E+00
         0.00000E+00
         0.00000E+00
         0.00000E+00
         0.00000E+00
         0.00000E+00
         0.00000E+00
         0.00000E+00
         0.00000E+00
         0.00000E+00
         0.00000E+00
         0.00000E+00
         0.00000E+00
         0.00000E+00
         0.00000E+00
         0.00000E+00
         0.00000E+00
         0.00000E+00
         0.00000E+00
         0.00000E+00
         0.00000E+00
         0.00000E+00
         0.00000E+00
         0.00000E+00
         0.00000E+00
         0.00000E+00
         0.00000E+00
         0.00000E+00
         0.00000E+00
         0.00000E+00
         0.00000E+00
         0.00000E+00
         0.00000E+00
         0.00000E+00
         0.00000E+00
         0.00000E+00
         0.00000E+00
         0.00000E+00
         0.00000E+00
         0.00000E+00
         0.00000E+00
         0.00000E+00
         0.00000E+00
         0.00000E+00
         0.00000E+00
         0.00000E+00
         0.00000E+00
         0.00000E+00
         0.00000E+00
         0.00000E+00
         0.00000E+00
         0.00000E+00
         0.00000E+00
         0.00000E+00
         0.00000E+00
         0.00000E+00
         0.00000E+00
         0.00000E+00
         0.00000E+00
         0.00000E+00
         0.00000E+00
         0.00000E+00
         0.00000E+00
         0.00000E+00
         0.00000E+00
         0.00000E+00
         0.00000E+00
         0.00000E+00
         0.00000E+00
         0.00000E+00
         0.00000E+00
         0.00000E+00
         0.00000E+00
         0.00000E+00
         0.00000E+00
         0.00000E+00
         0.00000E+00
         0.00000E+00
         0.00000E+00
         0.00000E+00
         0.00000E+00
         0.00000E+00
         0.00000E+00
         0.00000E+00
         0.00000E+00
         0.00000E+00
         0.00000E+00
         0.00000E+00
         0.00000E+00
         0.00000E+00
         0.00000E+00
         0.00000E+00
         0.00000E+00
         0.00000E+00
         0.00000E+00
         0.00000E+00
         0.00000E+00
         0.00000E+00
         0.00000E+00
         0.00000E+00
         0.00000E+00
         0.00000E+00
         0.00000E+00
         0.00000E+00
         0.00000E+00
         0.00000E+00
         0.00000E+00
         0.00000E+00
         0.00000E+00
         0.00000E+00
         0.00000E+00
         0.00000E+00
         0.00000E+00
         0.00000E+00
         0.00000E+00
         0.00000E+00
         0.00000E+00
         0.00000E+00
         0.00000E+00
         0.00000E+00
         0.00000E+00
         0.00000E+00
         0.00000E+00
         0.00000E+00
         0.00000E+00
         0.00000E+00
         0.00000E+00
         0.00000E+00
         0.00000E+00
         0.00000E+00
         0.00000E+00
         0.00000E+00
         0.00000E+00
         0.00000E+00
         0.00000E+00
         0.00000E+00
         0.00000E+00
         0.00000E+00
         0.00000E+00
         0.00000E+00
         0.00000E+00
         0.00000E+00
         0.00000E+00
         0.00000E+00
         0.00000E+00
         0.00000E+00
         0.00000E+00
         0.00000E+00
         0.00000E+00
         0.00000E+00
         0.00000E+00
         0.00000E+00
         0.00000E+00
         0.00000E+00
         0.00000E+00
         0.00000E+00
         0.00000E+00
         0.00000E+00
         0.00000E+00
         0.00000E+00
         0.00000E+00
         0.00000E+00
         0.00000E+00
         0.00000E+00
         0.00000E+00
         0.00000E+00
         0.00000E+00
         0.00000E+00
         0.00000E+00
         0.00000E+00
         0.00000E+00
         0.00000E+00
         0.00000E+00
         0.00000E+00
         0.00000E+00
         0.00000E+00
         0.00000E+00
         0.00000E+00
         0.00000E+00
         0.00000E+00
         0.00000E+00
         0.00000E+00
         0.00000E+00
         0.00000E+00
         0.00000E+00
         0.00000E+00
         0.00000E+00
         0.00000E+00
         0.00000E+00
         0.00000E+00
         0.00000E+00
         0.00000E+00
         0.00000E+00
         0.00000E+00
         0.00000E+00
         0.00000E+00
         0.00000E+00
         0.00000E+00
         0.00000E+00
         0.00000E+00
         0.00000E+00
         0.00000E+00
         0.00000E+00
         0.00000E+00
         0.00000E+00
         0.00000E+00
         0.00000E+00
         0.00000E+00
         0.00000E+00
         0.00000E+00
         0.00000E+00
         0.00000E+00
         0.00000E+00
         0.00000E+00
         0.00000E+00
         0.00000E+00
         0.00000E+00
         0.00000E+00
         0.00000E+00
         0.00000E+00
         0.00000E+00
         0.00000E+00
         0.00000E+00
         0.00000E+00
         0.00000E+00
         0.00000E+00
         0.00000E+00
         0.00000E+00
         0.00000E+00
         0.00000E+00
         0.00000E+00
         0.00000E+00
         0.00000E+00
         0.00000E+00
         0.00000E+00
         0.00000E+00
         0.00000E+00
         0.00000E+00
         0.00000E+00
         0.00000E+00
         0.00000E+00
         0.00000E+00
         0.00000E+00
         0.00000E+00
         0.00000E+00
         0.00000E+00
         0.00000E+00
         0.00000E+00
         0.00000E+00
         0.00000E+00
         0.00000E+00
         0.00000E+00
         0.00000E+00
         0.00000E+00
         0.00000E+00
         0.00000E+00
         0.00000E+00
         0.00000E+00
         0.00000E+00
         0.00000E+00
         0.00000E+00
         0.00000E+00
         0.00000E+00
         0.00000E+00
         0.00000E+00
         0.00000E+00
         0.00000E+00
         0.00000E+00
         0.00000E+00
         0.00000E+00
         0.00000E+00
         0.00000E+00
         0.00000E+00
         0.00000E+00
         0.00000E+00
         0.00000E+00
         0.00000E+00
         0.00000E+00
         0.00000E+00
         0.00000E+00
         0.00000E+00
         0.00000E+00
         0.00000E+00
         0.00000E+00
         0.00000E+00
         0.00000E+00
         0.00000E+00
         0.00000E+00
         0.00000E+00
         0.00000E+00
         0.00000E+00
         0.00000E+00
         0.00000E+00
         0.00000E+00
         0.00000E+00
         0.00000E+00
         0.00000E+00
         0.00000E+00
         0.00000E+00
         0.00000E+00
         0.00000E+00
         0.00000E+00
         0.00000E+00
         0.00000E+00
         0.00000E+00
         0.00000E+00
         0.00000E+00
         0.00000E+00
         0.00000E+00
         0.00000E+00
         0.00000E+00
         0.00000E+00
         0.00000E+00
         0.00000E+00
         0.00000E+00
         0.00000E+00
         0.00000E+00
         0.00000E+00
         0.00000E+00
         0.00000E+00
         0.00000E+00
         0.00000E+00
         0.00000E+00
         0.00000E+00
         0.00000E+00
         0.00000E+00
         0.00000E+00
         0.00000E+00
         0.00000E+00
         0.00000E+00
         0.00000E+00
         0.00000E+00
         0.00000E+00
         0.00000E+00
         0.00000E+00
         0.00000E+00
         0.00000E+00
         0.00000E+00
         0.00000E+00
         0.00000E+00
         0.00000E+00
         0.00000E+00
         0.00000E+00
         0.00000E+00
         0.00000E+00
         0.00000E+00
         0.00000E+00
         0.00000E+00
         0.00000E+00
         0.00000E+00
         0.00000E+00
         0.00000E+00
         0.00000E+00
         0.00000E+00
         0.00000E+00
         0.00000E+00
         0.00000E+00
         0.00000E+00
         0.00000E+00
         0.00000E+00
         0.00000E+00
         0.00000E+00
         0.00000E+00
         0.00000E+00
         0.00000E+00
         0.00000E+00
         0.00000E+00
         0.00000E+00
         0.00000E+00
         0.00000E+00
         0.00000E+00
         0.00000E+00
         0.00000E+00
         0.00000E+00
         0.00000E+00
         0.00000E+00
         0.00000E+00
         0.00000E+00
         0.00000E+00
         0.00000E+00
         0.00000E+00
         0.00000E+00
         0.00000E+00
         0.00000E+00
         0.00000E+00
         0.00000E+00
         0.00000E+00
         0.00000E+00
         0.00000E+00
         0.00000E+00
         0.00000E+00
         0.00000E+00
         0.00000E+00
         0.00000E+00
         0.00000E+00
         0.00000E+00
         0.00000E+00
         0.00000E+00
         0.00000E+00
         0.00000E+00
         0.00000E+00
         0.00000E+00
         0.00000E+00
         0.00000E+00
         0.00000E+00
         0.00000E+00
         0.00000E+00
         0.00000E+00
         0.00000E+00
         0.00000E+00
         0.00000E+00
         0.00000E+00
         0.00000E+00
         0.00000E+00
         0.00000E+00
         0.00000E+00
         0.00000E+00
         0.00000E+00
         0.00000E+00
         0.00000E+00
         0.00000E+00
         0.00000E+00
         0.00000E+00
         0.00000E+00
         0.00000E+00
         0.00000E+00
         0.00000E+00
         0.00000E+00
         0.00000E+00
         0.00000E+00
         0.00000E+00
         0.00000E+00
         0.00000E+00
         0.00000E+00
         0.00000E+00
         0.00000E+00
         0.00000E+00
         0.00000E+00
         0.00000E+00
         0.00000E+00
         0.00000E+00
         0.00000E+00
         0.00000E+00
         0.00000E+00
         0.00000E+00
         0.00000E+00
         0.00000E+00
         0.00000E+00
         0.00000E+00
         0.00000E+00
         0.00000E+00
         0.00000E+00
         0.00000E+00
         0.00000E+00
         0.00000E+00
         0.00000E+00
         0.00000E+00
         0.00000E+00
         0.00000E+00
         0.00000E+00
         0.00000E+00
         0.00000E+00
         0.00000E+00
         0.00000E+00
         0.00000E+00
         0.00000E+00
         0.00000E+00
         0.00000E+00
         0.00000E+00
         0.00000E+00
         0.00000E+00
         0.00000E+00
         0.00000E+00
         0.00000E+00
         0.00000E+00
         0.00000E+00
         0.00000E+00
         0.00000E+00
         0.00000E+00
         0.00000E+00
         0.00000E+00
         0.00000E+00
         0.00000E+00
         0.00000E+00
         0.00000E+00
         0.00000E+00
         0.00000E+00
         0.00000E+00
         0.00000E+00
         0.00000E+00
         0.00000E+00
         0.00000E+00
         0.00000E+00
         0.00000E+00
         0.00000E+00
         0.00000E+00
         0.00000E+00
         0.00000E+00
         0.00000E+00
         0.00000E+00
         0.00000E+00
         0.00000E+00
         0.00000E+00
         0.00000E+00
         0.00000E+00
         0.00000E+00
         0.00000E+00
         0.00000E+00
         0.00000E+00
         0.00000E+00
         0.00000E+00
         0.00000E+00
         0.00000E+00
         0.00000E+00
         0.00000E+00
         0.00000E+00
         0.00000E+00
         0.00000E+00
         0.00000E+00
         0.00000E+00
         0.00000E+00
         0.00000E+00
         0.00000E+00
         0.00000E+00
         0.00000E+00
         0.00000E+00
         0.00000E+00
         0.00000E+00
         0.00000E+00
         0.00000E+00
         0.00000E+00
         0.00000E+00
         0.00000E+00
         0.00000E+00
         0.00000E+00
         0.00000E+00
         0.00000E+00
         0.00000E+00
         0.00000E+00
         0.00000E+00
         0.00000E+00
         0.00000E+00
         0.00000E+00
         0.00000E+00
         0.00000E+00
         0.00000E+00
         0.00000E+00
         0.00000E+00
         0.00000E+00
         0.00000E+00
         0.00000E+00
         0.00000E+00
         0.00000E+00
         0.00000E+00
         0.00000E+00
         0.00000E+00
         0.00000E+00
         0.00000E+00
         0.00000E+00
         0.00000E+00
         0.00000E+00
         0.00000E+00
         0.00000E+00
         0.00000E+00
         0.00000E+00
         0.00000E+00
         0.00000E+00
         0.00000E+00
         0.00000E+00
         0.00000E+00
         0.00000E+00
         0.00000E+00
         0.00000E+00
         0.00000E+00
         0.00000E+00
         0.00000E+00
         0.00000E+00
         0.00000E+00
         0.00000E+00
         0.00000E+00
         0.00000E+00
         0.00000E+00
         0.00000E+00
         0.00000E+00
         0.00000E+00
         0.00000E+00
         0.00000E+00
         0.00000E+00
         0.00000E+00
         0.00000E+00
         0.00000E+00
         0.00000E+00
         0.00000E+00
         0.00000E+00
         0.00000E+00
         0.00000E+00
         0.00000E+00
         0.00000E+00
         0.00000E+00
         0.00000E+00
         0.00000E+00
         0.00000E+00
         0.00000E+00
         0.00000E+00
         0.00000E+00
         0.00000E+00
         0.00000E+00
         0.00000E+00
         0.00000E+00
         0.00000E+00
         0.00000E+00
         0.00000E+00
         0.00000E+00
         0.00000E+00
         0.00000E+00
         0.00000E+00
         0.00000E+00
         0.00000E+00
         0.00000E+00
         0.00000E+00
         0.00000E+00
         0.00000E+00
         0.00000E+00
         0.00000E+00
         0.00000E+00
         0.00000E+00
         0.00000E+00
         0.00000E+00
         0.00000E+00
         0.00000E+00
         0.00000E+00
         0.00000E+00
         0.00000E+00
         0.00000E+00
         0.00000E+00
         0.00000E+00
         0.00000E+00
         0.00000E+00
         0.00000E+00
         0.00000E+00
         0.00000E+00
         0.00000E+00
         0.00000E+00
         0.00000E+00
         0.00000E+00
         0.00000E+00
         0.00000E+00
         0.00000E+00
         0.00000E+00
         0.00000E+00
         0.00000E+00
         0.00000E+00
         0.00000E+00
         0.00000E+00
         0.00000E+00
         0.00000E+00
         0.00000E+00
         0.00000E+00
         0.00000E+00
         0.00000E+00
         0.00000E+00
         0.00000E+00
         0.00000E+00
         0.00000E+00
         0.00000E+00
         0.00000E+00
         0.00000E+00
         0.00000E+00
         0.00000E+00
         0.00000E+00
         0.00000E+00
         0.00000E+00
         0.00000E+00
         0.00000E+00
         0.00000E+00
         0.00000E+00
         0.00000E+00
         0.00000E+00
         0.00000E+00
         0.00000E+00
         0.00000E+00
         0.00000E+00
         0.00000E+00
         0.00000E+00
         0.00000E+00
         0.00000E+00
         0.00000E+00
         0.00000E+00
         0.00000E+00
         0.00000E+00
         0.00000E+00
         0.00000E+00
         0.00000E+00
         0.00000E+00
         0.00000E+00
         0.00000E+00
         0.00000E+00
         0.00000E+00
         0.00000E+00
         0.00000E+00
         0.00000E+00
         0.00000E+00
         0.00000E+00
         0.00000E+00
         0.00000E+00
         0.00000E+00
         0.00000E+00
         0.00000E+00
         0.00000E+00
         0.00000E+00
         0.00000E+00
         0.00000E+00
         0.00000E+00
         0.00000E+00
         0.00000E+00
         0.00000E+00
         0.00000E+00
         0.00000E+00
         0.00000E+00
         0.00000E+00
         0.00000E+00
         0.00000E+00
         0.00000E+00
         0.00000E+00
         0.00000E+00
         0.00000E+00
         0.00000E+00
         0.00000E+00
         0.00000E+00
         0.00000E+00
         0.00000E+00
         0.00000E+00
         0.00000E+00
         0.00000E+00
         0.00000E+00
         0.00000E+00
         0.00000E+00
         0.00000E+00
         0.00000E+00
         0.00000E+00
         0.00000E+00
         0.00000E+00
         0.00000E+00
         0.00000E+00
         0.00000E+00
         0.00000E+00
         0.00000E+00
         0.00000E+00
         0.00000E+00
         0.00000E+00
         0.00000E+00
         0.00000E+00
         0.00000E+00
         0.00000E+00
         0.00000E+00
         0.00000E+00
         0.00000E+00
         0.00000E+00
         0.00000E+00
         0.00000E+00
         0.00000E+00
         0.00000E+00
         0.00000E+00
         0.00000E+00
         0.00000E+00
         0.00000E+00
         0.00000E+00
         0.00000E+00
         0.00000E+00
         0.00000E+00
         0.00000E+00
         0.00000E+00
         0.00000E+00
         0.00000E+00
         0.00000E+00
         0.00000E+00
         0.00000E+00
         0.00000E+00
         0.00000E+00
         0.00000E+00
         0.00000E+00
         0.00000E+00
         0.00000E+00
         0.00000E+00
         0.00000E+00
         0.00000E+00
         0.00000E+00
         0.00000E+00
         0.00000E+00
         0.00000E+00
         0.00000E+00
         0.00000E+00
         0.00000E+00
         0.00000E+00
         0.00000E+00
         0.00000E+00
         0.00000E+00
         0.00000E+00
         0.00000E+00
         0.00000E+00
         0.00000E+00
         0.00000E+00
         0.00000E+00
         0.00000E+00
         0.00000E+00
         0.00000E+00
         0.00000E+00
         0.00000E+00
         0.00000E+00
         0.00000E+00
         0.00000E+00
         0.00000E+00
         0.00000E+00
         0.00000E+00
         0.00000E+00
         0.00000E+00
         0.00000E+00
         0.00000E+00
         0.00000E+00
         0.00000E+00
         0.00000E+00
         0.00000E+00
         0.00000E+00
         0.00000E+00
         0.00000E+00
         0.00000E+00
         0.00000E+00
         0.00000E+00
         0.00000E+00
         0.00000E+00
         0.00000E+00
         0.00000E+00
         0.00000E+00
         0.00000E+00
         0.00000E+00
         0.00000E+00
         0.00000E+00
         0.00000E+00
         0.00000E+00
         0.00000E+00
         0.00000E+00
         0.00000E+00
         0.00000E+00
         0.00000E+00
         0.00000E+00
         0.00000E+00
         0.00000E+00
         0.00000E+00
         0.00000E+00
         0.00000E+00
         0.00000E+00
         0.00000E+00
         0.00000E+00
         0.00000E+00
         0.00000E+00
         0.00000E+00
         0.00000E+00
         0.00000E+00
         0.00000E+00
         0.00000E+00
         0.00000E+00
         0.00000E+00
         0.00000E+00
         0.00000E+00
         0.00000E+00
         0.00000E+00
         0.00000E+00
         0.00000E+00
         0.00000E+00
         0.00000E+00
         0.00000E+00
         0.00000E+00
         0.00000E+00
         0.00000E+00
         0.00000E+00
         0.00000E+00
         0.00000E+00
         0.00000E+00
         0.00000E+00
         0.00000E+00
         0.00000E+00
         0.00000E+00
         0.00000E+00
         0.00000E+00
         0.00000E+00
         0.00000E+00
         0.00000E+00
         0.00000E+00
         0.00000E+00
         0.00000E+00
         0.00000E+00
         0.00000E+00
         0.00000E+00
         0.00000E+00
         0.00000E+00
         0.00000E+00
         0.00000E+00
         0.00000E+00
         0.00000E+00
         0.00000E+00
         0.00000E+00
         0.00000E+00
         0.00000E+00
         0.00000E+00
         0.00000E+00
         0.00000E+00
         0.00000E+00
         0.00000E+00
         0.00000E+00
         0.00000E+00
         0.00000E+00
         0.00000E+00
         0.00000E+00
         0.00000E+00
         0.00000E+00
         0.00000E+00
         0.00000E+00
         0.00000E+00
         0.00000E+00
         0.00000E+00
         0.00000E+00
         0.00000E+00
         0.00000E+00
         0.00000E+00
         0.00000E+00
         0.00000E+00
         0.00000E+00
         0.00000E+00
         0.00000E+00
         0.00000E+00
         0.00000E+00
         0.00000E+00
         0.00000E+00
         0.00000E+00
         0.00000E+00
         0.00000E+00
         0.00000E+00
         0.00000E+00
         0.00000E+00
         0.00000E+00
         0.00000E+00
         0.00000E+00
         0.00000E+00
         0.00000E+00
         0.00000E+00
         0.00000E+00
         0.00000E+00
         0.00000E+00
         0.00000E+00
         0.00000E+00
         0.00000E+00
         0.00000E+00
         0.00000E+00
         0.00000E+00
         0.00000E+00
         0.00000E+00
         0.00000E+00
         0.00000E+00
         0.00000E+00
         0.00000E+00
         0.00000E+00
         0.00000E+00
         0.00000E+00
         0.00000E+00
         0.00000E+00
         0.00000E+00
         0.00000E+00
         0.00000E+00
         0.00000E+00
         0.00000E+00
         0.00000E+00
         0.00000E+00
         0.00000E+00
         0.00000E+00
         0.00000E+00
         0.00000E+00
         0.00000E+00
         0.00000E+00
         0.00000E+00
         0.00000E+00
         0.00000E+00
         0.00000E+00
         0.00000E+00
         0.00000E+00
         0.00000E+00
         0.00000E+00
         0.00000E+00
         0.00000E+00
         0.00000E+00
         0.00000E+00
         0.00000E+00
         0.00000E+00
         0.00000E+00
         0.00000E+00
         0.00000E+00
         0.00000E+00
         0.00000E+00
         0.00000E+00
         0.00000E+00
         0.00000E+00
         0.00000E+00
         0.00000E+00
         0.00000E+00
         0.00000E+00
         0.00000E+00
         0.00000E+00
         0.00000E+00
         0.00000E+00
         0.00000E+00
         0.00000E+00
         0.00000E+00
         0.00000E+00
         0.00000E+00
         0.00000E+00
         0.00000E+00
         0.00000E+00
         0.00000E+00
         0.00000E+00
         0.00000E+00
         0.00000E+00
         0.00000E+00
         0.00000E+00
         0.00000E+00
         0.00000E+00
         0.00000E+00
         0.00000E+00
         0.00000E+00
         0.00000E+00
         0.00000E+00
         0.00000E+00
         0.00000E+00
         0.00000E+00
         0.00000E+00
         0.00000E+00
         0.00000E+00
         0.00000E+00
         0.00000E+00
         0.00000E+00
         0.00000E+00
         0.00000E+00
         0.00000E+00
         0.00000E+00
         0.00000E+00
         0.00000E+00
         0.00000E+00
         0.00000E+00
         0.00000E+00
         0.00000E+00
         0.00000E+00
         0.00000E+00
         0.00000E+00
         0.00000E+00
         0.00000E+00
         0.00000E+00
         0.00000E+00
         0.00000E+00
         0.00000E+00
         0.00000E+00
         0.00000E+00
         0.00000E+00
         0.00000E+00
         0.00000E+00
         0.00000E+00
         0.00000E+00
         0.00000E+00
         0.00000E+00
         0.00000E+00
         0.00000E+00
         0.00000E+00
         0.00000E+00
         0.00000E+00
         0.00000E+00
         0.00000E+00
         0.00000E+00
         0.00000E+00
         0.00000E+00
         0.00000E+00
         0.00000E+00
         0.00000E+00
         0.00000E+00
         0.00000E+00
         0.00000E+00
         0.00000E+00
         0.00000E+00
         0.00000E+00
         0.00000E+00
         0.00000E+00
         0.00000E+00
         0.00000E+00
         0.00000E+00
         0.00000E+00
         0.00000E+00
         0.00000E+00
         0.00000E+00
         0.00000E+00
         0.00000E+00
         0.00000E+00
         0.00000E+00
         0.00000E+00
         0.00000E+00
         0.00000E+00
         0.00000E+00
         0.00000E+00
         0.00000E+00
         0.00000E+00
         0.00000E+00
         0.00000E+00
         0.00000E+00
         0.00000E+00
         0.00000E+00
         0.00000E+00
         0.00000E+00
         0.00000E+00
         0.00000E+00
         0.00000E+00
         0.00000E+00
         0.00000E+00
         0.00000E+00
         0.00000E+00
         0.00000E+00
         0.00000E+00
         0.00000E+00
         0.00000E+00
         0.00000E+00
         0.00000E+00
         0.00000E+00
         0.00000E+00
         0.00000E+00
         0.00000E+00
         0.00000E+00
         0.00000E+00
         0.00000E+00
         0.00000E+00
         0.00000E+00
         0.00000E+00
         0.00000E+00
         0.00000E+00
         0.00000E+00
         0.00000E+00
         0.00000E+00
         0.00000E+00
         0.00000E+00
         0.00000E+00
         0.00000E+00
         0.00000E+00
         0.00000E+00
         0.00000E+00
         0.00000E+00
         0.00000E+00
         0.00000E+00
         0.00000E+00
         0.00000E+00
         0.00000E+00
         0.00000E+00
         0.00000E+00
         0.00000E+00
         0.00000E+00
         0.00000E+00
         0.00000E+00
         0.00000E+00
         0.00000E+00
         0.00000E+00
         0.00000E+00
         0.00000E+00
         0.00000E+00
         0.00000E+00
         0.00000E+00
         0.00000E+00
         0.00000E+00
         0.00000E+00
         0.00000E+00
         0.00000E+00
         0.00000E+00
         0.00000E+00
         0.00000E+00
         0.00000E+00
         0.00000E+00
         0.00000E+00
         0.00000E+00
         0.00000E+00
         0.00000E+00
         0.00000E+00
         0.00000E+00
         0.00000E+00
         0.00000E+00
         0.00000E+00
         0.00000E+00
         0.00000E+00
         0.00000E+00
         0.00000E+00
         0.00000E+00
         0.00000E+00
         0.00000E+00
         0.00000E+00
         0.00000E+00
         0.00000E+00
         0.00000E+00
         0.00000E+00
         0.00000E+00
         0.00000E+00
         0.00000E+00
         0.00000E+00
         0.00000E+00
         0.00000E+00
         0.00000E+00
         0.00000E+00
         0.00000E+00
         0.00000E+00
         0.00000E+00
         0.00000E+00
         0.00000E+00
         0.00000E+00
         0.00000E+00
         0.00000E+00
         0.00000E+00
         0.00000E+00
         0.00000E+00
         0.00000E+00
         0.00000E+00
         0.00000E+00
         0.00000E+00
         0.00000E+00
         0.00000E+00
         0.00000E+00
         0.00000E+00
         0.00000E+00
         0.00000E+00
         0.00000E+00
         0.00000E+00
         0.00000E+00
         0.00000E+00
         0.00000E+00
         0.00000E+00
         0.00000E+00
         0.00000E+00
         0.00000E+00
         0.00000E+00
         0.00000E+00
         0.00000E+00
         0.00000E+00
         0.00000E+00
         0.00000E+00
         0.00000E+00
         0.00000E+00
         0.00000E+00
         0.00000E+00
         0.00000E+00
         0.00000E+00
         0.00000E+00
         0.00000E+00
         0.00000E+00
         0.00000E+00
         0.00000E+00
         0.00000E+00
         0.00000E+00
         0.00000E+00
         0.00000E+00
         0.00000E+00
         0.00000E+00
         0.00000E+00
         0.00000E+00
         0.00000E+00
         0.00000E+00
         0.00000E+00
         0.00000E+00
         0.00000E+00
         0.00000E+00
         0.00000E+00
         0.00000E+00
         0.00000E+00
         0.00000E+00
         0.00000E+00
         0.00000E+00
         0.00000E+00
         0.00000E+00
         0.00000E+00
         0.00000E+00
         0.00000E+00
         0.00000E+00
         0.00000E+00
         0.00000E+00
         0.00000E+00
         0.00000E+00
         0.00000E+00
         0.00000E+00
         0.00000E+00
         0.00000E+00
         0.00000E+00
         0.00000E+00
         0.00000E+00
         0.00000E+00
         0.00000E+00
         0.00000E+00
         0.00000E+00
         0.00000E+00
         0.00000E+00
         0.00000E+00
         0.00000E+00
         0.00000E+00
         0.00000E+00
         0.00000E+00
         0.00000E+00
         0.00000E+00
         0.00000E+00
         0.00000E+00
         0.00000E+00
         0.00000E+00
         0.00000E+00
         0.00000E+00
         0.00000E+00
         0.00000E+00
         0.00000E+00
         0.00000E+00
         0.00000E+00
         0.00000E+00
         0.00000E+00
         0.00000E+00
         0.00000E+00
         0.00000E+00
         0.00000E+00
         0.00000E+00
         0.00000E+00
         0.00000E+00
         0.00000E+00
         0.00000E+00
         0.00000E+00
         0.00000E+00
         0.00000E+00
         0.00000E+00
         0.00000E+00
         0.00000E+00
         0.00000E+00
         0.00000E+00
         0.00000E+00
         0.00000E+00
         0.00000E+00
         0.00000E+00
         0.00000E+00
         0.00000E+00
         0.00000E+00
         0.00000E+00
         0.00000E+00
         0.00000E+00
         0.00000E+00
         0.00000E+00
         0.00000E+00
         0.00000E+00
         0.00000E+00
         0.00000E+00
         0.00000E+00
         0.00000E+00
         0.00000E+00
         0.00000E+00
         0.00000E+00
         0.00000E+00
         0.00000E+00
         0.00000E+00
         0.00000E+00
         0.00000E+00
         0.00000E+00
         0.00000E+00
         0.00000E+00
         0.00000E+00
         0.00000E+00
         0.00000E+00
         0.00000E+00
         0.00000E+00
         0.00000E+00
         0.00000E+00
         0.00000E+00
         0.00000E+00
         0.00000E+00
         0.00000E+00
         0.00000E+00
         0.00000E+00
         0.00000E+00
         0.00000E+00
         0.00000E+00
         0.00000E+00
         0.00000E+00
         0.00000E+00
         0.00000E+00
         0.00000E+00
         0.00000E+00
         0.00000E+00
         0.00000E+00
         0.00000E+00
         0.00000E+00
         0.00000E+00
         0.00000E+00
         0.00000E+00
         0.00000E+00
         0.00000E+00
         0.00000E+00
         0.00000E+00
         0.00000E+00
         0.00000E+00
         0.00000E+00
         0.00000E+00
         0.00000E+00
         0.00000E+00
         0.00000E+00
         0.00000E+00
         0.00000E+00
         0.00000E+00
         0.00000E+00
         0.00000E+00
         0.00000E+00
         0.00000E+00
         0.00000E+00
         0.00000E+00
         0.00000E+00
         0.00000E+00
         0.00000E+00
         0.00000E+00
         0.00000E+00
         0.00000E+00
         0.00000E+00
         0.00000E+00
         0.00000E+00
         0.00000E+00
         0.00000E+00
         0.00000E+00
         0.00000E+00
         0.00000E+00
         0.00000E+00
         0.00000E+00
         0.00000E+00
         0.00000E+00
         0.00000E+00
         0.00000E+00
         0.00000E+00
         0.00000E+00
         0.00000E+00
         0.00000E+00
         0.00000E+00
         0.00000E+00
         0.00000E+00
         0.00000E+00
         0.00000E+00
         0.00000E+00
         0.00000E+00
         0.00000E+00
         0.00000E+00
         0.00000E+00
         0.00000E+00
         0.00000E+00
         0.00000E+00
         0.00000E+00
         0.00000E+00
         0.00000E+00
         0.00000E+00
         0.00000E+00
         0.00000E+00
         0.00000E+00
         0.00000E+00
         0.00000E+00
         0.00000E+00
         0.00000E+00
         0.00000E+00
         0.00000E+00
         0.00000E+00
         0.00000E+00
         0.00000E+00
         0.00000E+00
         0.00000E+00
         0.00000E+00
         0.00000E+00
         0.00000E+00
         0.00000E+00
         0.00000E+00
         0.00000E+00
         0.00000E+00
         0.00000E+00
         0.00000E+00
         0.00000E+00
         0.00000E+00
         0.00000E+00
         0.00000E+00
         0.00000E+00
         0.00000E+00
         0.00000E+00
         0.00000E+00
         0.00000E+00
         0.00000E+00
         0.00000E+00
         0.00000E+00
         0.00000E+00
         0.00000E+00
         0.00000E+00
         0.00000E+00
         0.00000E+00
         0.00000E+00
         0.00000E+00
         0.00000E+00
         0.00000E+00
         0.00000E+00
         0.00000E+00
         0.00000E+00
         0.00000E+00
         0.00000E+00
         0.00000E+00
         0.00000E+00
         0.00000E+00
         0.00000E+00
         0.00000E+00
         0.00000E+00
         0.00000E+00
         0.00000E+00
         0.00000E+00
         0.00000E+00
         0.00000E+00
         0.00000E+00
         0.00000E+00
         0.00000E+00
         0.00000E+00
         0.00000E+00
         0.00000E+00
         0.00000E+00
         0.00000E+00
         0.00000E+00
         0.00000E+00
         0.00000E+00
         0.00000E+00
         0.00000E+00
         0.00000E+00
         0.00000E+00
         0.00000E+00
         0.00000E+00
         0.00000E+00
         0.00000E+00
         0.00000E+00
         0.00000E+00
         0.00000E+00
         0.00000E+00
         0.00000E+00
         0.00000E+00
         0.00000E+00
         0.00000E+00
         0.00000E+00
         0.00000E+00
         0.00000E+00
         0.00000E+00
         0.00000E+00
         0.00000E+00
         0.00000E+00
         0.00000E+00
         0.00000E+00
         0.00000E+00
         0.00000E+00
         0.00000E+00
         0.00000E+00
         0.00000E+00
         0.00000E+00
         0.00000E+00
         0.00000E+00
         0.00000E+00
         0.00000E+00
         0.00000E+00
         0.00000E+00
         0.00000E+00
         0.00000E+00
         0.00000E+00
         0.00000E+00
         0.00000E+00
         0.00000E+00
         0.00000E+00
         0.00000E+00
         0.00000E+00
         0.00000E+00
         0.00000E+00
         0.00000E+00
         0.00000E+00
         0.00000E+00
         0.00000E+00
         0.00000E+00
         0.00000E+00
         0.00000E+00
         0.00000E+00
         0.00000E+00
         0.00000E+00
         0.00000E+00
         0.00000E+00
         0.00000E+00
         0.00000E+00
         0.00000E+00
         0.00000E+00
         0.00000E+00
         0.00000E+00
         0.00000E+00
         0.00000E+00
         0.00000E+00
         0.00000E+00
         0.00000E+00
         0.00000E+00
         0.00000E+00
         0.00000E+00
         0.00000E+00
         0.00000E+00
         0.00000E+00
         0.00000E+00
         0.00000E+00
         0.00000E+00
         0.00000E+00
         0.00000E+00
         0.00000E+00
         0.00000E+00
         0.00000E+00
         0.00000E+00
         0.00000E+00
         0.00000E+00
         0.00000E+00
         0.00000E+00
         0.00000E+00
         0.00000E+00
         0.00000E+00
         0.00000E+00
         0.00000E+00
         0.00000E+00
         0.00000E+00
         0.00000E+00
         0.00000E+00
         0.00000E+00
         0.00000E+00
         0.00000E+00
         0.00000E+00
         0.00000E+00
         0.00000E+00
         0.00000E+00
         0.00000E+00
         0.00000E+00
         0.00000E+00
         0.00000E+00
         0.00000E+00
         0.00000E+00
         0.00000E+00
         0.00000E+00
         0.00000E+00
         0.00000E+00
         0.00000E+00
         0.00000E+00
         0.00000E+00
         0.00000E+00
         0.00000E+00
         0.00000E+00
         0.00000E+00
         0.00000E+00
         0.00000E+00
         0.00000E+00
         0.00000E+00
         0.00000E+00
         0.00000E+00
         0.00000E+00
         0.00000E+00
         0.00000E+00
         0.00000E+00
         0.00000E+00
         0.00000E+00
         0.00000E+00
         0.00000E+00
         0.00000E+00
         0.00000E+00
         0.00000E+00
         0.00000E+00
         0.00000E+00
         0.00000E+00
         0.00000E+00
         0.00000E+00
         0.00000E+00
         0.00000E+00
         0.00000E+00
         0.00000E+00
         0.00000E+00
         0.00000E+00
         0.00000E+00
         0.00000E+00
         0.00000E+00
         0.00000E+00
         0.00000E+00
         0.00000E+00
         0.00000E+00
         0.00000E+00
         0.00000E+00
         0.00000E+00
         0.00000E+00
         0.00000E+00
         0.00000E+00
         0.00000E+00
         0.00000E+00
         0.00000E+00
         0.00000E+00
         0.00000E+00
         0.00000E+00
         0.00000E+00
         0.00000E+00
         0.00000E+00
         0.00000E+00
         0.00000E+00
         0.00000E+00
         0.00000E+00
         0.00000E+00
         0.00000E+00
         0.00000E+00
         0.00000E+00
         0.00000E+00
         0.00000E+00
         0.00000E+00
         0.00000E+00
         0.00000E+00
         0.00000E+00
         0.00000E+00
         0.00000E+00
         0.00000E+00
         0.00000E+00
         0.00000E+00
         0.00000E+00
         0.00000E+00
         0.00000E+00
         0.00000E+00
         0.00000E+00
         0.00000E+00
         0.00000E+00
         0.00000E+00
         0.00000E+00
         0.00000E+00
         0.00000E+00
         0.00000E+00
         0.00000E+00
         0.00000E+00
         0.00000E+00
         0.00000E+00
         0.00000E+00
         0.00000E+00
         0.00000E+00
         0.00000E+00
         0.00000E+00
         0.00000E+00
         0.00000E+00
         0.00000E+00
         0.00000E+00
         0.00000E+00
         0.00000E+00
         0.00000E+00
         0.00000E+00
         0.00000E+00
         0.00000E+00
         0.00000E+00
         0.00000E+00
         0.00000E+00
         0.00000E+00
         0.00000E+00
         0.00000E+00
         0.00000E+00
         0.00000E+00
         0.00000E+00
         0.00000E+00
         0.00000E+00
         0.00000E+00
         0.00000E+00
         0.00000E+00
         0.00000E+00
         0.00000E+00
         0.00000E+00
         0.00000E+00
         0.00000E+00
         0.00000E+00
         0.00000E+00
         0.00000E+00
         0.00000E+00
         0.00000E+00
         0.00000E+00
         0.00000E+00
         0.00000E+00
         0.00000E+00
         0.00000E+00
         0.00000E+00
         0.00000E+00
         0.00000E+00
         0.00000E+00
         0.00000E+00
         0.00000E+00
         0.00000E+00
         0.00000E+00
         0.00000E+00
         0.00000E+00
         0.00000E+00
         0.00000E+00
         0.00000E+00
         0.00000E+00
         0.00000E+00
         0.00000E+00
         0.00000E+00
         0.00000E+00
         0.00000E+00
         0.00000E+00
         0.00000E+00
         0.00000E+00
         0.00000E+00
         0.00000E+00
         0.00000E+00
         0.00000E+00
         0.00000E+00
         0.00000E+00
         0.00000E+00
         0.00000E+00
         0.00000E+00
         0.00000E+00
         0.00000E+00
         0.00000E+00
         0.00000E+00
         0.00000E+00
         0.00000E+00
         0.00000E+00
         0.00000E+00
         0.00000E+00
         0.00000E+00
         0.00000E+00
         0.00000E+00
         0.00000E+00
         0.00000E+00
         0.00000E+00
         0.00000E+00
         0.00000E+00
         0.00000E+00
         0.00000E+00
         0.00000E+00
         0.00000E+00
         0.00000E+00
         0.00000E+00
         0.00000E+00
         0.00000E+00
         0.00000E+00
         0.00000E+00
         0.00000E+00
         0.00000E+00
         0.00000E+00
         0.00000E+00
         0.00000E+00
         0.00000E+00
         0.00000E+00
         0.00000E+00
         0.00000E+00
         0.00000E+00
         0.00000E+00
         0.00000E+00
         0.00000E+00
         0.00000E+00
         0.00000E+00
         0.00000E+00
         0.00000E+00
         0.00000E+00
         0.00000E+00
         0.00000E+00
         0.00000E+00
         0.00000E+00
         0.00000E+00
         0.00000E+00
         0.00000E+00
         0.00000E+00
         0.00000E+00
         0.00000E+00
         0.00000E+00
         0.00000E+00
         0.00000E+00
         0.00000E+00
         0.00000E+00
         0.00000E+00
         0.00000E+00
         0.00000E+00
         0.00000E+00
         0.00000E+00
         0.00000E+00
         0.00000E+00
         0.00000E+00
         0.00000E+00
         0.00000E+00
         0.00000E+00
         0.00000E+00
         0.00000E+00
         0.00000E+00
         0.00000E+00
         0.00000E+00
         0.00000E+00
         0.00000E+00
         0.00000E+00
         0.00000E+00
         0.00000E+00
         0.00000E+00
         0.00000E+00
         0.00000E+00
         0.00000E+00
         0.00000E+00
         0.00000E+00
         0.00000E+00
         0.00000E+00
         0.00000E+00
         0.00000E+00
         0.00000E+00
         0.00000E+00
         0.00000E+00
         0.00000E+00
         0.00000E+00
         0.00000E+00
         0.00000E+00
         0.00000E+00
         0.00000E+00
  
SCALARS                   max_wave_vel  double 1
LOOKUP_TABLE default
         0.00000E+00
         0.00000E+00
         0.00000E+00
         0.00000E+00
         0.00000E+00
         0.00000E+00
         0.00000E+00
         0.00000E+00
         0.00000E+00
         0.00000E+00
         0.00000E+00
         0.00000E+00
         0.00000E+00
         0.00000E+00
         0.00000E+00
         0.00000E+00
         0.00000E+00
         0.00000E+00
         0.00000E+00
         0.00000E+00
         0.00000E+00
         0.00000E+00
         0.00000E+00
         0.00000E+00
         0.00000E+00
         0.00000E+00
         0.00000E+00
         0.00000E+00
         0.00000E+00
         0.00000E+00
         0.00000E+00
         0.00000E+00
         0.00000E+00
         0.00000E+00
         0.00000E+00
         0.00000E+00
         0.00000E+00
         0.00000E+00
         0.00000E+00
         0.00000E+00
         0.00000E+00
         0.00000E+00
         0.00000E+00
         0.00000E+00
         0.00000E+00
         0.00000E+00
         0.00000E+00
         0.00000E+00
         0.00000E+00
         0.00000E+00
         0.00000E+00
         0.00000E+00
         0.00000E+00
         0.00000E+00
         0.00000E+00
         0.00000E+00
         0.00000E+00
         0.00000E+00
         0.00000E+00
         0.00000E+00
         0.00000E+00
         0.00000E+00
         0.00000E+00
         0.00000E+00
         0.00000E+00
         0.00000E+00
         0.00000E+00
         0.00000E+00
         0.00000E+00
         0.00000E+00
         0.00000E+00
         0.00000E+00
         0.00000E+00
         0.00000E+00
         0.00000E+00
         0.00000E+00
         0.00000E+00
         0.00000E+00
         0.00000E+00
         0.00000E+00
         0.00000E+00
         0.00000E+00
         0.00000E+00
         0.00000E+00
         0.00000E+00
         0.00000E+00
         0.00000E+00
         0.00000E+00
         0.00000E+00
         0.00000E+00
         0.00000E+00
         0.00000E+00
         0.00000E+00
         0.00000E+00
         0.00000E+00
         0.00000E+00
         0.00000E+00
         0.00000E+00
         0.00000E+00
         0.00000E+00
         0.00000E+00
         0.00000E+00
         0.00000E+00
         0.00000E+00
         0.00000E+00
         0.00000E+00
         0.00000E+00
         0.00000E+00
         0.00000E+00
         0.00000E+00
         0.00000E+00
         0.00000E+00
         0.00000E+00
         0.00000E+00
         0.00000E+00
         0.00000E+00
         0.00000E+00
         0.00000E+00
         0.00000E+00
         0.00000E+00
         0.00000E+00
         0.00000E+00
         0.00000E+00
         0.00000E+00
         0.00000E+00
         0.00000E+00
         0.00000E+00
         0.00000E+00
         0.00000E+00
         0.00000E+00
         0.00000E+00
         0.00000E+00
         0.00000E+00
         0.00000E+00
         0.00000E+00
         0.00000E+00
         0.00000E+00
         0.00000E+00
         0.00000E+00
         0.00000E+00
         0.00000E+00
         0.00000E+00
         0.00000E+00
         0.00000E+00
         0.00000E+00
         0.00000E+00
         0.00000E+00
         0.00000E+00
         0.00000E+00
         0.00000E+00
         0.00000E+00
         0.00000E+00
         0.00000E+00
         0.00000E+00
         0.00000E+00
         0.00000E+00
         0.00000E+00
         0.00000E+00
         0.00000E+00
         0.00000E+00
         0.00000E+00
         0.00000E+00
         0.00000E+00
         0.00000E+00
         0.00000E+00
         0.00000E+00
         0.00000E+00
         0.00000E+00
         0.00000E+00
         0.00000E+00
         0.00000E+00
         0.00000E+00
         0.00000E+00
         0.00000E+00
         0.00000E+00
         0.00000E+00
         0.00000E+00
         0.00000E+00
         0.00000E+00
         0.00000E+00
         0.00000E+00
         0.00000E+00
         0.00000E+00
         0.00000E+00
         0.00000E+00
         0.00000E+00
         0.00000E+00
         0.00000E+00
         0.00000E+00
         0.00000E+00
         0.00000E+00
         0.00000E+00
         0.00000E+00
         0.00000E+00
         0.00000E+00
         0.00000E+00
         0.00000E+00
         0.00000E+00
         0.00000E+00
         0.00000E+00
         0.00000E+00
         0.00000E+00
         0.00000E+00
         0.00000E+00
         0.00000E+00
         0.00000E+00
         0.00000E+00
         0.00000E+00
         0.00000E+00
         0.00000E+00
         0.00000E+00
         0.00000E+00
         0.00000E+00
         0.00000E+00
         0.00000E+00
         0.00000E+00
         0.00000E+00
         0.00000E+00
         0.00000E+00
         0.00000E+00
         0.00000E+00
         0.00000E+00
         0.00000E+00
         0.00000E+00
         0.00000E+00
         0.00000E+00
         0.00000E+00
         0.00000E+00
         0.00000E+00
         0.00000E+00
         0.00000E+00
         0.00000E+00
         0.00000E+00
         0.00000E+00
         0.00000E+00
         0.00000E+00
         0.00000E+00
         0.00000E+00
         0.00000E+00
         0.00000E+00
         0.00000E+00
         0.00000E+00
         0.00000E+00
         0.00000E+00
         0.00000E+00
         0.00000E+00
         0.00000E+00
         0.00000E+00
         0.00000E+00
         0.00000E+00
         0.00000E+00
         0.00000E+00
         0.00000E+00
         0.00000E+00
         0.00000E+00
         0.00000E+00
         0.00000E+00
         0.00000E+00
         0.00000E+00
         0.00000E+00
         0.00000E+00
         0.00000E+00
         0.00000E+00
         0.00000E+00
         0.00000E+00
         0.00000E+00
         0.00000E+00
         0.00000E+00
         0.00000E+00
         0.00000E+00
         0.00000E+00
         0.00000E+00
         0.00000E+00
         0.00000E+00
         0.00000E+00
         0.00000E+00
         0.00000E+00
         0.00000E+00
         0.00000E+00
         0.00000E+00
         0.00000E+00
         0.00000E+00
         0.00000E+00
         0.00000E+00
         0.00000E+00
         0.00000E+00
         0.00000E+00
         0.00000E+00
         0.00000E+00
         0.00000E+00
         0.00000E+00
         0.00000E+00
         0.00000E+00
         0.00000E+00
         0.00000E+00
         0.00000E+00
         0.00000E+00
         0.00000E+00
         0.00000E+00
         0.00000E+00
         0.00000E+00
         0.00000E+00
         0.00000E+00
         0.00000E+00
         0.00000E+00
         0.00000E+00
         0.00000E+00
         0.00000E+00
         0.00000E+00
         0.00000E+00
         0.00000E+00
         0.00000E+00
         0.00000E+00
         0.00000E+00
         0.00000E+00
         0.00000E+00
         0.00000E+00
         0.00000E+00
         0.00000E+00
         0.00000E+00
         0.00000E+00
         0.00000E+00
         0.00000E+00
         0.00000E+00
         0.00000E+00
         0.00000E+00
         0.00000E+00
         0.00000E+00
         0.00000E+00
         0.00000E+00
         0.00000E+00
         0.00000E+00
         0.00000E+00
         0.00000E+00
         0.00000E+00
         0.00000E+00
         0.00000E+00
         0.00000E+00
         0.00000E+00
         0.00000E+00
         0.00000E+00
         0.00000E+00
         0.00000E+00
         0.00000E+00
         0.00000E+00
         0.00000E+00
         0.00000E+00
         0.00000E+00
         0.00000E+00
         0.00000E+00
         0.00000E+00
         0.00000E+00
         0.00000E+00
         0.00000E+00
         0.00000E+00
         0.00000E+00
         0.00000E+00
         0.00000E+00
         0.00000E+00
         0.00000E+00
         0.00000E+00
         0.00000E+00
         0.00000E+00
         0.00000E+00
         0.00000E+00
         0.00000E+00
         0.00000E+00
         0.00000E+00
         0.00000E+00
         0.00000E+00
         0.00000E+00
         0.00000E+00
         0.00000E+00
         0.00000E+00
         0.00000E+00
         0.00000E+00
         0.00000E+00
         0.00000E+00
         0.00000E+00
         0.00000E+00
         0.00000E+00
         0.00000E+00
         0.00000E+00
         0.00000E+00
         0.00000E+00
         0.00000E+00
         0.00000E+00
         0.00000E+00
         0.00000E+00
         0.00000E+00
         0.00000E+00
         0.00000E+00
         0.00000E+00
         0.00000E+00
         0.00000E+00
         0.00000E+00
         0.00000E+00
         0.00000E+00
         0.00000E+00
         0.00000E+00
         0.00000E+00
         0.00000E+00
         0.00000E+00
         0.00000E+00
         0.00000E+00
         0.00000E+00
         0.00000E+00
         0.00000E+00
         0.00000E+00
         0.00000E+00
         0.00000E+00
         0.00000E+00
         0.00000E+00
         0.00000E+00
         0.00000E+00
         0.00000E+00
         0.00000E+00
         0.00000E+00
         0.00000E+00
         0.00000E+00
         0.00000E+00
         0.00000E+00
         0.00000E+00
         0.00000E+00
         0.00000E+00
         0.00000E+00
         0.00000E+00
         0.00000E+00
         0.00000E+00
         0.00000E+00
         0.00000E+00
         0.00000E+00
         0.00000E+00
         0.00000E+00
         0.00000E+00
         0.00000E+00
         0.00000E+00
         0.00000E+00
         0.00000E+00
         0.00000E+00
         0.00000E+00
         0.00000E+00
         0.00000E+00
         0.00000E+00
         0.00000E+00
         0.00000E+00
         0.00000E+00
         0.00000E+00
         0.00000E+00
         0.00000E+00
         0.00000E+00
         0.00000E+00
         0.00000E+00
         0.00000E+00
         0.00000E+00
         0.00000E+00
         0.00000E+00
         0.00000E+00
         0.00000E+00
         0.00000E+00
         0.00000E+00
         0.00000E+00
         0.00000E+00
         0.00000E+00
         0.00000E+00
         0.00000E+00
         0.00000E+00
         0.00000E+00
         0.00000E+00
         0.00000E+00
         0.00000E+00
         0.00000E+00
         0.00000E+00
         0.00000E+00
         0.00000E+00
         0.00000E+00
         0.00000E+00
         0.00000E+00
         0.00000E+00
         0.00000E+00
         0.00000E+00
         0.00000E+00
         0.00000E+00
         0.00000E+00
         0.00000E+00
         0.00000E+00
         0.00000E+00
         0.00000E+00
         0.00000E+00
         0.00000E+00
         0.00000E+00
         0.00000E+00
         0.00000E+00
         0.00000E+00
         0.00000E+00
         0.00000E+00
         0.00000E+00
         0.00000E+00
         0.00000E+00
         0.00000E+00
         0.00000E+00
         0.00000E+00
         0.00000E+00
         0.00000E+00
         0.00000E+00
         0.00000E+00
         0.00000E+00
         0.00000E+00
         0.00000E+00
         0.00000E+00
         0.00000E+00
         0.00000E+00
         0.00000E+00
         0.00000E+00
         0.00000E+00
         0.00000E+00
         0.00000E+00
         0.00000E+00
         0.00000E+00
         0.00000E+00
         0.00000E+00
         0.00000E+00
         0.00000E+00
         0.00000E+00
         0.00000E+00
         0.00000E+00
         0.00000E+00
         0.00000E+00
         0.00000E+00
         0.00000E+00
         0.00000E+00
         0.00000E+00
         0.00000E+00
         0.00000E+00
         0.00000E+00
         0.00000E+00
         0.00000E+00
         0.00000E+00
         0.00000E+00
         0.00000E+00
         0.00000E+00
         0.00000E+00
         0.00000E+00
         0.00000E+00
         0.00000E+00
         0.00000E+00
         0.00000E+00
         0.00000E+00
         0.00000E+00
         0.00000E+00
         0.00000E+00
         0.00000E+00
         0.00000E+00
         0.00000E+00
         0.00000E+00
         0.00000E+00
         0.00000E+00
         0.00000E+00
         0.00000E+00
         0.00000E+00
         0.00000E+00
         0.00000E+00
         0.00000E+00
         0.00000E+00
         0.00000E+00
         0.00000E+00
         0.00000E+00
         0.00000E+00
         0.00000E+00
         0.00000E+00
         0.00000E+00
         0.00000E+00
         0.00000E+00
         0.00000E+00
         0.00000E+00
         0.00000E+00
         0.00000E+00
         0.00000E+00
         0.00000E+00
         0.00000E+00
         0.00000E+00
         0.00000E+00
         0.00000E+00
         0.00000E+00
         0.00000E+00
         0.00000E+00
         0.00000E+00
         0.00000E+00
         0.00000E+00
         0.00000E+00
         0.00000E+00
         0.00000E+00
         0.00000E+00
         0.00000E+00
         0.00000E+00
         0.00000E+00
         0.00000E+00
         0.00000E+00
         0.00000E+00
         0.00000E+00
         0.00000E+00
         0.00000E+00
         0.00000E+00
         0.00000E+00
         0.00000E+00
         0.00000E+00
         0.00000E+00
         0.00000E+00
         0.00000E+00
         0.00000E+00
         0.00000E+00
         0.00000E+00
         0.00000E+00
         0.00000E+00
         0.00000E+00
         0.00000E+00
         0.00000E+00
         0.00000E+00
         0.00000E+00
         0.00000E+00
         0.00000E+00
         0.00000E+00
         0.00000E+00
         0.00000E+00
         0.00000E+00
         0.00000E+00
         0.00000E+00
         0.00000E+00
         0.00000E+00
         0.00000E+00
         0.00000E+00
         0.00000E+00
         0.00000E+00
         0.00000E+00
         0.00000E+00
         0.00000E+00
         0.00000E+00
         0.00000E+00
         0.00000E+00
         0.00000E+00
         0.00000E+00
         0.00000E+00
         0.00000E+00
         0.00000E+00
         0.00000E+00
         0.00000E+00
         0.00000E+00
         0.00000E+00
         0.00000E+00
         0.00000E+00
         0.00000E+00
         0.00000E+00
         0.00000E+00
         0.00000E+00
         0.00000E+00
         0.00000E+00
         0.00000E+00
         0.00000E+00
         0.00000E+00
         0.00000E+00
         0.00000E+00
         0.00000E+00
         0.00000E+00
         0.00000E+00
         0.00000E+00
         0.00000E+00
         0.00000E+00
         0.00000E+00
         0.00000E+00
         0.00000E+00
         0.00000E+00
         0.00000E+00
         0.00000E+00
         0.00000E+00
         0.00000E+00
         0.00000E+00
         0.00000E+00
         0.00000E+00
         0.00000E+00
         0.00000E+00
         0.00000E+00
         0.00000E+00
         0.00000E+00
         0.00000E+00
         0.00000E+00
         0.00000E+00
         0.00000E+00
         0.00000E+00
         0.00000E+00
         0.00000E+00
         0.00000E+00
         0.00000E+00
         0.00000E+00
         0.00000E+00
         0.00000E+00
         0.00000E+00
         0.00000E+00
         0.00000E+00
         0.00000E+00
         0.00000E+00
         0.00000E+00
         0.00000E+00
         0.00000E+00
         0.00000E+00
         0.00000E+00
         0.00000E+00
         0.00000E+00
         0.00000E+00
         0.00000E+00
         0.00000E+00
         0.00000E+00
         0.00000E+00
         0.00000E+00
         0.00000E+00
         0.00000E+00
         0.00000E+00
         0.00000E+00
         0.00000E+00
         0.00000E+00
         0.00000E+00
         0.00000E+00
         0.00000E+00
         0.00000E+00
         0.00000E+00
         0.00000E+00
         0.00000E+00
         0.00000E+00
         0.00000E+00
         0.00000E+00
         0.00000E+00
         0.00000E+00
         0.00000E+00
         0.00000E+00
         0.00000E+00
         0.00000E+00
         0.00000E+00
         0.00000E+00
         0.00000E+00
         0.00000E+00
         0.00000E+00
         0.00000E+00
         0.00000E+00
         0.00000E+00
         0.00000E+00
         0.00000E+00
         0.00000E+00
         0.00000E+00
         0.00000E+00
         0.00000E+00
         0.00000E+00
         0.00000E+00
         0.00000E+00
         0.00000E+00
         0.00000E+00
         0.00000E+00
         0.00000E+00
         0.00000E+00
         0.00000E+00
         0.00000E+00
         0.00000E+00
         0.00000E+00
         0.00000E+00
         0.00000E+00
         0.00000E+00
         0.00000E+00
         0.00000E+00
         0.00000E+00
         0.00000E+00
         0.00000E+00
         0.00000E+00
         0.00000E+00
         0.00000E+00
         0.00000E+00
         0.00000E+00
         0.00000E+00
         0.00000E+00
         0.00000E+00
         0.00000E+00
         0.00000E+00
         0.00000E+00
         0.00000E+00
         0.00000E+00
         0.00000E+00
         0.00000E+00
         0.00000E+00
         0.00000E+00
         0.00000E+00
         0.00000E+00
         0.00000E+00
         0.00000E+00
         0.00000E+00
         0.00000E+00
         0.00000E+00
         0.00000E+00
         0.00000E+00
         0.00000E+00
         0.00000E+00
         0.00000E+00
         0.00000E+00
         0.00000E+00
         0.00000E+00
         0.00000E+00
         0.00000E+00
         0.00000E+00
         0.00000E+00
         0.00000E+00
         0.00000E+00
         0.00000E+00
         0.00000E+00
         0.00000E+00
         0.00000E+00
         0.00000E+00
         0.00000E+00
         0.00000E+00
         0.00000E+00
         0.00000E+00
         0.00000E+00
         0.00000E+00
         0.00000E+00
         0.00000E+00
         0.00000E+00
         0.00000E+00
         0.00000E+00
         0.00000E+00
         0.00000E+00
         0.00000E+00
         0.00000E+00
         0.00000E+00
         0.00000E+00
         0.00000E+00
         0.00000E+00
         0.00000E+00
         0.00000E+00
         0.00000E+00
         0.00000E+00
         0.00000E+00
         0.00000E+00
         0.00000E+00
         0.00000E+00
         0.00000E+00
         0.00000E+00
         0.00000E+00
         0.00000E+00
         0.00000E+00
         0.00000E+00
         0.00000E+00
         0.00000E+00
         0.00000E+00
         0.00000E+00
         0.00000E+00
         0.00000E+00
         0.00000E+00
         0.00000E+00
         0.00000E+00
         0.00000E+00
         0.00000E+00
         0.00000E+00
         0.00000E+00
         0.00000E+00
         0.00000E+00
         0.00000E+00
         0.00000E+00
         0.00000E+00
         0.00000E+00
         0.00000E+00
         0.00000E+00
         0.00000E+00
         0.00000E+00
         0.00000E+00
         0.00000E+00
         0.00000E+00
         0.00000E+00
         0.00000E+00
         0.00000E+00
         0.00000E+00
         0.00000E+00
         0.00000E+00
         0.00000E+00
         0.00000E+00
         0.00000E+00
         0.00000E+00
         0.00000E+00
         0.00000E+00
         0.00000E+00
         0.00000E+00
         0.00000E+00
         0.00000E+00
         0.00000E+00
         0.00000E+00
         0.00000E+00
         0.00000E+00
         0.00000E+00
         0.00000E+00
         0.00000E+00
         0.00000E+00
         0.00000E+00
         0.00000E+00
         0.00000E+00
         0.00000E+00
         0.00000E+00
         0.00000E+00
         0.00000E+00
         0.00000E+00
         0.00000E+00
         0.00000E+00
         0.00000E+00
         0.00000E+00
         0.00000E+00
         0.00000E+00
         0.00000E+00
         0.00000E+00
         0.00000E+00
         0.00000E+00
         0.00000E+00
         0.00000E+00
         0.00000E+00
         0.00000E+00
         0.00000E+00
         0.00000E+00
         0.00000E+00
         0.00000E+00
         0.00000E+00
         0.00000E+00
         0.00000E+00
         0.00000E+00
         0.00000E+00
         0.00000E+00
         0.00000E+00
         0.00000E+00
         0.00000E+00
         0.00000E+00
         0.00000E+00
         0.00000E+00
         0.00000E+00
         0.00000E+00
         0.00000E+00
         0.00000E+00
         0.00000E+00
         0.00000E+00
         0.00000E+00
         0.00000E+00
         0.00000E+00
         0.00000E+00
         0.00000E+00
         0.00000E+00
         0.00000E+00
         0.00000E+00
         0.00000E+00
         0.00000E+00
         0.00000E+00
         0.00000E+00
         0.00000E+00
         0.00000E+00
         0.00000E+00
         0.00000E+00
         0.00000E+00
         0.00000E+00
         0.00000E+00
         0.00000E+00
         0.00000E+00
         0.00000E+00
         0.00000E+00
         0.00000E+00
         0.00000E+00
         0.00000E+00
         0.00000E+00
         0.00000E+00
         0.00000E+00
         0.00000E+00
         0.00000E+00
         0.00000E+00
         0.00000E+00
         0.00000E+00
         0.00000E+00
         0.00000E+00
         0.00000E+00
         0.00000E+00
         0.00000E+00
         0.00000E+00
         0.00000E+00
         0.00000E+00
         0.00000E+00
         0.00000E+00
         0.00000E+00
         0.00000E+00
         0.00000E+00
         0.00000E+00
         0.00000E+00
         0.00000E+00
         0.00000E+00
         0.00000E+00
         0.00000E+00
         0.00000E+00
         0.00000E+00
         0.00000E+00
         0.00000E+00
         0.00000E+00
         0.00000E+00
         0.00000E+00
         0.00000E+00
         0.00000E+00
         0.00000E+00
         0.00000E+00
         0.00000E+00
         0.00000E+00
         0.00000E+00
         0.00000E+00
         0.00000E+00
         0.00000E+00
         0.00000E+00
         0.00000E+00
         0.00000E+00
         0.00000E+00
         0.00000E+00
         0.00000E+00
         0.00000E+00
         0.00000E+00
         0.00000E+00
         0.00000E+00
         0.00000E+00
         0.00000E+00
         0.00000E+00
         0.00000E+00
         0.00000E+00
         0.00000E+00
         0.00000E+00
         0.00000E+00
         0.00000E+00
         0.00000E+00
         0.00000E+00
         0.00000E+00
         0.00000E+00
         0.00000E+00
         0.00000E+00
         0.00000E+00
         0.00000E+00
         0.00000E+00
         0.00000E+00
         0.00000E+00
         0.00000E+00
         0.00000E+00
         0.00000E+00
         0.00000E+00
         0.00000E+00
         0.00000E+00
         0.00000E+00
         0.00000E+00
         0.00000E+00
         0.00000E+00
         0.00000E+00
         0.00000E+00
         0.00000E+00
         0.00000E+00
         0.00000E+00
         0.00000E+00
         0.00000E+00
         0.00000E+00
         0.00000E+00
         0.00000E+00
         0.00000E+00
         0.00000E+00
         0.00000E+00
         0.00000E+00
         0.00000E+00
         0.00000E+00
         0.00000E+00
         0.00000E+00
         0.00000E+00
         0.00000E+00
         0.00000E+00
         0.00000E+00
         0.00000E+00
         0.00000E+00
         0.00000E+00
         0.00000E+00
         0.00000E+00
         0.00000E+00
         0.00000E+00
         0.00000E+00
         0.00000E+00
         0.00000E+00
         0.00000E+00
         0.00000E+00
         0.00000E+00
         0.00000E+00
         0.00000E+00
         0.00000E+00
         0.00000E+00
         0.00000E+00
         0.00000E+00
         0.00000E+00
         0.00000E+00
         0.00000E+00
         0.00000E+00
         0.00000E+00
         0.00000E+00
         0.00000E+00
         0.00000E+00
         0.00000E+00
         0.00000E+00
         0.00000E+00
         0.00000E+00
         0.00000E+00
         0.00000E+00
         0.00000E+00
         0.00000E+00
         0.00000E+00
         0.00000E+00
         0.00000E+00
         0.00000E+00
         0.00000E+00
         0.00000E+00
         0.00000E+00
         0.00000E+00
         0.00000E+00
         0.00000E+00
         0.00000E+00
         0.00000E+00
         0.00000E+00
         0.00000E+00
         0.00000E+00
         0.00000E+00
         0.00000E+00
         0.00000E+00
         0.00000E+00
         0.00000E+00
         0.00000E+00
         0.00000E+00
         0.00000E+00
         0.00000E+00
         0.00000E+00
         0.00000E+00
         0.00000E+00
         0.00000E+00
         0.00000E+00
         0.00000E+00
         0.00000E+00
         0.00000E+00
         0.00000E+00
         0.00000E+00
         0.00000E+00
         0.00000E+00
         0.00000E+00
         0.00000E+00
         0.00000E+00
         0.00000E+00
         0.00000E+00
         0.00000E+00
         0.00000E+00
         0.00000E+00
         0.00000E+00
         0.00000E+00
         0.00000E+00
         0.00000E+00
         0.00000E+00
         0.00000E+00
         0.00000E+00
         0.00000E+00
         0.00000E+00
         0.00000E+00
         0.00000E+00
         0.00000E+00
         0.00000E+00
         0.00000E+00
         0.00000E+00
         0.00000E+00
         0.00000E+00
         0.00000E+00
         0.00000E+00
         0.00000E+00
         0.00000E+00
         0.00000E+00
         0.00000E+00
         0.00000E+00
         0.00000E+00
         0.00000E+00
         0.00000E+00
         0.00000E+00
         0.00000E+00
         0.00000E+00
         0.00000E+00
         0.00000E+00
         0.00000E+00
         0.00000E+00
         0.00000E+00
         0.00000E+00
         0.00000E+00
         0.00000E+00
         0.00000E+00
         0.00000E+00
         0.00000E+00
         0.00000E+00
         0.00000E+00
         0.00000E+00
         0.00000E+00
         0.00000E+00
         0.00000E+00
         0.00000E+00
         0.00000E+00
         0.00000E+00
         0.00000E+00
         0.00000E+00
         0.00000E+00
         0.00000E+00
         0.00000E+00
         0.00000E+00
         0.00000E+00
         0.00000E+00
         0.00000E+00
         0.00000E+00
         0.00000E+00
         0.00000E+00
         0.00000E+00
         0.00000E+00
         0.00000E+00
         0.00000E+00
         0.00000E+00
         0.00000E+00
         0.00000E+00
         0.00000E+00
         0.00000E+00
         0.00000E+00
         0.00000E+00
         0.00000E+00
         0.00000E+00
         0.00000E+00
         0.00000E+00
         0.00000E+00
         0.00000E+00
         0.00000E+00
         0.00000E+00
         0.00000E+00
         0.00000E+00
         0.00000E+00
         0.00000E+00
         0.00000E+00
         0.00000E+00
         0.00000E+00
         0.00000E+00
         0.00000E+00
         0.00000E+00
         0.00000E+00
         0.00000E+00
         0.00000E+00
         0.00000E+00
         0.00000E+00
         0.00000E+00
         0.00000E+00
         0.00000E+00
         0.00000E+00
         0.00000E+00
         0.00000E+00
         0.00000E+00
         0.00000E+00
         0.00000E+00
         0.00000E+00
         0.00000E+00
         0.00000E+00
         0.00000E+00
         0.00000E+00
         0.00000E+00
         0.00000E+00
         0.00000E+00
         0.00000E+00
         0.00000E+00
         0.00000E+00
         0.00000E+00
         0.00000E+00
         0.00000E+00
         0.00000E+00
         0.00000E+00
         0.00000E+00
         0.00000E+00
         0.00000E+00
         0.00000E+00
         0.00000E+00
         0.00000E+00
         0.00000E+00
         0.00000E+00
         0.00000E+00
         0.00000E+00
         0.00000E+00
         0.00000E+00
         0.00000E+00
         0.00000E+00
         0.00000E+00
         0.00000E+00
         0.00000E+00
         0.00000E+00
         0.00000E+00
         0.00000E+00
         0.00000E+00
         0.00000E+00
         0.00000E+00
         0.00000E+00
         0.00000E+00
         0.00000E+00
         0.00000E+00
         0.00000E+00
         0.00000E+00
         0.00000E+00
         0.00000E+00
         0.00000E+00
         0.00000E+00
         0.00000E+00
         0.00000E+00
         0.00000E+00
         0.00000E+00
         0.00000E+00
         0.00000E+00
         0.00000E+00
         0.00000E+00
         0.00000E+00
         0.00000E+00
         0.00000E+00
         0.00000E+00
         0.00000E+00
         0.00000E+00
         0.00000E+00
         0.00000E+00
         0.00000E+00
         0.00000E+00
         0.00000E+00
         0.00000E+00
         0.00000E+00
         0.00000E+00
         0.00000E+00
         0.00000E+00
         0.00000E+00
         0.00000E+00
         0.00000E+00
         0.00000E+00
         0.00000E+00
         0.00000E+00
         0.00000E+00
         0.00000E+00
         0.00000E+00
         0.00000E+00
         0.00000E+00
         0.00000E+00
         0.00000E+00
         0.00000E+00
         0.00000E+00
         0.00000E+00
         0.00000E+00
         0.00000E+00
         0.00000E+00
         0.00000E+00
         0.00000E+00
         0.00000E+00
         0.00000E+00
         0.00000E+00
         0.00000E+00
         0.00000E+00
         0.00000E+00
         0.00000E+00
         0.00000E+00
         0.00000E+00
         0.00000E+00
         0.00000E+00
         0.00000E+00
         0.00000E+00
         0.00000E+00
         0.00000E+00
         0.00000E+00
         0.00000E+00
         0.00000E+00
         0.00000E+00
         0.00000E+00
         0.00000E+00
         0.00000E+00
         0.00000E+00
         0.00000E+00
         0.00000E+00
         0.00000E+00
         0.00000E+00
         0.00000E+00
         0.00000E+00
         0.00000E+00
         0.00000E+00
         0.00000E+00
         0.00000E+00
         0.00000E+00
         0.00000E+00
         0.00000E+00
         0.00000E+00
         0.00000E+00
         0.00000E+00
         0.00000E+00
         0.00000E+00
         0.00000E+00
         0.00000E+00
         0.00000E+00
         0.00000E+00
         0.00000E+00
         0.00000E+00
         0.00000E+00
         0.00000E+00
         0.00000E+00
         0.00000E+00
         0.00000E+00
         0.00000E+00
         0.00000E+00
         0.00000E+00
         0.00000E+00
         0.00000E+00
         0.00000E+00
         0.00000E+00
         0.00000E+00
         0.00000E+00
         0.00000E+00
         0.00000E+00
         0.00000E+00
         0.00000E+00
         0.00000E+00
         0.00000E+00
         0.00000E+00
         0.00000E+00
         0.00000E+00
         0.00000E+00
         0.00000E+00
         0.00000E+00
         0.00000E+00
         0.00000E+00
         0.00000E+00
         0.00000E+00
         0.00000E+00
         0.00000E+00
         0.00000E+00
         0.00000E+00
         0.00000E+00
         0.00000E+00
         0.00000E+00
         0.00000E+00
         0.00000E+00
         0.00000E+00
         0.00000E+00
         0.00000E+00
         0.00000E+00
         0.00000E+00
         0.00000E+00
         0.00000E+00
         0.00000E+00
         0.00000E+00
         0.00000E+00
         0.00000E+00
         0.00000E+00
         0.00000E+00
         0.00000E+00
         0.00000E+00
         0.00000E+00
         0.00000E+00
         0.00000E+00
         0.00000E+00
         0.00000E+00
         0.00000E+00
         0.00000E+00
         0.00000E+00
         0.00000E+00
         0.00000E+00
         0.00000E+00
         0.00000E+00
         0.00000E+00
         0.00000E+00
         0.00000E+00
         0.00000E+00
         0.00000E+00
         0.00000E+00
         0.00000E+00
         0.00000E+00
         0.00000E+00
         0.00000E+00
         0.00000E+00
         0.00000E+00
         0.00000E+00
         0.00000E+00
         0.00000E+00
         0.00000E+00
         0.00000E+00
         0.00000E+00
         0.00000E+00
         0.00000E+00
         0.00000E+00
         0.00000E+00
         0.00000E+00
         0.00000E+00
         0.00000E+00
         0.00000E+00
         0.00000E+00
         0.00000E+00
         0.00000E+00
         0.00000E+00
         0.00000E+00
         0.00000E+00
         0.00000E+00
         0.00000E+00
         0.00000E+00
         0.00000E+00
         0.00000E+00
         0.00000E+00
         0.00000E+00
         0.00000E+00
         0.00000E+00
         0.00000E+00
         0.00000E+00
         0.00000E+00
         0.00000E+00
         0.00000E+00
         0.00000E+00
         0.00000E+00
         0.00000E+00
         0.00000E+00
         0.00000E+00
         0.00000E+00
         0.00000E+00
         0.00000E+00
         0.00000E+00
         0.00000E+00
         0.00000E+00
         0.00000E+00
         0.00000E+00
         0.00000E+00
         0.00000E+00
         0.00000E+00
         0.00000E+00
         0.00000E+00
         0.00000E+00
         0.00000E+00
         0.00000E+00
         0.00000E+00
         0.00000E+00
         0.00000E+00
         0.00000E+00
         0.00000E+00
         0.00000E+00
         0.00000E+00
         0.00000E+00
         0.00000E+00
         0.00000E+00
         0.00000E+00
         0.00000E+00
         0.00000E+00
         0.00000E+00
         0.00000E+00
         0.00000E+00
         0.00000E+00
         0.00000E+00
         0.00000E+00
         0.00000E+00
         0.00000E+00
         0.00000E+00
         0.00000E+00
         0.00000E+00
         0.00000E+00
         0.00000E+00
         0.00000E+00
         0.00000E+00
         0.00000E+00
         0.00000E+00
         0.00000E+00
         0.00000E+00
         0.00000E+00
         0.00000E+00
         0.00000E+00
         0.00000E+00
         0.00000E+00
         0.00000E+00
         0.00000E+00
         0.00000E+00
         0.00000E+00
         0.00000E+00
         0.00000E+00
         0.00000E+00
         0.00000E+00
         0.00000E+00
         0.00000E+00
         0.00000E+00
         0.00000E+00
         0.00000E+00
         0.00000E+00
         0.00000E+00
         0.00000E+00
         0.00000E+00
         0.00000E+00
         0.00000E+00
         0.00000E+00
         0.00000E+00
         0.00000E+00
         0.00000E+00
         0.00000E+00
         0.00000E+00
         0.00000E+00
         0.00000E+00
         0.00000E+00
         0.00000E+00
         0.00000E+00
         0.00000E+00
         0.00000E+00
         0.00000E+00
         0.00000E+00
         0.00000E+00
         0.00000E+00
         0.00000E+00
         0.00000E+00
         0.00000E+00
         0.00000E+00
         0.00000E+00
         0.00000E+00
         0.00000E+00
         0.00000E+00
         0.00000E+00
         0.00000E+00
         0.00000E+00
         0.00000E+00
         0.00000E+00
         0.00000E+00
         0.00000E+00
         0.00000E+00
         0.00000E+00
         0.00000E+00
         0.00000E+00
         0.00000E+00
         0.00000E+00
         0.00000E+00
         0.00000E+00
         0.00000E+00
         0.00000E+00
         0.00000E+00
         0.00000E+00
         0.00000E+00
         0.00000E+00
         0.00000E+00
         0.00000E+00
         0.00000E+00
         0.00000E+00
         0.00000E+00
         0.00000E+00
         0.00000E+00
         0.00000E+00
         0.00000E+00
         0.00000E+00
         0.00000E+00
         0.00000E+00
         0.00000E+00
         0.00000E+00
         0.00000E+00
         0.00000E+00
         0.00000E+00
         0.00000E+00
         0.00000E+00
         0.00000E+00
         0.00000E+00
         0.00000E+00
         0.00000E+00
         0.00000E+00
         0.00000E+00
         0.00000E+00
         0.00000E+00
         0.00000E+00
         0.00000E+00
         0.00000E+00
         0.00000E+00
         0.00000E+00
         0.00000E+00
         0.00000E+00
         0.00000E+00
         0.00000E+00
         0.00000E+00
         0.00000E+00
         0.00000E+00
         0.00000E+00
         0.00000E+00
         0.00000E+00
         0.00000E+00
         0.00000E+00
         0.00000E+00
         0.00000E+00
         0.00000E+00
         0.00000E+00
         0.00000E+00
         0.00000E+00
         0.00000E+00
         0.00000E+00
         0.00000E+00
         0.00000E+00
         0.00000E+00
         0.00000E+00
         0.00000E+00
         0.00000E+00
         0.00000E+00
         0.00000E+00
         0.00000E+00
         0.00000E+00
         0.00000E+00
         0.00000E+00
         0.00000E+00
         0.00000E+00
         0.00000E+00
         0.00000E+00
         0.00000E+00
         0.00000E+00
         0.00000E+00
         0.00000E+00
         0.00000E+00
         0.00000E+00
         0.00000E+00
         0.00000E+00
         0.00000E+00
         0.00000E+00
         0.00000E+00
         0.00000E+00
         0.00000E+00
         0.00000E+00
         0.00000E+00
         0.00000E+00
         0.00000E+00
         0.00000E+00
         0.00000E+00
         0.00000E+00
         0.00000E+00
         0.00000E+00
         0.00000E+00
         0.00000E+00
         0.00000E+00
         0.00000E+00
         0.00000E+00
         0.00000E+00
         0.00000E+00
         0.00000E+00
         0.00000E+00
         0.00000E+00
         0.00000E+00
         0.00000E+00
         0.00000E+00
         0.00000E+00
         0.00000E+00
         0.00000E+00
         0.00000E+00
         0.00000E+00
         0.00000E+00
         0.00000E+00
         0.00000E+00
         0.00000E+00
         0.00000E+00
         0.00000E+00
         0.00000E+00
         0.00000E+00
         0.00000E+00
         0.00000E+00
         0.00000E+00
         0.00000E+00
         0.00000E+00
         0.00000E+00
         0.00000E+00
         0.00000E+00
         0.00000E+00
         0.00000E+00
         0.00000E+00
         0.00000E+00
         0.00000E+00
         0.00000E+00
         0.00000E+00
         0.00000E+00
         0.00000E+00
         0.00000E+00
         0.00000E+00
         0.00000E+00
         0.00000E+00
         0.00000E+00
         0.00000E+00
         0.00000E+00
         0.00000E+00
         0.00000E+00
         0.00000E+00
         0.00000E+00
         0.00000E+00
         0.00000E+00
         0.00000E+00
         0.00000E+00
         0.00000E+00
         0.00000E+00
         0.00000E+00
         0.00000E+00
         0.00000E+00
         0.00000E+00
         0.00000E+00
         0.00000E+00
         0.00000E+00
         0.00000E+00
         0.00000E+00
         0.00000E+00
         0.00000E+00
         0.00000E+00
         0.00000E+00
         0.00000E+00
         0.00000E+00
         0.00000E+00
         0.00000E+00
         0.00000E+00
         0.00000E+00
         0.00000E+00
         0.00000E+00
         0.00000E+00
         0.00000E+00
         0.00000E+00
         0.00000E+00
         0.00000E+00
         0.00000E+00
         0.00000E+00
         0.00000E+00
         0.00000E+00
         0.00000E+00
         0.00000E+00
         0.00000E+00
         0.00000E+00
         0.00000E+00
         0.00000E+00
         0.00000E+00
         0.00000E+00
         0.00000E+00
         0.00000E+00
         0.00000E+00
         0.00000E+00
         0.00000E+00
         0.00000E+00
         0.00000E+00
         0.00000E+00
         0.00000E+00
         0.00000E+00
         0.00000E+00
         0.00000E+00
         0.00000E+00
         0.00000E+00
         0.00000E+00
         0.00000E+00
         0.00000E+00
         0.00000E+00
         0.00000E+00
         0.00000E+00
         0.00000E+00
         0.00000E+00
         0.00000E+00
         0.00000E+00
         0.00000E+00
         0.00000E+00
         0.00000E+00
         0.00000E+00
         0.00000E+00
         0.00000E+00
         0.00000E+00
         0.00000E+00
         0.00000E+00
         0.00000E+00
         0.00000E+00
         0.00000E+00
         0.00000E+00
         0.00000E+00
         0.00000E+00
         0.00000E+00
         0.00000E+00
         0.00000E+00
         0.00000E+00
         0.00000E+00
         0.00000E+00
         0.00000E+00
         0.00000E+00
         0.00000E+00
         0.00000E+00
         0.00000E+00
         0.00000E+00
         0.00000E+00
         0.00000E+00
         0.00000E+00
         0.00000E+00
         0.00000E+00
         0.00000E+00
         0.00000E+00
         0.00000E+00
         0.00000E+00
         0.00000E+00
         0.00000E+00
         0.00000E+00
         0.00000E+00
         0.00000E+00
         0.00000E+00
         0.00000E+00
         0.00000E+00
         0.00000E+00
         0.00000E+00
         0.00000E+00
         0.00000E+00
         0.00000E+00
         0.00000E+00
         0.00000E+00
         0.00000E+00
         0.00000E+00
         0.00000E+00
         0.00000E+00
         0.00000E+00
         0.00000E+00
         0.00000E+00
         0.00000E+00
         0.00000E+00
         0.00000E+00
         0.00000E+00
         0.00000E+00
         0.00000E+00
         0.00000E+00
         0.00000E+00
         0.00000E+00
         0.00000E+00
         0.00000E+00
         0.00000E+00
         0.00000E+00
         0.00000E+00
         0.00000E+00
         0.00000E+00
         0.00000E+00
         0.00000E+00
         0.00000E+00
         0.00000E+00
         0.00000E+00
         0.00000E+00
         0.00000E+00
         0.00000E+00
         0.00000E+00
         0.00000E+00
         0.00000E+00
         0.00000E+00
         0.00000E+00
         0.00000E+00
         0.00000E+00
         0.00000E+00
         0.00000E+00
         0.00000E+00
         0.00000E+00
         0.00000E+00
         0.00000E+00
         0.00000E+00
         0.00000E+00
         0.00000E+00
         0.00000E+00
         0.00000E+00
         0.00000E+00
         0.00000E+00
         0.00000E+00
         0.00000E+00
         0.00000E+00
         0.00000E+00
         0.00000E+00
  
SCALARS                      eps_shear  double 1
LOOKUP_TABLE default
         0.00000E+00
         0.00000E+00
         0.00000E+00
         0.00000E+00
         0.00000E+00
         0.00000E+00
         0.00000E+00
         0.00000E+00
         0.00000E+00
         0.00000E+00
         0.00000E+00
         0.00000E+00
         0.00000E+00
         0.00000E+00
         0.00000E+00
         0.00000E+00
         0.00000E+00
         0.00000E+00
         0.00000E+00
         0.00000E+00
         0.00000E+00
         0.00000E+00
         0.00000E+00
         0.00000E+00
         0.00000E+00
         0.00000E+00
         0.00000E+00
         0.00000E+00
         0.00000E+00
         0.00000E+00
         0.00000E+00
         0.00000E+00
         0.00000E+00
         0.00000E+00
         0.00000E+00
         0.00000E+00
         0.00000E+00
         0.00000E+00
         0.00000E+00
         0.00000E+00
         0.00000E+00
         0.00000E+00
         0.00000E+00
         0.00000E+00
         0.00000E+00
         0.00000E+00
         0.00000E+00
         0.00000E+00
         0.00000E+00
         0.00000E+00
         0.00000E+00
         0.00000E+00
         0.00000E+00
         0.00000E+00
         0.00000E+00
         0.00000E+00
         0.00000E+00
         0.00000E+00
         0.00000E+00
         0.00000E+00
         0.00000E+00
         0.00000E+00
         0.00000E+00
         0.00000E+00
         0.00000E+00
         0.00000E+00
         0.00000E+00
         0.00000E+00
         0.00000E+00
         0.00000E+00
         0.00000E+00
         0.00000E+00
         0.00000E+00
         0.00000E+00
         0.00000E+00
         0.00000E+00
         0.00000E+00
         0.00000E+00
         0.00000E+00
         0.00000E+00
         0.00000E+00
         0.00000E+00
         0.00000E+00
         0.00000E+00
         0.00000E+00
         0.00000E+00
         0.00000E+00
         0.00000E+00
         0.00000E+00
         0.00000E+00
         0.00000E+00
         0.00000E+00
         0.00000E+00
         0.00000E+00
         0.00000E+00
         0.00000E+00
         0.00000E+00
         0.00000E+00
         0.00000E+00
         0.00000E+00
         0.00000E+00
         0.00000E+00
         0.00000E+00
         0.00000E+00
         0.00000E+00
         0.00000E+00
         0.00000E+00
         0.00000E+00
         0.00000E+00
         0.00000E+00
         0.00000E+00
         0.00000E+00
         0.00000E+00
         0.00000E+00
         0.00000E+00
         0.00000E+00
         0.00000E+00
         0.00000E+00
         0.00000E+00
         0.00000E+00
         0.00000E+00
         0.00000E+00
         0.00000E+00
         0.00000E+00
         0.00000E+00
         0.00000E+00
         0.00000E+00
         0.00000E+00
         0.00000E+00
         0.00000E+00
         0.00000E+00
         0.00000E+00
         0.00000E+00
         0.00000E+00
         0.00000E+00
         0.00000E+00
         0.00000E+00
         0.00000E+00
         0.00000E+00
         0.00000E+00
         0.00000E+00
         0.00000E+00
         0.00000E+00
         0.00000E+00
         0.00000E+00
         0.00000E+00
         0.00000E+00
         0.00000E+00
         0.00000E+00
         0.00000E+00
         0.00000E+00
         0.00000E+00
         0.00000E+00
         0.00000E+00
         0.00000E+00
         0.00000E+00
         0.00000E+00
         0.00000E+00
         0.00000E+00
         0.00000E+00
         0.00000E+00
         0.00000E+00
         0.00000E+00
         0.00000E+00
         0.00000E+00
         0.00000E+00
         0.00000E+00
         0.00000E+00
         0.00000E+00
         0.00000E+00
         0.00000E+00
         0.00000E+00
         0.00000E+00
         0.00000E+00
         0.00000E+00
         0.00000E+00
         0.00000E+00
         0.00000E+00
         0.00000E+00
         0.00000E+00
         0.00000E+00
         0.00000E+00
         0.00000E+00
         0.00000E+00
         0.00000E+00
         0.00000E+00
         0.00000E+00
         0.00000E+00
         0.00000E+00
         0.00000E+00
         0.00000E+00
         0.00000E+00
         0.00000E+00
         0.00000E+00
         0.00000E+00
         0.00000E+00
         0.00000E+00
         0.00000E+00
         0.00000E+00
         0.00000E+00
         0.00000E+00
         0.00000E+00
         0.00000E+00
         0.00000E+00
         0.00000E+00
         0.00000E+00
         0.00000E+00
         0.00000E+00
         0.00000E+00
         0.00000E+00
         0.00000E+00
         0.00000E+00
         0.00000E+00
         0.00000E+00
         0.00000E+00
         0.00000E+00
         0.00000E+00
         0.00000E+00
         0.00000E+00
         0.00000E+00
         0.00000E+00
         0.00000E+00
         0.00000E+00
         0.00000E+00
         0.00000E+00
         0.00000E+00
         0.00000E+00
         0.00000E+00
         0.00000E+00
         0.00000E+00
         0.00000E+00
         0.00000E+00
         0.00000E+00
         0.00000E+00
         0.00000E+00
         0.00000E+00
         0.00000E+00
         0.00000E+00
         0.00000E+00
         0.00000E+00
         0.00000E+00
         0.00000E+00
         0.00000E+00
         0.00000E+00
         0.00000E+00
         0.00000E+00
         0.00000E+00
         0.00000E+00
         0.00000E+00
         0.00000E+00
         0.00000E+00
         0.00000E+00
         0.00000E+00
         0.00000E+00
         0.00000E+00
         0.00000E+00
         0.00000E+00
         0.00000E+00
         0.00000E+00
         0.00000E+00
         0.00000E+00
         0.00000E+00
         0.00000E+00
         0.00000E+00
         0.00000E+00
         0.00000E+00
         0.00000E+00
         0.00000E+00
         0.00000E+00
         0.00000E+00
         0.00000E+00
         0.00000E+00
         0.00000E+00
         0.00000E+00
         0.00000E+00
         0.00000E+00
         0.00000E+00
         0.00000E+00
         0.00000E+00
         0.00000E+00
         0.00000E+00
         0.00000E+00
         0.00000E+00
         0.00000E+00
         0.00000E+00
         0.00000E+00
         0.00000E+00
         0.00000E+00
         0.00000E+00
         0.00000E+00
         0.00000E+00
         0.00000E+00
         0.00000E+00
         0.00000E+00
         0.00000E+00
         0.00000E+00
         0.00000E+00
         0.00000E+00
         0.00000E+00
         0.00000E+00
         0.00000E+00
         0.00000E+00
         0.00000E+00
         0.00000E+00
         0.00000E+00
         0.00000E+00
         0.00000E+00
         0.00000E+00
         0.00000E+00
         0.00000E+00
         0.00000E+00
         0.00000E+00
         0.00000E+00
         0.00000E+00
         0.00000E+00
         0.00000E+00
         0.00000E+00
         0.00000E+00
         0.00000E+00
         0.00000E+00
         0.00000E+00
         0.00000E+00
         0.00000E+00
         0.00000E+00
         0.00000E+00
         0.00000E+00
         0.00000E+00
         0.00000E+00
         0.00000E+00
         0.00000E+00
         0.00000E+00
         0.00000E+00
         0.00000E+00
         0.00000E+00
         0.00000E+00
         0.00000E+00
         0.00000E+00
         0.00000E+00
         0.00000E+00
         0.00000E+00
         0.00000E+00
         0.00000E+00
         0.00000E+00
         0.00000E+00
         0.00000E+00
         0.00000E+00
         0.00000E+00
         0.00000E+00
         0.00000E+00
         0.00000E+00
         0.00000E+00
         0.00000E+00
         0.00000E+00
         0.00000E+00
         0.00000E+00
         0.00000E+00
         0.00000E+00
         0.00000E+00
         0.00000E+00
         0.00000E+00
         0.00000E+00
         0.00000E+00
         0.00000E+00
         0.00000E+00
         0.00000E+00
         0.00000E+00
         0.00000E+00
         0.00000E+00
         0.00000E+00
         0.00000E+00
         0.00000E+00
         0.00000E+00
         0.00000E+00
         0.00000E+00
         0.00000E+00
         0.00000E+00
         0.00000E+00
         0.00000E+00
         0.00000E+00
         0.00000E+00
         0.00000E+00
         0.00000E+00
         0.00000E+00
         0.00000E+00
         0.00000E+00
         0.00000E+00
         0.00000E+00
         0.00000E+00
         0.00000E+00
         0.00000E+00
         0.00000E+00
         0.00000E+00
         0.00000E+00
         0.00000E+00
         0.00000E+00
         0.00000E+00
         0.00000E+00
         0.00000E+00
         0.00000E+00
         0.00000E+00
         0.00000E+00
         0.00000E+00
         0.00000E+00
         0.00000E+00
         0.00000E+00
         0.00000E+00
         0.00000E+00
         0.00000E+00
         0.00000E+00
         0.00000E+00
         0.00000E+00
         0.00000E+00
         0.00000E+00
         0.00000E+00
         0.00000E+00
         0.00000E+00
         0.00000E+00
         0.00000E+00
         0.00000E+00
         0.00000E+00
         0.00000E+00
         0.00000E+00
         0.00000E+00
         0.00000E+00
         0.00000E+00
         0.00000E+00
         0.00000E+00
         0.00000E+00
         0.00000E+00
         0.00000E+00
         0.00000E+00
         0.00000E+00
         0.00000E+00
         0.00000E+00
         0.00000E+00
         0.00000E+00
         0.00000E+00
         0.00000E+00
         0.00000E+00
         0.00000E+00
         0.00000E+00
         0.00000E+00
         0.00000E+00
         0.00000E+00
         0.00000E+00
         0.00000E+00
         0.00000E+00
         0.00000E+00
         0.00000E+00
         0.00000E+00
         0.00000E+00
         0.00000E+00
         0.00000E+00
         0.00000E+00
         0.00000E+00
         0.00000E+00
         0.00000E+00
         0.00000E+00
         0.00000E+00
         0.00000E+00
         0.00000E+00
         0.00000E+00
         0.00000E+00
         0.00000E+00
         0.00000E+00
         0.00000E+00
         0.00000E+00
         0.00000E+00
         0.00000E+00
         0.00000E+00
         0.00000E+00
         0.00000E+00
         0.00000E+00
         0.00000E+00
         0.00000E+00
         0.00000E+00
         0.00000E+00
         0.00000E+00
         0.00000E+00
         0.00000E+00
         0.00000E+00
         0.00000E+00
         0.00000E+00
         0.00000E+00
         0.00000E+00
         0.00000E+00
         0.00000E+00
         0.00000E+00
         0.00000E+00
         0.00000E+00
         0.00000E+00
         0.00000E+00
         0.00000E+00
         0.00000E+00
         0.00000E+00
         0.00000E+00
         0.00000E+00
         0.00000E+00
         0.00000E+00
         0.00000E+00
         0.00000E+00
         0.00000E+00
         0.00000E+00
         0.00000E+00
         0.00000E+00
         0.00000E+00
         0.00000E+00
         0.00000E+00
         0.00000E+00
         0.00000E+00
         0.00000E+00
         0.00000E+00
         0.00000E+00
         0.00000E+00
         0.00000E+00
         0.00000E+00
         0.00000E+00
         0.00000E+00
         0.00000E+00
         0.00000E+00
         0.00000E+00
         0.00000E+00
         0.00000E+00
         0.00000E+00
         0.00000E+00
         0.00000E+00
         0.00000E+00
         0.00000E+00
         0.00000E+00
         0.00000E+00
         0.00000E+00
         0.00000E+00
         0.00000E+00
         0.00000E+00
         0.00000E+00
         0.00000E+00
         0.00000E+00
         0.00000E+00
         0.00000E+00
         0.00000E+00
         0.00000E+00
         0.00000E+00
         0.00000E+00
         0.00000E+00
         0.00000E+00
         0.00000E+00
         0.00000E+00
         0.00000E+00
         0.00000E+00
         0.00000E+00
         0.00000E+00
         0.00000E+00
         0.00000E+00
         0.00000E+00
         0.00000E+00
         0.00000E+00
         0.00000E+00
         0.00000E+00
         0.00000E+00
         0.00000E+00
         0.00000E+00
         0.00000E+00
         0.00000E+00
         0.00000E+00
         0.00000E+00
         0.00000E+00
         0.00000E+00
         0.00000E+00
         0.00000E+00
         0.00000E+00
         0.00000E+00
         0.00000E+00
         0.00000E+00
         0.00000E+00
         0.00000E+00
         0.00000E+00
         0.00000E+00
         0.00000E+00
         0.00000E+00
         0.00000E+00
         0.00000E+00
         0.00000E+00
         0.00000E+00
         0.00000E+00
         0.00000E+00
         0.00000E+00
         0.00000E+00
         0.00000E+00
         0.00000E+00
         0.00000E+00
         0.00000E+00
         0.00000E+00
         0.00000E+00
         0.00000E+00
         0.00000E+00
         0.00000E+00
         0.00000E+00
         0.00000E+00
         0.00000E+00
         0.00000E+00
         0.00000E+00
         0.00000E+00
         0.00000E+00
         0.00000E+00
         0.00000E+00
         0.00000E+00
         0.00000E+00
         0.00000E+00
         0.00000E+00
         0.00000E+00
         0.00000E+00
         0.00000E+00
         0.00000E+00
         0.00000E+00
         0.00000E+00
         0.00000E+00
         0.00000E+00
         0.00000E+00
         0.00000E+00
         0.00000E+00
         0.00000E+00
         0.00000E+00
         0.00000E+00
         0.00000E+00
         0.00000E+00
         0.00000E+00
         0.00000E+00
         0.00000E+00
         0.00000E+00
         0.00000E+00
         0.00000E+00
         0.00000E+00
         0.00000E+00
         0.00000E+00
         0.00000E+00
         0.00000E+00
         0.00000E+00
         0.00000E+00
         0.00000E+00
         0.00000E+00
         0.00000E+00
         0.00000E+00
         0.00000E+00
         0.00000E+00
         0.00000E+00
         0.00000E+00
         0.00000E+00
         0.00000E+00
         0.00000E+00
         0.00000E+00
         0.00000E+00
         0.00000E+00
         0.00000E+00
         0.00000E+00
         0.00000E+00
         0.00000E+00
         0.00000E+00
         0.00000E+00
         0.00000E+00
         0.00000E+00
         0.00000E+00
         0.00000E+00
         0.00000E+00
         0.00000E+00
         0.00000E+00
         0.00000E+00
         0.00000E+00
         0.00000E+00
         0.00000E+00
         0.00000E+00
         0.00000E+00
         0.00000E+00
         0.00000E+00
         0.00000E+00
         0.00000E+00
         0.00000E+00
         0.00000E+00
         0.00000E+00
         0.00000E+00
         0.00000E+00
         0.00000E+00
         0.00000E+00
         0.00000E+00
         0.00000E+00
         0.00000E+00
         0.00000E+00
         0.00000E+00
         0.00000E+00
         0.00000E+00
         0.00000E+00
         0.00000E+00
         0.00000E+00
         0.00000E+00
         0.00000E+00
         0.00000E+00
         0.00000E+00
         0.00000E+00
         0.00000E+00
         0.00000E+00
         0.00000E+00
         0.00000E+00
         0.00000E+00
         0.00000E+00
         0.00000E+00
         0.00000E+00
         0.00000E+00
         0.00000E+00
         0.00000E+00
         0.00000E+00
         0.00000E+00
         0.00000E+00
         0.00000E+00
         0.00000E+00
         0.00000E+00
         0.00000E+00
         0.00000E+00
         0.00000E+00
         0.00000E+00
         0.00000E+00
         0.00000E+00
         0.00000E+00
         0.00000E+00
         0.00000E+00
         0.00000E+00
         0.00000E+00
         0.00000E+00
         0.00000E+00
         0.00000E+00
         0.00000E+00
         0.00000E+00
         0.00000E+00
         0.00000E+00
         0.00000E+00
         0.00000E+00
         0.00000E+00
         0.00000E+00
         0.00000E+00
         0.00000E+00
         0.00000E+00
         0.00000E+00
         0.00000E+00
         0.00000E+00
         0.00000E+00
         0.00000E+00
         0.00000E+00
         0.00000E+00
         0.00000E+00
         0.00000E+00
         0.00000E+00
         0.00000E+00
         0.00000E+00
         0.00000E+00
         0.00000E+00
         0.00000E+00
         0.00000E+00
         0.00000E+00
         0.00000E+00
         0.00000E+00
         0.00000E+00
         0.00000E+00
         0.00000E+00
         0.00000E+00
         0.00000E+00
         0.00000E+00
         0.00000E+00
         0.00000E+00
         0.00000E+00
         0.00000E+00
         0.00000E+00
         0.00000E+00
         0.00000E+00
         0.00000E+00
         0.00000E+00
         0.00000E+00
         0.00000E+00
         0.00000E+00
         0.00000E+00
         0.00000E+00
         0.00000E+00
         0.00000E+00
         0.00000E+00
         0.00000E+00
         0.00000E+00
         0.00000E+00
         0.00000E+00
         0.00000E+00
         0.00000E+00
         0.00000E+00
         0.00000E+00
         0.00000E+00
         0.00000E+00
         0.00000E+00
         0.00000E+00
         0.00000E+00
         0.00000E+00
         0.00000E+00
         0.00000E+00
         0.00000E+00
         0.00000E+00
         0.00000E+00
         0.00000E+00
         0.00000E+00
         0.00000E+00
         0.00000E+00
         0.00000E+00
         0.00000E+00
         0.00000E+00
         0.00000E+00
         0.00000E+00
         0.00000E+00
         0.00000E+00
         0.00000E+00
         0.00000E+00
         0.00000E+00
         0.00000E+00
         0.00000E+00
         0.00000E+00
         0.00000E+00
         0.00000E+00
         0.00000E+00
         0.00000E+00
         0.00000E+00
         0.00000E+00
         0.00000E+00
         0.00000E+00
         0.00000E+00
         0.00000E+00
         0.00000E+00
         0.00000E+00
         0.00000E+00
         0.00000E+00
         0.00000E+00
         0.00000E+00
         0.00000E+00
         0.00000E+00
         0.00000E+00
         0.00000E+00
         0.00000E+00
         0.00000E+00
         0.00000E+00
         0.00000E+00
         0.00000E+00
         0.00000E+00
         0.00000E+00
         0.00000E+00
         0.00000E+00
         0.00000E+00
         0.00000E+00
         0.00000E+00
         0.00000E+00
         0.00000E+00
         0.00000E+00
         0.00000E+00
         0.00000E+00
         0.00000E+00
         0.00000E+00
         0.00000E+00
         0.00000E+00
         0.00000E+00
         0.00000E+00
         0.00000E+00
         0.00000E+00
         0.00000E+00
         0.00000E+00
         0.00000E+00
         0.00000E+00
         0.00000E+00
         0.00000E+00
         0.00000E+00
         0.00000E+00
         0.00000E+00
         0.00000E+00
         0.00000E+00
         0.00000E+00
         0.00000E+00
         0.00000E+00
         0.00000E+00
         0.00000E+00
         0.00000E+00
         0.00000E+00
         0.00000E+00
         0.00000E+00
         0.00000E+00
         0.00000E+00
         0.00000E+00
         0.00000E+00
         0.00000E+00
         0.00000E+00
         0.00000E+00
         0.00000E+00
         0.00000E+00
         0.00000E+00
         0.00000E+00
         0.00000E+00
         0.00000E+00
         0.00000E+00
         0.00000E+00
         0.00000E+00
         0.00000E+00
         0.00000E+00
         0.00000E+00
         0.00000E+00
         0.00000E+00
         0.00000E+00
         0.00000E+00
         0.00000E+00
         0.00000E+00
         0.00000E+00
         0.00000E+00
         0.00000E+00
         0.00000E+00
         0.00000E+00
         0.00000E+00
         0.00000E+00
         0.00000E+00
         0.00000E+00
         0.00000E+00
         0.00000E+00
         0.00000E+00
         0.00000E+00
         0.00000E+00
         0.00000E+00
         0.00000E+00
         0.00000E+00
         0.00000E+00
         0.00000E+00
         0.00000E+00
         0.00000E+00
         0.00000E+00
         0.00000E+00
         0.00000E+00
         0.00000E+00
         0.00000E+00
         0.00000E+00
         0.00000E+00
         0.00000E+00
         0.00000E+00
         0.00000E+00
         0.00000E+00
         0.00000E+00
         0.00000E+00
         0.00000E+00
         0.00000E+00
         0.00000E+00
         0.00000E+00
         0.00000E+00
         0.00000E+00
         0.00000E+00
         0.00000E+00
         0.00000E+00
         0.00000E+00
         0.00000E+00
         0.00000E+00
         0.00000E+00
         0.00000E+00
         0.00000E+00
         0.00000E+00
         0.00000E+00
         0.00000E+00
         0.00000E+00
         0.00000E+00
         0.00000E+00
         0.00000E+00
         0.00000E+00
         0.00000E+00
         0.00000E+00
         0.00000E+00
         0.00000E+00
         0.00000E+00
         0.00000E+00
         0.00000E+00
         0.00000E+00
         0.00000E+00
         0.00000E+00
         0.00000E+00
         0.00000E+00
         0.00000E+00
         0.00000E+00
         0.00000E+00
         0.00000E+00
         0.00000E+00
         0.00000E+00
         0.00000E+00
         0.00000E+00
         0.00000E+00
         0.00000E+00
         0.00000E+00
         0.00000E+00
         0.00000E+00
         0.00000E+00
         0.00000E+00
         0.00000E+00
         0.00000E+00
         0.00000E+00
         0.00000E+00
         0.00000E+00
         0.00000E+00
         0.00000E+00
         0.00000E+00
         0.00000E+00
         0.00000E+00
         0.00000E+00
         0.00000E+00
         0.00000E+00
         0.00000E+00
         0.00000E+00
         0.00000E+00
         0.00000E+00
         0.00000E+00
         0.00000E+00
         0.00000E+00
         0.00000E+00
         0.00000E+00
         0.00000E+00
         0.00000E+00
         0.00000E+00
         0.00000E+00
         0.00000E+00
         0.00000E+00
         0.00000E+00
         0.00000E+00
         0.00000E+00
         0.00000E+00
         0.00000E+00
         0.00000E+00
         0.00000E+00
         0.00000E+00
         0.00000E+00
         0.00000E+00
         0.00000E+00
         0.00000E+00
         0.00000E+00
         0.00000E+00
         0.00000E+00
         0.00000E+00
         0.00000E+00
         0.00000E+00
         0.00000E+00
         0.00000E+00
         0.00000E+00
         0.00000E+00
         0.00000E+00
         0.00000E+00
         0.00000E+00
         0.00000E+00
         0.00000E+00
         0.00000E+00
         0.00000E+00
         0.00000E+00
         0.00000E+00
         0.00000E+00
         0.00000E+00
         0.00000E+00
         0.00000E+00
         0.00000E+00
         0.00000E+00
         0.00000E+00
         0.00000E+00
         0.00000E+00
         0.00000E+00
         0.00000E+00
         0.00000E+00
         0.00000E+00
         0.00000E+00
         0.00000E+00
         0.00000E+00
         0.00000E+00
         0.00000E+00
         0.00000E+00
         0.00000E+00
         0.00000E+00
         0.00000E+00
         0.00000E+00
         0.00000E+00
         0.00000E+00
         0.00000E+00
         0.00000E+00
         0.00000E+00
         0.00000E+00
         0.00000E+00
         0.00000E+00
         0.00000E+00
         0.00000E+00
         0.00000E+00
         0.00000E+00
         0.00000E+00
         0.00000E+00
         0.00000E+00
         0.00000E+00
         0.00000E+00
         0.00000E+00
         0.00000E+00
         0.00000E+00
         0.00000E+00
         0.00000E+00
         0.00000E+00
         0.00000E+00
         0.00000E+00
         0.00000E+00
         0.00000E+00
         0.00000E+00
         0.00000E+00
         0.00000E+00
         0.00000E+00
         0.00000E+00
         0.00000E+00
         0.00000E+00
         0.00000E+00
         0.00000E+00
         0.00000E+00
         0.00000E+00
         0.00000E+00
         0.00000E+00
         0.00000E+00
         0.00000E+00
         0.00000E+00
         0.00000E+00
         0.00000E+00
         0.00000E+00
         0.00000E+00
         0.00000E+00
         0.00000E+00
         0.00000E+00
         0.00000E+00
         0.00000E+00
         0.00000E+00
         0.00000E+00
         0.00000E+00
         0.00000E+00
         0.00000E+00
         0.00000E+00
         0.00000E+00
         0.00000E+00
         0.00000E+00
         0.00000E+00
         0.00000E+00
         0.00000E+00
         0.00000E+00
         0.00000E+00
         0.00000E+00
         0.00000E+00
         0.00000E+00
         0.00000E+00
         0.00000E+00
         0.00000E+00
         0.00000E+00
         0.00000E+00
         0.00000E+00
         0.00000E+00
         0.00000E+00
         0.00000E+00
         0.00000E+00
         0.00000E+00
         0.00000E+00
         0.00000E+00
         0.00000E+00
         0.00000E+00
         0.00000E+00
         0.00000E+00
         0.00000E+00
         0.00000E+00
         0.00000E+00
         0.00000E+00
         0.00000E+00
         0.00000E+00
         0.00000E+00
         0.00000E+00
         0.00000E+00
         0.00000E+00
         0.00000E+00
         0.00000E+00
         0.00000E+00
         0.00000E+00
         0.00000E+00
         0.00000E+00
         0.00000E+00
         0.00000E+00
         0.00000E+00
         0.00000E+00
         0.00000E+00
         0.00000E+00
         0.00000E+00
         0.00000E+00
         0.00000E+00
         0.00000E+00
         0.00000E+00
         0.00000E+00
         0.00000E+00
         0.00000E+00
         0.00000E+00
         0.00000E+00
         0.00000E+00
         0.00000E+00
         0.00000E+00
         0.00000E+00
         0.00000E+00
         0.00000E+00
         0.00000E+00
         0.00000E+00
         0.00000E+00
         0.00000E+00
         0.00000E+00
         0.00000E+00
         0.00000E+00
         0.00000E+00
         0.00000E+00
         0.00000E+00
         0.00000E+00
         0.00000E+00
         0.00000E+00
         0.00000E+00
         0.00000E+00
         0.00000E+00
         0.00000E+00
         0.00000E+00
         0.00000E+00
         0.00000E+00
         0.00000E+00
         0.00000E+00
         0.00000E+00
         0.00000E+00
         0.00000E+00
         0.00000E+00
         0.00000E+00
         0.00000E+00
         0.00000E+00
         0.00000E+00
         0.00000E+00
         0.00000E+00
         0.00000E+00
         0.00000E+00
         0.00000E+00
         0.00000E+00
         0.00000E+00
         0.00000E+00
         0.00000E+00
         0.00000E+00
         0.00000E+00
         0.00000E+00
         0.00000E+00
         0.00000E+00
         0.00000E+00
         0.00000E+00
         0.00000E+00
         0.00000E+00
         0.00000E+00
         0.00000E+00
         0.00000E+00
         0.00000E+00
         0.00000E+00
         0.00000E+00
         0.00000E+00
         0.00000E+00
         0.00000E+00
         0.00000E+00
         0.00000E+00
         0.00000E+00
         0.00000E+00
         0.00000E+00
         0.00000E+00
         0.00000E+00
         0.00000E+00
         0.00000E+00
         0.00000E+00
         0.00000E+00
         0.00000E+00
         0.00000E+00
         0.00000E+00
         0.00000E+00
         0.00000E+00
         0.00000E+00
         0.00000E+00
         0.00000E+00
         0.00000E+00
         0.00000E+00
         0.00000E+00
         0.00000E+00
         0.00000E+00
         0.00000E+00
         0.00000E+00
         0.00000E+00
         0.00000E+00
         0.00000E+00
         0.00000E+00
         0.00000E+00
         0.00000E+00
         0.00000E+00
         0.00000E+00
         0.00000E+00
         0.00000E+00
         0.00000E+00
         0.00000E+00
         0.00000E+00
         0.00000E+00
         0.00000E+00
         0.00000E+00
         0.00000E+00
         0.00000E+00
         0.00000E+00
         0.00000E+00
         0.00000E+00
         0.00000E+00
         0.00000E+00
         0.00000E+00
         0.00000E+00
         0.00000E+00
         0.00000E+00
         0.00000E+00
         0.00000E+00
         0.00000E+00
         0.00000E+00
         0.00000E+00
         0.00000E+00
         0.00000E+00
         0.00000E+00
         0.00000E+00
         0.00000E+00
         0.00000E+00
         0.00000E+00
         0.00000E+00
         0.00000E+00
         0.00000E+00
         0.00000E+00
         0.00000E+00
         0.00000E+00
         0.00000E+00
         0.00000E+00
         0.00000E+00
         0.00000E+00
         0.00000E+00
         0.00000E+00
         0.00000E+00
         0.00000E+00
         0.00000E+00
         0.00000E+00
         0.00000E+00
         0.00000E+00
         0.00000E+00
         0.00000E+00
         0.00000E+00
         0.00000E+00
         0.00000E+00
         0.00000E+00
         0.00000E+00
         0.00000E+00
         0.00000E+00
         0.00000E+00
         0.00000E+00
         0.00000E+00
         0.00000E+00
         0.00000E+00
         0.00000E+00
         0.00000E+00
         0.00000E+00
         0.00000E+00
         0.00000E+00
         0.00000E+00
         0.00000E+00
         0.00000E+00
         0.00000E+00
         0.00000E+00
         0.00000E+00
         0.00000E+00
         0.00000E+00
         0.00000E+00
         0.00000E+00
         0.00000E+00
         0.00000E+00
         0.00000E+00
         0.00000E+00
         0.00000E+00
         0.00000E+00
         0.00000E+00
         0.00000E+00
         0.00000E+00
         0.00000E+00
         0.00000E+00
         0.00000E+00
         0.00000E+00
         0.00000E+00
         0.00000E+00
         0.00000E+00
         0.00000E+00
         0.00000E+00
         0.00000E+00
         0.00000E+00
         0.00000E+00
         0.00000E+00
         0.00000E+00
         0.00000E+00
         0.00000E+00
         0.00000E+00
         0.00000E+00
         0.00000E+00
         0.00000E+00
         0.00000E+00
         0.00000E+00
         0.00000E+00
         0.00000E+00
         0.00000E+00
         0.00000E+00
         0.00000E+00
         0.00000E+00
         0.00000E+00
         0.00000E+00
         0.00000E+00
         0.00000E+00
         0.00000E+00
         0.00000E+00
         0.00000E+00
         0.00000E+00
         0.00000E+00
         0.00000E+00
         0.00000E+00
         0.00000E+00
         0.00000E+00
         0.00000E+00
         0.00000E+00
         0.00000E+00
         0.00000E+00
         0.00000E+00
         0.00000E+00
         0.00000E+00
         0.00000E+00
         0.00000E+00
         0.00000E+00
         0.00000E+00
         0.00000E+00
         0.00000E+00
         0.00000E+00
         0.00000E+00
         0.00000E+00
         0.00000E+00
         0.00000E+00
         0.00000E+00
         0.00000E+00
         0.00000E+00
         0.00000E+00
         0.00000E+00
         0.00000E+00
         0.00000E+00
         0.00000E+00
         0.00000E+00
         0.00000E+00
         0.00000E+00
         0.00000E+00
         0.00000E+00
         0.00000E+00
         0.00000E+00
         0.00000E+00
         0.00000E+00
         0.00000E+00
         0.00000E+00
         0.00000E+00
         0.00000E+00
         0.00000E+00
         0.00000E+00
         0.00000E+00
         0.00000E+00
         0.00000E+00
         0.00000E+00
         0.00000E+00
         0.00000E+00
         0.00000E+00
         0.00000E+00
         0.00000E+00
         0.00000E+00
         0.00000E+00
         0.00000E+00
         0.00000E+00
         0.00000E+00
         0.00000E+00
         0.00000E+00
         0.00000E+00
         0.00000E+00
         0.00000E+00
         0.00000E+00
         0.00000E+00
         0.00000E+00
         0.00000E+00
         0.00000E+00
         0.00000E+00
         0.00000E+00
         0.00000E+00
         0.00000E+00
         0.00000E+00
         0.00000E+00
         0.00000E+00
         0.00000E+00
         0.00000E+00
         0.00000E+00
         0.00000E+00
         0.00000E+00
         0.00000E+00
         0.00000E+00
         0.00000E+00
         0.00000E+00
         0.00000E+00
         0.00000E+00
         0.00000E+00
         0.00000E+00
         0.00000E+00
         0.00000E+00
         0.00000E+00
         0.00000E+00
         0.00000E+00
         0.00000E+00
         0.00000E+00
         0.00000E+00
         0.00000E+00
         0.00000E+00
         0.00000E+00
         0.00000E+00
         0.00000E+00
         0.00000E+00
         0.00000E+00
         0.00000E+00
         0.00000E+00
         0.00000E+00
         0.00000E+00
         0.00000E+00
         0.00000E+00
         0.00000E+00
         0.00000E+00
         0.00000E+00
         0.00000E+00
         0.00000E+00
         0.00000E+00
         0.00000E+00
         0.00000E+00
         0.00000E+00
         0.00000E+00
         0.00000E+00
         0.00000E+00
         0.00000E+00
         0.00000E+00
         0.00000E+00
         0.00000E+00
         0.00000E+00
         0.00000E+00
         0.00000E+00
         0.00000E+00
         0.00000E+00
         0.00000E+00
         0.00000E+00
         0.00000E+00
         0.00000E+00
         0.00000E+00
         0.00000E+00
         0.00000E+00
         0.00000E+00
         0.00000E+00
         0.00000E+00
         0.00000E+00
         0.00000E+00
         0.00000E+00
         0.00000E+00
         0.00000E+00
         0.00000E+00
         0.00000E+00
         0.00000E+00
         0.00000E+00
         0.00000E+00
         0.00000E+00
         0.00000E+00
         0.00000E+00
         0.00000E+00
         0.00000E+00
         0.00000E+00
         0.00000E+00
         0.00000E+00
         0.00000E+00
         0.00000E+00
         0.00000E+00
         0.00000E+00
         0.00000E+00
         0.00000E+00
         0.00000E+00
         0.00000E+00
         0.00000E+00
         0.00000E+00
         0.00000E+00
         0.00000E+00
         0.00000E+00
         0.00000E+00
         0.00000E+00
         0.00000E+00
         0.00000E+00
         0.00000E+00
         0.00000E+00
         0.00000E+00
         0.00000E+00
         0.00000E+00
         0.00000E+00
         0.00000E+00
         0.00000E+00
         0.00000E+00
         0.00000E+00
         0.00000E+00
         0.00000E+00
         0.00000E+00
         0.00000E+00
         0.00000E+00
         0.00000E+00
         0.00000E+00
         0.00000E+00
         0.00000E+00
         0.00000E+00
         0.00000E+00
         0.00000E+00
         0.00000E+00
         0.00000E+00
         0.00000E+00
         0.00000E+00
         0.00000E+00
         0.00000E+00
         0.00000E+00
         0.00000E+00
         0.00000E+00
         0.00000E+00
         0.00000E+00
         0.00000E+00
         0.00000E+00
         0.00000E+00
         0.00000E+00
         0.00000E+00
         0.00000E+00
         0.00000E+00
         0.00000E+00
         0.00000E+00
         0.00000E+00
         0.00000E+00
         0.00000E+00
         0.00000E+00
         0.00000E+00
         0.00000E+00
         0.00000E+00
         0.00000E+00
         0.00000E+00
         0.00000E+00
         0.00000E+00
         0.00000E+00
         0.00000E+00
         0.00000E+00
         0.00000E+00
         0.00000E+00
         0.00000E+00
         0.00000E+00
         0.00000E+00
         0.00000E+00
         0.00000E+00
         0.00000E+00
         0.00000E+00
         0.00000E+00
         0.00000E+00
         0.00000E+00
         0.00000E+00
         0.00000E+00
         0.00000E+00
         0.00000E+00
         0.00000E+00
         0.00000E+00
         0.00000E+00
         0.00000E+00
         0.00000E+00
         0.00000E+00
         0.00000E+00
         0.00000E+00
         0.00000E+00
         0.00000E+00
         0.00000E+00
         0.00000E+00
         0.00000E+00
         0.00000E+00
         0.00000E+00
         0.00000E+00
         0.00000E+00
         0.00000E+00
         0.00000E+00
         0.00000E+00
         0.00000E+00
         0.00000E+00
         0.00000E+00
         0.00000E+00
         0.00000E+00
         0.00000E+00
         0.00000E+00
         0.00000E+00
         0.00000E+00
         0.00000E+00
         0.00000E+00
         0.00000E+00
         0.00000E+00
         0.00000E+00
         0.00000E+00
         0.00000E+00
         0.00000E+00
         0.00000E+00
         0.00000E+00
         0.00000E+00
         0.00000E+00
         0.00000E+00
         0.00000E+00
         0.00000E+00
         0.00000E+00
         0.00000E+00
         0.00000E+00
         0.00000E+00
         0.00000E+00
         0.00000E+00
         0.00000E+00
         0.00000E+00
         0.00000E+00
         0.00000E+00
         0.00000E+00
         0.00000E+00
         0.00000E+00
         0.00000E+00
         0.00000E+00
         0.00000E+00
         0.00000E+00
         0.00000E+00
         0.00000E+00
         0.00000E+00
         0.00000E+00
         0.00000E+00
         0.00000E+00
         0.00000E+00
         0.00000E+00
         0.00000E+00
         0.00000E+00
         0.00000E+00
         0.00000E+00
         0.00000E+00
         0.00000E+00
         0.00000E+00
         0.00000E+00
         0.00000E+00
         0.00000E+00
         0.00000E+00
         0.00000E+00
         0.00000E+00
         0.00000E+00
         0.00000E+00
         0.00000E+00
         0.00000E+00
         0.00000E+00
         0.00000E+00
         0.00000E+00
         0.00000E+00
         0.00000E+00
         0.00000E+00
         0.00000E+00
         0.00000E+00
         0.00000E+00
         0.00000E+00
         0.00000E+00
         0.00000E+00
         0.00000E+00
         0.00000E+00
         0.00000E+00
         0.00000E+00
         0.00000E+00
         0.00000E+00
         0.00000E+00
         0.00000E+00
         0.00000E+00
         0.00000E+00
         0.00000E+00
         0.00000E+00
         0.00000E+00
         0.00000E+00
         0.00000E+00
         0.00000E+00
         0.00000E+00
         0.00000E+00
         0.00000E+00
         0.00000E+00
         0.00000E+00
         0.00000E+00
         0.00000E+00
         0.00000E+00
         0.00000E+00
         0.00000E+00
         0.00000E+00
         0.00000E+00
         0.00000E+00
         0.00000E+00
         0.00000E+00
         0.00000E+00
         0.00000E+00
         0.00000E+00
         0.00000E+00
         0.00000E+00
         0.00000E+00
         0.00000E+00
         0.00000E+00
         0.00000E+00
         0.00000E+00
         0.00000E+00
         0.00000E+00
         0.00000E+00
         0.00000E+00
         0.00000E+00
         0.00000E+00
         0.00000E+00
         0.00000E+00
         0.00000E+00
         0.00000E+00
         0.00000E+00
         0.00000E+00
         0.00000E+00
         0.00000E+00
         0.00000E+00
         0.00000E+00
         0.00000E+00
         0.00000E+00
         0.00000E+00
         0.00000E+00
         0.00000E+00
         0.00000E+00
         0.00000E+00
         0.00000E+00
         0.00000E+00
         0.00000E+00
         0.00000E+00
         0.00000E+00
         0.00000E+00
         0.00000E+00
         0.00000E+00
         0.00000E+00
         0.00000E+00
         0.00000E+00
         0.00000E+00
         0.00000E+00
         0.00000E+00
         0.00000E+00
         0.00000E+00
         0.00000E+00
         0.00000E+00
         0.00000E+00
         0.00000E+00
         0.00000E+00
         0.00000E+00
         0.00000E+00
         0.00000E+00
         0.00000E+00
         0.00000E+00
         0.00000E+00
         0.00000E+00
         0.00000E+00
         0.00000E+00
         0.00000E+00
         0.00000E+00
         0.00000E+00
         0.00000E+00
         0.00000E+00
         0.00000E+00
         0.00000E+00
         0.00000E+00
         0.00000E+00
         0.00000E+00
         0.00000E+00
         0.00000E+00
         0.00000E+00
         0.00000E+00
         0.00000E+00
         0.00000E+00
         0.00000E+00
         0.00000E+00
         0.00000E+00
         0.00000E+00
         0.00000E+00
         0.00000E+00
         0.00000E+00
         0.00000E+00
         0.00000E+00
         0.00000E+00
         0.00000E+00
         0.00000E+00
         0.00000E+00
         0.00000E+00
         0.00000E+00
         0.00000E+00
         0.00000E+00
         0.00000E+00
         0.00000E+00
         0.00000E+00
         0.00000E+00
         0.00000E+00
         0.00000E+00
         0.00000E+00
         0.00000E+00
         0.00000E+00
         0.00000E+00
         0.00000E+00
         0.00000E+00
         0.00000E+00
         0.00000E+00
         0.00000E+00
         0.00000E+00
         0.00000E+00
         0.00000E+00
         0.00000E+00
         0.00000E+00
         0.00000E+00
         0.00000E+00
         0.00000E+00
         0.00000E+00
         0.00000E+00
         0.00000E+00
         0.00000E+00
         0.00000E+00
         0.00000E+00
         0.00000E+00
         0.00000E+00
         0.00000E+00
         0.00000E+00
         0.00000E+00
         0.00000E+00
         0.00000E+00
         0.00000E+00
         0.00000E+00
         0.00000E+00
         0.00000E+00
         0.00000E+00
         0.00000E+00
         0.00000E+00
         0.00000E+00
         0.00000E+00
         0.00000E+00
         0.00000E+00
         0.00000E+00
         0.00000E+00
         0.00000E+00
         0.00000E+00
         0.00000E+00
         0.00000E+00
         0.00000E+00
         0.00000E+00
         0.00000E+00
         0.00000E+00
         0.00000E+00
         0.00000E+00
         0.00000E+00
         0.00000E+00
         0.00000E+00
         0.00000E+00
         0.00000E+00
         0.00000E+00
  
SCALARS                        eps_vol  double 1
LOOKUP_TABLE default
         0.00000E+00
         0.00000E+00
         0.00000E+00
         0.00000E+00
         0.00000E+00
         0.00000E+00
         0.00000E+00
         0.00000E+00
         0.00000E+00
         0.00000E+00
         0.00000E+00
         0.00000E+00
         0.00000E+00
         0.00000E+00
         0.00000E+00
         0.00000E+00
         0.00000E+00
         0.00000E+00
         0.00000E+00
         0.00000E+00
         0.00000E+00
         0.00000E+00
         0.00000E+00
         0.00000E+00
         0.00000E+00
         0.00000E+00
         0.00000E+00
         0.00000E+00
         0.00000E+00
         0.00000E+00
         0.00000E+00
         0.00000E+00
         0.00000E+00
         0.00000E+00
         0.00000E+00
         0.00000E+00
         0.00000E+00
         0.00000E+00
         0.00000E+00
         0.00000E+00
         0.00000E+00
         0.00000E+00
         0.00000E+00
         0.00000E+00
         0.00000E+00
         0.00000E+00
         0.00000E+00
         0.00000E+00
         0.00000E+00
         0.00000E+00
         0.00000E+00
         0.00000E+00
         0.00000E+00
         0.00000E+00
         0.00000E+00
         0.00000E+00
         0.00000E+00
         0.00000E+00
         0.00000E+00
         0.00000E+00
         0.00000E+00
         0.00000E+00
         0.00000E+00
         0.00000E+00
         0.00000E+00
         0.00000E+00
         0.00000E+00
         0.00000E+00
         0.00000E+00
         0.00000E+00
         0.00000E+00
         0.00000E+00
         0.00000E+00
         0.00000E+00
         0.00000E+00
         0.00000E+00
         0.00000E+00
         0.00000E+00
         0.00000E+00
         0.00000E+00
         0.00000E+00
         0.00000E+00
         0.00000E+00
         0.00000E+00
         0.00000E+00
         0.00000E+00
         0.00000E+00
         0.00000E+00
         0.00000E+00
         0.00000E+00
         0.00000E+00
         0.00000E+00
         0.00000E+00
         0.00000E+00
         0.00000E+00
         0.00000E+00
         0.00000E+00
         0.00000E+00
         0.00000E+00
         0.00000E+00
         0.00000E+00
         0.00000E+00
         0.00000E+00
         0.00000E+00
         0.00000E+00
         0.00000E+00
         0.00000E+00
         0.00000E+00
         0.00000E+00
         0.00000E+00
         0.00000E+00
         0.00000E+00
         0.00000E+00
         0.00000E+00
         0.00000E+00
         0.00000E+00
         0.00000E+00
         0.00000E+00
         0.00000E+00
         0.00000E+00
         0.00000E+00
         0.00000E+00
         0.00000E+00
         0.00000E+00
         0.00000E+00
         0.00000E+00
         0.00000E+00
         0.00000E+00
         0.00000E+00
         0.00000E+00
         0.00000E+00
         0.00000E+00
         0.00000E+00
         0.00000E+00
         0.00000E+00
         0.00000E+00
         0.00000E+00
         0.00000E+00
         0.00000E+00
         0.00000E+00
         0.00000E+00
         0.00000E+00
         0.00000E+00
         0.00000E+00
         0.00000E+00
         0.00000E+00
         0.00000E+00
         0.00000E+00
         0.00000E+00
         0.00000E+00
         0.00000E+00
         0.00000E+00
         0.00000E+00
         0.00000E+00
         0.00000E+00
         0.00000E+00
         0.00000E+00
         0.00000E+00
         0.00000E+00
         0.00000E+00
         0.00000E+00
         0.00000E+00
         0.00000E+00
         0.00000E+00
         0.00000E+00
         0.00000E+00
         0.00000E+00
         0.00000E+00
         0.00000E+00
         0.00000E+00
         0.00000E+00
         0.00000E+00
         0.00000E+00
         0.00000E+00
         0.00000E+00
         0.00000E+00
         0.00000E+00
         0.00000E+00
         0.00000E+00
         0.00000E+00
         0.00000E+00
         0.00000E+00
         0.00000E+00
         0.00000E+00
         0.00000E+00
         0.00000E+00
         0.00000E+00
         0.00000E+00
         0.00000E+00
         0.00000E+00
         0.00000E+00
         0.00000E+00
         0.00000E+00
         0.00000E+00
         0.00000E+00
         0.00000E+00
         0.00000E+00
         0.00000E+00
         0.00000E+00
         0.00000E+00
         0.00000E+00
         0.00000E+00
         0.00000E+00
         0.00000E+00
         0.00000E+00
         0.00000E+00
         0.00000E+00
         0.00000E+00
         0.00000E+00
         0.00000E+00
         0.00000E+00
         0.00000E+00
         0.00000E+00
         0.00000E+00
         0.00000E+00
         0.00000E+00
         0.00000E+00
         0.00000E+00
         0.00000E+00
         0.00000E+00
         0.00000E+00
         0.00000E+00
         0.00000E+00
         0.00000E+00
         0.00000E+00
         0.00000E+00
         0.00000E+00
         0.00000E+00
         0.00000E+00
         0.00000E+00
         0.00000E+00
         0.00000E+00
         0.00000E+00
         0.00000E+00
         0.00000E+00
         0.00000E+00
         0.00000E+00
         0.00000E+00
         0.00000E+00
         0.00000E+00
         0.00000E+00
         0.00000E+00
         0.00000E+00
         0.00000E+00
         0.00000E+00
         0.00000E+00
         0.00000E+00
         0.00000E+00
         0.00000E+00
         0.00000E+00
         0.00000E+00
         0.00000E+00
         0.00000E+00
         0.00000E+00
         0.00000E+00
         0.00000E+00
         0.00000E+00
         0.00000E+00
         0.00000E+00
         0.00000E+00
         0.00000E+00
         0.00000E+00
         0.00000E+00
         0.00000E+00
         0.00000E+00
         0.00000E+00
         0.00000E+00
         0.00000E+00
         0.00000E+00
         0.00000E+00
         0.00000E+00
         0.00000E+00
         0.00000E+00
         0.00000E+00
         0.00000E+00
         0.00000E+00
         0.00000E+00
         0.00000E+00
         0.00000E+00
         0.00000E+00
         0.00000E+00
         0.00000E+00
         0.00000E+00
         0.00000E+00
         0.00000E+00
         0.00000E+00
         0.00000E+00
         0.00000E+00
         0.00000E+00
         0.00000E+00
         0.00000E+00
         0.00000E+00
         0.00000E+00
         0.00000E+00
         0.00000E+00
         0.00000E+00
         0.00000E+00
         0.00000E+00
         0.00000E+00
         0.00000E+00
         0.00000E+00
         0.00000E+00
         0.00000E+00
         0.00000E+00
         0.00000E+00
         0.00000E+00
         0.00000E+00
         0.00000E+00
         0.00000E+00
         0.00000E+00
         0.00000E+00
         0.00000E+00
         0.00000E+00
         0.00000E+00
         0.00000E+00
         0.00000E+00
         0.00000E+00
         0.00000E+00
         0.00000E+00
         0.00000E+00
         0.00000E+00
         0.00000E+00
         0.00000E+00
         0.00000E+00
         0.00000E+00
         0.00000E+00
         0.00000E+00
         0.00000E+00
         0.00000E+00
         0.00000E+00
         0.00000E+00
         0.00000E+00
         0.00000E+00
         0.00000E+00
         0.00000E+00
         0.00000E+00
         0.00000E+00
         0.00000E+00
         0.00000E+00
         0.00000E+00
         0.00000E+00
         0.00000E+00
         0.00000E+00
         0.00000E+00
         0.00000E+00
         0.00000E+00
         0.00000E+00
         0.00000E+00
         0.00000E+00
         0.00000E+00
         0.00000E+00
         0.00000E+00
         0.00000E+00
         0.00000E+00
         0.00000E+00
         0.00000E+00
         0.00000E+00
         0.00000E+00
         0.00000E+00
         0.00000E+00
         0.00000E+00
         0.00000E+00
         0.00000E+00
         0.00000E+00
         0.00000E+00
         0.00000E+00
         0.00000E+00
         0.00000E+00
         0.00000E+00
         0.00000E+00
         0.00000E+00
         0.00000E+00
         0.00000E+00
         0.00000E+00
         0.00000E+00
         0.00000E+00
         0.00000E+00
         0.00000E+00
         0.00000E+00
         0.00000E+00
         0.00000E+00
         0.00000E+00
         0.00000E+00
         0.00000E+00
         0.00000E+00
         0.00000E+00
         0.00000E+00
         0.00000E+00
         0.00000E+00
         0.00000E+00
         0.00000E+00
         0.00000E+00
         0.00000E+00
         0.00000E+00
         0.00000E+00
         0.00000E+00
         0.00000E+00
         0.00000E+00
         0.00000E+00
         0.00000E+00
         0.00000E+00
         0.00000E+00
         0.00000E+00
         0.00000E+00
         0.00000E+00
         0.00000E+00
         0.00000E+00
         0.00000E+00
         0.00000E+00
         0.00000E+00
         0.00000E+00
         0.00000E+00
         0.00000E+00
         0.00000E+00
         0.00000E+00
         0.00000E+00
         0.00000E+00
         0.00000E+00
         0.00000E+00
         0.00000E+00
         0.00000E+00
         0.00000E+00
         0.00000E+00
         0.00000E+00
         0.00000E+00
         0.00000E+00
         0.00000E+00
         0.00000E+00
         0.00000E+00
         0.00000E+00
         0.00000E+00
         0.00000E+00
         0.00000E+00
         0.00000E+00
         0.00000E+00
         0.00000E+00
         0.00000E+00
         0.00000E+00
         0.00000E+00
         0.00000E+00
         0.00000E+00
         0.00000E+00
         0.00000E+00
         0.00000E+00
         0.00000E+00
         0.00000E+00
         0.00000E+00
         0.00000E+00
         0.00000E+00
         0.00000E+00
         0.00000E+00
         0.00000E+00
         0.00000E+00
         0.00000E+00
         0.00000E+00
         0.00000E+00
         0.00000E+00
         0.00000E+00
         0.00000E+00
         0.00000E+00
         0.00000E+00
         0.00000E+00
         0.00000E+00
         0.00000E+00
         0.00000E+00
         0.00000E+00
         0.00000E+00
         0.00000E+00
         0.00000E+00
         0.00000E+00
         0.00000E+00
         0.00000E+00
         0.00000E+00
         0.00000E+00
         0.00000E+00
         0.00000E+00
         0.00000E+00
         0.00000E+00
         0.00000E+00
         0.00000E+00
         0.00000E+00
         0.00000E+00
         0.00000E+00
         0.00000E+00
         0.00000E+00
         0.00000E+00
         0.00000E+00
         0.00000E+00
         0.00000E+00
         0.00000E+00
         0.00000E+00
         0.00000E+00
         0.00000E+00
         0.00000E+00
         0.00000E+00
         0.00000E+00
         0.00000E+00
         0.00000E+00
         0.00000E+00
         0.00000E+00
         0.00000E+00
         0.00000E+00
         0.00000E+00
         0.00000E+00
         0.00000E+00
         0.00000E+00
         0.00000E+00
         0.00000E+00
         0.00000E+00
         0.00000E+00
         0.00000E+00
         0.00000E+00
         0.00000E+00
         0.00000E+00
         0.00000E+00
         0.00000E+00
         0.00000E+00
         0.00000E+00
         0.00000E+00
         0.00000E+00
         0.00000E+00
         0.00000E+00
         0.00000E+00
         0.00000E+00
         0.00000E+00
         0.00000E+00
         0.00000E+00
         0.00000E+00
         0.00000E+00
         0.00000E+00
         0.00000E+00
         0.00000E+00
         0.00000E+00
         0.00000E+00
         0.00000E+00
         0.00000E+00
         0.00000E+00
         0.00000E+00
         0.00000E+00
         0.00000E+00
         0.00000E+00
         0.00000E+00
         0.00000E+00
         0.00000E+00
         0.00000E+00
         0.00000E+00
         0.00000E+00
         0.00000E+00
         0.00000E+00
         0.00000E+00
         0.00000E+00
         0.00000E+00
         0.00000E+00
         0.00000E+00
         0.00000E+00
         0.00000E+00
         0.00000E+00
         0.00000E+00
         0.00000E+00
         0.00000E+00
         0.00000E+00
         0.00000E+00
         0.00000E+00
         0.00000E+00
         0.00000E+00
         0.00000E+00
         0.00000E+00
         0.00000E+00
         0.00000E+00
         0.00000E+00
         0.00000E+00
         0.00000E+00
         0.00000E+00
         0.00000E+00
         0.00000E+00
         0.00000E+00
         0.00000E+00
         0.00000E+00
         0.00000E+00
         0.00000E+00
         0.00000E+00
         0.00000E+00
         0.00000E+00
         0.00000E+00
         0.00000E+00
         0.00000E+00
         0.00000E+00
         0.00000E+00
         0.00000E+00
         0.00000E+00
         0.00000E+00
         0.00000E+00
         0.00000E+00
         0.00000E+00
         0.00000E+00
         0.00000E+00
         0.00000E+00
         0.00000E+00
         0.00000E+00
         0.00000E+00
         0.00000E+00
         0.00000E+00
         0.00000E+00
         0.00000E+00
         0.00000E+00
         0.00000E+00
         0.00000E+00
         0.00000E+00
         0.00000E+00
         0.00000E+00
         0.00000E+00
         0.00000E+00
         0.00000E+00
         0.00000E+00
         0.00000E+00
         0.00000E+00
         0.00000E+00
         0.00000E+00
         0.00000E+00
         0.00000E+00
         0.00000E+00
         0.00000E+00
         0.00000E+00
         0.00000E+00
         0.00000E+00
         0.00000E+00
         0.00000E+00
         0.00000E+00
         0.00000E+00
         0.00000E+00
         0.00000E+00
         0.00000E+00
         0.00000E+00
         0.00000E+00
         0.00000E+00
         0.00000E+00
         0.00000E+00
         0.00000E+00
         0.00000E+00
         0.00000E+00
         0.00000E+00
         0.00000E+00
         0.00000E+00
         0.00000E+00
         0.00000E+00
         0.00000E+00
         0.00000E+00
         0.00000E+00
         0.00000E+00
         0.00000E+00
         0.00000E+00
         0.00000E+00
         0.00000E+00
         0.00000E+00
         0.00000E+00
         0.00000E+00
         0.00000E+00
         0.00000E+00
         0.00000E+00
         0.00000E+00
         0.00000E+00
         0.00000E+00
         0.00000E+00
         0.00000E+00
         0.00000E+00
         0.00000E+00
         0.00000E+00
         0.00000E+00
         0.00000E+00
         0.00000E+00
         0.00000E+00
         0.00000E+00
         0.00000E+00
         0.00000E+00
         0.00000E+00
         0.00000E+00
         0.00000E+00
         0.00000E+00
         0.00000E+00
         0.00000E+00
         0.00000E+00
         0.00000E+00
         0.00000E+00
         0.00000E+00
         0.00000E+00
         0.00000E+00
         0.00000E+00
         0.00000E+00
         0.00000E+00
         0.00000E+00
         0.00000E+00
         0.00000E+00
         0.00000E+00
         0.00000E+00
         0.00000E+00
         0.00000E+00
         0.00000E+00
         0.00000E+00
         0.00000E+00
         0.00000E+00
         0.00000E+00
         0.00000E+00
         0.00000E+00
         0.00000E+00
         0.00000E+00
         0.00000E+00
         0.00000E+00
         0.00000E+00
         0.00000E+00
         0.00000E+00
         0.00000E+00
         0.00000E+00
         0.00000E+00
         0.00000E+00
         0.00000E+00
         0.00000E+00
         0.00000E+00
         0.00000E+00
         0.00000E+00
         0.00000E+00
         0.00000E+00
         0.00000E+00
         0.00000E+00
         0.00000E+00
         0.00000E+00
         0.00000E+00
         0.00000E+00
         0.00000E+00
         0.00000E+00
         0.00000E+00
         0.00000E+00
         0.00000E+00
         0.00000E+00
         0.00000E+00
         0.00000E+00
         0.00000E+00
         0.00000E+00
         0.00000E+00
         0.00000E+00
         0.00000E+00
         0.00000E+00
         0.00000E+00
         0.00000E+00
         0.00000E+00
         0.00000E+00
         0.00000E+00
         0.00000E+00
         0.00000E+00
         0.00000E+00
         0.00000E+00
         0.00000E+00
         0.00000E+00
         0.00000E+00
         0.00000E+00
         0.00000E+00
         0.00000E+00
         0.00000E+00
         0.00000E+00
         0.00000E+00
         0.00000E+00
         0.00000E+00
         0.00000E+00
         0.00000E+00
         0.00000E+00
         0.00000E+00
         0.00000E+00
         0.00000E+00
         0.00000E+00
         0.00000E+00
         0.00000E+00
         0.00000E+00
         0.00000E+00
         0.00000E+00
         0.00000E+00
         0.00000E+00
         0.00000E+00
         0.00000E+00
         0.00000E+00
         0.00000E+00
         0.00000E+00
         0.00000E+00
         0.00000E+00
         0.00000E+00
         0.00000E+00
         0.00000E+00
         0.00000E+00
         0.00000E+00
         0.00000E+00
         0.00000E+00
         0.00000E+00
         0.00000E+00
         0.00000E+00
         0.00000E+00
         0.00000E+00
         0.00000E+00
         0.00000E+00
         0.00000E+00
         0.00000E+00
         0.00000E+00
         0.00000E+00
         0.00000E+00
         0.00000E+00
         0.00000E+00
         0.00000E+00
         0.00000E+00
         0.00000E+00
         0.00000E+00
         0.00000E+00
         0.00000E+00
         0.00000E+00
         0.00000E+00
         0.00000E+00
         0.00000E+00
         0.00000E+00
         0.00000E+00
         0.00000E+00
         0.00000E+00
         0.00000E+00
         0.00000E+00
         0.00000E+00
         0.00000E+00
         0.00000E+00
         0.00000E+00
         0.00000E+00
         0.00000E+00
         0.00000E+00
         0.00000E+00
         0.00000E+00
         0.00000E+00
         0.00000E+00
         0.00000E+00
         0.00000E+00
         0.00000E+00
         0.00000E+00
         0.00000E+00
         0.00000E+00
         0.00000E+00
         0.00000E+00
         0.00000E+00
         0.00000E+00
         0.00000E+00
         0.00000E+00
         0.00000E+00
         0.00000E+00
         0.00000E+00
         0.00000E+00
         0.00000E+00
         0.00000E+00
         0.00000E+00
         0.00000E+00
         0.00000E+00
         0.00000E+00
         0.00000E+00
         0.00000E+00
         0.00000E+00
         0.00000E+00
         0.00000E+00
         0.00000E+00
         0.00000E+00
         0.00000E+00
         0.00000E+00
         0.00000E+00
         0.00000E+00
         0.00000E+00
         0.00000E+00
         0.00000E+00
         0.00000E+00
         0.00000E+00
         0.00000E+00
         0.00000E+00
         0.00000E+00
         0.00000E+00
         0.00000E+00
         0.00000E+00
         0.00000E+00
         0.00000E+00
         0.00000E+00
         0.00000E+00
         0.00000E+00
         0.00000E+00
         0.00000E+00
         0.00000E+00
         0.00000E+00
         0.00000E+00
         0.00000E+00
         0.00000E+00
         0.00000E+00
         0.00000E+00
         0.00000E+00
         0.00000E+00
         0.00000E+00
         0.00000E+00
         0.00000E+00
         0.00000E+00
         0.00000E+00
         0.00000E+00
         0.00000E+00
         0.00000E+00
         0.00000E+00
         0.00000E+00
         0.00000E+00
         0.00000E+00
         0.00000E+00
         0.00000E+00
         0.00000E+00
         0.00000E+00
         0.00000E+00
         0.00000E+00
         0.00000E+00
         0.00000E+00
         0.00000E+00
         0.00000E+00
         0.00000E+00
         0.00000E+00
         0.00000E+00
         0.00000E+00
         0.00000E+00
         0.00000E+00
         0.00000E+00
         0.00000E+00
         0.00000E+00
         0.00000E+00
         0.00000E+00
         0.00000E+00
         0.00000E+00
         0.00000E+00
         0.00000E+00
         0.00000E+00
         0.00000E+00
         0.00000E+00
         0.00000E+00
         0.00000E+00
         0.00000E+00
         0.00000E+00
         0.00000E+00
         0.00000E+00
         0.00000E+00
         0.00000E+00
         0.00000E+00
         0.00000E+00
         0.00000E+00
         0.00000E+00
         0.00000E+00
         0.00000E+00
         0.00000E+00
         0.00000E+00
         0.00000E+00
         0.00000E+00
         0.00000E+00
         0.00000E+00
         0.00000E+00
         0.00000E+00
         0.00000E+00
         0.00000E+00
         0.00000E+00
         0.00000E+00
         0.00000E+00
         0.00000E+00
         0.00000E+00
         0.00000E+00
         0.00000E+00
         0.00000E+00
         0.00000E+00
         0.00000E+00
         0.00000E+00
         0.00000E+00
         0.00000E+00
         0.00000E+00
         0.00000E+00
         0.00000E+00
         0.00000E+00
         0.00000E+00
         0.00000E+00
         0.00000E+00
         0.00000E+00
         0.00000E+00
         0.00000E+00
         0.00000E+00
         0.00000E+00
         0.00000E+00
         0.00000E+00
         0.00000E+00
         0.00000E+00
         0.00000E+00
         0.00000E+00
         0.00000E+00
         0.00000E+00
         0.00000E+00
         0.00000E+00
         0.00000E+00
         0.00000E+00
         0.00000E+00
         0.00000E+00
         0.00000E+00
         0.00000E+00
         0.00000E+00
         0.00000E+00
         0.00000E+00
         0.00000E+00
         0.00000E+00
         0.00000E+00
         0.00000E+00
         0.00000E+00
         0.00000E+00
         0.00000E+00
         0.00000E+00
         0.00000E+00
         0.00000E+00
         0.00000E+00
         0.00000E+00
         0.00000E+00
         0.00000E+00
         0.00000E+00
         0.00000E+00
         0.00000E+00
         0.00000E+00
         0.00000E+00
         0.00000E+00
         0.00000E+00
         0.00000E+00
         0.00000E+00
         0.00000E+00
         0.00000E+00
         0.00000E+00
         0.00000E+00
         0.00000E+00
         0.00000E+00
         0.00000E+00
         0.00000E+00
         0.00000E+00
         0.00000E+00
         0.00000E+00
         0.00000E+00
         0.00000E+00
         0.00000E+00
         0.00000E+00
         0.00000E+00
         0.00000E+00
         0.00000E+00
         0.00000E+00
         0.00000E+00
         0.00000E+00
         0.00000E+00
         0.00000E+00
         0.00000E+00
         0.00000E+00
         0.00000E+00
         0.00000E+00
         0.00000E+00
         0.00000E+00
         0.00000E+00
         0.00000E+00
         0.00000E+00
         0.00000E+00
         0.00000E+00
         0.00000E+00
         0.00000E+00
         0.00000E+00
         0.00000E+00
         0.00000E+00
         0.00000E+00
         0.00000E+00
         0.00000E+00
         0.00000E+00
         0.00000E+00
         0.00000E+00
         0.00000E+00
         0.00000E+00
         0.00000E+00
         0.00000E+00
         0.00000E+00
         0.00000E+00
         0.00000E+00
         0.00000E+00
         0.00000E+00
         0.00000E+00
         0.00000E+00
         0.00000E+00
         0.00000E+00
         0.00000E+00
         0.00000E+00
         0.00000E+00
         0.00000E+00
         0.00000E+00
         0.00000E+00
         0.00000E+00
         0.00000E+00
         0.00000E+00
         0.00000E+00
         0.00000E+00
         0.00000E+00
         0.00000E+00
         0.00000E+00
         0.00000E+00
         0.00000E+00
         0.00000E+00
         0.00000E+00
         0.00000E+00
         0.00000E+00
         0.00000E+00
         0.00000E+00
         0.00000E+00
         0.00000E+00
         0.00000E+00
         0.00000E+00
         0.00000E+00
         0.00000E+00
         0.00000E+00
         0.00000E+00
         0.00000E+00
         0.00000E+00
         0.00000E+00
         0.00000E+00
         0.00000E+00
         0.00000E+00
         0.00000E+00
         0.00000E+00
         0.00000E+00
         0.00000E+00
         0.00000E+00
         0.00000E+00
         0.00000E+00
         0.00000E+00
         0.00000E+00
         0.00000E+00
         0.00000E+00
         0.00000E+00
         0.00000E+00
         0.00000E+00
         0.00000E+00
         0.00000E+00
         0.00000E+00
         0.00000E+00
         0.00000E+00
         0.00000E+00
         0.00000E+00
         0.00000E+00
         0.00000E+00
         0.00000E+00
         0.00000E+00
         0.00000E+00
         0.00000E+00
         0.00000E+00
         0.00000E+00
         0.00000E+00
         0.00000E+00
         0.00000E+00
         0.00000E+00
         0.00000E+00
         0.00000E+00
         0.00000E+00
         0.00000E+00
         0.00000E+00
         0.00000E+00
         0.00000E+00
         0.00000E+00
         0.00000E+00
         0.00000E+00
         0.00000E+00
         0.00000E+00
         0.00000E+00
         0.00000E+00
         0.00000E+00
         0.00000E+00
         0.00000E+00
         0.00000E+00
         0.00000E+00
         0.00000E+00
         0.00000E+00
         0.00000E+00
         0.00000E+00
         0.00000E+00
         0.00000E+00
         0.00000E+00
         0.00000E+00
         0.00000E+00
         0.00000E+00
         0.00000E+00
         0.00000E+00
         0.00000E+00
         0.00000E+00
         0.00000E+00
         0.00000E+00
         0.00000E+00
         0.00000E+00
         0.00000E+00
         0.00000E+00
         0.00000E+00
         0.00000E+00
         0.00000E+00
         0.00000E+00
         0.00000E+00
         0.00000E+00
         0.00000E+00
         0.00000E+00
         0.00000E+00
         0.00000E+00
         0.00000E+00
         0.00000E+00
         0.00000E+00
         0.00000E+00
         0.00000E+00
         0.00000E+00
         0.00000E+00
         0.00000E+00
         0.00000E+00
         0.00000E+00
         0.00000E+00
         0.00000E+00
         0.00000E+00
         0.00000E+00
         0.00000E+00
         0.00000E+00
         0.00000E+00
         0.00000E+00
         0.00000E+00
         0.00000E+00
         0.00000E+00
         0.00000E+00
         0.00000E+00
         0.00000E+00
         0.00000E+00
         0.00000E+00
         0.00000E+00
         0.00000E+00
         0.00000E+00
         0.00000E+00
         0.00000E+00
         0.00000E+00
         0.00000E+00
         0.00000E+00
         0.00000E+00
         0.00000E+00
         0.00000E+00
         0.00000E+00
         0.00000E+00
         0.00000E+00
         0.00000E+00
         0.00000E+00
         0.00000E+00
         0.00000E+00
         0.00000E+00
         0.00000E+00
         0.00000E+00
         0.00000E+00
         0.00000E+00
         0.00000E+00
         0.00000E+00
         0.00000E+00
         0.00000E+00
         0.00000E+00
         0.00000E+00
         0.00000E+00
         0.00000E+00
         0.00000E+00
         0.00000E+00
         0.00000E+00
         0.00000E+00
         0.00000E+00
         0.00000E+00
         0.00000E+00
         0.00000E+00
         0.00000E+00
         0.00000E+00
         0.00000E+00
         0.00000E+00
         0.00000E+00
         0.00000E+00
         0.00000E+00
         0.00000E+00
         0.00000E+00
         0.00000E+00
         0.00000E+00
         0.00000E+00
         0.00000E+00
         0.00000E+00
         0.00000E+00
         0.00000E+00
         0.00000E+00
         0.00000E+00
         0.00000E+00
         0.00000E+00
         0.00000E+00
         0.00000E+00
         0.00000E+00
         0.00000E+00
         0.00000E+00
         0.00000E+00
         0.00000E+00
         0.00000E+00
         0.00000E+00
         0.00000E+00
         0.00000E+00
         0.00000E+00
         0.00000E+00
         0.00000E+00
         0.00000E+00
         0.00000E+00
         0.00000E+00
         0.00000E+00
         0.00000E+00
         0.00000E+00
         0.00000E+00
         0.00000E+00
         0.00000E+00
         0.00000E+00
         0.00000E+00
         0.00000E+00
         0.00000E+00
         0.00000E+00
         0.00000E+00
         0.00000E+00
         0.00000E+00
         0.00000E+00
         0.00000E+00
         0.00000E+00
         0.00000E+00
         0.00000E+00
         0.00000E+00
         0.00000E+00
         0.00000E+00
         0.00000E+00
         0.00000E+00
         0.00000E+00
         0.00000E+00
         0.00000E+00
         0.00000E+00
         0.00000E+00
         0.00000E+00
         0.00000E+00
         0.00000E+00
         0.00000E+00
         0.00000E+00
         0.00000E+00
         0.00000E+00
         0.00000E+00
         0.00000E+00
         0.00000E+00
         0.00000E+00
         0.00000E+00
         0.00000E+00
         0.00000E+00
         0.00000E+00
         0.00000E+00
         0.00000E+00
         0.00000E+00
         0.00000E+00
         0.00000E+00
         0.00000E+00
         0.00000E+00
         0.00000E+00
         0.00000E+00
         0.00000E+00
         0.00000E+00
         0.00000E+00
         0.00000E+00
         0.00000E+00
         0.00000E+00
         0.00000E+00
         0.00000E+00
         0.00000E+00
         0.00000E+00
         0.00000E+00
         0.00000E+00
         0.00000E+00
         0.00000E+00
         0.00000E+00
         0.00000E+00
         0.00000E+00
         0.00000E+00
         0.00000E+00
         0.00000E+00
         0.00000E+00
         0.00000E+00
         0.00000E+00
         0.00000E+00
         0.00000E+00
         0.00000E+00
         0.00000E+00
         0.00000E+00
         0.00000E+00
         0.00000E+00
         0.00000E+00
         0.00000E+00
         0.00000E+00
         0.00000E+00
         0.00000E+00
         0.00000E+00
         0.00000E+00
         0.00000E+00
         0.00000E+00
         0.00000E+00
         0.00000E+00
         0.00000E+00
         0.00000E+00
         0.00000E+00
         0.00000E+00
         0.00000E+00
         0.00000E+00
         0.00000E+00
         0.00000E+00
         0.00000E+00
         0.00000E+00
         0.00000E+00
         0.00000E+00
         0.00000E+00
         0.00000E+00
         0.00000E+00
         0.00000E+00
         0.00000E+00
         0.00000E+00
         0.00000E+00
         0.00000E+00
         0.00000E+00
         0.00000E+00
         0.00000E+00
         0.00000E+00
         0.00000E+00
         0.00000E+00
         0.00000E+00
         0.00000E+00
         0.00000E+00
         0.00000E+00
         0.00000E+00
         0.00000E+00
         0.00000E+00
         0.00000E+00
         0.00000E+00
         0.00000E+00
         0.00000E+00
         0.00000E+00
         0.00000E+00
         0.00000E+00
         0.00000E+00
         0.00000E+00
         0.00000E+00
         0.00000E+00
         0.00000E+00
         0.00000E+00
         0.00000E+00
         0.00000E+00
         0.00000E+00
         0.00000E+00
         0.00000E+00
         0.00000E+00
         0.00000E+00
         0.00000E+00
         0.00000E+00
         0.00000E+00
         0.00000E+00
         0.00000E+00
         0.00000E+00
         0.00000E+00
         0.00000E+00
         0.00000E+00
         0.00000E+00
         0.00000E+00
         0.00000E+00
         0.00000E+00
         0.00000E+00
         0.00000E+00
         0.00000E+00
         0.00000E+00
         0.00000E+00
         0.00000E+00
         0.00000E+00
         0.00000E+00
         0.00000E+00
         0.00000E+00
         0.00000E+00
         0.00000E+00
         0.00000E+00
         0.00000E+00
         0.00000E+00
         0.00000E+00
         0.00000E+00
         0.00000E+00
         0.00000E+00
         0.00000E+00
         0.00000E+00
         0.00000E+00
         0.00000E+00
         0.00000E+00
         0.00000E+00
         0.00000E+00
         0.00000E+00
         0.00000E+00
         0.00000E+00
         0.00000E+00
         0.00000E+00
         0.00000E+00
         0.00000E+00
         0.00000E+00
         0.00000E+00
         0.00000E+00
         0.00000E+00
         0.00000E+00
         0.00000E+00
         0.00000E+00
         0.00000E+00
         0.00000E+00
         0.00000E+00
         0.00000E+00
         0.00000E+00
         0.00000E+00
         0.00000E+00
         0.00000E+00
         0.00000E+00
         0.00000E+00
         0.00000E+00
         0.00000E+00
         0.00000E+00
         0.00000E+00
         0.00000E+00
         0.00000E+00
         0.00000E+00
         0.00000E+00
         0.00000E+00
         0.00000E+00
         0.00000E+00
         0.00000E+00
         0.00000E+00
         0.00000E+00
         0.00000E+00
         0.00000E+00
         0.00000E+00
         0.00000E+00
         0.00000E+00
         0.00000E+00
         0.00000E+00
         0.00000E+00
         0.00000E+00
         0.00000E+00
         0.00000E+00
         0.00000E+00
         0.00000E+00
         0.00000E+00
         0.00000E+00
         0.00000E+00
         0.00000E+00
         0.00000E+00
         0.00000E+00
         0.00000E+00
         0.00000E+00
         0.00000E+00
         0.00000E+00
         0.00000E+00
         0.00000E+00
         0.00000E+00
         0.00000E+00
         0.00000E+00
         0.00000E+00
         0.00000E+00
         0.00000E+00
         0.00000E+00
         0.00000E+00
         0.00000E+00
         0.00000E+00
         0.00000E+00
         0.00000E+00
         0.00000E+00
         0.00000E+00
         0.00000E+00
         0.00000E+00
         0.00000E+00
         0.00000E+00
         0.00000E+00
         0.00000E+00
         0.00000E+00
         0.00000E+00
         0.00000E+00
         0.00000E+00
         0.00000E+00
         0.00000E+00
         0.00000E+00
         0.00000E+00
         0.00000E+00
         0.00000E+00
         0.00000E+00
         0.00000E+00
         0.00000E+00
         0.00000E+00
         0.00000E+00
         0.00000E+00
         0.00000E+00
         0.00000E+00
         0.00000E+00
         0.00000E+00
         0.00000E+00
         0.00000E+00
         0.00000E+00
         0.00000E+00
         0.00000E+00
         0.00000E+00
         0.00000E+00
         0.00000E+00
         0.00000E+00
         0.00000E+00
         0.00000E+00
         0.00000E+00
         0.00000E+00
         0.00000E+00
         0.00000E+00
         0.00000E+00
         0.00000E+00
         0.00000E+00
         0.00000E+00
         0.00000E+00
         0.00000E+00
         0.00000E+00
         0.00000E+00
         0.00000E+00
         0.00000E+00
         0.00000E+00
         0.00000E+00
         0.00000E+00
         0.00000E+00
         0.00000E+00
         0.00000E+00
         0.00000E+00
         0.00000E+00
         0.00000E+00
         0.00000E+00
         0.00000E+00
         0.00000E+00
         0.00000E+00
         0.00000E+00
         0.00000E+00
         0.00000E+00
         0.00000E+00
         0.00000E+00
         0.00000E+00
         0.00000E+00
         0.00000E+00
         0.00000E+00
         0.00000E+00
         0.00000E+00
         0.00000E+00
         0.00000E+00
         0.00000E+00
         0.00000E+00
         0.00000E+00
         0.00000E+00
         0.00000E+00
         0.00000E+00
         0.00000E+00
         0.00000E+00
         0.00000E+00
         0.00000E+00
         0.00000E+00
         0.00000E+00
         0.00000E+00
         0.00000E+00
         0.00000E+00
         0.00000E+00
         0.00000E+00
         0.00000E+00
         0.00000E+00
         0.00000E+00
         0.00000E+00
         0.00000E+00
         0.00000E+00
         0.00000E+00
         0.00000E+00
         0.00000E+00
         0.00000E+00
         0.00000E+00
         0.00000E+00
         0.00000E+00
         0.00000E+00
         0.00000E+00
         0.00000E+00
         0.00000E+00
         0.00000E+00
         0.00000E+00
         0.00000E+00
         0.00000E+00
         0.00000E+00
         0.00000E+00
         0.00000E+00
         0.00000E+00
         0.00000E+00
         0.00000E+00
         0.00000E+00
         0.00000E+00
         0.00000E+00
         0.00000E+00
         0.00000E+00
         0.00000E+00
         0.00000E+00
         0.00000E+00
         0.00000E+00
         0.00000E+00
         0.00000E+00
         0.00000E+00
         0.00000E+00
         0.00000E+00
         0.00000E+00
         0.00000E+00
         0.00000E+00
         0.00000E+00
         0.00000E+00
         0.00000E+00
         0.00000E+00
         0.00000E+00
         0.00000E+00
         0.00000E+00
         0.00000E+00
         0.00000E+00
         0.00000E+00
         0.00000E+00
         0.00000E+00
         0.00000E+00
         0.00000E+00
         0.00000E+00
         0.00000E+00
         0.00000E+00
         0.00000E+00
         0.00000E+00
         0.00000E+00
         0.00000E+00
         0.00000E+00
         0.00000E+00
         0.00000E+00
         0.00000E+00
         0.00000E+00
         0.00000E+00
         0.00000E+00
         0.00000E+00
         0.00000E+00
         0.00000E+00
         0.00000E+00
         0.00000E+00
         0.00000E+00
         0.00000E+00
         0.00000E+00
         0.00000E+00
         0.00000E+00
         0.00000E+00
         0.00000E+00
         0.00000E+00
         0.00000E+00
         0.00000E+00
         0.00000E+00
         0.00000E+00
         0.00000E+00
         0.00000E+00
         0.00000E+00
         0.00000E+00
         0.00000E+00
         0.00000E+00
         0.00000E+00
         0.00000E+00
         0.00000E+00
         0.00000E+00
         0.00000E+00
         0.00000E+00
         0.00000E+00
         0.00000E+00
         0.00000E+00
         0.00000E+00
         0.00000E+00
         0.00000E+00
         0.00000E+00
         0.00000E+00
         0.00000E+00
         0.00000E+00
         0.00000E+00
         0.00000E+00
         0.00000E+00
         0.00000E+00
         0.00000E+00
         0.00000E+00
         0.00000E+00
         0.00000E+00
         0.00000E+00
         0.00000E+00
         0.00000E+00
         0.00000E+00
         0.00000E+00
         0.00000E+00
         0.00000E+00
         0.00000E+00
         0.00000E+00
         0.00000E+00
         0.00000E+00
         0.00000E+00
         0.00000E+00
         0.00000E+00
         0.00000E+00
         0.00000E+00
         0.00000E+00
         0.00000E+00
         0.00000E+00
         0.00000E+00
         0.00000E+00
         0.00000E+00
         0.00000E+00
         0.00000E+00
         0.00000E+00
         0.00000E+00
         0.00000E+00
         0.00000E+00
         0.00000E+00
         0.00000E+00
         0.00000E+00
         0.00000E+00
         0.00000E+00
         0.00000E+00
         0.00000E+00
         0.00000E+00
         0.00000E+00
         0.00000E+00
         0.00000E+00
         0.00000E+00
         0.00000E+00
         0.00000E+00
         0.00000E+00
         0.00000E+00
         0.00000E+00
         0.00000E+00
         0.00000E+00
         0.00000E+00
         0.00000E+00
         0.00000E+00
         0.00000E+00
         0.00000E+00
         0.00000E+00
         0.00000E+00
         0.00000E+00
         0.00000E+00
         0.00000E+00
         0.00000E+00
         0.00000E+00
         0.00000E+00
         0.00000E+00
         0.00000E+00
         0.00000E+00
         0.00000E+00
         0.00000E+00
         0.00000E+00
         0.00000E+00
         0.00000E+00
         0.00000E+00
         0.00000E+00
         0.00000E+00
         0.00000E+00
         0.00000E+00
         0.00000E+00
         0.00000E+00
         0.00000E+00
         0.00000E+00
         0.00000E+00
         0.00000E+00
         0.00000E+00
         0.00000E+00
         0.00000E+00
         0.00000E+00
         0.00000E+00
         0.00000E+00
         0.00000E+00
         0.00000E+00
         0.00000E+00
         0.00000E+00
         0.00000E+00
         0.00000E+00
         0.00000E+00
         0.00000E+00
         0.00000E+00
         0.00000E+00
         0.00000E+00
         0.00000E+00
         0.00000E+00
         0.00000E+00
         0.00000E+00
         0.00000E+00
         0.00000E+00
         0.00000E+00
         0.00000E+00
         0.00000E+00
         0.00000E+00
         0.00000E+00
         0.00000E+00
         0.00000E+00
         0.00000E+00
         0.00000E+00
         0.00000E+00
         0.00000E+00
         0.00000E+00
         0.00000E+00
         0.00000E+00
         0.00000E+00
         0.00000E+00
         0.00000E+00
         0.00000E+00
         0.00000E+00
         0.00000E+00
         0.00000E+00
         0.00000E+00
         0.00000E+00
         0.00000E+00
         0.00000E+00
         0.00000E+00
         0.00000E+00
         0.00000E+00
         0.00000E+00
         0.00000E+00
         0.00000E+00
         0.00000E+00
         0.00000E+00
         0.00000E+00
         0.00000E+00
         0.00000E+00
         0.00000E+00
         0.00000E+00
         0.00000E+00
         0.00000E+00
         0.00000E+00
         0.00000E+00
         0.00000E+00
         0.00000E+00
         0.00000E+00
         0.00000E+00
         0.00000E+00
         0.00000E+00
         0.00000E+00
         0.00000E+00
         0.00000E+00
         0.00000E+00
         0.00000E+00
         0.00000E+00
         0.00000E+00
         0.00000E+00
         0.00000E+00
         0.00000E+00
         0.00000E+00
         0.00000E+00
         0.00000E+00
         0.00000E+00
         0.00000E+00
         0.00000E+00
         0.00000E+00
         0.00000E+00
         0.00000E+00
         0.00000E+00
         0.00000E+00
         0.00000E+00
         0.00000E+00
         0.00000E+00
         0.00000E+00
  
SCALARS                            eps  double 1
LOOKUP_TABLE default
         0.00000E+00
         0.00000E+00
         0.00000E+00
         0.00000E+00
         0.00000E+00
         0.00000E+00
         0.00000E+00
         0.00000E+00
         0.00000E+00
         0.00000E+00
         0.00000E+00
         0.00000E+00
         0.00000E+00
         0.00000E+00
         0.00000E+00
         0.00000E+00
         0.00000E+00
         0.00000E+00
         0.00000E+00
         0.00000E+00
         0.00000E+00
         0.00000E+00
         0.00000E+00
         0.00000E+00
         0.00000E+00
         0.00000E+00
         0.00000E+00
         0.00000E+00
         0.00000E+00
         0.00000E+00
         0.00000E+00
         0.00000E+00
         0.00000E+00
         0.00000E+00
         0.00000E+00
         0.00000E+00
         0.00000E+00
         0.00000E+00
         0.00000E+00
         0.00000E+00
         0.00000E+00
         0.00000E+00
         0.00000E+00
         0.00000E+00
         0.00000E+00
         0.00000E+00
         0.00000E+00
         0.00000E+00
         0.00000E+00
         0.00000E+00
         0.00000E+00
         0.00000E+00
         0.00000E+00
         0.00000E+00
         0.00000E+00
         0.00000E+00
         0.00000E+00
         0.00000E+00
         0.00000E+00
         0.00000E+00
         0.00000E+00
         0.00000E+00
         0.00000E+00
         0.00000E+00
         0.00000E+00
         0.00000E+00
         0.00000E+00
         0.00000E+00
         0.00000E+00
         0.00000E+00
         0.00000E+00
         0.00000E+00
         0.00000E+00
         0.00000E+00
         0.00000E+00
         0.00000E+00
         0.00000E+00
         0.00000E+00
         0.00000E+00
         0.00000E+00
         0.00000E+00
         0.00000E+00
         0.00000E+00
         0.00000E+00
         0.00000E+00
         0.00000E+00
         0.00000E+00
         0.00000E+00
         0.00000E+00
         0.00000E+00
         0.00000E+00
         0.00000E+00
         0.00000E+00
         0.00000E+00
         0.00000E+00
         0.00000E+00
         0.00000E+00
         0.00000E+00
         0.00000E+00
         0.00000E+00
         0.00000E+00
         0.00000E+00
         0.00000E+00
         0.00000E+00
         0.00000E+00
         0.00000E+00
         0.00000E+00
         0.00000E+00
         0.00000E+00
         0.00000E+00
         0.00000E+00
         0.00000E+00
         0.00000E+00
         0.00000E+00
         0.00000E+00
         0.00000E+00
         0.00000E+00
         0.00000E+00
         0.00000E+00
         0.00000E+00
         0.00000E+00
         0.00000E+00
         0.00000E+00
         0.00000E+00
         0.00000E+00
         0.00000E+00
         0.00000E+00
         0.00000E+00
         0.00000E+00
         0.00000E+00
         0.00000E+00
         0.00000E+00
         0.00000E+00
         0.00000E+00
         0.00000E+00
         0.00000E+00
         0.00000E+00
         0.00000E+00
         0.00000E+00
         0.00000E+00
         0.00000E+00
         0.00000E+00
         0.00000E+00
         0.00000E+00
         0.00000E+00
         0.00000E+00
         0.00000E+00
         0.00000E+00
         0.00000E+00
         0.00000E+00
         0.00000E+00
         0.00000E+00
         0.00000E+00
         0.00000E+00
         0.00000E+00
         0.00000E+00
         0.00000E+00
         0.00000E+00
         0.00000E+00
         0.00000E+00
         0.00000E+00
         0.00000E+00
         0.00000E+00
         0.00000E+00
         0.00000E+00
         0.00000E+00
         0.00000E+00
         0.00000E+00
         0.00000E+00
         0.00000E+00
         0.00000E+00
         0.00000E+00
         0.00000E+00
         0.00000E+00
         0.00000E+00
         0.00000E+00
         0.00000E+00
         0.00000E+00
         0.00000E+00
         0.00000E+00
         0.00000E+00
         0.00000E+00
         0.00000E+00
         0.00000E+00
         0.00000E+00
         0.00000E+00
         0.00000E+00
         0.00000E+00
         0.00000E+00
         0.00000E+00
         0.00000E+00
         0.00000E+00
         0.00000E+00
         0.00000E+00
         0.00000E+00
         0.00000E+00
         0.00000E+00
         0.00000E+00
         0.00000E+00
         0.00000E+00
         0.00000E+00
         0.00000E+00
         0.00000E+00
         0.00000E+00
         0.00000E+00
         0.00000E+00
         0.00000E+00
         0.00000E+00
         0.00000E+00
         0.00000E+00
         0.00000E+00
         0.00000E+00
         0.00000E+00
         0.00000E+00
         0.00000E+00
         0.00000E+00
         0.00000E+00
         0.00000E+00
         0.00000E+00
         0.00000E+00
         0.00000E+00
         0.00000E+00
         0.00000E+00
         0.00000E+00
         0.00000E+00
         0.00000E+00
         0.00000E+00
         0.00000E+00
         0.00000E+00
         0.00000E+00
         0.00000E+00
         0.00000E+00
         0.00000E+00
         0.00000E+00
         0.00000E+00
         0.00000E+00
         0.00000E+00
         0.00000E+00
         0.00000E+00
         0.00000E+00
         0.00000E+00
         0.00000E+00
         0.00000E+00
         0.00000E+00
         0.00000E+00
         0.00000E+00
         0.00000E+00
         0.00000E+00
         0.00000E+00
         0.00000E+00
         0.00000E+00
         0.00000E+00
         0.00000E+00
         0.00000E+00
         0.00000E+00
         0.00000E+00
         0.00000E+00
         0.00000E+00
         0.00000E+00
         0.00000E+00
         0.00000E+00
         0.00000E+00
         0.00000E+00
         0.00000E+00
         0.00000E+00
         0.00000E+00
         0.00000E+00
         0.00000E+00
         0.00000E+00
         0.00000E+00
         0.00000E+00
         0.00000E+00
         0.00000E+00
         0.00000E+00
         0.00000E+00
         0.00000E+00
         0.00000E+00
         0.00000E+00
         0.00000E+00
         0.00000E+00
         0.00000E+00
         0.00000E+00
         0.00000E+00
         0.00000E+00
         0.00000E+00
         0.00000E+00
         0.00000E+00
         0.00000E+00
         0.00000E+00
         0.00000E+00
         0.00000E+00
         0.00000E+00
         0.00000E+00
         0.00000E+00
         0.00000E+00
         0.00000E+00
         0.00000E+00
         0.00000E+00
         0.00000E+00
         0.00000E+00
         0.00000E+00
         0.00000E+00
         0.00000E+00
         0.00000E+00
         0.00000E+00
         0.00000E+00
         0.00000E+00
         0.00000E+00
         0.00000E+00
         0.00000E+00
         0.00000E+00
         0.00000E+00
         0.00000E+00
         0.00000E+00
         0.00000E+00
         0.00000E+00
         0.00000E+00
         0.00000E+00
         0.00000E+00
         0.00000E+00
         0.00000E+00
         0.00000E+00
         0.00000E+00
         0.00000E+00
         0.00000E+00
         0.00000E+00
         0.00000E+00
         0.00000E+00
         0.00000E+00
         0.00000E+00
         0.00000E+00
         0.00000E+00
         0.00000E+00
         0.00000E+00
         0.00000E+00
         0.00000E+00
         0.00000E+00
         0.00000E+00
         0.00000E+00
         0.00000E+00
         0.00000E+00
         0.00000E+00
         0.00000E+00
         0.00000E+00
         0.00000E+00
         0.00000E+00
         0.00000E+00
         0.00000E+00
         0.00000E+00
         0.00000E+00
         0.00000E+00
         0.00000E+00
         0.00000E+00
         0.00000E+00
         0.00000E+00
         0.00000E+00
         0.00000E+00
         0.00000E+00
         0.00000E+00
         0.00000E+00
         0.00000E+00
         0.00000E+00
         0.00000E+00
         0.00000E+00
         0.00000E+00
         0.00000E+00
         0.00000E+00
         0.00000E+00
         0.00000E+00
         0.00000E+00
         0.00000E+00
         0.00000E+00
         0.00000E+00
         0.00000E+00
         0.00000E+00
         0.00000E+00
         0.00000E+00
         0.00000E+00
         0.00000E+00
         0.00000E+00
         0.00000E+00
         0.00000E+00
         0.00000E+00
         0.00000E+00
         0.00000E+00
         0.00000E+00
         0.00000E+00
         0.00000E+00
         0.00000E+00
         0.00000E+00
         0.00000E+00
         0.00000E+00
         0.00000E+00
         0.00000E+00
         0.00000E+00
         0.00000E+00
         0.00000E+00
         0.00000E+00
         0.00000E+00
         0.00000E+00
         0.00000E+00
         0.00000E+00
         0.00000E+00
         0.00000E+00
         0.00000E+00
         0.00000E+00
         0.00000E+00
         0.00000E+00
         0.00000E+00
         0.00000E+00
         0.00000E+00
         0.00000E+00
         0.00000E+00
         0.00000E+00
         0.00000E+00
         0.00000E+00
         0.00000E+00
         0.00000E+00
         0.00000E+00
         0.00000E+00
         0.00000E+00
         0.00000E+00
         0.00000E+00
         0.00000E+00
         0.00000E+00
         0.00000E+00
         0.00000E+00
         0.00000E+00
         0.00000E+00
         0.00000E+00
         0.00000E+00
         0.00000E+00
         0.00000E+00
         0.00000E+00
         0.00000E+00
         0.00000E+00
         0.00000E+00
         0.00000E+00
         0.00000E+00
         0.00000E+00
         0.00000E+00
         0.00000E+00
         0.00000E+00
         0.00000E+00
         0.00000E+00
         0.00000E+00
         0.00000E+00
         0.00000E+00
         0.00000E+00
         0.00000E+00
         0.00000E+00
         0.00000E+00
         0.00000E+00
         0.00000E+00
         0.00000E+00
         0.00000E+00
         0.00000E+00
         0.00000E+00
         0.00000E+00
         0.00000E+00
         0.00000E+00
         0.00000E+00
         0.00000E+00
         0.00000E+00
         0.00000E+00
         0.00000E+00
         0.00000E+00
         0.00000E+00
         0.00000E+00
         0.00000E+00
         0.00000E+00
         0.00000E+00
         0.00000E+00
         0.00000E+00
         0.00000E+00
         0.00000E+00
         0.00000E+00
         0.00000E+00
         0.00000E+00
         0.00000E+00
         0.00000E+00
         0.00000E+00
         0.00000E+00
         0.00000E+00
         0.00000E+00
         0.00000E+00
         0.00000E+00
         0.00000E+00
         0.00000E+00
         0.00000E+00
         0.00000E+00
         0.00000E+00
         0.00000E+00
         0.00000E+00
         0.00000E+00
         0.00000E+00
         0.00000E+00
         0.00000E+00
         0.00000E+00
         0.00000E+00
         0.00000E+00
         0.00000E+00
         0.00000E+00
         0.00000E+00
         0.00000E+00
         0.00000E+00
         0.00000E+00
         0.00000E+00
         0.00000E+00
         0.00000E+00
         0.00000E+00
         0.00000E+00
         0.00000E+00
         0.00000E+00
         0.00000E+00
         0.00000E+00
         0.00000E+00
         0.00000E+00
         0.00000E+00
         0.00000E+00
         0.00000E+00
         0.00000E+00
         0.00000E+00
         0.00000E+00
         0.00000E+00
         0.00000E+00
         0.00000E+00
         0.00000E+00
         0.00000E+00
         0.00000E+00
         0.00000E+00
         0.00000E+00
         0.00000E+00
         0.00000E+00
         0.00000E+00
         0.00000E+00
         0.00000E+00
         0.00000E+00
         0.00000E+00
         0.00000E+00
         0.00000E+00
         0.00000E+00
         0.00000E+00
         0.00000E+00
         0.00000E+00
         0.00000E+00
         0.00000E+00
         0.00000E+00
         0.00000E+00
         0.00000E+00
         0.00000E+00
         0.00000E+00
         0.00000E+00
         0.00000E+00
         0.00000E+00
         0.00000E+00
         0.00000E+00
         0.00000E+00
         0.00000E+00
         0.00000E+00
         0.00000E+00
         0.00000E+00
         0.00000E+00
         0.00000E+00
         0.00000E+00
         0.00000E+00
         0.00000E+00
         0.00000E+00
         0.00000E+00
         0.00000E+00
         0.00000E+00
         0.00000E+00
         0.00000E+00
         0.00000E+00
         0.00000E+00
         0.00000E+00
         0.00000E+00
         0.00000E+00
         0.00000E+00
         0.00000E+00
         0.00000E+00
         0.00000E+00
         0.00000E+00
         0.00000E+00
         0.00000E+00
         0.00000E+00
         0.00000E+00
         0.00000E+00
         0.00000E+00
         0.00000E+00
         0.00000E+00
         0.00000E+00
         0.00000E+00
         0.00000E+00
         0.00000E+00
         0.00000E+00
         0.00000E+00
         0.00000E+00
         0.00000E+00
         0.00000E+00
         0.00000E+00
         0.00000E+00
         0.00000E+00
         0.00000E+00
         0.00000E+00
         0.00000E+00
         0.00000E+00
         0.00000E+00
         0.00000E+00
         0.00000E+00
         0.00000E+00
         0.00000E+00
         0.00000E+00
         0.00000E+00
         0.00000E+00
         0.00000E+00
         0.00000E+00
         0.00000E+00
         0.00000E+00
         0.00000E+00
         0.00000E+00
         0.00000E+00
         0.00000E+00
         0.00000E+00
         0.00000E+00
         0.00000E+00
         0.00000E+00
         0.00000E+00
         0.00000E+00
         0.00000E+00
         0.00000E+00
         0.00000E+00
         0.00000E+00
         0.00000E+00
         0.00000E+00
         0.00000E+00
         0.00000E+00
         0.00000E+00
         0.00000E+00
         0.00000E+00
         0.00000E+00
         0.00000E+00
         0.00000E+00
         0.00000E+00
         0.00000E+00
         0.00000E+00
         0.00000E+00
         0.00000E+00
         0.00000E+00
         0.00000E+00
         0.00000E+00
         0.00000E+00
         0.00000E+00
         0.00000E+00
         0.00000E+00
         0.00000E+00
         0.00000E+00
         0.00000E+00
         0.00000E+00
         0.00000E+00
         0.00000E+00
         0.00000E+00
         0.00000E+00
         0.00000E+00
         0.00000E+00
         0.00000E+00
         0.00000E+00
         0.00000E+00
         0.00000E+00
         0.00000E+00
         0.00000E+00
         0.00000E+00
         0.00000E+00
         0.00000E+00
         0.00000E+00
         0.00000E+00
         0.00000E+00
         0.00000E+00
         0.00000E+00
         0.00000E+00
         0.00000E+00
         0.00000E+00
         0.00000E+00
         0.00000E+00
         0.00000E+00
         0.00000E+00
         0.00000E+00
         0.00000E+00
         0.00000E+00
         0.00000E+00
         0.00000E+00
         0.00000E+00
         0.00000E+00
         0.00000E+00
         0.00000E+00
         0.00000E+00
         0.00000E+00
         0.00000E+00
         0.00000E+00
         0.00000E+00
         0.00000E+00
         0.00000E+00
         0.00000E+00
         0.00000E+00
         0.00000E+00
         0.00000E+00
         0.00000E+00
         0.00000E+00
         0.00000E+00
         0.00000E+00
         0.00000E+00
         0.00000E+00
         0.00000E+00
         0.00000E+00
         0.00000E+00
         0.00000E+00
         0.00000E+00
         0.00000E+00
         0.00000E+00
         0.00000E+00
         0.00000E+00
         0.00000E+00
         0.00000E+00
         0.00000E+00
         0.00000E+00
         0.00000E+00
         0.00000E+00
         0.00000E+00
         0.00000E+00
         0.00000E+00
         0.00000E+00
         0.00000E+00
         0.00000E+00
         0.00000E+00
         0.00000E+00
         0.00000E+00
         0.00000E+00
         0.00000E+00
         0.00000E+00
         0.00000E+00
         0.00000E+00
         0.00000E+00
         0.00000E+00
         0.00000E+00
         0.00000E+00
         0.00000E+00
         0.00000E+00
         0.00000E+00
         0.00000E+00
         0.00000E+00
         0.00000E+00
         0.00000E+00
         0.00000E+00
         0.00000E+00
         0.00000E+00
         0.00000E+00
         0.00000E+00
         0.00000E+00
         0.00000E+00
         0.00000E+00
         0.00000E+00
         0.00000E+00
         0.00000E+00
         0.00000E+00
         0.00000E+00
         0.00000E+00
         0.00000E+00
         0.00000E+00
         0.00000E+00
         0.00000E+00
         0.00000E+00
         0.00000E+00
         0.00000E+00
         0.00000E+00
         0.00000E+00
         0.00000E+00
         0.00000E+00
         0.00000E+00
         0.00000E+00
         0.00000E+00
         0.00000E+00
         0.00000E+00
         0.00000E+00
         0.00000E+00
         0.00000E+00
         0.00000E+00
         0.00000E+00
         0.00000E+00
         0.00000E+00
         0.00000E+00
         0.00000E+00
         0.00000E+00
         0.00000E+00
         0.00000E+00
         0.00000E+00
         0.00000E+00
         0.00000E+00
         0.00000E+00
         0.00000E+00
         0.00000E+00
         0.00000E+00
         0.00000E+00
         0.00000E+00
         0.00000E+00
         0.00000E+00
         0.00000E+00
         0.00000E+00
         0.00000E+00
         0.00000E+00
         0.00000E+00
         0.00000E+00
         0.00000E+00
         0.00000E+00
         0.00000E+00
         0.00000E+00
         0.00000E+00
         0.00000E+00
         0.00000E+00
         0.00000E+00
         0.00000E+00
         0.00000E+00
         0.00000E+00
         0.00000E+00
         0.00000E+00
         0.00000E+00
         0.00000E+00
         0.00000E+00
         0.00000E+00
         0.00000E+00
         0.00000E+00
         0.00000E+00
         0.00000E+00
         0.00000E+00
         0.00000E+00
         0.00000E+00
         0.00000E+00
         0.00000E+00
         0.00000E+00
         0.00000E+00
         0.00000E+00
         0.00000E+00
         0.00000E+00
         0.00000E+00
         0.00000E+00
         0.00000E+00
         0.00000E+00
         0.00000E+00
         0.00000E+00
         0.00000E+00
         0.00000E+00
         0.00000E+00
         0.00000E+00
         0.00000E+00
         0.00000E+00
         0.00000E+00
         0.00000E+00
         0.00000E+00
         0.00000E+00
         0.00000E+00
         0.00000E+00
         0.00000E+00
         0.00000E+00
         0.00000E+00
         0.00000E+00
         0.00000E+00
         0.00000E+00
         0.00000E+00
         0.00000E+00
         0.00000E+00
         0.00000E+00
         0.00000E+00
         0.00000E+00
         0.00000E+00
         0.00000E+00
         0.00000E+00
         0.00000E+00
         0.00000E+00
         0.00000E+00
         0.00000E+00
         0.00000E+00
         0.00000E+00
         0.00000E+00
         0.00000E+00
         0.00000E+00
         0.00000E+00
         0.00000E+00
         0.00000E+00
         0.00000E+00
         0.00000E+00
         0.00000E+00
         0.00000E+00
         0.00000E+00
         0.00000E+00
         0.00000E+00
         0.00000E+00
         0.00000E+00
         0.00000E+00
         0.00000E+00
         0.00000E+00
         0.00000E+00
         0.00000E+00
         0.00000E+00
         0.00000E+00
         0.00000E+00
         0.00000E+00
         0.00000E+00
         0.00000E+00
         0.00000E+00
         0.00000E+00
         0.00000E+00
         0.00000E+00
         0.00000E+00
         0.00000E+00
         0.00000E+00
         0.00000E+00
         0.00000E+00
         0.00000E+00
         0.00000E+00
         0.00000E+00
         0.00000E+00
         0.00000E+00
         0.00000E+00
         0.00000E+00
         0.00000E+00
         0.00000E+00
         0.00000E+00
         0.00000E+00
         0.00000E+00
         0.00000E+00
         0.00000E+00
         0.00000E+00
         0.00000E+00
         0.00000E+00
         0.00000E+00
         0.00000E+00
         0.00000E+00
         0.00000E+00
         0.00000E+00
         0.00000E+00
         0.00000E+00
         0.00000E+00
         0.00000E+00
         0.00000E+00
         0.00000E+00
         0.00000E+00
         0.00000E+00
         0.00000E+00
         0.00000E+00
         0.00000E+00
         0.00000E+00
         0.00000E+00
         0.00000E+00
         0.00000E+00
         0.00000E+00
         0.00000E+00
         0.00000E+00
         0.00000E+00
         0.00000E+00
         0.00000E+00
         0.00000E+00
         0.00000E+00
         0.00000E+00
         0.00000E+00
         0.00000E+00
         0.00000E+00
         0.00000E+00
         0.00000E+00
         0.00000E+00
         0.00000E+00
         0.00000E+00
         0.00000E+00
         0.00000E+00
         0.00000E+00
         0.00000E+00
         0.00000E+00
         0.00000E+00
         0.00000E+00
         0.00000E+00
         0.00000E+00
         0.00000E+00
         0.00000E+00
         0.00000E+00
         0.00000E+00
         0.00000E+00
         0.00000E+00
         0.00000E+00
         0.00000E+00
         0.00000E+00
         0.00000E+00
         0.00000E+00
         0.00000E+00
         0.00000E+00
         0.00000E+00
         0.00000E+00
         0.00000E+00
         0.00000E+00
         0.00000E+00
         0.00000E+00
         0.00000E+00
         0.00000E+00
         0.00000E+00
         0.00000E+00
         0.00000E+00
         0.00000E+00
         0.00000E+00
         0.00000E+00
         0.00000E+00
         0.00000E+00
         0.00000E+00
         0.00000E+00
         0.00000E+00
         0.00000E+00
         0.00000E+00
         0.00000E+00
         0.00000E+00
         0.00000E+00
         0.00000E+00
         0.00000E+00
         0.00000E+00
         0.00000E+00
         0.00000E+00
         0.00000E+00
         0.00000E+00
         0.00000E+00
         0.00000E+00
         0.00000E+00
         0.00000E+00
         0.00000E+00
         0.00000E+00
         0.00000E+00
         0.00000E+00
         0.00000E+00
         0.00000E+00
         0.00000E+00
         0.00000E+00
         0.00000E+00
         0.00000E+00
         0.00000E+00
         0.00000E+00
         0.00000E+00
         0.00000E+00
         0.00000E+00
         0.00000E+00
         0.00000E+00
         0.00000E+00
         0.00000E+00
         0.00000E+00
         0.00000E+00
         0.00000E+00
         0.00000E+00
         0.00000E+00
         0.00000E+00
         0.00000E+00
         0.00000E+00
         0.00000E+00
         0.00000E+00
         0.00000E+00
         0.00000E+00
         0.00000E+00
         0.00000E+00
         0.00000E+00
         0.00000E+00
         0.00000E+00
         0.00000E+00
         0.00000E+00
         0.00000E+00
         0.00000E+00
         0.00000E+00
         0.00000E+00
         0.00000E+00
         0.00000E+00
         0.00000E+00
         0.00000E+00
         0.00000E+00
         0.00000E+00
         0.00000E+00
         0.00000E+00
         0.00000E+00
         0.00000E+00
         0.00000E+00
         0.00000E+00
         0.00000E+00
         0.00000E+00
         0.00000E+00
         0.00000E+00
         0.00000E+00
         0.00000E+00
         0.00000E+00
         0.00000E+00
         0.00000E+00
         0.00000E+00
         0.00000E+00
         0.00000E+00
         0.00000E+00
         0.00000E+00
         0.00000E+00
         0.00000E+00
         0.00000E+00
         0.00000E+00
         0.00000E+00
         0.00000E+00
         0.00000E+00
         0.00000E+00
         0.00000E+00
         0.00000E+00
         0.00000E+00
         0.00000E+00
         0.00000E+00
         0.00000E+00
         0.00000E+00
         0.00000E+00
         0.00000E+00
         0.00000E+00
         0.00000E+00
         0.00000E+00
         0.00000E+00
         0.00000E+00
         0.00000E+00
         0.00000E+00
         0.00000E+00
         0.00000E+00
         0.00000E+00
         0.00000E+00
         0.00000E+00
         0.00000E+00
         0.00000E+00
         0.00000E+00
         0.00000E+00
         0.00000E+00
         0.00000E+00
         0.00000E+00
         0.00000E+00
         0.00000E+00
         0.00000E+00
         0.00000E+00
         0.00000E+00
         0.00000E+00
         0.00000E+00
         0.00000E+00
         0.00000E+00
         0.00000E+00
         0.00000E+00
         0.00000E+00
         0.00000E+00
         0.00000E+00
         0.00000E+00
         0.00000E+00
         0.00000E+00
         0.00000E+00
         0.00000E+00
         0.00000E+00
         0.00000E+00
         0.00000E+00
         0.00000E+00
         0.00000E+00
         0.00000E+00
         0.00000E+00
         0.00000E+00
         0.00000E+00
         0.00000E+00
         0.00000E+00
         0.00000E+00
         0.00000E+00
         0.00000E+00
         0.00000E+00
         0.00000E+00
         0.00000E+00
         0.00000E+00
         0.00000E+00
         0.00000E+00
         0.00000E+00
         0.00000E+00
         0.00000E+00
         0.00000E+00
         0.00000E+00
         0.00000E+00
         0.00000E+00
         0.00000E+00
         0.00000E+00
         0.00000E+00
         0.00000E+00
         0.00000E+00
         0.00000E+00
         0.00000E+00
         0.00000E+00
         0.00000E+00
         0.00000E+00
         0.00000E+00
         0.00000E+00
         0.00000E+00
         0.00000E+00
         0.00000E+00
         0.00000E+00
         0.00000E+00
         0.00000E+00
         0.00000E+00
         0.00000E+00
         0.00000E+00
         0.00000E+00
         0.00000E+00
         0.00000E+00
         0.00000E+00
         0.00000E+00
         0.00000E+00
         0.00000E+00
         0.00000E+00
         0.00000E+00
         0.00000E+00
         0.00000E+00
         0.00000E+00
         0.00000E+00
         0.00000E+00
         0.00000E+00
         0.00000E+00
         0.00000E+00
         0.00000E+00
         0.00000E+00
         0.00000E+00
         0.00000E+00
         0.00000E+00
         0.00000E+00
         0.00000E+00
         0.00000E+00
         0.00000E+00
         0.00000E+00
         0.00000E+00
         0.00000E+00
         0.00000E+00
         0.00000E+00
         0.00000E+00
         0.00000E+00
         0.00000E+00
         0.00000E+00
         0.00000E+00
         0.00000E+00
         0.00000E+00
         0.00000E+00
         0.00000E+00
         0.00000E+00
         0.00000E+00
         0.00000E+00
         0.00000E+00
         0.00000E+00
         0.00000E+00
         0.00000E+00
         0.00000E+00
         0.00000E+00
         0.00000E+00
         0.00000E+00
         0.00000E+00
         0.00000E+00
         0.00000E+00
         0.00000E+00
         0.00000E+00
         0.00000E+00
         0.00000E+00
         0.00000E+00
         0.00000E+00
         0.00000E+00
         0.00000E+00
         0.00000E+00
         0.00000E+00
         0.00000E+00
         0.00000E+00
         0.00000E+00
         0.00000E+00
         0.00000E+00
         0.00000E+00
         0.00000E+00
         0.00000E+00
         0.00000E+00
         0.00000E+00
         0.00000E+00
         0.00000E+00
         0.00000E+00
         0.00000E+00
         0.00000E+00
         0.00000E+00
         0.00000E+00
         0.00000E+00
         0.00000E+00
         0.00000E+00
         0.00000E+00
         0.00000E+00
         0.00000E+00
         0.00000E+00
         0.00000E+00
         0.00000E+00
         0.00000E+00
         0.00000E+00
         0.00000E+00
         0.00000E+00
         0.00000E+00
         0.00000E+00
         0.00000E+00
         0.00000E+00
         0.00000E+00
         0.00000E+00
         0.00000E+00
         0.00000E+00
         0.00000E+00
         0.00000E+00
         0.00000E+00
         0.00000E+00
         0.00000E+00
         0.00000E+00
         0.00000E+00
         0.00000E+00
         0.00000E+00
         0.00000E+00
         0.00000E+00
         0.00000E+00
         0.00000E+00
         0.00000E+00
         0.00000E+00
         0.00000E+00
         0.00000E+00
         0.00000E+00
         0.00000E+00
         0.00000E+00
         0.00000E+00
         0.00000E+00
         0.00000E+00
         0.00000E+00
         0.00000E+00
         0.00000E+00
         0.00000E+00
         0.00000E+00
         0.00000E+00
         0.00000E+00
         0.00000E+00
         0.00000E+00
         0.00000E+00
         0.00000E+00
         0.00000E+00
         0.00000E+00
         0.00000E+00
         0.00000E+00
         0.00000E+00
         0.00000E+00
         0.00000E+00
         0.00000E+00
         0.00000E+00
         0.00000E+00
         0.00000E+00
         0.00000E+00
         0.00000E+00
         0.00000E+00
         0.00000E+00
         0.00000E+00
         0.00000E+00
         0.00000E+00
         0.00000E+00
         0.00000E+00
         0.00000E+00
         0.00000E+00
         0.00000E+00
         0.00000E+00
         0.00000E+00
         0.00000E+00
         0.00000E+00
         0.00000E+00
         0.00000E+00
         0.00000E+00
         0.00000E+00
         0.00000E+00
         0.00000E+00
         0.00000E+00
         0.00000E+00
         0.00000E+00
         0.00000E+00
         0.00000E+00
         0.00000E+00
         0.00000E+00
         0.00000E+00
         0.00000E+00
         0.00000E+00
         0.00000E+00
         0.00000E+00
         0.00000E+00
         0.00000E+00
         0.00000E+00
         0.00000E+00
         0.00000E+00
         0.00000E+00
         0.00000E+00
         0.00000E+00
         0.00000E+00
         0.00000E+00
         0.00000E+00
         0.00000E+00
         0.00000E+00
         0.00000E+00
         0.00000E+00
         0.00000E+00
         0.00000E+00
         0.00000E+00
         0.00000E+00
         0.00000E+00
         0.00000E+00
         0.00000E+00
         0.00000E+00
         0.00000E+00
         0.00000E+00
         0.00000E+00
         0.00000E+00
         0.00000E+00
         0.00000E+00
         0.00000E+00
         0.00000E+00
         0.00000E+00
         0.00000E+00
         0.00000E+00
         0.00000E+00
         0.00000E+00
         0.00000E+00
         0.00000E+00
         0.00000E+00
         0.00000E+00
         0.00000E+00
         0.00000E+00
         0.00000E+00
         0.00000E+00
         0.00000E+00
         0.00000E+00
         0.00000E+00
         0.00000E+00
         0.00000E+00
         0.00000E+00
         0.00000E+00
         0.00000E+00
         0.00000E+00
         0.00000E+00
         0.00000E+00
         0.00000E+00
         0.00000E+00
         0.00000E+00
         0.00000E+00
         0.00000E+00
         0.00000E+00
         0.00000E+00
         0.00000E+00
         0.00000E+00
         0.00000E+00
         0.00000E+00
         0.00000E+00
         0.00000E+00
         0.00000E+00
         0.00000E+00
         0.00000E+00
         0.00000E+00
         0.00000E+00
         0.00000E+00
         0.00000E+00
         0.00000E+00
         0.00000E+00
         0.00000E+00
         0.00000E+00
         0.00000E+00
         0.00000E+00
         0.00000E+00
         0.00000E+00
         0.00000E+00
         0.00000E+00
         0.00000E+00
         0.00000E+00
         0.00000E+00
         0.00000E+00
         0.00000E+00
         0.00000E+00
         0.00000E+00
         0.00000E+00
         0.00000E+00
         0.00000E+00
         0.00000E+00
         0.00000E+00
         0.00000E+00
         0.00000E+00
         0.00000E+00
         0.00000E+00
         0.00000E+00
         0.00000E+00
         0.00000E+00
         0.00000E+00
         0.00000E+00
         0.00000E+00
         0.00000E+00
         0.00000E+00
         0.00000E+00
         0.00000E+00
         0.00000E+00
         0.00000E+00
         0.00000E+00
         0.00000E+00
         0.00000E+00
         0.00000E+00
         0.00000E+00
         0.00000E+00
         0.00000E+00
         0.00000E+00
         0.00000E+00
         0.00000E+00
         0.00000E+00
         0.00000E+00
         0.00000E+00
         0.00000E+00
         0.00000E+00
         0.00000E+00
         0.00000E+00
         0.00000E+00
         0.00000E+00
         0.00000E+00
         0.00000E+00
         0.00000E+00
         0.00000E+00
         0.00000E+00
         0.00000E+00
         0.00000E+00
         0.00000E+00
         0.00000E+00
         0.00000E+00
         0.00000E+00
         0.00000E+00
         0.00000E+00
         0.00000E+00
         0.00000E+00
         0.00000E+00
         0.00000E+00
         0.00000E+00
         0.00000E+00
         0.00000E+00
         0.00000E+00
         0.00000E+00
         0.00000E+00
         0.00000E+00
         0.00000E+00
         0.00000E+00
         0.00000E+00
         0.00000E+00
         0.00000E+00
         0.00000E+00
         0.00000E+00
         0.00000E+00
         0.00000E+00
         0.00000E+00
         0.00000E+00
         0.00000E+00
         0.00000E+00
         0.00000E+00
         0.00000E+00
         0.00000E+00
         0.00000E+00
         0.00000E+00
         0.00000E+00
         0.00000E+00
         0.00000E+00
         0.00000E+00
         0.00000E+00
         0.00000E+00
         0.00000E+00
         0.00000E+00
         0.00000E+00
         0.00000E+00
         0.00000E+00
         0.00000E+00
         0.00000E+00
         0.00000E+00
         0.00000E+00
         0.00000E+00
         0.00000E+00
         0.00000E+00
         0.00000E+00
         0.00000E+00
         0.00000E+00
         0.00000E+00
         0.00000E+00
         0.00000E+00
         0.00000E+00
         0.00000E+00
         0.00000E+00
         0.00000E+00
         0.00000E+00
         0.00000E+00
         0.00000E+00
         0.00000E+00
         0.00000E+00
         0.00000E+00
         0.00000E+00
         0.00000E+00
         0.00000E+00
         0.00000E+00
         0.00000E+00
         0.00000E+00
         0.00000E+00
         0.00000E+00
         0.00000E+00
         0.00000E+00
         0.00000E+00
         0.00000E+00
         0.00000E+00
         0.00000E+00
         0.00000E+00
         0.00000E+00
         0.00000E+00
         0.00000E+00
         0.00000E+00
         0.00000E+00
         0.00000E+00
         0.00000E+00
         0.00000E+00
         0.00000E+00
         0.00000E+00
         0.00000E+00
         0.00000E+00
         0.00000E+00
         0.00000E+00
         0.00000E+00
         0.00000E+00
         0.00000E+00
         0.00000E+00
         0.00000E+00
         0.00000E+00
         0.00000E+00
         0.00000E+00
         0.00000E+00
         0.00000E+00
         0.00000E+00
         0.00000E+00
         0.00000E+00
         0.00000E+00
         0.00000E+00
         0.00000E+00
         0.00000E+00
         0.00000E+00
         0.00000E+00
         0.00000E+00
         0.00000E+00
         0.00000E+00
         0.00000E+00
         0.00000E+00
         0.00000E+00
         0.00000E+00
         0.00000E+00
         0.00000E+00
         0.00000E+00
         0.00000E+00
         0.00000E+00
         0.00000E+00
         0.00000E+00
         0.00000E+00
         0.00000E+00
         0.00000E+00
         0.00000E+00
         0.00000E+00
         0.00000E+00
         0.00000E+00
         0.00000E+00
         0.00000E+00
         0.00000E+00
         0.00000E+00
         0.00000E+00
         0.00000E+00
         0.00000E+00
         0.00000E+00
         0.00000E+00
         0.00000E+00
         0.00000E+00
         0.00000E+00
         0.00000E+00
         0.00000E+00
         0.00000E+00
         0.00000E+00
         0.00000E+00
         0.00000E+00
         0.00000E+00
         0.00000E+00
         0.00000E+00
         0.00000E+00
         0.00000E+00
         0.00000E+00
         0.00000E+00
         0.00000E+00
         0.00000E+00
         0.00000E+00
         0.00000E+00
         0.00000E+00
         0.00000E+00
         0.00000E+00
         0.00000E+00
         0.00000E+00
         0.00000E+00
         0.00000E+00
         0.00000E+00
         0.00000E+00
         0.00000E+00
         0.00000E+00
         0.00000E+00
         0.00000E+00
         0.00000E+00
         0.00000E+00
         0.00000E+00
         0.00000E+00
         0.00000E+00
         0.00000E+00
         0.00000E+00
         0.00000E+00
         0.00000E+00
         0.00000E+00
         0.00000E+00
         0.00000E+00
         0.00000E+00
         0.00000E+00
         0.00000E+00
         0.00000E+00
         0.00000E+00
         0.00000E+00
         0.00000E+00
         0.00000E+00
         0.00000E+00
         0.00000E+00
         0.00000E+00
         0.00000E+00
         0.00000E+00
         0.00000E+00
         0.00000E+00
         0.00000E+00
         0.00000E+00
         0.00000E+00
         0.00000E+00
         0.00000E+00
         0.00000E+00
         0.00000E+00
         0.00000E+00
         0.00000E+00
         0.00000E+00
         0.00000E+00
         0.00000E+00
         0.00000E+00
         0.00000E+00
         0.00000E+00
         0.00000E+00
         0.00000E+00
         0.00000E+00
         0.00000E+00
         0.00000E+00
         0.00000E+00
         0.00000E+00
         0.00000E+00
         0.00000E+00
         0.00000E+00
         0.00000E+00
         0.00000E+00
         0.00000E+00
         0.00000E+00
         0.00000E+00
         0.00000E+00
         0.00000E+00
         0.00000E+00
         0.00000E+00
         0.00000E+00
         0.00000E+00
         0.00000E+00
         0.00000E+00
         0.00000E+00
         0.00000E+00
         0.00000E+00
         0.00000E+00
         0.00000E+00
         0.00000E+00
         0.00000E+00
         0.00000E+00
         0.00000E+00
         0.00000E+00
         0.00000E+00
         0.00000E+00
         0.00000E+00
         0.00000E+00
         0.00000E+00
         0.00000E+00
         0.00000E+00
         0.00000E+00
         0.00000E+00
         0.00000E+00
         0.00000E+00
         0.00000E+00
         0.00000E+00
         0.00000E+00
         0.00000E+00
         0.00000E+00
         0.00000E+00
         0.00000E+00
         0.00000E+00
         0.00000E+00
         0.00000E+00
         0.00000E+00
         0.00000E+00
         0.00000E+00
         0.00000E+00
         0.00000E+00
         0.00000E+00
         0.00000E+00
         0.00000E+00
         0.00000E+00
         0.00000E+00
         0.00000E+00
         0.00000E+00
         0.00000E+00
         0.00000E+00
         0.00000E+00
         0.00000E+00
         0.00000E+00
         0.00000E+00
         0.00000E+00
         0.00000E+00
         0.00000E+00
         0.00000E+00
         0.00000E+00
         0.00000E+00
         0.00000E+00
         0.00000E+00
         0.00000E+00
         0.00000E+00
         0.00000E+00
         0.00000E+00
         0.00000E+00
         0.00000E+00
         0.00000E+00
         0.00000E+00
         0.00000E+00
         0.00000E+00
         0.00000E+00
         0.00000E+00
         0.00000E+00
         0.00000E+00
         0.00000E+00
         0.00000E+00
         0.00000E+00
         0.00000E+00
         0.00000E+00
         0.00000E+00
         0.00000E+00
         0.00000E+00
         0.00000E+00
         0.00000E+00
         0.00000E+00
         0.00000E+00
         0.00000E+00
         0.00000E+00
         0.00000E+00
         0.00000E+00
         0.00000E+00
         0.00000E+00
         0.00000E+00
         0.00000E+00
         0.00000E+00
         0.00000E+00
         0.00000E+00
         0.00000E+00
         0.00000E+00
         0.00000E+00
         0.00000E+00
         0.00000E+00
         0.00000E+00
         0.00000E+00
         0.00000E+00
         0.00000E+00
         0.00000E+00
         0.00000E+00
         0.00000E+00
         0.00000E+00
         0.00000E+00
         0.00000E+00
         0.00000E+00
         0.00000E+00
         0.00000E+00
         0.00000E+00
         0.00000E+00
         0.00000E+00
         0.00000E+00
         0.00000E+00
         0.00000E+00
         0.00000E+00
         0.00000E+00
         0.00000E+00
         0.00000E+00
         0.00000E+00
         0.00000E+00
         0.00000E+00
         0.00000E+00
         0.00000E+00
         0.00000E+00
         0.00000E+00
         0.00000E+00
         0.00000E+00
         0.00000E+00
         0.00000E+00
         0.00000E+00
         0.00000E+00
         0.00000E+00
         0.00000E+00
         0.00000E+00
         0.00000E+00
         0.00000E+00
         0.00000E+00
         0.00000E+00
         0.00000E+00
         0.00000E+00
         0.00000E+00
         0.00000E+00
         0.00000E+00
         0.00000E+00
         0.00000E+00
         0.00000E+00
         0.00000E+00
         0.00000E+00
         0.00000E+00
         0.00000E+00
         0.00000E+00
         0.00000E+00
         0.00000E+00
         0.00000E+00
         0.00000E+00
         0.00000E+00
         0.00000E+00
         0.00000E+00
         0.00000E+00
         0.00000E+00
         0.00000E+00
         0.00000E+00
         0.00000E+00
         0.00000E+00
         0.00000E+00
         0.00000E+00
         0.00000E+00
         0.00000E+00
         0.00000E+00
         0.00000E+00
         0.00000E+00
         0.00000E+00
         0.00000E+00
         0.00000E+00
         0.00000E+00
         0.00000E+00
         0.00000E+00
         0.00000E+00
         0.00000E+00
         0.00000E+00
         0.00000E+00
         0.00000E+00
         0.00000E+00
  
SCALARS                            dam  double 1
LOOKUP_TABLE default
         0.00000E+00
         0.00000E+00
         0.00000E+00
         0.00000E+00
         0.00000E+00
         0.00000E+00
         0.00000E+00
         0.00000E+00
         0.00000E+00
         0.00000E+00
         0.00000E+00
         0.00000E+00
         0.00000E+00
         0.00000E+00
         0.00000E+00
         0.00000E+00
         0.00000E+00
         0.00000E+00
         0.00000E+00
         0.00000E+00
         0.00000E+00
         0.00000E+00
         0.00000E+00
         0.00000E+00
         0.00000E+00
         0.00000E+00
         0.00000E+00
         0.00000E+00
         0.00000E+00
         0.00000E+00
         0.00000E+00
         0.00000E+00
         0.00000E+00
         0.00000E+00
         0.00000E+00
         0.00000E+00
         0.00000E+00
         0.00000E+00
         0.00000E+00
         0.00000E+00
         0.00000E+00
         0.00000E+00
         0.00000E+00
         0.00000E+00
         0.00000E+00
         0.00000E+00
         0.00000E+00
         0.00000E+00
         0.00000E+00
         0.00000E+00
         0.00000E+00
         0.00000E+00
         0.00000E+00
         0.00000E+00
         0.00000E+00
         0.00000E+00
         0.00000E+00
         0.00000E+00
         0.00000E+00
         0.00000E+00
         0.00000E+00
         0.00000E+00
         0.00000E+00
         0.00000E+00
         0.00000E+00
         0.00000E+00
         0.00000E+00
         0.00000E+00
         0.00000E+00
         0.00000E+00
         0.00000E+00
         0.00000E+00
         0.00000E+00
         0.00000E+00
         0.00000E+00
         0.00000E+00
         0.00000E+00
         0.00000E+00
         0.00000E+00
         0.00000E+00
         0.00000E+00
         0.00000E+00
         0.00000E+00
         0.00000E+00
         0.00000E+00
         0.00000E+00
         0.00000E+00
         0.00000E+00
         0.00000E+00
         0.00000E+00
         0.00000E+00
         0.00000E+00
         0.00000E+00
         0.00000E+00
         0.00000E+00
         0.00000E+00
         0.00000E+00
         0.00000E+00
         0.00000E+00
         0.00000E+00
         0.00000E+00
         0.00000E+00
         0.00000E+00
         0.00000E+00
         0.00000E+00
         0.00000E+00
         0.00000E+00
         0.00000E+00
         0.00000E+00
         0.00000E+00
         0.00000E+00
         0.00000E+00
         0.00000E+00
         0.00000E+00
         0.00000E+00
         0.00000E+00
         0.00000E+00
         0.00000E+00
         0.00000E+00
         0.00000E+00
         0.00000E+00
         0.00000E+00
         0.00000E+00
         0.00000E+00
         0.00000E+00
         0.00000E+00
         0.00000E+00
         0.00000E+00
         0.00000E+00
         0.00000E+00
         0.00000E+00
         0.00000E+00
         0.00000E+00
         0.00000E+00
         0.00000E+00
         0.00000E+00
         0.00000E+00
         0.00000E+00
         0.00000E+00
         0.00000E+00
         0.00000E+00
         0.00000E+00
         0.00000E+00
         0.00000E+00
         0.00000E+00
         0.00000E+00
         0.00000E+00
         0.00000E+00
         0.00000E+00
         0.00000E+00
         0.00000E+00
         0.00000E+00
         0.00000E+00
         0.00000E+00
         0.00000E+00
         0.00000E+00
         0.00000E+00
         0.00000E+00
         0.00000E+00
         0.00000E+00
         0.00000E+00
         0.00000E+00
         0.00000E+00
         0.00000E+00
         0.00000E+00
         0.00000E+00
         0.00000E+00
         0.00000E+00
         0.00000E+00
         0.00000E+00
         0.00000E+00
         0.00000E+00
         0.00000E+00
         0.00000E+00
         0.00000E+00
         0.00000E+00
         0.00000E+00
         0.00000E+00
         0.00000E+00
         0.00000E+00
         0.00000E+00
         0.00000E+00
         0.00000E+00
         0.00000E+00
         0.00000E+00
         0.00000E+00
         0.00000E+00
         0.00000E+00
         0.00000E+00
         0.00000E+00
         0.00000E+00
         0.00000E+00
         0.00000E+00
         0.00000E+00
         0.00000E+00
         0.00000E+00
         0.00000E+00
         0.00000E+00
         0.00000E+00
         0.00000E+00
         0.00000E+00
         0.00000E+00
         0.00000E+00
         0.00000E+00
         0.00000E+00
         0.00000E+00
         0.00000E+00
         0.00000E+00
         0.00000E+00
         0.00000E+00
         0.00000E+00
         0.00000E+00
         0.00000E+00
         0.00000E+00
         0.00000E+00
         0.00000E+00
         0.00000E+00
         0.00000E+00
         0.00000E+00
         0.00000E+00
         0.00000E+00
         0.00000E+00
         0.00000E+00
         0.00000E+00
         0.00000E+00
         0.00000E+00
         0.00000E+00
         0.00000E+00
         0.00000E+00
         0.00000E+00
         0.00000E+00
         0.00000E+00
         0.00000E+00
         0.00000E+00
         0.00000E+00
         0.00000E+00
         0.00000E+00
         0.00000E+00
         0.00000E+00
         0.00000E+00
         0.00000E+00
         0.00000E+00
         0.00000E+00
         0.00000E+00
         0.00000E+00
         0.00000E+00
         0.00000E+00
         0.00000E+00
         0.00000E+00
         0.00000E+00
         0.00000E+00
         0.00000E+00
         0.00000E+00
         0.00000E+00
         0.00000E+00
         0.00000E+00
         0.00000E+00
         0.00000E+00
         0.00000E+00
         0.00000E+00
         0.00000E+00
         0.00000E+00
         0.00000E+00
         0.00000E+00
         0.00000E+00
         0.00000E+00
         0.00000E+00
         0.00000E+00
         0.00000E+00
         0.00000E+00
         0.00000E+00
         0.00000E+00
         0.00000E+00
         0.00000E+00
         0.00000E+00
         0.00000E+00
         0.00000E+00
         0.00000E+00
         0.00000E+00
         0.00000E+00
         0.00000E+00
         0.00000E+00
         0.00000E+00
         0.00000E+00
         0.00000E+00
         0.00000E+00
         0.00000E+00
         0.00000E+00
         0.00000E+00
         0.00000E+00
         0.00000E+00
         0.00000E+00
         0.00000E+00
         0.00000E+00
         0.00000E+00
         0.00000E+00
         0.00000E+00
         0.00000E+00
         0.00000E+00
         0.00000E+00
         0.00000E+00
         0.00000E+00
         0.00000E+00
         0.00000E+00
         0.00000E+00
         0.00000E+00
         0.00000E+00
         0.00000E+00
         0.00000E+00
         0.00000E+00
         0.00000E+00
         0.00000E+00
         0.00000E+00
         0.00000E+00
         0.00000E+00
         0.00000E+00
         0.00000E+00
         0.00000E+00
         0.00000E+00
         0.00000E+00
         0.00000E+00
         0.00000E+00
         0.00000E+00
         0.00000E+00
         0.00000E+00
         0.00000E+00
         0.00000E+00
         0.00000E+00
         0.00000E+00
         0.00000E+00
         0.00000E+00
         0.00000E+00
         0.00000E+00
         0.00000E+00
         0.00000E+00
         0.00000E+00
         0.00000E+00
         0.00000E+00
         0.00000E+00
         0.00000E+00
         0.00000E+00
         0.00000E+00
         0.00000E+00
         0.00000E+00
         0.00000E+00
         0.00000E+00
         0.00000E+00
         0.00000E+00
         0.00000E+00
         0.00000E+00
         0.00000E+00
         0.00000E+00
         0.00000E+00
         0.00000E+00
         0.00000E+00
         0.00000E+00
         0.00000E+00
         0.00000E+00
         0.00000E+00
         0.00000E+00
         0.00000E+00
         0.00000E+00
         0.00000E+00
         0.00000E+00
         0.00000E+00
         0.00000E+00
         0.00000E+00
         0.00000E+00
         0.00000E+00
         0.00000E+00
         0.00000E+00
         0.00000E+00
         0.00000E+00
         0.00000E+00
         0.00000E+00
         0.00000E+00
         0.00000E+00
         0.00000E+00
         0.00000E+00
         0.00000E+00
         0.00000E+00
         0.00000E+00
         0.00000E+00
         0.00000E+00
         0.00000E+00
         0.00000E+00
         0.00000E+00
         0.00000E+00
         0.00000E+00
         0.00000E+00
         0.00000E+00
         0.00000E+00
         0.00000E+00
         0.00000E+00
         0.00000E+00
         0.00000E+00
         0.00000E+00
         0.00000E+00
         0.00000E+00
         0.00000E+00
         0.00000E+00
         0.00000E+00
         0.00000E+00
         0.00000E+00
         0.00000E+00
         0.00000E+00
         0.00000E+00
         0.00000E+00
         0.00000E+00
         0.00000E+00
         0.00000E+00
         0.00000E+00
         0.00000E+00
         0.00000E+00
         0.00000E+00
         0.00000E+00
         0.00000E+00
         0.00000E+00
         0.00000E+00
         0.00000E+00
         0.00000E+00
         0.00000E+00
         0.00000E+00
         0.00000E+00
         0.00000E+00
         0.00000E+00
         0.00000E+00
         0.00000E+00
         0.00000E+00
         0.00000E+00
         0.00000E+00
         0.00000E+00
         0.00000E+00
         0.00000E+00
         0.00000E+00
         0.00000E+00
         0.00000E+00
         0.00000E+00
         0.00000E+00
         0.00000E+00
         0.00000E+00
         0.00000E+00
         0.00000E+00
         0.00000E+00
         0.00000E+00
         0.00000E+00
         0.00000E+00
         0.00000E+00
         0.00000E+00
         0.00000E+00
         0.00000E+00
         0.00000E+00
         0.00000E+00
         0.00000E+00
         0.00000E+00
         0.00000E+00
         0.00000E+00
         0.00000E+00
         0.00000E+00
         0.00000E+00
         0.00000E+00
         0.00000E+00
         0.00000E+00
         0.00000E+00
         0.00000E+00
         0.00000E+00
         0.00000E+00
         0.00000E+00
         0.00000E+00
         0.00000E+00
         0.00000E+00
         0.00000E+00
         0.00000E+00
         0.00000E+00
         0.00000E+00
         0.00000E+00
         0.00000E+00
         0.00000E+00
         0.00000E+00
         0.00000E+00
         0.00000E+00
         0.00000E+00
         0.00000E+00
         0.00000E+00
         0.00000E+00
         0.00000E+00
         0.00000E+00
         0.00000E+00
         0.00000E+00
         0.00000E+00
         0.00000E+00
         0.00000E+00
         0.00000E+00
         0.00000E+00
         0.00000E+00
         0.00000E+00
         0.00000E+00
         0.00000E+00
         0.00000E+00
         0.00000E+00
         0.00000E+00
         0.00000E+00
         0.00000E+00
         0.00000E+00
         0.00000E+00
         0.00000E+00
         0.00000E+00
         0.00000E+00
         0.00000E+00
         0.00000E+00
         0.00000E+00
         0.00000E+00
         0.00000E+00
         0.00000E+00
         0.00000E+00
         0.00000E+00
         0.00000E+00
         0.00000E+00
         0.00000E+00
         0.00000E+00
         0.00000E+00
         0.00000E+00
         0.00000E+00
         0.00000E+00
         0.00000E+00
         0.00000E+00
         0.00000E+00
         0.00000E+00
         0.00000E+00
         0.00000E+00
         0.00000E+00
         0.00000E+00
         0.00000E+00
         0.00000E+00
         0.00000E+00
         0.00000E+00
         0.00000E+00
         0.00000E+00
         0.00000E+00
         0.00000E+00
         0.00000E+00
         0.00000E+00
         0.00000E+00
         0.00000E+00
         0.00000E+00
         0.00000E+00
         0.00000E+00
         0.00000E+00
         0.00000E+00
         0.00000E+00
         0.00000E+00
         0.00000E+00
         0.00000E+00
         0.00000E+00
         0.00000E+00
         0.00000E+00
         0.00000E+00
         0.00000E+00
         0.00000E+00
         0.00000E+00
         0.00000E+00
         0.00000E+00
         0.00000E+00
         0.00000E+00
         0.00000E+00
         0.00000E+00
         0.00000E+00
         0.00000E+00
         0.00000E+00
         0.00000E+00
         0.00000E+00
         0.00000E+00
         0.00000E+00
         0.00000E+00
         0.00000E+00
         0.00000E+00
         0.00000E+00
         0.00000E+00
         0.00000E+00
         0.00000E+00
         0.00000E+00
         0.00000E+00
         0.00000E+00
         0.00000E+00
         0.00000E+00
         0.00000E+00
         0.00000E+00
         0.00000E+00
         0.00000E+00
         0.00000E+00
         0.00000E+00
         0.00000E+00
         0.00000E+00
         0.00000E+00
         0.00000E+00
         0.00000E+00
         0.00000E+00
         0.00000E+00
         0.00000E+00
         0.00000E+00
         0.00000E+00
         0.00000E+00
         0.00000E+00
         0.00000E+00
         0.00000E+00
         0.00000E+00
         0.00000E+00
         0.00000E+00
         0.00000E+00
         0.00000E+00
         0.00000E+00
         0.00000E+00
         0.00000E+00
         0.00000E+00
         0.00000E+00
         0.00000E+00
         0.00000E+00
         0.00000E+00
         0.00000E+00
         0.00000E+00
         0.00000E+00
         0.00000E+00
         0.00000E+00
         0.00000E+00
         0.00000E+00
         0.00000E+00
         0.00000E+00
         0.00000E+00
         0.00000E+00
         0.00000E+00
         0.00000E+00
         0.00000E+00
         0.00000E+00
         0.00000E+00
         0.00000E+00
         0.00000E+00
         0.00000E+00
         0.00000E+00
         0.00000E+00
         0.00000E+00
         0.00000E+00
         0.00000E+00
         0.00000E+00
         0.00000E+00
         0.00000E+00
         0.00000E+00
         0.00000E+00
         0.00000E+00
         0.00000E+00
         0.00000E+00
         0.00000E+00
         0.00000E+00
         0.00000E+00
         0.00000E+00
         0.00000E+00
         0.00000E+00
         0.00000E+00
         0.00000E+00
         0.00000E+00
         0.00000E+00
         0.00000E+00
         0.00000E+00
         0.00000E+00
         0.00000E+00
         0.00000E+00
         0.00000E+00
         0.00000E+00
         0.00000E+00
         0.00000E+00
         0.00000E+00
         0.00000E+00
         0.00000E+00
         0.00000E+00
         0.00000E+00
         0.00000E+00
         0.00000E+00
         0.00000E+00
         0.00000E+00
         0.00000E+00
         0.00000E+00
         0.00000E+00
         0.00000E+00
         0.00000E+00
         0.00000E+00
         0.00000E+00
         0.00000E+00
         0.00000E+00
         0.00000E+00
         0.00000E+00
         0.00000E+00
         0.00000E+00
         0.00000E+00
         0.00000E+00
         0.00000E+00
         0.00000E+00
         0.00000E+00
         0.00000E+00
         0.00000E+00
         0.00000E+00
         0.00000E+00
         0.00000E+00
         0.00000E+00
         0.00000E+00
         0.00000E+00
         0.00000E+00
         0.00000E+00
         0.00000E+00
         0.00000E+00
         0.00000E+00
         0.00000E+00
         0.00000E+00
         0.00000E+00
         0.00000E+00
         0.00000E+00
         0.00000E+00
         0.00000E+00
         0.00000E+00
         0.00000E+00
         0.00000E+00
         0.00000E+00
         0.00000E+00
         0.00000E+00
         0.00000E+00
         0.00000E+00
         0.00000E+00
         0.00000E+00
         0.00000E+00
         0.00000E+00
         0.00000E+00
         0.00000E+00
         0.00000E+00
         0.00000E+00
         0.00000E+00
         0.00000E+00
         0.00000E+00
         0.00000E+00
         0.00000E+00
         0.00000E+00
         0.00000E+00
         0.00000E+00
         0.00000E+00
         0.00000E+00
         0.00000E+00
         0.00000E+00
         0.00000E+00
         0.00000E+00
         0.00000E+00
         0.00000E+00
         0.00000E+00
         0.00000E+00
         0.00000E+00
         0.00000E+00
         0.00000E+00
         0.00000E+00
         0.00000E+00
         0.00000E+00
         0.00000E+00
         0.00000E+00
         0.00000E+00
         0.00000E+00
         0.00000E+00
         0.00000E+00
         0.00000E+00
         0.00000E+00
         0.00000E+00
         0.00000E+00
         0.00000E+00
         0.00000E+00
         0.00000E+00
         0.00000E+00
         0.00000E+00
         0.00000E+00
         0.00000E+00
         0.00000E+00
         0.00000E+00
         0.00000E+00
         0.00000E+00
         0.00000E+00
         0.00000E+00
         0.00000E+00
         0.00000E+00
         0.00000E+00
         0.00000E+00
         0.00000E+00
         0.00000E+00
         0.00000E+00
         0.00000E+00
         0.00000E+00
         0.00000E+00
         0.00000E+00
         0.00000E+00
         0.00000E+00
         0.00000E+00
         0.00000E+00
         0.00000E+00
         0.00000E+00
         0.00000E+00
         0.00000E+00
         0.00000E+00
         0.00000E+00
         0.00000E+00
         0.00000E+00
         0.00000E+00
         0.00000E+00
         0.00000E+00
         0.00000E+00
         0.00000E+00
         0.00000E+00
         0.00000E+00
         0.00000E+00
         0.00000E+00
         0.00000E+00
         0.00000E+00
         0.00000E+00
         0.00000E+00
         0.00000E+00
         0.00000E+00
         0.00000E+00
         0.00000E+00
         0.00000E+00
         0.00000E+00
         0.00000E+00
         0.00000E+00
         0.00000E+00
         0.00000E+00
         0.00000E+00
         0.00000E+00
         0.00000E+00
         0.00000E+00
         0.00000E+00
         0.00000E+00
         0.00000E+00
         0.00000E+00
         0.00000E+00
         0.00000E+00
         0.00000E+00
         0.00000E+00
         0.00000E+00
         0.00000E+00
         0.00000E+00
         0.00000E+00
         0.00000E+00
         0.00000E+00
         0.00000E+00
         0.00000E+00
         0.00000E+00
         0.00000E+00
         0.00000E+00
         0.00000E+00
         0.00000E+00
         0.00000E+00
         0.00000E+00
         0.00000E+00
         0.00000E+00
         0.00000E+00
         0.00000E+00
         0.00000E+00
         0.00000E+00
         0.00000E+00
         0.00000E+00
         0.00000E+00
         0.00000E+00
         0.00000E+00
         0.00000E+00
         0.00000E+00
         0.00000E+00
         0.00000E+00
         0.00000E+00
         0.00000E+00
         0.00000E+00
         0.00000E+00
         0.00000E+00
         0.00000E+00
         0.00000E+00
         0.00000E+00
         0.00000E+00
         0.00000E+00
         0.00000E+00
         0.00000E+00
         0.00000E+00
         0.00000E+00
         0.00000E+00
         0.00000E+00
         0.00000E+00
         0.00000E+00
         0.00000E+00
         0.00000E+00
         0.00000E+00
         0.00000E+00
         0.00000E+00
         0.00000E+00
         0.00000E+00
         0.00000E+00
         0.00000E+00
         0.00000E+00
         0.00000E+00
         0.00000E+00
         0.00000E+00
         0.00000E+00
         0.00000E+00
         0.00000E+00
         0.00000E+00
         0.00000E+00
         0.00000E+00
         0.00000E+00
         0.00000E+00
         0.00000E+00
         0.00000E+00
         0.00000E+00
         0.00000E+00
         0.00000E+00
         0.00000E+00
         0.00000E+00
         0.00000E+00
         0.00000E+00
         0.00000E+00
         0.00000E+00
         0.00000E+00
         0.00000E+00
         0.00000E+00
         0.00000E+00
         0.00000E+00
         0.00000E+00
         0.00000E+00
         0.00000E+00
         0.00000E+00
         0.00000E+00
         0.00000E+00
         0.00000E+00
         0.00000E+00
         0.00000E+00
         0.00000E+00
         0.00000E+00
         0.00000E+00
         0.00000E+00
         0.00000E+00
         0.00000E+00
         0.00000E+00
         0.00000E+00
         0.00000E+00
         0.00000E+00
         0.00000E+00
         0.00000E+00
         0.00000E+00
         0.00000E+00
         0.00000E+00
         0.00000E+00
         0.00000E+00
         0.00000E+00
         0.00000E+00
         0.00000E+00
         0.00000E+00
         0.00000E+00
         0.00000E+00
         0.00000E+00
         0.00000E+00
         0.00000E+00
         0.00000E+00
         0.00000E+00
         0.00000E+00
         0.00000E+00
         0.00000E+00
         0.00000E+00
         0.00000E+00
         0.00000E+00
         0.00000E+00
         0.00000E+00
         0.00000E+00
         0.00000E+00
         0.00000E+00
         0.00000E+00
         0.00000E+00
         0.00000E+00
         0.00000E+00
         0.00000E+00
         0.00000E+00
         0.00000E+00
         0.00000E+00
         0.00000E+00
         0.00000E+00
         0.00000E+00
         0.00000E+00
         0.00000E+00
         0.00000E+00
         0.00000E+00
         0.00000E+00
         0.00000E+00
         0.00000E+00
         0.00000E+00
         0.00000E+00
         0.00000E+00
         0.00000E+00
         0.00000E+00
         0.00000E+00
         0.00000E+00
         0.00000E+00
         0.00000E+00
         0.00000E+00
         0.00000E+00
         0.00000E+00
         0.00000E+00
         0.00000E+00
         0.00000E+00
         0.00000E+00
         0.00000E+00
         0.00000E+00
         0.00000E+00
         0.00000E+00
         0.00000E+00
         0.00000E+00
         0.00000E+00
         0.00000E+00
         0.00000E+00
         0.00000E+00
         0.00000E+00
         0.00000E+00
         0.00000E+00
         0.00000E+00
         0.00000E+00
         0.00000E+00
         0.00000E+00
         0.00000E+00
         0.00000E+00
         0.00000E+00
         0.00000E+00
         0.00000E+00
         0.00000E+00
         0.00000E+00
         0.00000E+00
         0.00000E+00
         0.00000E+00
         0.00000E+00
         0.00000E+00
         0.00000E+00
         0.00000E+00
         0.00000E+00
         0.00000E+00
         0.00000E+00
         0.00000E+00
         0.00000E+00
         0.00000E+00
         0.00000E+00
         0.00000E+00
         0.00000E+00
         0.00000E+00
         0.00000E+00
         0.00000E+00
         0.00000E+00
         0.00000E+00
         0.00000E+00
         0.00000E+00
         0.00000E+00
         0.00000E+00
         0.00000E+00
         0.00000E+00
         0.00000E+00
         0.00000E+00
         0.00000E+00
         0.00000E+00
         0.00000E+00
         0.00000E+00
         0.00000E+00
         0.00000E+00
         0.00000E+00
         0.00000E+00
         0.00000E+00
         0.00000E+00
         0.00000E+00
         0.00000E+00
         0.00000E+00
         0.00000E+00
         0.00000E+00
         0.00000E+00
         0.00000E+00
         0.00000E+00
         0.00000E+00
         0.00000E+00
         0.00000E+00
         0.00000E+00
         0.00000E+00
         0.00000E+00
         0.00000E+00
         0.00000E+00
         0.00000E+00
         0.00000E+00
         0.00000E+00
         0.00000E+00
         0.00000E+00
         0.00000E+00
         0.00000E+00
         0.00000E+00
         0.00000E+00
         0.00000E+00
         0.00000E+00
         0.00000E+00
         0.00000E+00
         0.00000E+00
         0.00000E+00
         0.00000E+00
         0.00000E+00
         0.00000E+00
         0.00000E+00
         0.00000E+00
         0.00000E+00
         0.00000E+00
         0.00000E+00
         0.00000E+00
         0.00000E+00
         0.00000E+00
         0.00000E+00
         0.00000E+00
         0.00000E+00
         0.00000E+00
         0.00000E+00
         0.00000E+00
         0.00000E+00
         0.00000E+00
         0.00000E+00
         0.00000E+00
         0.00000E+00
         0.00000E+00
         0.00000E+00
         0.00000E+00
         0.00000E+00
         0.00000E+00
         0.00000E+00
         0.00000E+00
         0.00000E+00
         0.00000E+00
         0.00000E+00
         0.00000E+00
         0.00000E+00
         0.00000E+00
         0.00000E+00
         0.00000E+00
         0.00000E+00
         0.00000E+00
         0.00000E+00
         0.00000E+00
         0.00000E+00
         0.00000E+00
         0.00000E+00
         0.00000E+00
         0.00000E+00
         0.00000E+00
         0.00000E+00
         0.00000E+00
         0.00000E+00
         0.00000E+00
         0.00000E+00
         0.00000E+00
         0.00000E+00
         0.00000E+00
         0.00000E+00
         0.00000E+00
         0.00000E+00
         0.00000E+00
         0.00000E+00
         0.00000E+00
         0.00000E+00
         0.00000E+00
         0.00000E+00
         0.00000E+00
         0.00000E+00
         0.00000E+00
         0.00000E+00
         0.00000E+00
         0.00000E+00
         0.00000E+00
         0.00000E+00
         0.00000E+00
         0.00000E+00
         0.00000E+00
         0.00000E+00
         0.00000E+00
         0.00000E+00
         0.00000E+00
         0.00000E+00
         0.00000E+00
         0.00000E+00
         0.00000E+00
         0.00000E+00
         0.00000E+00
         0.00000E+00
         0.00000E+00
         0.00000E+00
         0.00000E+00
         0.00000E+00
         0.00000E+00
         0.00000E+00
         0.00000E+00
         0.00000E+00
         0.00000E+00
         0.00000E+00
         0.00000E+00
         0.00000E+00
         0.00000E+00
         0.00000E+00
         0.00000E+00
         0.00000E+00
         0.00000E+00
         0.00000E+00
         0.00000E+00
         0.00000E+00
         0.00000E+00
         0.00000E+00
         0.00000E+00
         0.00000E+00
         0.00000E+00
         0.00000E+00
         0.00000E+00
         0.00000E+00
         0.00000E+00
         0.00000E+00
         0.00000E+00
         0.00000E+00
         0.00000E+00
         0.00000E+00
         0.00000E+00
         0.00000E+00
         0.00000E+00
         0.00000E+00
         0.00000E+00
         0.00000E+00
         0.00000E+00
         0.00000E+00
         0.00000E+00
         0.00000E+00
         0.00000E+00
         0.00000E+00
         0.00000E+00
         0.00000E+00
         0.00000E+00
         0.00000E+00
         0.00000E+00
         0.00000E+00
         0.00000E+00
         0.00000E+00
         0.00000E+00
         0.00000E+00
         0.00000E+00
         0.00000E+00
         0.00000E+00
         0.00000E+00
         0.00000E+00
         0.00000E+00
         0.00000E+00
         0.00000E+00
         0.00000E+00
         0.00000E+00
         0.00000E+00
         0.00000E+00
         0.00000E+00
         0.00000E+00
         0.00000E+00
         0.00000E+00
         0.00000E+00
         0.00000E+00
         0.00000E+00
         0.00000E+00
         0.00000E+00
         0.00000E+00
         0.00000E+00
         0.00000E+00
         0.00000E+00
         0.00000E+00
         0.00000E+00
         0.00000E+00
         0.00000E+00
         0.00000E+00
         0.00000E+00
         0.00000E+00
         0.00000E+00
         0.00000E+00
         0.00000E+00
         0.00000E+00
         0.00000E+00
         0.00000E+00
         0.00000E+00
         0.00000E+00
         0.00000E+00
         0.00000E+00
         0.00000E+00
         0.00000E+00
         0.00000E+00
         0.00000E+00
         0.00000E+00
         0.00000E+00
         0.00000E+00
         0.00000E+00
         0.00000E+00
         0.00000E+00
         0.00000E+00
         0.00000E+00
         0.00000E+00
         0.00000E+00
         0.00000E+00
         0.00000E+00
         0.00000E+00
         0.00000E+00
         0.00000E+00
         0.00000E+00
         0.00000E+00
         0.00000E+00
         0.00000E+00
         0.00000E+00
         0.00000E+00
         0.00000E+00
         0.00000E+00
         0.00000E+00
         0.00000E+00
         0.00000E+00
         0.00000E+00
         0.00000E+00
         0.00000E+00
         0.00000E+00
         0.00000E+00
         0.00000E+00
         0.00000E+00
         0.00000E+00
         0.00000E+00
         0.00000E+00
         0.00000E+00
         0.00000E+00
         0.00000E+00
         0.00000E+00
         0.00000E+00
         0.00000E+00
         0.00000E+00
         0.00000E+00
         0.00000E+00
         0.00000E+00
         0.00000E+00
         0.00000E+00
         0.00000E+00
         0.00000E+00
         0.00000E+00
         0.00000E+00
         0.00000E+00
         0.00000E+00
         0.00000E+00
         0.00000E+00
         0.00000E+00
         0.00000E+00
         0.00000E+00
         0.00000E+00
         0.00000E+00
         0.00000E+00
         0.00000E+00
         0.00000E+00
         0.00000E+00
         0.00000E+00
         0.00000E+00
         0.00000E+00
         0.00000E+00
         0.00000E+00
         0.00000E+00
         0.00000E+00
         0.00000E+00
         0.00000E+00
         0.00000E+00
         0.00000E+00
         0.00000E+00
         0.00000E+00
         0.00000E+00
         0.00000E+00
         0.00000E+00
         0.00000E+00
         0.00000E+00
         0.00000E+00
         0.00000E+00
         0.00000E+00
         0.00000E+00
         0.00000E+00
         0.00000E+00
         0.00000E+00
         0.00000E+00
         0.00000E+00
         0.00000E+00
         0.00000E+00
         0.00000E+00
         0.00000E+00
         0.00000E+00
         0.00000E+00
         0.00000E+00
         0.00000E+00
         0.00000E+00
         0.00000E+00
         0.00000E+00
         0.00000E+00
         0.00000E+00
         0.00000E+00
         0.00000E+00
         0.00000E+00
         0.00000E+00
         0.00000E+00
         0.00000E+00
         0.00000E+00
         0.00000E+00
         0.00000E+00
         0.00000E+00
         0.00000E+00
         0.00000E+00
         0.00000E+00
         0.00000E+00
         0.00000E+00
         0.00000E+00
         0.00000E+00
         0.00000E+00
         0.00000E+00
         0.00000E+00
         0.00000E+00
         0.00000E+00
         0.00000E+00
         0.00000E+00
         0.00000E+00
         0.00000E+00
         0.00000E+00
         0.00000E+00
         0.00000E+00
         0.00000E+00
         0.00000E+00
         0.00000E+00
         0.00000E+00
         0.00000E+00
         0.00000E+00
         0.00000E+00
         0.00000E+00
         0.00000E+00
         0.00000E+00
         0.00000E+00
         0.00000E+00
         0.00000E+00
         0.00000E+00
         0.00000E+00
         0.00000E+00
         0.00000E+00
         0.00000E+00
         0.00000E+00
         0.00000E+00
         0.00000E+00
         0.00000E+00
         0.00000E+00
         0.00000E+00
         0.00000E+00
         0.00000E+00
         0.00000E+00
         0.00000E+00
         0.00000E+00
         0.00000E+00
         0.00000E+00
         0.00000E+00
         0.00000E+00
         0.00000E+00
         0.00000E+00
         0.00000E+00
         0.00000E+00
         0.00000E+00
         0.00000E+00
         0.00000E+00
         0.00000E+00
         0.00000E+00
         0.00000E+00
         0.00000E+00
         0.00000E+00
         0.00000E+00
         0.00000E+00
         0.00000E+00
         0.00000E+00
         0.00000E+00
         0.00000E+00
         0.00000E+00
         0.00000E+00
         0.00000E+00
         0.00000E+00
         0.00000E+00
         0.00000E+00
         0.00000E+00
         0.00000E+00
         0.00000E+00
         0.00000E+00
         0.00000E+00
         0.00000E+00
         0.00000E+00
         0.00000E+00
         0.00000E+00
         0.00000E+00
         0.00000E+00
         0.00000E+00
         0.00000E+00
         0.00000E+00
         0.00000E+00
         0.00000E+00
         0.00000E+00
         0.00000E+00
         0.00000E+00
         0.00000E+00
         0.00000E+00
         0.00000E+00
         0.00000E+00
         0.00000E+00
         0.00000E+00
         0.00000E+00
         0.00000E+00
         0.00000E+00
         0.00000E+00
         0.00000E+00
         0.00000E+00
         0.00000E+00
         0.00000E+00
         0.00000E+00
         0.00000E+00
         0.00000E+00
         0.00000E+00
         0.00000E+00
         0.00000E+00
         0.00000E+00
         0.00000E+00
         0.00000E+00
         0.00000E+00
         0.00000E+00
         0.00000E+00
         0.00000E+00
         0.00000E+00
         0.00000E+00
         0.00000E+00
         0.00000E+00
         0.00000E+00
         0.00000E+00
         0.00000E+00
         0.00000E+00
         0.00000E+00
         0.00000E+00
         0.00000E+00
         0.00000E+00
         0.00000E+00
         0.00000E+00
         0.00000E+00
         0.00000E+00
         0.00000E+00
         0.00000E+00
         0.00000E+00
         0.00000E+00
         0.00000E+00
         0.00000E+00
         0.00000E+00
         0.00000E+00
         0.00000E+00
         0.00000E+00
         0.00000E+00
         0.00000E+00
         0.00000E+00
         0.00000E+00
         0.00000E+00
         0.00000E+00
         0.00000E+00
         0.00000E+00
         0.00000E+00
         0.00000E+00
         0.00000E+00
         0.00000E+00
         0.00000E+00
         0.00000E+00
         0.00000E+00
         0.00000E+00
         0.00000E+00
         0.00000E+00
         0.00000E+00
         0.00000E+00
         0.00000E+00
         0.00000E+00
         0.00000E+00
         0.00000E+00
         0.00000E+00
         0.00000E+00
         0.00000E+00
         0.00000E+00
         0.00000E+00
         0.00000E+00
         0.00000E+00
         0.00000E+00
         0.00000E+00
         0.00000E+00
         0.00000E+00
         0.00000E+00
         0.00000E+00
         0.00000E+00
         0.00000E+00
         0.00000E+00
         0.00000E+00
         0.00000E+00
         0.00000E+00
         0.00000E+00
         0.00000E+00
         0.00000E+00
         0.00000E+00
         0.00000E+00
         0.00000E+00
         0.00000E+00
         0.00000E+00
         0.00000E+00
         0.00000E+00
         0.00000E+00
         0.00000E+00
         0.00000E+00
         0.00000E+00
         0.00000E+00
         0.00000E+00
         0.00000E+00
         0.00000E+00
         0.00000E+00
         0.00000E+00
         0.00000E+00
         0.00000E+00
         0.00000E+00
         0.00000E+00
         0.00000E+00
         0.00000E+00
         0.00000E+00
         0.00000E+00
         0.00000E+00
         0.00000E+00
         0.00000E+00
         0.00000E+00
         0.00000E+00
         0.00000E+00
         0.00000E+00
         0.00000E+00
         0.00000E+00
         0.00000E+00
         0.00000E+00
         0.00000E+00
         0.00000E+00
         0.00000E+00
         0.00000E+00
         0.00000E+00
         0.00000E+00
         0.00000E+00
         0.00000E+00
         0.00000E+00
         0.00000E+00
         0.00000E+00
         0.00000E+00
         0.00000E+00
         0.00000E+00
         0.00000E+00
         0.00000E+00
         0.00000E+00
         0.00000E+00
         0.00000E+00
         0.00000E+00
         0.00000E+00
         0.00000E+00
         0.00000E+00
         0.00000E+00
         0.00000E+00
         0.00000E+00
         0.00000E+00
         0.00000E+00
         0.00000E+00
         0.00000E+00
         0.00000E+00
         0.00000E+00
         0.00000E+00
         0.00000E+00
         0.00000E+00
         0.00000E+00
         0.00000E+00
         0.00000E+00
         0.00000E+00
         0.00000E+00
         0.00000E+00
         0.00000E+00
         0.00000E+00
         0.00000E+00
         0.00000E+00
         0.00000E+00
         0.00000E+00
         0.00000E+00
         0.00000E+00
         0.00000E+00
         0.00000E+00
         0.00000E+00
         0.00000E+00
         0.00000E+00
         0.00000E+00
         0.00000E+00
         0.00000E+00
         0.00000E+00
         0.00000E+00
         0.00000E+00
         0.00000E+00
         0.00000E+00
         0.00000E+00
         0.00000E+00
         0.00000E+00
         0.00000E+00
         0.00000E+00
         0.00000E+00
         0.00000E+00
         0.00000E+00
         0.00000E+00
         0.00000E+00
         0.00000E+00
         0.00000E+00
         0.00000E+00
         0.00000E+00
         0.00000E+00
         0.00000E+00
         0.00000E+00
         0.00000E+00
         0.00000E+00
         0.00000E+00
         0.00000E+00
         0.00000E+00
         0.00000E+00
         0.00000E+00
         0.00000E+00
         0.00000E+00
         0.00000E+00
         0.00000E+00
         0.00000E+00
         0.00000E+00
         0.00000E+00
         0.00000E+00
         0.00000E+00
         0.00000E+00
         0.00000E+00
         0.00000E+00
         0.00000E+00
         0.00000E+00
         0.00000E+00
         0.00000E+00
         0.00000E+00
         0.00000E+00
         0.00000E+00
         0.00000E+00
         0.00000E+00
         0.00000E+00
         0.00000E+00
         0.00000E+00
         0.00000E+00
         0.00000E+00
         0.00000E+00
         0.00000E+00
         0.00000E+00
         0.00000E+00
         0.00000E+00
         0.00000E+00
         0.00000E+00
         0.00000E+00
         0.00000E+00
         0.00000E+00
         0.00000E+00
         0.00000E+00
         0.00000E+00
         0.00000E+00
         0.00000E+00
         0.00000E+00
         0.00000E+00
         0.00000E+00
         0.00000E+00
         0.00000E+00
         0.00000E+00
         0.00000E+00
         0.00000E+00
         0.00000E+00
         0.00000E+00
         0.00000E+00
         0.00000E+00
         0.00000E+00
         0.00000E+00
         0.00000E+00
         0.00000E+00
         0.00000E+00
         0.00000E+00
         0.00000E+00
         0.00000E+00
         0.00000E+00
         0.00000E+00
         0.00000E+00
         0.00000E+00
         0.00000E+00
         0.00000E+00
         0.00000E+00
         0.00000E+00
         0.00000E+00
         0.00000E+00
         0.00000E+00
         0.00000E+00
         0.00000E+00
         0.00000E+00
         0.00000E+00
         0.00000E+00
         0.00000E+00
         0.00000E+00
         0.00000E+00
         0.00000E+00
         0.00000E+00
         0.00000E+00
         0.00000E+00
         0.00000E+00
         0.00000E+00
         0.00000E+00
         0.00000E+00
         0.00000E+00
         0.00000E+00
         0.00000E+00
         0.00000E+00
         0.00000E+00
         0.00000E+00
         0.00000E+00
         0.00000E+00
         0.00000E+00
         0.00000E+00
         0.00000E+00
         0.00000E+00
         0.00000E+00
         0.00000E+00
         0.00000E+00
         0.00000E+00
         0.00000E+00
         0.00000E+00
         0.00000E+00
         0.00000E+00
         0.00000E+00
         0.00000E+00
         0.00000E+00
         0.00000E+00
         0.00000E+00
         0.00000E+00
         0.00000E+00
         0.00000E+00
         0.00000E+00
         0.00000E+00
         0.00000E+00
         0.00000E+00
         0.00000E+00
         0.00000E+00
         0.00000E+00
         0.00000E+00
         0.00000E+00
         0.00000E+00
         0.00000E+00
         0.00000E+00
         0.00000E+00
         0.00000E+00
         0.00000E+00
         0.00000E+00
         0.00000E+00
         0.00000E+00
         0.00000E+00
         0.00000E+00
         0.00000E+00
         0.00000E+00
         0.00000E+00
         0.00000E+00
         0.00000E+00
         0.00000E+00
         0.00000E+00
         0.00000E+00
         0.00000E+00
         0.00000E+00
         0.00000E+00
         0.00000E+00
         0.00000E+00
         0.00000E+00
         0.00000E+00
         0.00000E+00
         0.00000E+00
         0.00000E+00
         0.00000E+00
         0.00000E+00
         0.00000E+00
         0.00000E+00
         0.00000E+00
         0.00000E+00
         0.00000E+00
         0.00000E+00
         0.00000E+00
         0.00000E+00
         0.00000E+00
         0.00000E+00
         0.00000E+00
         0.00000E+00
         0.00000E+00
         0.00000E+00
         0.00000E+00
         0.00000E+00
         0.00000E+00
         0.00000E+00
         0.00000E+00
         0.00000E+00
         0.00000E+00
         0.00000E+00
         0.00000E+00
         0.00000E+00
         0.00000E+00
         0.00000E+00
         0.00000E+00
         0.00000E+00
         0.00000E+00
         0.00000E+00
         0.00000E+00
         0.00000E+00
         0.00000E+00
         0.00000E+00
         0.00000E+00
         0.00000E+00
         0.00000E+00
         0.00000E+00
         0.00000E+00
         0.00000E+00
         0.00000E+00
         0.00000E+00
         0.00000E+00
         0.00000E+00
         0.00000E+00
         0.00000E+00
         0.00000E+00
         0.00000E+00
         0.00000E+00
         0.00000E+00
         0.00000E+00
         0.00000E+00
         0.00000E+00
         0.00000E+00
         0.00000E+00
         0.00000E+00
         0.00000E+00
         0.00000E+00
         0.00000E+00
         0.00000E+00
         0.00000E+00
         0.00000E+00
         0.00000E+00
         0.00000E+00
         0.00000E+00
         0.00000E+00
         0.00000E+00
         0.00000E+00
         0.00000E+00
         0.00000E+00
         0.00000E+00
         0.00000E+00
         0.00000E+00
         0.00000E+00
         0.00000E+00
         0.00000E+00
         0.00000E+00
  
SCALARS           initial_coordinate_x  double 1
LOOKUP_TABLE default
         0.10378E-02
         0.17452E-02
         0.23177E-02
         0.16698E-02
         0.10379E-02
         0.17453E-02
         0.23178E-02
         0.16700E-02
         0.30377E-02
         0.27791E-02
         0.30377E-02
         0.27788E-02
         0.12850E-02
         0.65139E-03
         0.12851E-02
         0.65164E-03
         0.12757E-03
        -0.12822E-03
         0.12783E-03
        -0.12804E-03
         0.94500E-03
         0.11327E-02
         0.17490E-02
         0.94533E-03
         0.11330E-02
         0.17494E-02
         0.40588E-03
         0.39779E-03
         0.40594E-03
         0.39781E-03
        -0.76303E-03
        -0.86604E-03
         0.46119E-03
        -0.76268E-03
        -0.86593E-03
         0.46164E-03
        -0.18300E-02
        -0.18440E-02
        -0.18297E-02
        -0.18441E-02
        -0.27238E-02
        -0.28028E-02
        -0.27238E-02
        -0.28031E-02
        -0.25365E-02
        -0.19287E-02
        -0.25363E-02
        -0.19283E-02
        -0.99363E-03
        -0.99377E-03
        -0.14380E-02
        -0.14377E-02
        -0.31574E-03
        -0.31594E-03
        -0.11068E-02
        -0.11071E-02
        -0.18845E-02
        -0.18713E-02
        -0.18846E-02
        -0.18714E-02
        -0.15871E-03
        -0.94089E-03
        -0.15844E-03
        -0.94029E-03
         0.78856E-03
         0.78922E-03
         0.17211E-02
         0.17211E-02
         0.32050E-02
         0.28046E-02
         0.32047E-02
         0.28047E-02
         0.23059E-02
         0.23060E-02
        -0.40614E-03
        -0.40627E-03
        -0.12092E-02
        -0.12092E-02
        -0.19448E-02
        -0.19448E-02
        -0.25029E-02
        -0.26371E-02
        -0.25029E-02
        -0.26372E-02
        -0.27671E-02
        -0.27674E-02
        -0.21123E-02
        -0.21122E-02
        -0.16087E-02
        -0.16087E-02
        -0.11939E-02
        -0.58641E-03
        -0.11937E-02
        -0.58606E-03
         0.20912E-03
         0.20952E-03
         0.10586E-02
         0.10589E-02
         0.18413E-02
         0.18413E-02
         0.24544E-02
         0.26022E-02
         0.24543E-02
         0.26021E-02
         0.37964E-02
         0.39100E-02
         0.37964E-02
         0.39100E-02
         0.34621E-02
         0.34621E-02
         0.29267E-02
         0.29267E-02
         0.22211E-02
         0.22211E-02
         0.13865E-02
         0.13865E-02
         0.47130E-03
         0.47130E-03
        -0.47130E-03
        -0.47130E-03
        -0.13865E-02
        -0.13865E-02
        -0.22211E-02
        -0.22211E-02
        -0.29267E-02
        -0.29267E-02
        -0.34621E-02
        -0.34621E-02
        -0.37964E-02
        -0.37964E-02
        -0.39100E-02
        -0.39100E-02
        -0.37964E-02
        -0.37964E-02
        -0.34621E-02
        -0.34621E-02
        -0.29267E-02
        -0.29267E-02
        -0.22211E-02
        -0.22211E-02
        -0.13865E-02
        -0.13865E-02
        -0.47130E-03
        -0.47130E-03
         0.47130E-03
         0.47130E-03
         0.13865E-02
         0.13865E-02
         0.22211E-02
         0.22211E-02
         0.29267E-02
         0.29267E-02
         0.34621E-02
         0.34621E-02
         0.37964E-02
         0.37964E-02
         0.10376E-02
         0.17450E-02
         0.23175E-02
         0.16696E-02
         0.30377E-02
         0.27795E-02
         0.12849E-02
         0.65115E-03
         0.12731E-03
        -0.12841E-03
         0.94467E-03
         0.11323E-02
         0.17487E-02
         0.40583E-03
         0.39777E-03
        -0.76338E-03
        -0.86615E-03
         0.46074E-03
        -0.18303E-02
        -0.18439E-02
        -0.27238E-02
        -0.28025E-02
        -0.25366E-02
        -0.19292E-02
        -0.99349E-03
        -0.14384E-02
        -0.31554E-03
        -0.11064E-02
        -0.18845E-02
        -0.18712E-02
        -0.15899E-03
        -0.94149E-03
         0.78790E-03
         0.17210E-02
         0.32053E-02
         0.28046E-02
         0.23058E-02
        -0.40600E-03
        -0.12092E-02
        -0.19447E-02
        -0.25028E-02
        -0.26370E-02
        -0.27668E-02
        -0.21125E-02
        -0.16088E-02
        -0.11940E-02
        -0.58676E-03
         0.20871E-03
         0.10583E-02
         0.18413E-02
         0.24545E-02
         0.26022E-02
         0.37964E-02
         0.39100E-02
         0.34621E-02
         0.29267E-02
         0.22211E-02
         0.13865E-02
         0.47130E-03
        -0.47130E-03
        -0.13865E-02
        -0.22211E-02
        -0.29267E-02
        -0.34621E-02
        -0.37964E-02
        -0.39100E-02
        -0.37964E-02
        -0.34621E-02
        -0.29267E-02
        -0.22211E-02
        -0.13865E-02
        -0.47130E-03
         0.47130E-03
         0.13865E-02
         0.22211E-02
         0.29267E-02
         0.34621E-02
         0.37964E-02
         0.10375E-02
         0.17448E-02
         0.23174E-02
         0.16694E-02
         0.30377E-02
         0.27798E-02
         0.12848E-02
         0.65090E-03
         0.12705E-03
        -0.12859E-03
         0.94434E-03
         0.11320E-02
         0.17483E-02
         0.40577E-03
         0.39776E-03
        -0.76374E-03
        -0.86626E-03
         0.46029E-03
        -0.18306E-02
        -0.18438E-02
        -0.27238E-02
        -0.28022E-02
        -0.25368E-02
        -0.19296E-02
        -0.99334E-03
        -0.14387E-02
        -0.31534E-03
        -0.11061E-02
        -0.18844E-02
        -0.18710E-02
        -0.15926E-03
        -0.94209E-03
         0.78724E-03
         0.17210E-02
         0.32056E-02
         0.28046E-02
         0.23057E-02
        -0.40586E-03
        -0.12092E-02
        -0.19447E-02
        -0.25028E-02
        -0.26369E-02
        -0.27665E-02
        -0.21126E-02
        -0.16088E-02
        -0.11941E-02
        -0.58711E-03
         0.20830E-03
         0.10580E-02
         0.18414E-02
         0.24546E-02
         0.26023E-02
         0.37964E-02
         0.39100E-02
         0.34621E-02
         0.29267E-02
         0.22211E-02
         0.13865E-02
         0.47130E-03
        -0.47130E-03
        -0.13865E-02
        -0.22211E-02
        -0.29267E-02
        -0.34621E-02
        -0.37964E-02
        -0.39100E-02
        -0.37964E-02
        -0.34621E-02
        -0.29267E-02
        -0.22211E-02
        -0.13865E-02
        -0.47130E-03
         0.47130E-03
         0.13865E-02
         0.22211E-02
         0.29267E-02
         0.34621E-02
         0.37964E-02
         0.10374E-02
         0.17446E-02
         0.23173E-02
         0.16692E-02
         0.30376E-02
         0.27801E-02
         0.12847E-02
         0.65065E-03
         0.12678E-03
        -0.12878E-03
         0.94401E-03
         0.11316E-02
         0.17479E-02
         0.40572E-03
         0.39774E-03
        -0.76409E-03
        -0.86637E-03
         0.45985E-03
        -0.18309E-02
        -0.18437E-02
        -0.27237E-02
        -0.28020E-02
        -0.25369E-02
        -0.19300E-02
        -0.99320E-03
        -0.14391E-02
        -0.31514E-03
        -0.11057E-02
        -0.18844E-02
        -0.18709E-02
        -0.15954E-03
        -0.94269E-03
         0.78658E-03
         0.17209E-02
         0.32060E-02
         0.28046E-02
         0.23056E-02
        -0.40572E-03
        -0.12092E-02
        -0.19446E-02
        -0.25028E-02
        -0.26368E-02
        -0.27662E-02
        -0.21128E-02
        -0.16088E-02
        -0.11942E-02
        -0.58746E-03
         0.20790E-03
         0.10577E-02
         0.18414E-02
         0.24548E-02
         0.26024E-02
         0.37964E-02
         0.39100E-02
         0.34621E-02
         0.29267E-02
         0.22211E-02
         0.13865E-02
         0.47130E-03
        -0.47130E-03
        -0.13865E-02
        -0.22211E-02
        -0.29267E-02
        -0.34621E-02
        -0.37964E-02
        -0.39100E-02
        -0.37964E-02
        -0.34621E-02
        -0.29267E-02
        -0.22211E-02
        -0.13865E-02
        -0.47130E-03
         0.47130E-03
         0.13865E-02
         0.22211E-02
         0.29267E-02
         0.34621E-02
         0.37964E-02
         0.10373E-02
         0.17445E-02
         0.23172E-02
         0.16689E-02
         0.30376E-02
         0.27805E-02
         0.12846E-02
         0.65041E-03
         0.12652E-03
        -0.12896E-03
         0.94367E-03
         0.11313E-02
         0.17475E-02
         0.40566E-03
         0.39772E-03
        -0.76444E-03
        -0.86648E-03
         0.45940E-03
        -0.18312E-02
        -0.18436E-02
        -0.27237E-02
        -0.28017E-02
        -0.25371E-02
        -0.19305E-02
        -0.99305E-03
        -0.14394E-02
        -0.31494E-03
        -0.11054E-02
        -0.18843E-02
        -0.18708E-02
        -0.15981E-03
        -0.94328E-03
         0.78592E-03
         0.17209E-02
         0.32063E-02
         0.28045E-02
         0.23055E-02
        -0.40558E-03
        -0.12092E-02
        -0.19446E-02
        -0.25027E-02
        -0.26367E-02
        -0.27658E-02
        -0.21129E-02
        -0.16089E-02
        -0.11943E-02
        -0.58781E-03
         0.20749E-03
         0.10574E-02
         0.18415E-02
         0.24549E-02
         0.26025E-02
         0.37964E-02
         0.39100E-02
         0.34621E-02
         0.29267E-02
         0.22211E-02
         0.13865E-02
         0.47130E-03
        -0.47130E-03
        -0.13865E-02
        -0.22211E-02
        -0.29267E-02
        -0.34621E-02
        -0.37964E-02
        -0.39100E-02
        -0.37964E-02
        -0.34621E-02
        -0.29267E-02
        -0.22211E-02
        -0.13865E-02
        -0.47130E-03
         0.47130E-03
         0.13865E-02
         0.22211E-02
         0.29267E-02
         0.34621E-02
         0.37964E-02
         0.10372E-02
         0.17443E-02
         0.23171E-02
         0.16687E-02
         0.30376E-02
         0.27808E-02
         0.12845E-02
         0.65016E-03
         0.12626E-03
        -0.12915E-03
         0.94334E-03
         0.11310E-02
         0.17471E-02
         0.40561E-03
         0.39770E-03
        -0.76480E-03
        -0.86659E-03
         0.45895E-03
        -0.18315E-02
        -0.18435E-02
        -0.27237E-02
        -0.28014E-02
        -0.25372E-02
        -0.19309E-02
        -0.99291E-03
        -0.14398E-02
        -0.31474E-03
        -0.11051E-02
        -0.18843E-02
        -0.18706E-02
        -0.16009E-03
        -0.94388E-03
         0.78526E-03
         0.17208E-02
         0.32066E-02
         0.28045E-02
         0.23053E-02
        -0.40545E-03
        -0.12092E-02
        -0.19446E-02
        -0.25027E-02
        -0.26366E-02
        -0.27655E-02
        -0.21130E-02
        -0.16089E-02
        -0.11944E-02
        -0.58816E-03
         0.20709E-03
         0.10571E-02
         0.18415E-02
         0.24550E-02
         0.26025E-02
         0.37964E-02
         0.39100E-02
         0.34621E-02
         0.29267E-02
         0.22211E-02
         0.13865E-02
         0.47130E-03
        -0.47130E-03
        -0.13865E-02
        -0.22211E-02
        -0.29267E-02
        -0.34621E-02
        -0.37964E-02
        -0.39100E-02
        -0.37964E-02
        -0.34621E-02
        -0.29267E-02
        -0.22211E-02
        -0.13865E-02
        -0.47130E-03
         0.47130E-03
         0.13865E-02
         0.22211E-02
         0.29267E-02
         0.34621E-02
         0.37964E-02
         0.10371E-02
         0.17441E-02
         0.23169E-02
         0.16685E-02
         0.30376E-02
         0.27812E-02
         0.12844E-02
         0.64992E-03
         0.12600E-03
        -0.12933E-03
         0.94301E-03
         0.11306E-02
         0.17467E-02
         0.40556E-03
         0.39769E-03
        -0.76515E-03
        -0.86670E-03
         0.45850E-03
        -0.18318E-02
        -0.18434E-02
        -0.27236E-02
        -0.28011E-02
        -0.25374E-02
        -0.19313E-02
        -0.99277E-03
        -0.14401E-02
        -0.31454E-03
        -0.11047E-02
        -0.18842E-02
        -0.18705E-02
        -0.16036E-03
        -0.94448E-03
         0.78460E-03
         0.17208E-02
         0.32070E-02
         0.28045E-02
         0.23052E-02
        -0.40531E-03
        -0.12092E-02
        -0.19445E-02
        -0.25027E-02
        -0.26366E-02
        -0.27652E-02
        -0.21132E-02
        -0.16090E-02
        -0.11946E-02
        -0.58851E-03
         0.20668E-03
         0.10567E-02
         0.18416E-02
         0.24551E-02
         0.26026E-02
         0.37964E-02
         0.39100E-02
         0.34621E-02
         0.29267E-02
         0.22211E-02
         0.13865E-02
         0.47130E-03
        -0.47130E-03
        -0.13865E-02
        -0.22211E-02
        -0.29267E-02
        -0.34621E-02
        -0.37964E-02
        -0.39100E-02
        -0.37964E-02
        -0.34621E-02
        -0.29267E-02
        -0.22211E-02
        -0.13865E-02
        -0.47130E-03
         0.47130E-03
         0.13865E-02
         0.22211E-02
         0.29267E-02
         0.34621E-02
         0.37964E-02
         0.10370E-02
         0.17439E-02
         0.23168E-02
         0.16683E-02
         0.30375E-02
         0.27815E-02
         0.12843E-02
         0.64967E-03
         0.12573E-03
        -0.12952E-03
         0.94268E-03
         0.11303E-02
         0.17463E-02
         0.40550E-03
         0.39767E-03
        -0.76551E-03
        -0.86680E-03
         0.45806E-03
        -0.18321E-02
        -0.18433E-02
        -0.27236E-02
        -0.28009E-02
        -0.25375E-02
        -0.19317E-02
        -0.99262E-03
        -0.14405E-02
        -0.31434E-03
        -0.11044E-02
        -0.18842E-02
        -0.18704E-02
        -0.16064E-03
        -0.94508E-03
         0.78394E-03
         0.17208E-02
         0.32073E-02
         0.28045E-02
         0.23051E-02
        -0.40517E-03
        -0.12092E-02
        -0.19445E-02
        -0.25026E-02
        -0.26365E-02
        -0.27649E-02
        -0.21133E-02
        -0.16090E-02
        -0.11947E-02
        -0.58886E-03
         0.20627E-03
         0.10564E-02
         0.18416E-02
         0.24553E-02
         0.26027E-02
         0.37964E-02
         0.39100E-02
         0.34621E-02
         0.29267E-02
         0.22211E-02
         0.13865E-02
         0.47130E-03
        -0.47130E-03
        -0.13865E-02
        -0.22211E-02
        -0.29267E-02
        -0.34621E-02
        -0.37964E-02
        -0.39100E-02
        -0.37964E-02
        -0.34621E-02
        -0.29267E-02
        -0.22211E-02
        -0.13865E-02
        -0.47130E-03
         0.47130E-03
         0.13865E-02
         0.22211E-02
         0.29267E-02
         0.34621E-02
         0.37964E-02
         0.10368E-02
         0.17438E-02
         0.23167E-02
         0.16681E-02
         0.30375E-02
         0.27819E-02
         0.12842E-02
         0.64943E-03
         0.12547E-03
        -0.12970E-03
         0.94235E-03
         0.11300E-02
         0.17459E-02
         0.40545E-03
         0.39766E-03
        -0.76586E-03
        -0.86691E-03
         0.45761E-03
        -0.18324E-02
        -0.18432E-02
        -0.27236E-02
        -0.28006E-02
        -0.25377E-02
        -0.19322E-02
        -0.99248E-03
        -0.14408E-02
        -0.31414E-03
        -0.11040E-02
        -0.18841E-02
        -0.18703E-02
        -0.16091E-03
        -0.94568E-03
         0.78328E-03
         0.17207E-02
         0.32076E-02
         0.28044E-02
         0.23050E-02
        -0.40503E-03
        -0.12092E-02
        -0.19445E-02
        -0.25026E-02
        -0.26364E-02
        -0.27646E-02
        -0.21134E-02
        -0.16091E-02
        -0.11948E-02
        -0.58921E-03
         0.20587E-03
         0.10561E-02
         0.18416E-02
         0.24554E-02
         0.26027E-02
         0.37964E-02
         0.39100E-02
         0.34621E-02
         0.29267E-02
         0.22211E-02
         0.13865E-02
         0.47130E-03
        -0.47130E-03
        -0.13865E-02
        -0.22211E-02
        -0.29267E-02
        -0.34621E-02
        -0.37964E-02
        -0.39100E-02
        -0.37964E-02
        -0.34621E-02
        -0.29267E-02
        -0.22211E-02
        -0.13865E-02
        -0.47130E-03
         0.47130E-03
         0.13865E-02
         0.22211E-02
         0.29267E-02
         0.34621E-02
         0.37964E-02
         0.10367E-02
         0.17436E-02
         0.23166E-02
         0.16679E-02
         0.30375E-02
         0.27822E-02
         0.12841E-02
         0.64918E-03
         0.12521E-03
        -0.12989E-03
         0.94202E-03
         0.11296E-02
         0.17455E-02
         0.40539E-03
         0.39764E-03
        -0.76621E-03
        -0.86702E-03
         0.45716E-03
        -0.18326E-02
        -0.18431E-02
        -0.27235E-02
        -0.28003E-02
        -0.25379E-02
        -0.19326E-02
        -0.99233E-03
        -0.14412E-02
        -0.31394E-03
        -0.11037E-02
        -0.18841E-02
        -0.18701E-02
        -0.16119E-03
        -0.94628E-03
         0.78262E-03
         0.17207E-02
         0.32079E-02
         0.28044E-02
         0.23049E-02
        -0.40490E-03
        -0.12093E-02
        -0.19444E-02
        -0.25026E-02
        -0.26363E-02
        -0.27643E-02
        -0.21136E-02
        -0.16091E-02
        -0.11949E-02
        -0.58956E-03
         0.20546E-03
         0.10558E-02
         0.18417E-02
         0.24555E-02
         0.26028E-02
         0.37964E-02
         0.39100E-02
         0.34621E-02
         0.29267E-02
         0.22211E-02
         0.13865E-02
         0.47130E-03
        -0.47130E-03
        -0.13865E-02
        -0.22211E-02
        -0.29267E-02
        -0.34621E-02
        -0.37964E-02
        -0.39100E-02
        -0.37964E-02
        -0.34621E-02
        -0.29267E-02
        -0.22211E-02
        -0.13865E-02
        -0.47130E-03
         0.47130E-03
         0.13865E-02
         0.22211E-02
         0.29267E-02
         0.34621E-02
         0.37964E-02
         0.10366E-02
         0.17434E-02
         0.23164E-02
         0.16677E-02
         0.30375E-02
         0.27825E-02
         0.12840E-02
         0.64894E-03
         0.12495E-03
        -0.13007E-03
         0.94169E-03
         0.11293E-02
         0.17451E-02
         0.40534E-03
         0.39762E-03
        -0.76657E-03
        -0.86713E-03
         0.45671E-03
        -0.18329E-02
        -0.18430E-02
        -0.27235E-02
        -0.28001E-02
        -0.25380E-02
        -0.19330E-02
        -0.99219E-03
        -0.14415E-02
        -0.31374E-03
        -0.11033E-02
        -0.18840E-02
        -0.18700E-02
        -0.16146E-03
        -0.94687E-03
         0.78195E-03
         0.17207E-02
         0.32083E-02
         0.28044E-02
         0.23048E-02
        -0.40476E-03
        -0.12093E-02
        -0.19444E-02
        -0.25026E-02
        -0.26362E-02
        -0.27640E-02
        -0.21137E-02
        -0.16091E-02
        -0.11950E-02
        -0.58991E-03
         0.20505E-03
         0.10555E-02
         0.18417E-02
         0.24556E-02
         0.26029E-02
         0.37964E-02
         0.39100E-02
         0.34621E-02
         0.29267E-02
         0.22211E-02
         0.13865E-02
         0.47130E-03
        -0.47130E-03
        -0.13865E-02
        -0.22211E-02
        -0.29267E-02
        -0.34621E-02
        -0.37964E-02
        -0.39100E-02
        -0.37964E-02
        -0.34621E-02
        -0.29267E-02
        -0.22211E-02
        -0.13865E-02
        -0.47130E-03
         0.47130E-03
         0.13865E-02
         0.22211E-02
         0.29267E-02
         0.34621E-02
         0.37964E-02
         0.10365E-02
         0.17432E-02
         0.23163E-02
         0.16675E-02
         0.30374E-02
         0.27829E-02
         0.12839E-02
         0.64869E-03
         0.12468E-03
        -0.13026E-03
         0.94135E-03
         0.11289E-02
         0.17447E-02
         0.40528E-03
         0.39760E-03
        -0.76692E-03
        -0.86724E-03
         0.45626E-03
        -0.18332E-02
        -0.18430E-02
        -0.27235E-02
        -0.27998E-02
        -0.25382E-02
        -0.19334E-02
        -0.99205E-03
        -0.14419E-02
        -0.31354E-03
        -0.11030E-02
        -0.18840E-02
        -0.18699E-02
        -0.16174E-03
        -0.94747E-03
         0.78129E-03
         0.17206E-02
         0.32086E-02
         0.28044E-02
         0.23047E-02
        -0.40462E-03
        -0.12093E-02
        -0.19444E-02
        -0.25025E-02
        -0.26361E-02
        -0.27637E-02
        -0.21139E-02
        -0.16092E-02
        -0.11951E-02
        -0.59025E-03
         0.20465E-03
         0.10552E-02
         0.18418E-02
         0.24558E-02
         0.26030E-02
         0.37964E-02
         0.39100E-02
         0.34621E-02
         0.29267E-02
         0.22211E-02
         0.13865E-02
         0.47130E-03
        -0.47130E-03
        -0.13865E-02
        -0.22211E-02
        -0.29267E-02
        -0.34621E-02
        -0.37964E-02
        -0.39100E-02
        -0.37964E-02
        -0.34621E-02
        -0.29267E-02
        -0.22211E-02
        -0.13865E-02
        -0.47130E-03
         0.47130E-03
         0.13865E-02
         0.22211E-02
         0.29267E-02
         0.34621E-02
         0.37964E-02
         0.10364E-02
         0.17430E-02
         0.23162E-02
         0.16672E-02
         0.30374E-02
         0.27832E-02
         0.12838E-02
         0.64845E-03
         0.12442E-03
        -0.13044E-03
         0.94102E-03
         0.11286E-02
         0.17443E-02
         0.40523E-03
         0.39759E-03
        -0.76727E-03
        -0.86735E-03
         0.45582E-03
        -0.18335E-02
        -0.18429E-02
        -0.27235E-02
        -0.27995E-02
        -0.25383E-02
        -0.19339E-02
        -0.99190E-03
        -0.14422E-02
        -0.31334E-03
        -0.11026E-02
        -0.18839E-02
        -0.18697E-02
        -0.16201E-03
        -0.94807E-03
         0.78063E-03
         0.17206E-02
         0.32089E-02
         0.28043E-02
         0.23046E-02
        -0.40448E-03
        -0.12093E-02
        -0.19443E-02
        -0.25025E-02
        -0.26360E-02
        -0.27633E-02
        -0.21140E-02
        -0.16092E-02
        -0.11953E-02
        -0.59060E-03
         0.20424E-03
         0.10549E-02
         0.18418E-02
         0.24559E-02
         0.26030E-02
         0.37964E-02
         0.39100E-02
         0.34621E-02
         0.29267E-02
         0.22211E-02
         0.13865E-02
         0.47130E-03
        -0.47130E-03
        -0.13865E-02
        -0.22211E-02
        -0.29267E-02
        -0.34621E-02
        -0.37964E-02
        -0.39100E-02
        -0.37964E-02
        -0.34621E-02
        -0.29267E-02
        -0.22211E-02
        -0.13865E-02
        -0.47130E-03
         0.47130E-03
         0.13865E-02
         0.22211E-02
         0.29267E-02
         0.34621E-02
         0.37964E-02
         0.10363E-02
         0.17429E-02
         0.23161E-02
         0.16670E-02
         0.30374E-02
         0.27836E-02
         0.12837E-02
         0.64820E-03
         0.12416E-03
        -0.13063E-03
         0.94069E-03
         0.11282E-02
         0.17439E-02
         0.40518E-03
         0.39757E-03
        -0.76763E-03
        -0.86746E-03
         0.45537E-03
        -0.18338E-02
        -0.18428E-02
        -0.27234E-02
        -0.27992E-02
        -0.25385E-02
        -0.19343E-02
        -0.99176E-03
        -0.14425E-02
        -0.31314E-03
        -0.11023E-02
        -0.18839E-02
        -0.18696E-02
        -0.16229E-03
        -0.94867E-03
         0.77997E-03
         0.17205E-02
         0.32092E-02
         0.28043E-02
         0.23044E-02
        -0.40434E-03
        -0.12093E-02
        -0.19443E-02
        -0.25025E-02
        -0.26359E-02
        -0.27630E-02
        -0.21141E-02
        -0.16093E-02
        -0.11954E-02
        -0.59095E-03
         0.20384E-03
         0.10546E-02
         0.18419E-02
         0.24560E-02
         0.26031E-02
         0.37964E-02
         0.39100E-02
         0.34621E-02
         0.29267E-02
         0.22211E-02
         0.13865E-02
         0.47130E-03
        -0.47130E-03
        -0.13865E-02
        -0.22211E-02
        -0.29267E-02
        -0.34621E-02
        -0.37964E-02
        -0.39100E-02
        -0.37964E-02
        -0.34621E-02
        -0.29267E-02
        -0.22211E-02
        -0.13865E-02
        -0.47130E-03
         0.47130E-03
         0.13865E-02
         0.22211E-02
         0.29267E-02
         0.34621E-02
         0.37964E-02
         0.10362E-02
         0.17427E-02
         0.23160E-02
         0.16668E-02
         0.30373E-02
         0.27839E-02
         0.12836E-02
         0.64796E-03
         0.12390E-03
        -0.13082E-03
         0.94036E-03
         0.11279E-02
         0.17435E-02
         0.40512E-03
         0.39755E-03
        -0.76798E-03
        -0.86756E-03
         0.45492E-03
        -0.18341E-02
        -0.18427E-02
        -0.27234E-02
        -0.27990E-02
        -0.25386E-02
        -0.19347E-02
        -0.99161E-03
        -0.14429E-02
        -0.31294E-03
        -0.11019E-02
        -0.18838E-02
        -0.18695E-02
        -0.16256E-03
        -0.94927E-03
         0.77931E-03
         0.17205E-02
         0.32096E-02
         0.28043E-02
         0.23043E-02
        -0.40420E-03
        -0.12093E-02
        -0.19443E-02
        -0.25024E-02
        -0.26358E-02
        -0.27627E-02
        -0.21143E-02
        -0.16093E-02
        -0.11955E-02
        -0.59130E-03
         0.20343E-03
         0.10543E-02
         0.18419E-02
         0.24561E-02
         0.26032E-02
         0.37964E-02
         0.39100E-02
         0.34621E-02
         0.29267E-02
         0.22211E-02
         0.13865E-02
         0.47130E-03
        -0.47130E-03
        -0.13865E-02
        -0.22211E-02
        -0.29267E-02
        -0.34621E-02
        -0.37964E-02
        -0.39100E-02
        -0.37964E-02
        -0.34621E-02
        -0.29267E-02
        -0.22211E-02
        -0.13865E-02
        -0.47130E-03
         0.47130E-03
         0.13865E-02
         0.22211E-02
         0.29267E-02
         0.34621E-02
         0.37964E-02
         0.10360E-02
         0.17425E-02
         0.23158E-02
         0.16666E-02
         0.30373E-02
         0.27842E-02
         0.12835E-02
         0.64771E-03
         0.12363E-03
        -0.13100E-03
         0.94003E-03
         0.11276E-02
         0.17432E-02
         0.40507E-03
         0.39754E-03
        -0.76834E-03
        -0.86767E-03
         0.45447E-03
        -0.18344E-02
        -0.18426E-02
        -0.27234E-02
        -0.27987E-02
        -0.25388E-02
        -0.19352E-02
        -0.99147E-03
        -0.14433E-02
        -0.31274E-03
        -0.11016E-02
        -0.18838E-02
        -0.18694E-02
        -0.16284E-03
        -0.94986E-03
         0.77865E-03
         0.17205E-02
         0.32099E-02
         0.28042E-02
         0.23042E-02
        -0.40407E-03
        -0.12093E-02
        -0.19442E-02
        -0.25024E-02
        -0.26358E-02
        -0.27624E-02
        -0.21144E-02
        -0.16094E-02
        -0.11956E-02
        -0.59165E-03
         0.20302E-03
         0.10540E-02
         0.18419E-02
         0.24563E-02
         0.26033E-02
         0.37964E-02
         0.39100E-02
         0.34621E-02
         0.29267E-02
         0.22211E-02
         0.13865E-02
         0.47130E-03
        -0.47130E-03
        -0.13865E-02
        -0.22211E-02
        -0.29267E-02
        -0.34621E-02
        -0.37964E-02
        -0.39100E-02
        -0.37964E-02
        -0.34621E-02
        -0.29267E-02
        -0.22211E-02
        -0.13865E-02
        -0.47130E-03
         0.47130E-03
         0.13865E-02
         0.22211E-02
         0.29267E-02
         0.34621E-02
         0.37964E-02
         0.10359E-02
         0.17423E-02
         0.23157E-02
         0.16664E-02
         0.30373E-02
         0.27846E-02
         0.12834E-02
         0.64747E-03
         0.12337E-03
        -0.13118E-03
         0.93970E-03
         0.11272E-02
         0.17428E-02
         0.40501E-03
         0.39752E-03
        -0.76869E-03
        -0.86778E-03
         0.45402E-03
        -0.18347E-02
        -0.18425E-02
        -0.27234E-02
        -0.27984E-02
        -0.25389E-02
        -0.19356E-02
        -0.99133E-03
        -0.14436E-02
        -0.31254E-03
        -0.11013E-02
        -0.18837E-02
        -0.18692E-02
        -0.16311E-03
        -0.95046E-03
         0.77799E-03
         0.17204E-02
         0.32102E-02
         0.28042E-02
         0.23041E-02
        -0.40393E-03
        -0.12093E-02
        -0.19442E-02
        -0.25024E-02
        -0.26357E-02
        -0.27621E-02
        -0.21146E-02
        -0.16094E-02
        -0.11957E-02
        -0.59200E-03
         0.20262E-03
         0.10536E-02
         0.18420E-02
         0.24564E-02
         0.26033E-02
         0.37964E-02
         0.39100E-02
         0.34621E-02
         0.29267E-02
         0.22211E-02
         0.13865E-02
         0.47130E-03
        -0.47130E-03
        -0.13865E-02
        -0.22211E-02
        -0.29267E-02
        -0.34621E-02
        -0.37964E-02
        -0.39100E-02
        -0.37964E-02
        -0.34621E-02
        -0.29267E-02
        -0.22211E-02
        -0.13865E-02
        -0.47130E-03
         0.47130E-03
         0.13865E-02
         0.22211E-02
         0.29267E-02
         0.34621E-02
         0.37964E-02
         0.10358E-02
         0.17422E-02
         0.23156E-02
         0.16662E-02
         0.30373E-02
         0.27849E-02
         0.12833E-02
         0.64722E-03
         0.12311E-03
        -0.13137E-03
         0.93937E-03
         0.11269E-02
         0.17424E-02
         0.40496E-03
         0.39750E-03
        -0.76904E-03
        -0.86789E-03
         0.45358E-03
        -0.18350E-02
        -0.18424E-02
        -0.27233E-02
        -0.27981E-02
        -0.25391E-02
        -0.19360E-02
        -0.99118E-03
        -0.14440E-02
        -0.31234E-03
        -0.11009E-02
        -0.18836E-02
        -0.18691E-02
        -0.16339E-03
        -0.95106E-03
         0.77733E-03
         0.17204E-02
         0.32105E-02
         0.28042E-02
         0.23040E-02
        -0.40379E-03
        -0.12093E-02
        -0.19441E-02
        -0.25023E-02
        -0.26356E-02
        -0.27618E-02
        -0.21147E-02
        -0.16094E-02
        -0.11958E-02
        -0.59235E-03
         0.20221E-03
         0.10533E-02
         0.18420E-02
         0.24565E-02
         0.26034E-02
         0.37964E-02
         0.39100E-02
         0.34621E-02
         0.29267E-02
         0.22211E-02
         0.13865E-02
         0.47130E-03
        -0.47130E-03
        -0.13865E-02
        -0.22211E-02
        -0.29267E-02
        -0.34621E-02
        -0.37964E-02
        -0.39100E-02
        -0.37964E-02
        -0.34621E-02
        -0.29267E-02
        -0.22211E-02
        -0.13865E-02
        -0.47130E-03
         0.47130E-03
         0.13865E-02
         0.22211E-02
         0.29267E-02
         0.34621E-02
         0.37964E-02
         0.10357E-02
         0.17420E-02
         0.23155E-02
         0.16660E-02
         0.30372E-02
         0.27853E-02
         0.12832E-02
         0.64698E-03
         0.12285E-03
        -0.13155E-03
         0.93903E-03
         0.11266E-02
         0.17420E-02
         0.40490E-03
         0.39749E-03
        -0.76940E-03
        -0.86800E-03
         0.45313E-03
        -0.18353E-02
        -0.18423E-02
        -0.27233E-02
        -0.27979E-02
        -0.25393E-02
        -0.19365E-02
        -0.99104E-03
        -0.14443E-02
        -0.31214E-03
        -0.11006E-02
        -0.18836E-02
        -0.18690E-02
        -0.16366E-03
        -0.95166E-03
         0.77667E-03
         0.17203E-02
         0.32109E-02
         0.28042E-02
         0.23039E-02
        -0.40365E-03
        -0.12093E-02
        -0.19441E-02
        -0.25023E-02
        -0.26355E-02
        -0.27615E-02
        -0.21148E-02
        -0.16095E-02
        -0.11960E-02
        -0.59270E-03
         0.20180E-03
         0.10530E-02
         0.18421E-02
         0.24566E-02
         0.26035E-02
         0.37964E-02
         0.39100E-02
         0.34621E-02
         0.29267E-02
         0.22211E-02
         0.13865E-02
         0.47130E-03
        -0.47130E-03
        -0.13865E-02
        -0.22211E-02
        -0.29267E-02
        -0.34621E-02
        -0.37964E-02
        -0.39100E-02
        -0.37964E-02
        -0.34621E-02
        -0.29267E-02
        -0.22211E-02
        -0.13865E-02
        -0.47130E-03
         0.47130E-03
         0.13865E-02
         0.22211E-02
         0.29267E-02
         0.34621E-02
         0.37964E-02
         0.10356E-02
         0.17418E-02
         0.23153E-02
         0.16657E-02
         0.30372E-02
         0.27856E-02
         0.12830E-02
         0.64673E-03
         0.12259E-03
        -0.13174E-03
         0.93870E-03
         0.11262E-02
         0.17416E-02
         0.40485E-03
         0.39747E-03
        -0.76975E-03
        -0.86811E-03
         0.45268E-03
        -0.18356E-02
        -0.18422E-02
        -0.27233E-02
        -0.27976E-02
        -0.25394E-02
        -0.19369E-02
        -0.99090E-03
        -0.14446E-02
        -0.31194E-03
        -0.11002E-02
        -0.18835E-02
        -0.18689E-02
        -0.16394E-03
        -0.95226E-03
         0.77601E-03
         0.17203E-02
         0.32112E-02
         0.28042E-02
         0.23038E-02
        -0.40352E-03
        -0.12093E-02
        -0.19441E-02
        -0.25023E-02
        -0.26354E-02
        -0.27612E-02
        -0.21150E-02
        -0.16095E-02
        -0.11961E-02
        -0.59305E-03
         0.20140E-03
         0.10527E-02
         0.18421E-02
         0.24568E-02
         0.26036E-02
         0.37964E-02
         0.39100E-02
         0.34621E-02
         0.29267E-02
         0.22211E-02
         0.13865E-02
         0.47130E-03
        -0.47130E-03
        -0.13865E-02
        -0.22211E-02
        -0.29267E-02
        -0.34621E-02
        -0.37964E-02
        -0.39100E-02
        -0.37964E-02
        -0.34621E-02
        -0.29267E-02
        -0.22211E-02
        -0.13865E-02
        -0.47130E-03
         0.47130E-03
         0.13865E-02
         0.22211E-02
         0.29267E-02
         0.34621E-02
         0.37964E-02
         0.10355E-02
         0.17416E-02
         0.23152E-02
         0.16655E-02
         0.30372E-02
         0.27860E-02
         0.12829E-02
         0.64649E-03
         0.12232E-03
        -0.13193E-03
         0.93837E-03
         0.11259E-02
         0.17412E-02
         0.40480E-03
         0.39745E-03
        -0.77011E-03
        -0.86822E-03
         0.45223E-03
        -0.18359E-02
        -0.18421E-02
        -0.27232E-02
        -0.27973E-02
        -0.25396E-02
        -0.19373E-02
        -0.99075E-03
        -0.14450E-02
        -0.31173E-03
        -0.10999E-02
        -0.18835E-02
        -0.18687E-02
        -0.16421E-03
        -0.95285E-03
         0.77535E-03
         0.17202E-02
         0.32115E-02
         0.28041E-02
         0.23037E-02
        -0.40338E-03
        -0.12093E-02
        -0.19440E-02
        -0.25023E-02
        -0.26353E-02
        -0.27609E-02
        -0.21151E-02
        -0.16096E-02
        -0.11962E-02
        -0.59340E-03
         0.20099E-03
         0.10524E-02
         0.18422E-02
         0.24569E-02
         0.26036E-02
         0.37964E-02
         0.39100E-02
         0.34621E-02
         0.29267E-02
         0.22211E-02
         0.13865E-02
         0.47130E-03
        -0.47130E-03
        -0.13865E-02
        -0.22211E-02
        -0.29267E-02
        -0.34621E-02
        -0.37964E-02
        -0.39100E-02
        -0.37964E-02
        -0.34621E-02
        -0.29267E-02
        -0.22211E-02
        -0.13865E-02
        -0.47130E-03
         0.47130E-03
         0.13865E-02
         0.22211E-02
         0.29267E-02
         0.34621E-02
         0.37964E-02
         0.10354E-02
         0.17414E-02
         0.23151E-02
         0.16653E-02
         0.30372E-02
         0.27863E-02
         0.12829E-02
         0.64624E-03
         0.12206E-03
        -0.13211E-03
         0.93804E-03
         0.11255E-02
         0.17408E-02
         0.40474E-03
         0.39744E-03
        -0.77046E-03
        -0.86832E-03
         0.45179E-03
        -0.18362E-02
        -0.18420E-02
        -0.27232E-02
        -0.27970E-02
        -0.25397E-02
        -0.19377E-02
        -0.99061E-03
        -0.14453E-02
        -0.31153E-03
        -0.10995E-02
        -0.18834E-02
        -0.18686E-02
        -0.16449E-03
        -0.95345E-03
         0.77469E-03
         0.17202E-02
         0.32119E-02
         0.28041E-02
         0.23036E-02
        -0.40324E-03
        -0.12093E-02
        -0.19440E-02
        -0.25022E-02
        -0.26352E-02
        -0.27606E-02
        -0.21152E-02
        -0.16096E-02
        -0.11963E-02
        -0.59375E-03
         0.20059E-03
         0.10521E-02
         0.18422E-02
         0.24570E-02
         0.26037E-02
         0.37964E-02
         0.39100E-02
         0.34621E-02
         0.29267E-02
         0.22211E-02
         0.13865E-02
         0.47130E-03
        -0.47130E-03
        -0.13865E-02
        -0.22211E-02
        -0.29267E-02
        -0.34621E-02
        -0.37964E-02
        -0.39100E-02
        -0.37964E-02
        -0.34621E-02
        -0.29267E-02
        -0.22211E-02
        -0.13865E-02
        -0.47130E-03
         0.47130E-03
         0.13865E-02
         0.22211E-02
         0.29267E-02
         0.34621E-02
         0.37964E-02
         0.10352E-02
         0.17413E-02
         0.23150E-02
         0.16651E-02
         0.30371E-02
         0.27866E-02
         0.12827E-02
         0.64600E-03
         0.12180E-03
        -0.13230E-03
         0.93771E-03
         0.11252E-02
         0.17404E-02
         0.40469E-03
         0.39742E-03
        -0.77081E-03
        -0.86843E-03
         0.45134E-03
        -0.18365E-02
        -0.18419E-02
        -0.27232E-02
        -0.27968E-02
        -0.25399E-02
        -0.19382E-02
        -0.99046E-03
        -0.14457E-02
        -0.31133E-03
        -0.10992E-02
        -0.18834E-02
        -0.18685E-02
        -0.16476E-03
        -0.95405E-03
         0.77402E-03
         0.17202E-02
         0.32122E-02
         0.28041E-02
         0.23034E-02
        -0.40310E-03
        -0.12093E-02
        -0.19440E-02
        -0.25022E-02
        -0.26351E-02
        -0.27602E-02
        -0.21154E-02
        -0.16097E-02
        -0.11964E-02
        -0.59409E-03
         0.20018E-03
         0.10518E-02
         0.18422E-02
         0.24571E-02
         0.26038E-02
         0.37964E-02
         0.39100E-02
         0.34621E-02
         0.29267E-02
         0.22211E-02
         0.13865E-02
         0.47130E-03
        -0.47130E-03
        -0.13865E-02
        -0.22211E-02
        -0.29267E-02
        -0.34621E-02
        -0.37964E-02
        -0.39100E-02
        -0.37964E-02
        -0.34621E-02
        -0.29267E-02
        -0.22211E-02
        -0.13865E-02
        -0.47130E-03
         0.47130E-03
         0.13865E-02
         0.22211E-02
         0.29267E-02
         0.34621E-02
         0.37964E-02
         0.10351E-02
         0.17411E-02
         0.23149E-02
         0.16649E-02
         0.30371E-02
         0.27870E-02
         0.12826E-02
         0.64575E-03
         0.12154E-03
        -0.13248E-03
         0.93738E-03
         0.11249E-02
         0.17400E-02
         0.40463E-03
         0.39740E-03
        -0.77117E-03
        -0.86854E-03
         0.45089E-03
        -0.18368E-02
        -0.18418E-02
        -0.27232E-02
        -0.27965E-02
        -0.25400E-02
        -0.19386E-02
        -0.99032E-03
        -0.14460E-02
        -0.31113E-03
        -0.10988E-02
        -0.18833E-02
        -0.18683E-02
        -0.16504E-03
        -0.95465E-03
         0.77336E-03
         0.17201E-02
         0.32125E-02
         0.28041E-02
         0.23033E-02
        -0.40296E-03
        -0.12093E-02
        -0.19439E-02
        -0.25022E-02
        -0.26350E-02
        -0.27599E-02
        -0.21155E-02
        -0.16097E-02
        -0.11965E-02
        -0.59444E-03
         0.19977E-03
         0.10515E-02
         0.18423E-02
         0.24573E-02
         0.26039E-02
         0.37964E-02
         0.39100E-02
         0.34621E-02
         0.29267E-02
         0.22211E-02
         0.13865E-02
         0.47130E-03
        -0.47130E-03
        -0.13865E-02
        -0.22211E-02
        -0.29267E-02
        -0.34621E-02
        -0.37964E-02
        -0.39100E-02
        -0.37964E-02
        -0.34621E-02
        -0.29267E-02
        -0.22211E-02
        -0.13865E-02
        -0.47130E-03
         0.47130E-03
         0.13865E-02
         0.22211E-02
         0.29267E-02
         0.34621E-02
         0.37964E-02
  
SCALARS           initial_coordinate_y  double 1
LOOKUP_TABLE default
         0.67292E-03
         0.12308E-02
         0.59151E-03
        -0.33775E-03
         0.67237E-03
         0.12301E-02
         0.59098E-03
        -0.33851E-03
         0.14882E-03
        -0.67643E-03
         0.14846E-03
        -0.67692E-03
         0.18412E-02
         0.14576E-02
         0.18410E-02
         0.14566E-02
         0.29933E-03
         0.11672E-02
         0.29819E-03
         0.11655E-02
         0.22748E-02
         0.28286E-02
         0.24238E-02
         0.22746E-02
         0.28291E-02
         0.24236E-02
         0.21685E-02
         0.29366E-02
         0.21684E-02
         0.29369E-02
        -0.10033E-02
         0.78969E-04
        -0.70318E-03
        -0.10032E-02
         0.78160E-04
        -0.70391E-03
        -0.71196E-03
         0.82749E-04
        -0.71210E-03
         0.82626E-04
        -0.77865E-03
         0.40713E-04
        -0.77882E-03
         0.40439E-04
        -0.15195E-02
        -0.13230E-02
        -0.15195E-02
        -0.13231E-02
         0.98847E-03
         0.98712E-03
        -0.17325E-02
        -0.17325E-02
         0.20220E-02
         0.20217E-02
         0.18615E-02
         0.18616E-02
         0.17175E-02
         0.90940E-03
         0.17175E-02
         0.90916E-03
        -0.19800E-02
        -0.23489E-02
        -0.19800E-02
        -0.23489E-02
        -0.17074E-02
        -0.17074E-02
        -0.14894E-02
        -0.14892E-02
         0.76036E-03
         0.12477E-02
         0.75936E-03
         0.12473E-02
         0.18665E-02
         0.18664E-02
         0.29038E-02
         0.29049E-02
         0.27207E-02
         0.27212E-02
         0.24642E-02
         0.24645E-02
         0.22359E-02
         0.16503E-02
         0.22359E-02
         0.16503E-02
         0.87493E-03
         0.87466E-03
        -0.21373E-02
        -0.21373E-02
        -0.26931E-02
        -0.26931E-02
        -0.31291E-02
        -0.30382E-02
        -0.31291E-02
        -0.30382E-02
        -0.28748E-02
        -0.28748E-02
        -0.26423E-02
        -0.26420E-02
        -0.23707E-02
        -0.23705E-02
        -0.21445E-02
        -0.15105E-02
        -0.21439E-02
        -0.15106E-02
         0.93572E-03
         0.00000E+00
         0.93572E-03
         0.00000E+00
         0.18171E-02
         0.18171E-02
         0.25928E-02
         0.25928E-02
         0.32179E-02
         0.32179E-02
         0.36559E-02
         0.36559E-02
         0.38815E-02
         0.38815E-02
         0.38815E-02
         0.38815E-02
         0.36559E-02
         0.36559E-02
         0.32179E-02
         0.32179E-02
         0.25928E-02
         0.25928E-02
         0.18171E-02
         0.18171E-02
         0.93572E-03
         0.93572E-03
         0.22152E-17
        -0.47884E-18
        -0.93572E-03
        -0.93572E-03
        -0.18171E-02
        -0.18171E-02
        -0.25928E-02
        -0.25928E-02
        -0.32179E-02
        -0.32179E-02
        -0.36559E-02
        -0.36559E-02
        -0.38815E-02
        -0.38815E-02
        -0.38815E-02
        -0.38815E-02
        -0.36559E-02
        -0.36559E-02
        -0.32179E-02
        -0.32179E-02
        -0.25928E-02
        -0.25928E-02
        -0.18171E-02
        -0.18171E-02
        -0.93572E-03
        -0.93572E-03
         0.67348E-03
         0.12314E-02
         0.59203E-03
        -0.33700E-03
         0.14918E-03
        -0.67594E-03
         0.18414E-02
         0.14586E-02
         0.30048E-03
         0.11690E-02
         0.22749E-02
         0.28282E-02
         0.24239E-02
         0.21685E-02
         0.29364E-02
        -0.10035E-02
         0.79778E-04
        -0.70245E-03
        -0.71182E-03
         0.82873E-04
        -0.77848E-03
         0.40986E-04
        -0.15194E-02
        -0.13228E-02
         0.98983E-03
        -0.17324E-02
         0.20223E-02
         0.18614E-02
         0.17175E-02
         0.90964E-03
        -0.19800E-02
        -0.23489E-02
        -0.17074E-02
        -0.14896E-02
         0.76137E-03
         0.12481E-02
         0.18665E-02
         0.29027E-02
         0.27202E-02
         0.24640E-02
         0.22359E-02
         0.16503E-02
         0.87519E-03
        -0.21373E-02
        -0.26932E-02
        -0.31291E-02
        -0.30382E-02
        -0.28748E-02
        -0.26426E-02
        -0.23709E-02
        -0.21450E-02
        -0.15104E-02
         0.93572E-03
         0.00000E+00
         0.18171E-02
         0.25928E-02
         0.32179E-02
         0.36559E-02
         0.38815E-02
         0.38815E-02
         0.36559E-02
         0.32179E-02
         0.25928E-02
         0.18171E-02
         0.93572E-03
        -0.47884E-18
        -0.93572E-03
        -0.18171E-02
        -0.25928E-02
        -0.32179E-02
        -0.36559E-02
        -0.38815E-02
        -0.38815E-02
        -0.36559E-02
        -0.32179E-02
        -0.25928E-02
        -0.18171E-02
        -0.93572E-03
         0.67403E-03
         0.12321E-02
         0.59255E-03
        -0.33624E-03
         0.14955E-03
        -0.67544E-03
         0.18415E-02
         0.14596E-02
         0.30163E-03
         0.11707E-02
         0.22750E-02
         0.28277E-02
         0.24241E-02
         0.21685E-02
         0.29361E-02
        -0.10036E-02
         0.80588E-04
        -0.70173E-03
        -0.71168E-03
         0.82996E-04
        -0.77831E-03
         0.41259E-04
        -0.15194E-02
        -0.13227E-02
         0.99119E-03
        -0.17324E-02
         0.20226E-02
         0.18613E-02
         0.17175E-02
         0.90988E-03
        -0.19801E-02
        -0.23490E-02
        -0.17074E-02
        -0.14899E-02
         0.76237E-03
         0.12485E-02
         0.18666E-02
         0.29017E-02
         0.27198E-02
         0.24638E-02
         0.22359E-02
         0.16503E-02
         0.87545E-03
        -0.21374E-02
        -0.26932E-02
        -0.31291E-02
        -0.30382E-02
        -0.28748E-02
        -0.26428E-02
        -0.23711E-02
        -0.21456E-02
        -0.15103E-02
         0.93572E-03
         0.00000E+00
         0.18171E-02
         0.25928E-02
         0.32179E-02
         0.36559E-02
         0.38815E-02
         0.38815E-02
         0.36559E-02
         0.32179E-02
         0.25928E-02
         0.18171E-02
         0.93572E-03
         0.39516E-17
        -0.93572E-03
        -0.18171E-02
        -0.25928E-02
        -0.32179E-02
        -0.36559E-02
        -0.38815E-02
        -0.38815E-02
        -0.36559E-02
        -0.32179E-02
        -0.25928E-02
        -0.18171E-02
        -0.93572E-03
         0.67459E-03
         0.12328E-02
         0.59308E-03
        -0.33549E-03
         0.14991E-03
        -0.67495E-03
         0.18417E-02
         0.14606E-02
         0.30278E-03
         0.11725E-02
         0.22752E-02
         0.28273E-02
         0.24242E-02
         0.21686E-02
         0.29359E-02
        -0.10038E-02
         0.81397E-04
        -0.70100E-03
        -0.71154E-03
         0.83120E-04
        -0.77814E-03
         0.41533E-04
        -0.15193E-02
        -0.13227E-02
         0.99254E-03
        -0.17324E-02
         0.20228E-02
         0.18611E-02
         0.17175E-02
         0.91012E-03
        -0.19801E-02
        -0.23490E-02
        -0.17074E-02
        -0.14901E-02
         0.76338E-03
         0.12490E-02
         0.18666E-02
         0.29006E-02
         0.27193E-02
         0.24636E-02
         0.22359E-02
         0.16503E-02
         0.87571E-03
        -0.21374E-02
        -0.26932E-02
        -0.31291E-02
        -0.30382E-02
        -0.28748E-02
        -0.26431E-02
        -0.23713E-02
        -0.21461E-02
        -0.15102E-02
         0.93572E-03
         0.00000E+00
         0.18171E-02
         0.25928E-02
         0.32179E-02
         0.36559E-02
         0.38815E-02
         0.38815E-02
         0.36559E-02
         0.32179E-02
         0.25928E-02
         0.18171E-02
         0.93572E-03
        -0.47884E-18
        -0.93572E-03
        -0.18171E-02
        -0.25928E-02
        -0.32179E-02
        -0.36559E-02
        -0.38815E-02
        -0.38815E-02
        -0.36559E-02
        -0.32179E-02
        -0.25928E-02
        -0.18171E-02
        -0.93572E-03
         0.67514E-03
         0.12334E-02
         0.59360E-03
        -0.33474E-03
         0.15027E-03
        -0.67446E-03
         0.18419E-02
         0.14616E-02
         0.30393E-03
         0.11742E-02
         0.22753E-02
         0.28269E-02
         0.24244E-02
         0.21686E-02
         0.29356E-02
        -0.10039E-02
         0.82206E-04
        -0.70028E-03
        -0.71140E-03
         0.83243E-04
        -0.77797E-03
         0.41806E-04
        -0.15193E-02
        -0.13226E-02
         0.99390E-03
        -0.17323E-02
         0.20231E-02
         0.18610E-02
         0.17175E-02
         0.91036E-03
        -0.19801E-02
        -0.23490E-02
        -0.17074E-02
        -0.14904E-02
         0.76439E-03
         0.12494E-02
         0.18666E-02
         0.28995E-02
         0.27188E-02
         0.24633E-02
         0.22359E-02
         0.16503E-02
         0.87597E-03
        -0.21374E-02
        -0.26932E-02
        -0.31291E-02
        -0.30382E-02
        -0.28748E-02
        -0.26434E-02
        -0.23715E-02
        -0.21467E-02
        -0.15101E-02
         0.93572E-03
         0.00000E+00
         0.18171E-02
         0.25928E-02
         0.32179E-02
         0.36559E-02
         0.38815E-02
         0.38815E-02
         0.36559E-02
         0.32179E-02
         0.25928E-02
         0.18171E-02
         0.93572E-03
        -0.47884E-18
        -0.93572E-03
        -0.18171E-02
        -0.25928E-02
        -0.32179E-02
        -0.36559E-02
        -0.38815E-02
        -0.38815E-02
        -0.36559E-02
        -0.32179E-02
        -0.25928E-02
        -0.18171E-02
        -0.93572E-03
         0.67570E-03
         0.12341E-02
         0.59412E-03
        -0.33398E-03
         0.15064E-03
        -0.67396E-03
         0.18421E-02
         0.14626E-02
         0.30507E-03
         0.11760E-02
         0.22754E-02
         0.28264E-02
         0.24245E-02
         0.21686E-02
         0.29353E-02
        -0.10040E-02
         0.83015E-04
        -0.69955E-03
        -0.71126E-03
         0.83367E-04
        -0.77780E-03
         0.42080E-04
        -0.15192E-02
        -0.13224E-02
         0.99526E-03
        -0.17323E-02
         0.20234E-02
         0.18609E-02
         0.17175E-02
         0.91060E-03
        -0.19801E-02
        -0.23490E-02
        -0.17074E-02
        -0.14906E-02
         0.76539E-03
         0.12498E-02
         0.18667E-02
         0.28984E-02
         0.27184E-02
         0.24631E-02
         0.22359E-02
         0.16503E-02
         0.87623E-03
        -0.21374E-02
        -0.26932E-02
        -0.31291E-02
        -0.30382E-02
        -0.28748E-02
        -0.26436E-02
        -0.23717E-02
        -0.21472E-02
        -0.15100E-02
         0.93572E-03
         0.00000E+00
         0.18171E-02
         0.25928E-02
         0.32179E-02
         0.36559E-02
         0.38815E-02
         0.38815E-02
         0.36559E-02
         0.32179E-02
         0.25928E-02
         0.18171E-02
         0.93572E-03
        -0.47884E-18
        -0.93572E-03
        -0.18171E-02
        -0.25928E-02
        -0.32179E-02
        -0.36559E-02
        -0.38815E-02
        -0.38815E-02
        -0.36559E-02
        -0.32179E-02
        -0.25928E-02
        -0.18171E-02
        -0.93572E-03
         0.67625E-03
         0.12348E-02
         0.59465E-03
        -0.33323E-03
         0.15100E-03
        -0.67347E-03
         0.18423E-02
         0.14636E-02
         0.30622E-03
         0.11777E-02
         0.22755E-02
         0.28260E-02
         0.24247E-02
         0.21687E-02
         0.29351E-02
        -0.10042E-02
         0.83825E-04
        -0.69882E-03
        -0.71112E-03
         0.83490E-04
        -0.77763E-03
         0.42353E-04
        -0.15192E-02
        -0.13223E-02
         0.99661E-03
        -0.17322E-02
         0.20237E-02
         0.18607E-02
         0.17175E-02
         0.91084E-03
        -0.19801E-02
        -0.23491E-02
        -0.17074E-02
        -0.14909E-02
         0.76640E-03
         0.12503E-02
         0.18667E-02
         0.28974E-02
         0.27179E-02
         0.24629E-02
         0.22359E-02
         0.16503E-02
         0.87650E-03
        -0.21374E-02
        -0.26933E-02
        -0.31291E-02
        -0.30382E-02
        -0.28749E-02
        -0.26439E-02
        -0.23719E-02
        -0.21478E-02
        -0.15099E-02
         0.93572E-03
         0.00000E+00
         0.18171E-02
         0.25928E-02
         0.32179E-02
         0.36559E-02
         0.38815E-02
         0.38815E-02
         0.36559E-02
         0.32179E-02
         0.25928E-02
         0.18171E-02
         0.93572E-03
        -0.47884E-18
        -0.93572E-03
        -0.18171E-02
        -0.25928E-02
        -0.32179E-02
        -0.36559E-02
        -0.38815E-02
        -0.38815E-02
        -0.36559E-02
        -0.32179E-02
        -0.25928E-02
        -0.18171E-02
        -0.93572E-03
         0.67680E-03
         0.12354E-02
         0.59517E-03
        -0.33247E-03
         0.15136E-03
        -0.67298E-03
         0.18425E-02
         0.14646E-02
         0.30737E-03
         0.11795E-02
         0.22757E-02
         0.28255E-02
         0.24248E-02
         0.21687E-02
         0.29348E-02
        -0.10043E-02
         0.84634E-04
        -0.69810E-03
        -0.71098E-03
         0.83614E-04
        -0.77746E-03
         0.42626E-04
        -0.15191E-02
        -0.13223E-02
         0.99797E-03
        -0.17322E-02
         0.20240E-02
         0.18606E-02
         0.17175E-02
         0.91108E-03
        -0.19802E-02
        -0.23491E-02
        -0.17074E-02
        -0.14911E-02
         0.76740E-03
         0.12507E-02
         0.18668E-02
         0.28963E-02
         0.27174E-02
         0.24627E-02
         0.22358E-02
         0.16503E-02
         0.87676E-03
        -0.21374E-02
        -0.26933E-02
        -0.31291E-02
        -0.30382E-02
        -0.28749E-02
        -0.26442E-02
        -0.23721E-02
        -0.21483E-02
        -0.15097E-02
         0.93572E-03
         0.00000E+00
         0.18171E-02
         0.25928E-02
         0.32179E-02
         0.36559E-02
         0.38815E-02
         0.38815E-02
         0.36559E-02
         0.32179E-02
         0.25928E-02
         0.18171E-02
         0.93572E-03
        -0.47884E-18
        -0.93572E-03
        -0.18171E-02
        -0.25928E-02
        -0.32179E-02
        -0.36559E-02
        -0.38815E-02
        -0.38815E-02
        -0.36559E-02
        -0.32179E-02
        -0.25928E-02
        -0.18171E-02
        -0.93572E-03
         0.67736E-03
         0.12361E-02
         0.59570E-03
        -0.33172E-03
         0.15173E-03
        -0.67248E-03
         0.18427E-02
         0.14656E-02
         0.30852E-03
         0.11812E-02
         0.22758E-02
         0.28251E-02
         0.24249E-02
         0.21688E-02
         0.29345E-02
        -0.10044E-02
         0.85443E-04
        -0.69737E-03
        -0.71084E-03
         0.83737E-04
        -0.77729E-03
         0.42899E-04
        -0.15191E-02
        -0.13222E-02
         0.99932E-03
        -0.17322E-02
         0.20243E-02
         0.18605E-02
         0.17175E-02
         0.91132E-03
        -0.19802E-02
        -0.23491E-02
        -0.17074E-02
        -0.14914E-02
         0.76841E-03
         0.12511E-02
         0.18668E-02
         0.28952E-02
         0.27170E-02
         0.24624E-02
         0.22358E-02
         0.16503E-02
         0.87702E-03
        -0.21374E-02
        -0.26933E-02
        -0.31291E-02
        -0.30382E-02
        -0.28749E-02
        -0.26444E-02
        -0.23723E-02
        -0.21489E-02
        -0.15096E-02
         0.93572E-03
         0.00000E+00
         0.18171E-02
         0.25928E-02
         0.32179E-02
         0.36559E-02
         0.38815E-02
         0.38815E-02
         0.36559E-02
         0.32179E-02
         0.25928E-02
         0.18171E-02
         0.93572E-03
        -0.47884E-18
        -0.93572E-03
        -0.18171E-02
        -0.25928E-02
        -0.32179E-02
        -0.36559E-02
        -0.38815E-02
        -0.38815E-02
        -0.36559E-02
        -0.32179E-02
        -0.25928E-02
        -0.18171E-02
        -0.93572E-03
         0.67791E-03
         0.12368E-02
         0.59622E-03
        -0.33096E-03
         0.15209E-03
        -0.67199E-03
         0.18429E-02
         0.14666E-02
         0.30967E-03
         0.11830E-02
         0.22759E-02
         0.28247E-02
         0.24251E-02
         0.21688E-02
         0.29343E-02
        -0.10046E-02
         0.86253E-04
        -0.69665E-03
        -0.71070E-03
         0.83861E-04
        -0.77712E-03
         0.43173E-04
        -0.15190E-02
        -0.13220E-02
         0.10007E-02
        -0.17321E-02
         0.20245E-02
         0.18603E-02
         0.17175E-02
         0.91156E-03
        -0.19802E-02
        -0.23491E-02
        -0.17074E-02
        -0.14916E-02
         0.76941E-03
         0.12515E-02
         0.18668E-02
         0.28942E-02
         0.27165E-02
         0.24622E-02
         0.22358E-02
         0.16503E-02
         0.87728E-03
        -0.21374E-02
        -0.26933E-02
        -0.31291E-02
        -0.30382E-02
        -0.28749E-02
        -0.26447E-02
        -0.23725E-02
        -0.21494E-02
        -0.15095E-02
         0.93572E-03
         0.00000E+00
         0.18171E-02
         0.25928E-02
         0.32179E-02
         0.36559E-02
         0.38815E-02
         0.38815E-02
         0.36559E-02
         0.32179E-02
         0.25928E-02
         0.18171E-02
         0.93572E-03
        -0.47884E-18
        -0.93572E-03
        -0.18171E-02
        -0.25928E-02
        -0.32179E-02
        -0.36559E-02
        -0.38815E-02
        -0.38815E-02
        -0.36559E-02
        -0.32179E-02
        -0.25928E-02
        -0.18171E-02
        -0.93572E-03
         0.67847E-03
         0.12374E-02
         0.59674E-03
        -0.33021E-03
         0.15245E-03
        -0.67150E-03
         0.18430E-02
         0.14676E-02
         0.31081E-03
         0.11847E-02
         0.22761E-02
         0.28242E-02
         0.24252E-02
         0.21688E-02
         0.29340E-02
        -0.10047E-02
         0.87062E-04
        -0.69592E-03
        -0.71056E-03
         0.83985E-04
        -0.77695E-03
         0.43446E-04
        -0.15190E-02
        -0.13219E-02
         0.10020E-02
        -0.17321E-02
         0.20248E-02
         0.18602E-02
         0.17175E-02
         0.91180E-03
        -0.19803E-02
        -0.23491E-02
        -0.17073E-02
        -0.14919E-02
         0.77042E-03
         0.12520E-02
         0.18669E-02
         0.28931E-02
         0.27160E-02
         0.24620E-02
         0.22358E-02
         0.16503E-02
         0.87754E-03
        -0.21374E-02
        -0.26933E-02
        -0.31291E-02
        -0.30382E-02
        -0.28749E-02
        -0.26450E-02
        -0.23727E-02
        -0.21500E-02
        -0.15094E-02
         0.93572E-03
         0.00000E+00
         0.18171E-02
         0.25928E-02
         0.32179E-02
         0.36559E-02
         0.38815E-02
         0.38815E-02
         0.36559E-02
         0.32179E-02
         0.25928E-02
         0.18171E-02
         0.93572E-03
         0.39516E-17
        -0.93572E-03
        -0.18171E-02
        -0.25928E-02
        -0.32179E-02
        -0.36559E-02
        -0.38815E-02
        -0.38815E-02
        -0.36559E-02
        -0.32179E-02
        -0.25928E-02
        -0.18171E-02
        -0.93572E-03
         0.67902E-03
         0.12381E-02
         0.59727E-03
        -0.32945E-03
         0.15282E-03
        -0.67100E-03
         0.18432E-02
         0.14686E-02
         0.31196E-03
         0.11865E-02
         0.22762E-02
         0.28238E-02
         0.24254E-02
         0.21688E-02
         0.29337E-02
        -0.10049E-02
         0.87871E-04
        -0.69519E-03
        -0.71042E-03
         0.84108E-04
        -0.77678E-03
         0.43720E-04
        -0.15189E-02
        -0.13219E-02
         0.10034E-02
        -0.17320E-02
         0.20251E-02
         0.18601E-02
         0.17175E-02
         0.91204E-03
        -0.19803E-02
        -0.23492E-02
        -0.17073E-02
        -0.14921E-02
         0.77142E-03
         0.12524E-02
         0.18669E-02
         0.28920E-02
         0.27155E-02
         0.24618E-02
         0.22358E-02
         0.16503E-02
         0.87781E-03
        -0.21374E-02
        -0.26934E-02
        -0.31291E-02
        -0.30382E-02
        -0.28749E-02
        -0.26452E-02
        -0.23729E-02
        -0.21505E-02
        -0.15093E-02
         0.93572E-03
         0.00000E+00
         0.18171E-02
         0.25928E-02
         0.32179E-02
         0.36559E-02
         0.38815E-02
         0.38815E-02
         0.36559E-02
         0.32179E-02
         0.25928E-02
         0.18171E-02
         0.93572E-03
        -0.47884E-18
        -0.93572E-03
        -0.18171E-02
        -0.25928E-02
        -0.32179E-02
        -0.36559E-02
        -0.38815E-02
        -0.38815E-02
        -0.36559E-02
        -0.32179E-02
        -0.25928E-02
        -0.18171E-02
        -0.93572E-03
         0.67958E-03
         0.12387E-02
         0.59779E-03
        -0.32870E-03
         0.15318E-03
        -0.67051E-03
         0.18434E-02
         0.14696E-02
         0.31311E-03
         0.11882E-02
         0.22763E-02
         0.28233E-02
         0.24255E-02
         0.21689E-02
         0.29335E-02
        -0.10050E-02
         0.88681E-04
        -0.69447E-03
        -0.71028E-03
         0.84232E-04
        -0.77661E-03
         0.43993E-04
        -0.15189E-02
        -0.13218E-02
         0.10048E-02
        -0.17320E-02
         0.20254E-02
         0.18599E-02
         0.17175E-02
         0.91228E-03
        -0.19803E-02
        -0.23492E-02
        -0.17073E-02
        -0.14923E-02
         0.77243E-03
         0.12528E-02
         0.18670E-02
         0.28910E-02
         0.27151E-02
         0.24615E-02
         0.22358E-02
         0.16503E-02
         0.87807E-03
        -0.21374E-02
        -0.26934E-02
        -0.31291E-02
        -0.30382E-02
        -0.28749E-02
        -0.26455E-02
        -0.23732E-02
        -0.21511E-02
        -0.15092E-02
         0.93572E-03
         0.00000E+00
         0.18171E-02
         0.25928E-02
         0.32179E-02
         0.36559E-02
         0.38815E-02
         0.38815E-02
         0.36559E-02
         0.32179E-02
         0.25928E-02
         0.18171E-02
         0.93572E-03
         0.22152E-17
        -0.93572E-03
        -0.18171E-02
        -0.25928E-02
        -0.32179E-02
        -0.36559E-02
        -0.38815E-02
        -0.38815E-02
        -0.36559E-02
        -0.32179E-02
        -0.25928E-02
        -0.18171E-02
        -0.93572E-03
         0.68013E-03
         0.12394E-02
         0.59831E-03
        -0.32794E-03
         0.15354E-03
        -0.67002E-03
         0.18436E-02
         0.14706E-02
         0.31426E-03
         0.11900E-02
         0.22765E-02
         0.28229E-02
         0.24257E-02
         0.21689E-02
         0.29332E-02
        -0.10051E-02
         0.89490E-04
        -0.69374E-03
        -0.71013E-03
         0.84355E-04
        -0.77644E-03
         0.44266E-04
        -0.15188E-02
        -0.13216E-02
         0.10061E-02
        -0.17320E-02
         0.20257E-02
         0.18598E-02
         0.17175E-02
         0.91252E-03
        -0.19803E-02
        -0.23492E-02
        -0.17073E-02
        -0.14926E-02
         0.77343E-03
         0.12533E-02
         0.18670E-02
         0.28899E-02
         0.27146E-02
         0.24613E-02
         0.22358E-02
         0.16503E-02
         0.87833E-03
        -0.21374E-02
        -0.26934E-02
        -0.31291E-02
        -0.30382E-02
        -0.28750E-02
        -0.26458E-02
        -0.23734E-02
        -0.21516E-02
        -0.15091E-02
         0.93572E-03
         0.00000E+00
         0.18171E-02
         0.25928E-02
         0.32179E-02
         0.36559E-02
         0.38815E-02
         0.38815E-02
         0.36559E-02
         0.32179E-02
         0.25928E-02
         0.18171E-02
         0.93572E-03
        -0.47884E-18
        -0.93572E-03
        -0.18171E-02
        -0.25928E-02
        -0.32179E-02
        -0.36559E-02
        -0.38815E-02
        -0.38815E-02
        -0.36559E-02
        -0.32179E-02
        -0.25928E-02
        -0.18171E-02
        -0.93572E-03
         0.68068E-03
         0.12401E-02
         0.59884E-03
        -0.32719E-03
         0.15391E-03
        -0.66953E-03
         0.18438E-02
         0.14716E-02
         0.31541E-03
         0.11917E-02
         0.22766E-02
         0.28225E-02
         0.24258E-02
         0.21690E-02
         0.29330E-02
        -0.10053E-02
         0.90299E-04
        -0.69302E-03
        -0.70999E-03
         0.84479E-04
        -0.77627E-03
         0.44540E-04
        -0.15188E-02
        -0.13215E-02
         0.10075E-02
        -0.17319E-02
         0.20260E-02
         0.18597E-02
         0.17175E-02
         0.91276E-03
        -0.19804E-02
        -0.23493E-02
        -0.17073E-02
        -0.14928E-02
         0.77444E-03
         0.12537E-02
         0.18670E-02
         0.28888E-02
         0.27141E-02
         0.24611E-02
         0.22358E-02
         0.16503E-02
         0.87859E-03
        -0.21374E-02
        -0.26934E-02
        -0.31291E-02
        -0.30382E-02
        -0.28750E-02
        -0.26460E-02
        -0.23736E-02
        -0.21521E-02
        -0.15090E-02
         0.93572E-03
         0.00000E+00
         0.18171E-02
         0.25928E-02
         0.32179E-02
         0.36559E-02
         0.38815E-02
         0.38815E-02
         0.36559E-02
         0.32179E-02
         0.25928E-02
         0.18171E-02
         0.93572E-03
         0.22152E-17
        -0.93572E-03
        -0.18171E-02
        -0.25928E-02
        -0.32179E-02
        -0.36559E-02
        -0.38815E-02
        -0.38815E-02
        -0.36559E-02
        -0.32179E-02
        -0.25928E-02
        -0.18171E-02
        -0.93572E-03
         0.68124E-03
         0.12407E-02
         0.59936E-03
        -0.32643E-03
         0.15427E-03
        -0.66903E-03
         0.18440E-02
         0.14727E-02
         0.31656E-03
         0.11935E-02
         0.22767E-02
         0.28220E-02
         0.24260E-02
         0.21690E-02
         0.29327E-02
        -0.10054E-02
         0.91108E-04
        -0.69229E-03
        -0.70985E-03
         0.84602E-04
        -0.77610E-03
         0.44813E-04
        -0.15187E-02
        -0.13215E-02
         0.10088E-02
        -0.17319E-02
         0.20262E-02
         0.18595E-02
         0.17175E-02
         0.91300E-03
        -0.19804E-02
        -0.23493E-02
        -0.17073E-02
        -0.14931E-02
         0.77544E-03
         0.12541E-02
         0.18671E-02
         0.28877E-02
         0.27137E-02
         0.24609E-02
         0.22358E-02
         0.16503E-02
         0.87885E-03
        -0.21374E-02
        -0.26934E-02
        -0.31291E-02
        -0.30382E-02
        -0.28750E-02
        -0.26463E-02
        -0.23738E-02
        -0.21527E-02
        -0.15088E-02
         0.93572E-03
         0.00000E+00
         0.18171E-02
         0.25928E-02
         0.32179E-02
         0.36559E-02
         0.38815E-02
         0.38815E-02
         0.36559E-02
         0.32179E-02
         0.25928E-02
         0.18171E-02
         0.93572E-03
        -0.47884E-18
        -0.93572E-03
        -0.18171E-02
        -0.25928E-02
        -0.32179E-02
        -0.36559E-02
        -0.38815E-02
        -0.38815E-02
        -0.36559E-02
        -0.32179E-02
        -0.25928E-02
        -0.18171E-02
        -0.93572E-03
         0.68179E-03
         0.12414E-02
         0.59988E-03
        -0.32568E-03
         0.15463E-03
        -0.66854E-03
         0.18442E-02
         0.14736E-02
         0.31770E-03
         0.11952E-02
         0.22768E-02
         0.28216E-02
         0.24261E-02
         0.21690E-02
         0.29324E-02
        -0.10056E-02
         0.91918E-04
        -0.69156E-03
        -0.70971E-03
         0.84726E-04
        -0.77593E-03
         0.45086E-04
        -0.15187E-02
        -0.13213E-02
         0.10102E-02
        -0.17318E-02
         0.20265E-02
         0.18594E-02
         0.17175E-02
         0.91324E-03
        -0.19804E-02
        -0.23493E-02
        -0.17073E-02
        -0.14933E-02
         0.77645E-03
         0.12545E-02
         0.18671E-02
         0.28867E-02
         0.27132E-02
         0.24606E-02
         0.22358E-02
         0.16503E-02
         0.87912E-03
        -0.21374E-02
        -0.26935E-02
        -0.31291E-02
        -0.30381E-02
        -0.28750E-02
        -0.26466E-02
        -0.23740E-02
        -0.21533E-02
        -0.15087E-02
         0.93572E-03
         0.00000E+00
         0.18171E-02
         0.25928E-02
         0.32179E-02
         0.36559E-02
         0.38815E-02
         0.38815E-02
         0.36559E-02
         0.32179E-02
         0.25928E-02
         0.18171E-02
         0.93572E-03
        -0.47884E-18
        -0.93572E-03
        -0.18171E-02
        -0.25928E-02
        -0.32179E-02
        -0.36559E-02
        -0.38815E-02
        -0.38815E-02
        -0.36559E-02
        -0.32179E-02
        -0.25928E-02
        -0.18171E-02
        -0.93572E-03
         0.68235E-03
         0.12421E-02
         0.60041E-03
        -0.32493E-03
         0.15500E-03
        -0.66805E-03
         0.18444E-02
         0.14747E-02
         0.31885E-03
         0.11970E-02
         0.22770E-02
         0.28211E-02
         0.24262E-02
         0.21691E-02
         0.29322E-02
        -0.10057E-02
         0.92727E-04
        -0.69084E-03
        -0.70957E-03
         0.84849E-04
        -0.77576E-03
         0.45359E-04
        -0.15186E-02
        -0.13212E-02
         0.10115E-02
        -0.17318E-02
         0.20268E-02
         0.18593E-02
         0.17175E-02
         0.91347E-03
        -0.19804E-02
        -0.23493E-02
        -0.17073E-02
        -0.14936E-02
         0.77745E-03
         0.12550E-02
         0.18671E-02
         0.28856E-02
         0.27127E-02
         0.24604E-02
         0.22358E-02
         0.16503E-02
         0.87938E-03
        -0.21374E-02
        -0.26935E-02
        -0.31291E-02
        -0.30381E-02
        -0.28750E-02
        -0.26468E-02
        -0.23742E-02
        -0.21538E-02
        -0.15086E-02
         0.93572E-03
         0.00000E+00
         0.18171E-02
         0.25928E-02
         0.32179E-02
         0.36559E-02
         0.38815E-02
         0.38815E-02
         0.36559E-02
         0.32179E-02
         0.25928E-02
         0.18171E-02
         0.93572E-03
        -0.47884E-18
        -0.93572E-03
        -0.18171E-02
        -0.25928E-02
        -0.32179E-02
        -0.36559E-02
        -0.38815E-02
        -0.38815E-02
        -0.36559E-02
        -0.32179E-02
        -0.25928E-02
        -0.18171E-02
        -0.93572E-03
         0.68290E-03
         0.12427E-02
         0.60093E-03
        -0.32417E-03
         0.15536E-03
        -0.66755E-03
         0.18445E-02
         0.14757E-02
         0.32000E-03
         0.11987E-02
         0.22771E-02
         0.28207E-02
         0.24264E-02
         0.21691E-02
         0.29319E-02
        -0.10058E-02
         0.93536E-04
        -0.69011E-03
        -0.70943E-03
         0.84973E-04
        -0.77559E-03
         0.45633E-04
        -0.15186E-02
        -0.13212E-02
         0.10129E-02
        -0.17318E-02
         0.20271E-02
         0.18592E-02
         0.17175E-02
         0.91371E-03
        -0.19805E-02
        -0.23493E-02
        -0.17073E-02
        -0.14938E-02
         0.77846E-03
         0.12554E-02
         0.18672E-02
         0.28845E-02
         0.27122E-02
         0.24602E-02
         0.22358E-02
         0.16502E-02
         0.87964E-03
        -0.21374E-02
        -0.26935E-02
        -0.31291E-02
        -0.30381E-02
        -0.28750E-02
        -0.26471E-02
        -0.23744E-02
        -0.21543E-02
        -0.15085E-02
         0.93572E-03
         0.00000E+00
         0.18171E-02
         0.25928E-02
         0.32179E-02
         0.36559E-02
         0.38815E-02
         0.38815E-02
         0.36559E-02
         0.32179E-02
         0.25928E-02
         0.18171E-02
         0.93572E-03
        -0.47884E-18
        -0.93572E-03
        -0.18171E-02
        -0.25928E-02
        -0.32179E-02
        -0.36559E-02
        -0.38815E-02
        -0.38815E-02
        -0.36559E-02
        -0.32179E-02
        -0.25928E-02
        -0.18171E-02
        -0.93572E-03
         0.68346E-03
         0.12434E-02
         0.60145E-03
        -0.32342E-03
         0.15572E-03
        -0.66706E-03
         0.18447E-02
         0.14767E-02
         0.32115E-03
         0.12005E-02
         0.22772E-02
         0.28203E-02
         0.24265E-02
         0.21691E-02
         0.29316E-02
        -0.10060E-02
         0.94345E-04
        -0.68939E-03
        -0.70929E-03
         0.85096E-04
        -0.77542E-03
         0.45906E-04
        -0.15185E-02
        -0.13211E-02
         0.10142E-02
        -0.17317E-02
         0.20274E-02
         0.18590E-02
         0.17175E-02
         0.91395E-03
        -0.19805E-02
        -0.23494E-02
        -0.17073E-02
        -0.14941E-02
         0.77946E-03
         0.12558E-02
         0.18672E-02
         0.28835E-02
         0.27118E-02
         0.24600E-02
         0.22358E-02
         0.16502E-02
         0.87990E-03
        -0.21374E-02
        -0.26935E-02
        -0.31291E-02
        -0.30381E-02
        -0.28750E-02
        -0.26474E-02
        -0.23746E-02
        -0.21549E-02
        -0.15084E-02
         0.93572E-03
         0.00000E+00
         0.18171E-02
         0.25928E-02
         0.32179E-02
         0.36559E-02
         0.38815E-02
         0.38815E-02
         0.36559E-02
         0.32179E-02
         0.25928E-02
         0.18171E-02
         0.93572E-03
         0.22152E-17
        -0.93572E-03
        -0.18171E-02
        -0.25928E-02
        -0.32179E-02
        -0.36559E-02
        -0.38815E-02
        -0.38815E-02
        -0.36559E-02
        -0.32179E-02
        -0.25928E-02
        -0.18171E-02
        -0.93572E-03
         0.68401E-03
         0.12440E-02
         0.60198E-03
        -0.32266E-03
         0.15609E-03
        -0.66657E-03
         0.18449E-02
         0.14777E-02
         0.32230E-03
         0.12022E-02
         0.22774E-02
         0.28198E-02
         0.24267E-02
         0.21692E-02
         0.29314E-02
        -0.10061E-02
         0.95155E-04
        -0.68866E-03
        -0.70915E-03
         0.85220E-04
        -0.77525E-03
         0.46180E-04
        -0.15185E-02
        -0.13210E-02
         0.10156E-02
        -0.17317E-02
         0.20277E-02
         0.18589E-02
         0.17175E-02
         0.91419E-03
        -0.19805E-02
        -0.23494E-02
        -0.17073E-02
        -0.14943E-02
         0.78047E-03
         0.12563E-02
         0.18672E-02
         0.28824E-02
         0.27113E-02
         0.24597E-02
         0.22358E-02
         0.16502E-02
         0.88016E-03
        -0.21374E-02
        -0.26935E-02
        -0.31291E-02
        -0.30381E-02
        -0.28751E-02
        -0.26476E-02
        -0.23748E-02
        -0.21554E-02
        -0.15083E-02
         0.93572E-03
         0.00000E+00
         0.18171E-02
         0.25928E-02
         0.32179E-02
         0.36559E-02
         0.38815E-02
         0.38815E-02
         0.36559E-02
         0.32179E-02
         0.25928E-02
         0.18171E-02
         0.93572E-03
        -0.47884E-18
        -0.93572E-03
        -0.18171E-02
        -0.25928E-02
        -0.32179E-02
        -0.36559E-02
        -0.38815E-02
        -0.38815E-02
        -0.36559E-02
        -0.32179E-02
        -0.25928E-02
        -0.18171E-02
        -0.93572E-03
         0.68457E-03
         0.12447E-02
         0.60250E-03
        -0.32191E-03
         0.15645E-03
        -0.66607E-03
         0.18451E-02
         0.14787E-02
         0.32345E-03
         0.12040E-02
         0.22775E-02
         0.28194E-02
         0.24268E-02
         0.21692E-02
         0.29311E-02
        -0.10062E-02
         0.95964E-04
        -0.68793E-03
        -0.70901E-03
         0.85343E-04
        -0.77507E-03
         0.46453E-04
        -0.15184E-02
        -0.13209E-02
         0.10169E-02
        -0.17316E-02
         0.20280E-02
         0.18588E-02
         0.17175E-02
         0.91443E-03
        -0.19806E-02
        -0.23494E-02
        -0.17073E-02
        -0.14945E-02
         0.78148E-03
         0.12567E-02
         0.18673E-02
         0.28813E-02
         0.27108E-02
         0.24595E-02
         0.22358E-02
         0.16502E-02
         0.88043E-03
        -0.21374E-02
        -0.26936E-02
        -0.31291E-02
        -0.30381E-02
        -0.28751E-02
        -0.26479E-02
        -0.23750E-02
        -0.21560E-02
        -0.15082E-02
         0.93572E-03
         0.00000E+00
         0.18171E-02
         0.25928E-02
         0.32179E-02
         0.36559E-02
         0.38815E-02
         0.38815E-02
         0.36559E-02
         0.32179E-02
         0.25928E-02
         0.18171E-02
         0.93572E-03
        -0.47884E-18
        -0.93572E-03
        -0.18171E-02
        -0.25928E-02
        -0.32179E-02
        -0.36559E-02
        -0.38815E-02
        -0.38815E-02
        -0.36559E-02
        -0.32179E-02
        -0.25928E-02
        -0.18171E-02
        -0.93572E-03
         0.68512E-03
         0.12454E-02
         0.60302E-03
        -0.32115E-03
         0.15681E-03
        -0.66558E-03
         0.18453E-02
         0.14797E-02
         0.32459E-03
         0.12058E-02
         0.22776E-02
         0.28189E-02
         0.24270E-02
         0.21693E-02
         0.29308E-02
        -0.10064E-02
         0.96773E-04
        -0.68721E-03
        -0.70887E-03
         0.85467E-04
        -0.77490E-03
         0.46726E-04
        -0.15184E-02
        -0.13208E-02
         0.10183E-02
        -0.17316E-02
         0.20283E-02
         0.18586E-02
         0.17175E-02
         0.91467E-03
        -0.19806E-02
        -0.23494E-02
        -0.17073E-02
        -0.14948E-02
         0.78248E-03
         0.12571E-02
         0.18673E-02
         0.28802E-02
         0.27103E-02
         0.24593E-02
         0.22358E-02
         0.16502E-02
         0.88069E-03
        -0.21374E-02
        -0.26936E-02
        -0.31291E-02
        -0.30381E-02
        -0.28751E-02
        -0.26482E-02
        -0.23752E-02
        -0.21565E-02
        -0.15081E-02
         0.93572E-03
         0.00000E+00
         0.18171E-02
         0.25928E-02
         0.32179E-02
         0.36559E-02
         0.38815E-02
         0.38815E-02
         0.36559E-02
         0.32179E-02
         0.25928E-02
         0.18171E-02
         0.93572E-03
        -0.47884E-18
        -0.93572E-03
        -0.18171E-02
        -0.25928E-02
        -0.32179E-02
        -0.36559E-02
        -0.38815E-02
        -0.38815E-02
        -0.36559E-02
        -0.32179E-02
        -0.25928E-02
        -0.18171E-02
        -0.93572E-03
         0.68567E-03
         0.12460E-02
         0.60355E-03
        -0.32040E-03
         0.15718E-03
        -0.66509E-03
         0.18455E-02
         0.14807E-02
         0.32574E-03
         0.12075E-02
         0.22777E-02
         0.28185E-02
         0.24271E-02
         0.21693E-02
         0.29306E-02
        -0.10065E-02
         0.97583E-04
        -0.68648E-03
        -0.70873E-03
         0.85591E-04
        -0.77474E-03
         0.47000E-04
        -0.15183E-02
        -0.13207E-02
         0.10197E-02
        -0.17316E-02
         0.20285E-02
         0.18585E-02
         0.17175E-02
         0.91491E-03
        -0.19806E-02
        -0.23495E-02
        -0.17073E-02
        -0.14950E-02
         0.78348E-03
         0.12576E-02
         0.18674E-02
         0.28792E-02
         0.27099E-02
         0.24591E-02
         0.22358E-02
         0.16502E-02
         0.88095E-03
        -0.21374E-02
        -0.26936E-02
        -0.31290E-02
        -0.30381E-02
        -0.28751E-02
        -0.26484E-02
        -0.23754E-02
        -0.21571E-02
        -0.15080E-02
         0.93572E-03
         0.00000E+00
         0.18171E-02
         0.25928E-02
         0.32179E-02
         0.36559E-02
         0.38815E-02
         0.38815E-02
         0.36559E-02
         0.32179E-02
         0.25928E-02
         0.18171E-02
         0.93572E-03
         0.47884E-18
        -0.93572E-03
        -0.18171E-02
        -0.25928E-02
        -0.32179E-02
        -0.36559E-02
        -0.38815E-02
        -0.38815E-02
        -0.36559E-02
        -0.32179E-02
        -0.25928E-02
        -0.18171E-02
        -0.93572E-03
  
SCALARS           initial_coordinate_z  double 1
LOOKUP_TABLE default
        -0.10771E-01
        -0.10771E-01
        -0.10771E-01
        -0.10771E-01
        -0.11750E-01
        -0.11750E-01
        -0.11750E-01
        -0.11750E-01
        -0.10771E-01
        -0.10771E-01
        -0.11750E-01
        -0.11750E-01
        -0.10771E-01
        -0.10771E-01
        -0.11750E-01
        -0.11750E-01
        -0.10771E-01
        -0.10771E-01
        -0.11750E-01
        -0.11750E-01
        -0.10771E-01
        -0.10771E-01
        -0.10771E-01
        -0.11750E-01
        -0.11750E-01
        -0.11750E-01
        -0.10771E-01
        -0.10771E-01
        -0.11750E-01
        -0.11750E-01
        -0.10771E-01
        -0.10771E-01
        -0.10771E-01
        -0.11750E-01
        -0.11750E-01
        -0.11750E-01
        -0.10771E-01
        -0.10771E-01
        -0.11750E-01
        -0.11750E-01
        -0.10771E-01
        -0.10771E-01
        -0.11750E-01
        -0.11750E-01
        -0.10771E-01
        -0.10771E-01
        -0.11750E-01
        -0.11750E-01
        -0.10771E-01
        -0.11750E-01
        -0.10771E-01
        -0.11750E-01
        -0.10771E-01
        -0.11750E-01
        -0.10771E-01
        -0.11750E-01
        -0.10771E-01
        -0.10771E-01
        -0.11750E-01
        -0.11750E-01
        -0.10771E-01
        -0.10771E-01
        -0.11750E-01
        -0.11750E-01
        -0.10771E-01
        -0.11750E-01
        -0.10771E-01
        -0.11750E-01
        -0.10771E-01
        -0.10771E-01
        -0.11750E-01
        -0.11750E-01
        -0.10771E-01
        -0.11750E-01
        -0.10771E-01
        -0.11750E-01
        -0.10771E-01
        -0.11750E-01
        -0.10771E-01
        -0.11750E-01
        -0.10771E-01
        -0.10771E-01
        -0.11750E-01
        -0.11750E-01
        -0.10771E-01
        -0.11750E-01
        -0.10771E-01
        -0.11750E-01
        -0.10771E-01
        -0.11750E-01
        -0.10771E-01
        -0.10771E-01
        -0.11750E-01
        -0.11750E-01
        -0.10771E-01
        -0.11750E-01
        -0.10771E-01
        -0.11750E-01
        -0.10771E-01
        -0.11750E-01
        -0.10771E-01
        -0.10771E-01
        -0.11750E-01
        -0.11750E-01
        -0.10771E-01
        -0.10771E-01
        -0.11750E-01
        -0.11750E-01
        -0.10771E-01
        -0.11750E-01
        -0.10771E-01
        -0.11750E-01
        -0.10771E-01
        -0.11750E-01
        -0.10771E-01
        -0.11750E-01
        -0.10771E-01
        -0.11750E-01
        -0.10771E-01
        -0.11750E-01
        -0.10771E-01
        -0.11750E-01
        -0.10771E-01
        -0.11750E-01
        -0.10771E-01
        -0.11750E-01
        -0.10771E-01
        -0.11750E-01
        -0.10771E-01
        -0.11750E-01
        -0.10771E-01
        -0.11750E-01
        -0.10771E-01
        -0.11750E-01
        -0.10771E-01
        -0.11750E-01
        -0.10771E-01
        -0.11750E-01
        -0.10771E-01
        -0.11750E-01
        -0.10771E-01
        -0.11750E-01
        -0.10771E-01
        -0.11750E-01
        -0.10771E-01
        -0.11750E-01
        -0.10771E-01
        -0.11750E-01
        -0.10771E-01
        -0.11750E-01
        -0.10771E-01
        -0.11750E-01
        -0.10771E-01
        -0.11750E-01
        -0.10771E-01
        -0.11750E-01
        -0.97917E-02
        -0.97917E-02
        -0.97917E-02
        -0.97917E-02
        -0.97917E-02
        -0.97917E-02
        -0.97917E-02
        -0.97917E-02
        -0.97917E-02
        -0.97917E-02
        -0.97917E-02
        -0.97917E-02
        -0.97917E-02
        -0.97917E-02
        -0.97917E-02
        -0.97917E-02
        -0.97917E-02
        -0.97917E-02
        -0.97917E-02
        -0.97917E-02
        -0.97917E-02
        -0.97917E-02
        -0.97917E-02
        -0.97917E-02
        -0.97917E-02
        -0.97917E-02
        -0.97917E-02
        -0.97917E-02
        -0.97917E-02
        -0.97917E-02
        -0.97917E-02
        -0.97917E-02
        -0.97917E-02
        -0.97917E-02
        -0.97917E-02
        -0.97917E-02
        -0.97917E-02
        -0.97917E-02
        -0.97917E-02
        -0.97917E-02
        -0.97917E-02
        -0.97917E-02
        -0.97917E-02
        -0.97917E-02
        -0.97917E-02
        -0.97917E-02
        -0.97917E-02
        -0.97917E-02
        -0.97917E-02
        -0.97917E-02
        -0.97917E-02
        -0.97917E-02
        -0.97917E-02
        -0.97917E-02
        -0.97917E-02
        -0.97917E-02
        -0.97917E-02
        -0.97917E-02
        -0.97917E-02
        -0.97917E-02
        -0.97917E-02
        -0.97917E-02
        -0.97917E-02
        -0.97917E-02
        -0.97917E-02
        -0.97917E-02
        -0.97917E-02
        -0.97917E-02
        -0.97917E-02
        -0.97917E-02
        -0.97917E-02
        -0.97917E-02
        -0.97917E-02
        -0.97917E-02
        -0.97917E-02
        -0.97917E-02
        -0.97917E-02
        -0.97917E-02
        -0.88125E-02
        -0.88125E-02
        -0.88125E-02
        -0.88125E-02
        -0.88125E-02
        -0.88125E-02
        -0.88125E-02
        -0.88125E-02
        -0.88125E-02
        -0.88125E-02
        -0.88125E-02
        -0.88125E-02
        -0.88125E-02
        -0.88125E-02
        -0.88125E-02
        -0.88125E-02
        -0.88125E-02
        -0.88125E-02
        -0.88125E-02
        -0.88125E-02
        -0.88125E-02
        -0.88125E-02
        -0.88125E-02
        -0.88125E-02
        -0.88125E-02
        -0.88125E-02
        -0.88125E-02
        -0.88125E-02
        -0.88125E-02
        -0.88125E-02
        -0.88125E-02
        -0.88125E-02
        -0.88125E-02
        -0.88125E-02
        -0.88125E-02
        -0.88125E-02
        -0.88125E-02
        -0.88125E-02
        -0.88125E-02
        -0.88125E-02
        -0.88125E-02
        -0.88125E-02
        -0.88125E-02
        -0.88125E-02
        -0.88125E-02
        -0.88125E-02
        -0.88125E-02
        -0.88125E-02
        -0.88125E-02
        -0.88125E-02
        -0.88125E-02
        -0.88125E-02
        -0.88125E-02
        -0.88125E-02
        -0.88125E-02
        -0.88125E-02
        -0.88125E-02
        -0.88125E-02
        -0.88125E-02
        -0.88125E-02
        -0.88125E-02
        -0.88125E-02
        -0.88125E-02
        -0.88125E-02
        -0.88125E-02
        -0.88125E-02
        -0.88125E-02
        -0.88125E-02
        -0.88125E-02
        -0.88125E-02
        -0.88125E-02
        -0.88125E-02
        -0.88125E-02
        -0.88125E-02
        -0.88125E-02
        -0.88125E-02
        -0.88125E-02
        -0.88125E-02
        -0.78333E-02
        -0.78333E-02
        -0.78333E-02
        -0.78333E-02
        -0.78333E-02
        -0.78333E-02
        -0.78333E-02
        -0.78333E-02
        -0.78333E-02
        -0.78333E-02
        -0.78333E-02
        -0.78333E-02
        -0.78333E-02
        -0.78333E-02
        -0.78333E-02
        -0.78333E-02
        -0.78333E-02
        -0.78333E-02
        -0.78333E-02
        -0.78333E-02
        -0.78333E-02
        -0.78333E-02
        -0.78333E-02
        -0.78333E-02
        -0.78333E-02
        -0.78333E-02
        -0.78333E-02
        -0.78333E-02
        -0.78333E-02
        -0.78333E-02
        -0.78333E-02
        -0.78333E-02
        -0.78333E-02
        -0.78333E-02
        -0.78333E-02
        -0.78333E-02
        -0.78333E-02
        -0.78333E-02
        -0.78333E-02
        -0.78333E-02
        -0.78333E-02
        -0.78333E-02
        -0.78333E-02
        -0.78333E-02
        -0.78333E-02
        -0.78333E-02
        -0.78333E-02
        -0.78333E-02
        -0.78333E-02
        -0.78333E-02
        -0.78333E-02
        -0.78333E-02
        -0.78333E-02
        -0.78333E-02
        -0.78333E-02
        -0.78333E-02
        -0.78333E-02
        -0.78333E-02
        -0.78333E-02
        -0.78333E-02
        -0.78333E-02
        -0.78333E-02
        -0.78333E-02
        -0.78333E-02
        -0.78333E-02
        -0.78333E-02
        -0.78333E-02
        -0.78333E-02
        -0.78333E-02
        -0.78333E-02
        -0.78333E-02
        -0.78333E-02
        -0.78333E-02
        -0.78333E-02
        -0.78333E-02
        -0.78333E-02
        -0.78333E-02
        -0.78333E-02
        -0.68542E-02
        -0.68542E-02
        -0.68542E-02
        -0.68542E-02
        -0.68542E-02
        -0.68542E-02
        -0.68542E-02
        -0.68542E-02
        -0.68542E-02
        -0.68542E-02
        -0.68542E-02
        -0.68542E-02
        -0.68542E-02
        -0.68542E-02
        -0.68542E-02
        -0.68542E-02
        -0.68542E-02
        -0.68542E-02
        -0.68542E-02
        -0.68542E-02
        -0.68542E-02
        -0.68542E-02
        -0.68542E-02
        -0.68542E-02
        -0.68542E-02
        -0.68542E-02
        -0.68542E-02
        -0.68542E-02
        -0.68542E-02
        -0.68542E-02
        -0.68542E-02
        -0.68542E-02
        -0.68542E-02
        -0.68542E-02
        -0.68542E-02
        -0.68542E-02
        -0.68542E-02
        -0.68542E-02
        -0.68542E-02
        -0.68542E-02
        -0.68542E-02
        -0.68542E-02
        -0.68542E-02
        -0.68542E-02
        -0.68542E-02
        -0.68542E-02
        -0.68542E-02
        -0.68542E-02
        -0.68542E-02
        -0.68542E-02
        -0.68542E-02
        -0.68542E-02
        -0.68542E-02
        -0.68542E-02
        -0.68542E-02
        -0.68542E-02
        -0.68542E-02
        -0.68542E-02
        -0.68542E-02
        -0.68542E-02
        -0.68542E-02
        -0.68542E-02
        -0.68542E-02
        -0.68542E-02
        -0.68542E-02
        -0.68542E-02
        -0.68542E-02
        -0.68542E-02
        -0.68542E-02
        -0.68542E-02
        -0.68542E-02
        -0.68542E-02
        -0.68542E-02
        -0.68542E-02
        -0.68542E-02
        -0.68542E-02
        -0.68542E-02
        -0.68542E-02
        -0.58750E-02
        -0.58750E-02
        -0.58750E-02
        -0.58750E-02
        -0.58750E-02
        -0.58750E-02
        -0.58750E-02
        -0.58750E-02
        -0.58750E-02
        -0.58750E-02
        -0.58750E-02
        -0.58750E-02
        -0.58750E-02
        -0.58750E-02
        -0.58750E-02
        -0.58750E-02
        -0.58750E-02
        -0.58750E-02
        -0.58750E-02
        -0.58750E-02
        -0.58750E-02
        -0.58750E-02
        -0.58750E-02
        -0.58750E-02
        -0.58750E-02
        -0.58750E-02
        -0.58750E-02
        -0.58750E-02
        -0.58750E-02
        -0.58750E-02
        -0.58750E-02
        -0.58750E-02
        -0.58750E-02
        -0.58750E-02
        -0.58750E-02
        -0.58750E-02
        -0.58750E-02
        -0.58750E-02
        -0.58750E-02
        -0.58750E-02
        -0.58750E-02
        -0.58750E-02
        -0.58750E-02
        -0.58750E-02
        -0.58750E-02
        -0.58750E-02
        -0.58750E-02
        -0.58750E-02
        -0.58750E-02
        -0.58750E-02
        -0.58750E-02
        -0.58750E-02
        -0.58750E-02
        -0.58750E-02
        -0.58750E-02
        -0.58750E-02
        -0.58750E-02
        -0.58750E-02
        -0.58750E-02
        -0.58750E-02
        -0.58750E-02
        -0.58750E-02
        -0.58750E-02
        -0.58750E-02
        -0.58750E-02
        -0.58750E-02
        -0.58750E-02
        -0.58750E-02
        -0.58750E-02
        -0.58750E-02
        -0.58750E-02
        -0.58750E-02
        -0.58750E-02
        -0.58750E-02
        -0.58750E-02
        -0.58750E-02
        -0.58750E-02
        -0.58750E-02
        -0.48958E-02
        -0.48958E-02
        -0.48958E-02
        -0.48958E-02
        -0.48958E-02
        -0.48958E-02
        -0.48958E-02
        -0.48958E-02
        -0.48958E-02
        -0.48958E-02
        -0.48958E-02
        -0.48958E-02
        -0.48958E-02
        -0.48958E-02
        -0.48958E-02
        -0.48958E-02
        -0.48958E-02
        -0.48958E-02
        -0.48958E-02
        -0.48958E-02
        -0.48958E-02
        -0.48958E-02
        -0.48958E-02
        -0.48958E-02
        -0.48958E-02
        -0.48958E-02
        -0.48958E-02
        -0.48958E-02
        -0.48958E-02
        -0.48958E-02
        -0.48958E-02
        -0.48958E-02
        -0.48958E-02
        -0.48958E-02
        -0.48958E-02
        -0.48958E-02
        -0.48958E-02
        -0.48958E-02
        -0.48958E-02
        -0.48958E-02
        -0.48958E-02
        -0.48958E-02
        -0.48958E-02
        -0.48958E-02
        -0.48958E-02
        -0.48958E-02
        -0.48958E-02
        -0.48958E-02
        -0.48958E-02
        -0.48958E-02
        -0.48958E-02
        -0.48958E-02
        -0.48958E-02
        -0.48958E-02
        -0.48958E-02
        -0.48958E-02
        -0.48958E-02
        -0.48958E-02
        -0.48958E-02
        -0.48958E-02
        -0.48958E-02
        -0.48958E-02
        -0.48958E-02
        -0.48958E-02
        -0.48958E-02
        -0.48958E-02
        -0.48958E-02
        -0.48958E-02
        -0.48958E-02
        -0.48958E-02
        -0.48958E-02
        -0.48958E-02
        -0.48958E-02
        -0.48958E-02
        -0.48958E-02
        -0.48958E-02
        -0.48958E-02
        -0.48958E-02
        -0.39167E-02
        -0.39167E-02
        -0.39167E-02
        -0.39167E-02
        -0.39167E-02
        -0.39167E-02
        -0.39167E-02
        -0.39167E-02
        -0.39167E-02
        -0.39167E-02
        -0.39167E-02
        -0.39167E-02
        -0.39167E-02
        -0.39167E-02
        -0.39167E-02
        -0.39167E-02
        -0.39167E-02
        -0.39167E-02
        -0.39167E-02
        -0.39167E-02
        -0.39167E-02
        -0.39167E-02
        -0.39167E-02
        -0.39167E-02
        -0.39167E-02
        -0.39167E-02
        -0.39167E-02
        -0.39167E-02
        -0.39167E-02
        -0.39167E-02
        -0.39167E-02
        -0.39167E-02
        -0.39167E-02
        -0.39167E-02
        -0.39167E-02
        -0.39167E-02
        -0.39167E-02
        -0.39167E-02
        -0.39167E-02
        -0.39167E-02
        -0.39167E-02
        -0.39167E-02
        -0.39167E-02
        -0.39167E-02
        -0.39167E-02
        -0.39167E-02
        -0.39167E-02
        -0.39167E-02
        -0.39167E-02
        -0.39167E-02
        -0.39167E-02
        -0.39167E-02
        -0.39167E-02
        -0.39167E-02
        -0.39167E-02
        -0.39167E-02
        -0.39167E-02
        -0.39167E-02
        -0.39167E-02
        -0.39167E-02
        -0.39167E-02
        -0.39167E-02
        -0.39167E-02
        -0.39167E-02
        -0.39167E-02
        -0.39167E-02
        -0.39167E-02
        -0.39167E-02
        -0.39167E-02
        -0.39167E-02
        -0.39167E-02
        -0.39167E-02
        -0.39167E-02
        -0.39167E-02
        -0.39167E-02
        -0.39167E-02
        -0.39167E-02
        -0.39167E-02
        -0.29375E-02
        -0.29375E-02
        -0.29375E-02
        -0.29375E-02
        -0.29375E-02
        -0.29375E-02
        -0.29375E-02
        -0.29375E-02
        -0.29375E-02
        -0.29375E-02
        -0.29375E-02
        -0.29375E-02
        -0.29375E-02
        -0.29375E-02
        -0.29375E-02
        -0.29375E-02
        -0.29375E-02
        -0.29375E-02
        -0.29375E-02
        -0.29375E-02
        -0.29375E-02
        -0.29375E-02
        -0.29375E-02
        -0.29375E-02
        -0.29375E-02
        -0.29375E-02
        -0.29375E-02
        -0.29375E-02
        -0.29375E-02
        -0.29375E-02
        -0.29375E-02
        -0.29375E-02
        -0.29375E-02
        -0.29375E-02
        -0.29375E-02
        -0.29375E-02
        -0.29375E-02
        -0.29375E-02
        -0.29375E-02
        -0.29375E-02
        -0.29375E-02
        -0.29375E-02
        -0.29375E-02
        -0.29375E-02
        -0.29375E-02
        -0.29375E-02
        -0.29375E-02
        -0.29375E-02
        -0.29375E-02
        -0.29375E-02
        -0.29375E-02
        -0.29375E-02
        -0.29375E-02
        -0.29375E-02
        -0.29375E-02
        -0.29375E-02
        -0.29375E-02
        -0.29375E-02
        -0.29375E-02
        -0.29375E-02
        -0.29375E-02
        -0.29375E-02
        -0.29375E-02
        -0.29375E-02
        -0.29375E-02
        -0.29375E-02
        -0.29375E-02
        -0.29375E-02
        -0.29375E-02
        -0.29375E-02
        -0.29375E-02
        -0.29375E-02
        -0.29375E-02
        -0.29375E-02
        -0.29375E-02
        -0.29375E-02
        -0.29375E-02
        -0.29375E-02
        -0.19583E-02
        -0.19583E-02
        -0.19583E-02
        -0.19583E-02
        -0.19583E-02
        -0.19583E-02
        -0.19583E-02
        -0.19583E-02
        -0.19583E-02
        -0.19583E-02
        -0.19583E-02
        -0.19583E-02
        -0.19583E-02
        -0.19583E-02
        -0.19583E-02
        -0.19583E-02
        -0.19583E-02
        -0.19583E-02
        -0.19583E-02
        -0.19583E-02
        -0.19583E-02
        -0.19583E-02
        -0.19583E-02
        -0.19583E-02
        -0.19583E-02
        -0.19583E-02
        -0.19583E-02
        -0.19583E-02
        -0.19583E-02
        -0.19583E-02
        -0.19583E-02
        -0.19583E-02
        -0.19583E-02
        -0.19583E-02
        -0.19583E-02
        -0.19583E-02
        -0.19583E-02
        -0.19583E-02
        -0.19583E-02
        -0.19583E-02
        -0.19583E-02
        -0.19583E-02
        -0.19583E-02
        -0.19583E-02
        -0.19583E-02
        -0.19583E-02
        -0.19583E-02
        -0.19583E-02
        -0.19583E-02
        -0.19583E-02
        -0.19583E-02
        -0.19583E-02
        -0.19583E-02
        -0.19583E-02
        -0.19583E-02
        -0.19583E-02
        -0.19583E-02
        -0.19583E-02
        -0.19583E-02
        -0.19583E-02
        -0.19583E-02
        -0.19583E-02
        -0.19583E-02
        -0.19583E-02
        -0.19583E-02
        -0.19583E-02
        -0.19583E-02
        -0.19583E-02
        -0.19583E-02
        -0.19583E-02
        -0.19583E-02
        -0.19583E-02
        -0.19583E-02
        -0.19583E-02
        -0.19583E-02
        -0.19583E-02
        -0.19583E-02
        -0.19583E-02
        -0.97917E-03
        -0.97917E-03
        -0.97917E-03
        -0.97917E-03
        -0.97917E-03
        -0.97917E-03
        -0.97917E-03
        -0.97917E-03
        -0.97917E-03
        -0.97917E-03
        -0.97917E-03
        -0.97917E-03
        -0.97917E-03
        -0.97917E-03
        -0.97917E-03
        -0.97917E-03
        -0.97917E-03
        -0.97917E-03
        -0.97917E-03
        -0.97917E-03
        -0.97917E-03
        -0.97917E-03
        -0.97917E-03
        -0.97917E-03
        -0.97917E-03
        -0.97917E-03
        -0.97917E-03
        -0.97917E-03
        -0.97917E-03
        -0.97917E-03
        -0.97917E-03
        -0.97917E-03
        -0.97917E-03
        -0.97917E-03
        -0.97917E-03
        -0.97917E-03
        -0.97917E-03
        -0.97917E-03
        -0.97917E-03
        -0.97917E-03
        -0.97917E-03
        -0.97917E-03
        -0.97917E-03
        -0.97917E-03
        -0.97917E-03
        -0.97917E-03
        -0.97917E-03
        -0.97917E-03
        -0.97917E-03
        -0.97917E-03
        -0.97917E-03
        -0.97917E-03
        -0.97917E-03
        -0.97917E-03
        -0.97917E-03
        -0.97917E-03
        -0.97917E-03
        -0.97917E-03
        -0.97917E-03
        -0.97917E-03
        -0.97917E-03
        -0.97917E-03
        -0.97917E-03
        -0.97917E-03
        -0.97917E-03
        -0.97917E-03
        -0.97917E-03
        -0.97917E-03
        -0.97917E-03
        -0.97917E-03
        -0.97917E-03
        -0.97917E-03
        -0.97917E-03
        -0.97917E-03
        -0.97917E-03
        -0.97917E-03
        -0.97917E-03
        -0.97917E-03
         0.38917E-18
         0.44621E-18
         0.34485E-18
         0.23671E-18
         0.26613E-18
         0.16162E-18
         0.53980E-18
         0.50579E-18
         0.36337E-18
         0.48798E-18
         0.60712E-18
         0.67611E-18
         0.60634E-18
         0.60658E-18
         0.70997E-18
         0.20892E-18
         0.35894E-18
         0.21887E-18
         0.27638E-18
         0.38382E-18
         0.29058E-18
         0.40326E-18
         0.18564E-18
         0.19650E-18
         0.48570E-18
         0.12837E-18
         0.60589E-18
         0.60416E-18
         0.60524E-18
         0.49621E-18
         0.61582E-19
         0.32255E-19
         0.73874E-19
         0.78478E-19
         0.34514E-18
         0.42054E-18
         0.51644E-18
         0.72521E-18
         0.72233E-18
         0.70722E-18
         0.69126E-18
         0.61573E-18
         0.51484E-18
         0.91170E-19
         0.30347E-20
        -0.66516E-19
        -0.69988E-19
        -0.68643E-19
        -0.59779E-19
        -0.43507E-19
        -0.29471E-19
         0.53205E-19
         0.86819E-18
         0.00000E+00
         0.86819E-18
         0.86819E-18
         0.00000E+00
         0.00000E+00
         0.00000E+00
         0.17364E-17
         0.17364E-17
         0.17364E-17
         0.43410E-18
         0.43410E-18
         0.43410E-18
         0.00000E+00
         0.00000E+00
         0.00000E+00
         0.00000E+00
         0.00000E+00
         0.21705E-18
        -0.21705E-18
         0.00000E+00
         0.00000E+00
         0.00000E+00
        -0.32557E-18
         0.54262E-19
        -0.40697E-18
         0.97917E-03
         0.97917E-03
         0.97917E-03
         0.97917E-03
         0.97917E-03
         0.97917E-03
         0.97917E-03
         0.97917E-03
         0.97917E-03
         0.97917E-03
         0.97917E-03
         0.97917E-03
         0.97917E-03
         0.97917E-03
         0.97917E-03
         0.97917E-03
         0.97917E-03
         0.97917E-03
         0.97917E-03
         0.97917E-03
         0.97917E-03
         0.97917E-03
         0.97917E-03
         0.97917E-03
         0.97917E-03
         0.97917E-03
         0.97917E-03
         0.97917E-03
         0.97917E-03
         0.97917E-03
         0.97917E-03
         0.97917E-03
         0.97917E-03
         0.97917E-03
         0.97917E-03
         0.97917E-03
         0.97917E-03
         0.97917E-03
         0.97917E-03
         0.97917E-03
         0.97917E-03
         0.97917E-03
         0.97917E-03
         0.97917E-03
         0.97917E-03
         0.97917E-03
         0.97917E-03
         0.97917E-03
         0.97917E-03
         0.97917E-03
         0.97917E-03
         0.97917E-03
         0.97917E-03
         0.97917E-03
         0.97917E-03
         0.97917E-03
         0.97917E-03
         0.97917E-03
         0.97917E-03
         0.97917E-03
         0.97917E-03
         0.97917E-03
         0.97917E-03
         0.97917E-03
         0.97917E-03
         0.97917E-03
         0.97917E-03
         0.97917E-03
         0.97917E-03
         0.97917E-03
         0.97917E-03
         0.97917E-03
         0.97917E-03
         0.97917E-03
         0.97917E-03
         0.97917E-03
         0.97917E-03
         0.97917E-03
         0.19583E-02
         0.19583E-02
         0.19583E-02
         0.19583E-02
         0.19583E-02
         0.19583E-02
         0.19583E-02
         0.19583E-02
         0.19583E-02
         0.19583E-02
         0.19583E-02
         0.19583E-02
         0.19583E-02
         0.19583E-02
         0.19583E-02
         0.19583E-02
         0.19583E-02
         0.19583E-02
         0.19583E-02
         0.19583E-02
         0.19583E-02
         0.19583E-02
         0.19583E-02
         0.19583E-02
         0.19583E-02
         0.19583E-02
         0.19583E-02
         0.19583E-02
         0.19583E-02
         0.19583E-02
         0.19583E-02
         0.19583E-02
         0.19583E-02
         0.19583E-02
         0.19583E-02
         0.19583E-02
         0.19583E-02
         0.19583E-02
         0.19583E-02
         0.19583E-02
         0.19583E-02
         0.19583E-02
         0.19583E-02
         0.19583E-02
         0.19583E-02
         0.19583E-02
         0.19583E-02
         0.19583E-02
         0.19583E-02
         0.19583E-02
         0.19583E-02
         0.19583E-02
         0.19583E-02
         0.19583E-02
         0.19583E-02
         0.19583E-02
         0.19583E-02
         0.19583E-02
         0.19583E-02
         0.19583E-02
         0.19583E-02
         0.19583E-02
         0.19583E-02
         0.19583E-02
         0.19583E-02
         0.19583E-02
         0.19583E-02
         0.19583E-02
         0.19583E-02
         0.19583E-02
         0.19583E-02
         0.19583E-02
         0.19583E-02
         0.19583E-02
         0.19583E-02
         0.19583E-02
         0.19583E-02
         0.19583E-02
         0.29375E-02
         0.29375E-02
         0.29375E-02
         0.29375E-02
         0.29375E-02
         0.29375E-02
         0.29375E-02
         0.29375E-02
         0.29375E-02
         0.29375E-02
         0.29375E-02
         0.29375E-02
         0.29375E-02
         0.29375E-02
         0.29375E-02
         0.29375E-02
         0.29375E-02
         0.29375E-02
         0.29375E-02
         0.29375E-02
         0.29375E-02
         0.29375E-02
         0.29375E-02
         0.29375E-02
         0.29375E-02
         0.29375E-02
         0.29375E-02
         0.29375E-02
         0.29375E-02
         0.29375E-02
         0.29375E-02
         0.29375E-02
         0.29375E-02
         0.29375E-02
         0.29375E-02
         0.29375E-02
         0.29375E-02
         0.29375E-02
         0.29375E-02
         0.29375E-02
         0.29375E-02
         0.29375E-02
         0.29375E-02
         0.29375E-02
         0.29375E-02
         0.29375E-02
         0.29375E-02
         0.29375E-02
         0.29375E-02
         0.29375E-02
         0.29375E-02
         0.29375E-02
         0.29375E-02
         0.29375E-02
         0.29375E-02
         0.29375E-02
         0.29375E-02
         0.29375E-02
         0.29375E-02
         0.29375E-02
         0.29375E-02
         0.29375E-02
         0.29375E-02
         0.29375E-02
         0.29375E-02
         0.29375E-02
         0.29375E-02
         0.29375E-02
         0.29375E-02
         0.29375E-02
         0.29375E-02
         0.29375E-02
         0.29375E-02
         0.29375E-02
         0.29375E-02
         0.29375E-02
         0.29375E-02
         0.29375E-02
         0.39167E-02
         0.39167E-02
         0.39167E-02
         0.39167E-02
         0.39167E-02
         0.39167E-02
         0.39167E-02
         0.39167E-02
         0.39167E-02
         0.39167E-02
         0.39167E-02
         0.39167E-02
         0.39167E-02
         0.39167E-02
         0.39167E-02
         0.39167E-02
         0.39167E-02
         0.39167E-02
         0.39167E-02
         0.39167E-02
         0.39167E-02
         0.39167E-02
         0.39167E-02
         0.39167E-02
         0.39167E-02
         0.39167E-02
         0.39167E-02
         0.39167E-02
         0.39167E-02
         0.39167E-02
         0.39167E-02
         0.39167E-02
         0.39167E-02
         0.39167E-02
         0.39167E-02
         0.39167E-02
         0.39167E-02
         0.39167E-02
         0.39167E-02
         0.39167E-02
         0.39167E-02
         0.39167E-02
         0.39167E-02
         0.39167E-02
         0.39167E-02
         0.39167E-02
         0.39167E-02
         0.39167E-02
         0.39167E-02
         0.39167E-02
         0.39167E-02
         0.39167E-02
         0.39167E-02
         0.39167E-02
         0.39167E-02
         0.39167E-02
         0.39167E-02
         0.39167E-02
         0.39167E-02
         0.39167E-02
         0.39167E-02
         0.39167E-02
         0.39167E-02
         0.39167E-02
         0.39167E-02
         0.39167E-02
         0.39167E-02
         0.39167E-02
         0.39167E-02
         0.39167E-02
         0.39167E-02
         0.39167E-02
         0.39167E-02
         0.39167E-02
         0.39167E-02
         0.39167E-02
         0.39167E-02
         0.39167E-02
         0.48958E-02
         0.48958E-02
         0.48958E-02
         0.48958E-02
         0.48958E-02
         0.48958E-02
         0.48958E-02
         0.48958E-02
         0.48958E-02
         0.48958E-02
         0.48958E-02
         0.48958E-02
         0.48958E-02
         0.48958E-02
         0.48958E-02
         0.48958E-02
         0.48958E-02
         0.48958E-02
         0.48958E-02
         0.48958E-02
         0.48958E-02
         0.48958E-02
         0.48958E-02
         0.48958E-02
         0.48958E-02
         0.48958E-02
         0.48958E-02
         0.48958E-02
         0.48958E-02
         0.48958E-02
         0.48958E-02
         0.48958E-02
         0.48958E-02
         0.48958E-02
         0.48958E-02
         0.48958E-02
         0.48958E-02
         0.48958E-02
         0.48958E-02
         0.48958E-02
         0.48958E-02
         0.48958E-02
         0.48958E-02
         0.48958E-02
         0.48958E-02
         0.48958E-02
         0.48958E-02
         0.48958E-02
         0.48958E-02
         0.48958E-02
         0.48958E-02
         0.48958E-02
         0.48958E-02
         0.48958E-02
         0.48958E-02
         0.48958E-02
         0.48958E-02
         0.48958E-02
         0.48958E-02
         0.48958E-02
         0.48958E-02
         0.48958E-02
         0.48958E-02
         0.48958E-02
         0.48958E-02
         0.48958E-02
         0.48958E-02
         0.48958E-02
         0.48958E-02
         0.48958E-02
         0.48958E-02
         0.48958E-02
         0.48958E-02
         0.48958E-02
         0.48958E-02
         0.48958E-02
         0.48958E-02
         0.48958E-02
         0.58750E-02
         0.58750E-02
         0.58750E-02
         0.58750E-02
         0.58750E-02
         0.58750E-02
         0.58750E-02
         0.58750E-02
         0.58750E-02
         0.58750E-02
         0.58750E-02
         0.58750E-02
         0.58750E-02
         0.58750E-02
         0.58750E-02
         0.58750E-02
         0.58750E-02
         0.58750E-02
         0.58750E-02
         0.58750E-02
         0.58750E-02
         0.58750E-02
         0.58750E-02
         0.58750E-02
         0.58750E-02
         0.58750E-02
         0.58750E-02
         0.58750E-02
         0.58750E-02
         0.58750E-02
         0.58750E-02
         0.58750E-02
         0.58750E-02
         0.58750E-02
         0.58750E-02
         0.58750E-02
         0.58750E-02
         0.58750E-02
         0.58750E-02
         0.58750E-02
         0.58750E-02
         0.58750E-02
         0.58750E-02
         0.58750E-02
         0.58750E-02
         0.58750E-02
         0.58750E-02
         0.58750E-02
         0.58750E-02
         0.58750E-02
         0.58750E-02
         0.58750E-02
         0.58750E-02
         0.58750E-02
         0.58750E-02
         0.58750E-02
         0.58750E-02
         0.58750E-02
         0.58750E-02
         0.58750E-02
         0.58750E-02
         0.58750E-02
         0.58750E-02
         0.58750E-02
         0.58750E-02
         0.58750E-02
         0.58750E-02
         0.58750E-02
         0.58750E-02
         0.58750E-02
         0.58750E-02
         0.58750E-02
         0.58750E-02
         0.58750E-02
         0.58750E-02
         0.58750E-02
         0.58750E-02
         0.58750E-02
         0.68542E-02
         0.68542E-02
         0.68542E-02
         0.68542E-02
         0.68542E-02
         0.68542E-02
         0.68542E-02
         0.68542E-02
         0.68542E-02
         0.68542E-02
         0.68542E-02
         0.68542E-02
         0.68542E-02
         0.68542E-02
         0.68542E-02
         0.68542E-02
         0.68542E-02
         0.68542E-02
         0.68542E-02
         0.68542E-02
         0.68542E-02
         0.68542E-02
         0.68542E-02
         0.68542E-02
         0.68542E-02
         0.68542E-02
         0.68542E-02
         0.68542E-02
         0.68542E-02
         0.68542E-02
         0.68542E-02
         0.68542E-02
         0.68542E-02
         0.68542E-02
         0.68542E-02
         0.68542E-02
         0.68542E-02
         0.68542E-02
         0.68542E-02
         0.68542E-02
         0.68542E-02
         0.68542E-02
         0.68542E-02
         0.68542E-02
         0.68542E-02
         0.68542E-02
         0.68542E-02
         0.68542E-02
         0.68542E-02
         0.68542E-02
         0.68542E-02
         0.68542E-02
         0.68542E-02
         0.68542E-02
         0.68542E-02
         0.68542E-02
         0.68542E-02
         0.68542E-02
         0.68542E-02
         0.68542E-02
         0.68542E-02
         0.68542E-02
         0.68542E-02
         0.68542E-02
         0.68542E-02
         0.68542E-02
         0.68542E-02
         0.68542E-02
         0.68542E-02
         0.68542E-02
         0.68542E-02
         0.68542E-02
         0.68542E-02
         0.68542E-02
         0.68542E-02
         0.68542E-02
         0.68542E-02
         0.68542E-02
         0.78333E-02
         0.78333E-02
         0.78333E-02
         0.78333E-02
         0.78333E-02
         0.78333E-02
         0.78333E-02
         0.78333E-02
         0.78333E-02
         0.78333E-02
         0.78333E-02
         0.78333E-02
         0.78333E-02
         0.78333E-02
         0.78333E-02
         0.78333E-02
         0.78333E-02
         0.78333E-02
         0.78333E-02
         0.78333E-02
         0.78333E-02
         0.78333E-02
         0.78333E-02
         0.78333E-02
         0.78333E-02
         0.78333E-02
         0.78333E-02
         0.78333E-02
         0.78333E-02
         0.78333E-02
         0.78333E-02
         0.78333E-02
         0.78333E-02
         0.78333E-02
         0.78333E-02
         0.78333E-02
         0.78333E-02
         0.78333E-02
         0.78333E-02
         0.78333E-02
         0.78333E-02
         0.78333E-02
         0.78333E-02
         0.78333E-02
         0.78333E-02
         0.78333E-02
         0.78333E-02
         0.78333E-02
         0.78333E-02
         0.78333E-02
         0.78333E-02
         0.78333E-02
         0.78333E-02
         0.78333E-02
         0.78333E-02
         0.78333E-02
         0.78333E-02
         0.78333E-02
         0.78333E-02
         0.78333E-02
         0.78333E-02
         0.78333E-02
         0.78333E-02
         0.78333E-02
         0.78333E-02
         0.78333E-02
         0.78333E-02
         0.78333E-02
         0.78333E-02
         0.78333E-02
         0.78333E-02
         0.78333E-02
         0.78333E-02
         0.78333E-02
         0.78333E-02
         0.78333E-02
         0.78333E-02
         0.78333E-02
         0.88125E-02
         0.88125E-02
         0.88125E-02
         0.88125E-02
         0.88125E-02
         0.88125E-02
         0.88125E-02
         0.88125E-02
         0.88125E-02
         0.88125E-02
         0.88125E-02
         0.88125E-02
         0.88125E-02
         0.88125E-02
         0.88125E-02
         0.88125E-02
         0.88125E-02
         0.88125E-02
         0.88125E-02
         0.88125E-02
         0.88125E-02
         0.88125E-02
         0.88125E-02
         0.88125E-02
         0.88125E-02
         0.88125E-02
         0.88125E-02
         0.88125E-02
         0.88125E-02
         0.88125E-02
         0.88125E-02
         0.88125E-02
         0.88125E-02
         0.88125E-02
         0.88125E-02
         0.88125E-02
         0.88125E-02
         0.88125E-02
         0.88125E-02
         0.88125E-02
         0.88125E-02
         0.88125E-02
         0.88125E-02
         0.88125E-02
         0.88125E-02
         0.88125E-02
         0.88125E-02
         0.88125E-02
         0.88125E-02
         0.88125E-02
         0.88125E-02
         0.88125E-02
         0.88125E-02
         0.88125E-02
         0.88125E-02
         0.88125E-02
         0.88125E-02
         0.88125E-02
         0.88125E-02
         0.88125E-02
         0.88125E-02
         0.88125E-02
         0.88125E-02
         0.88125E-02
         0.88125E-02
         0.88125E-02
         0.88125E-02
         0.88125E-02
         0.88125E-02
         0.88125E-02
         0.88125E-02
         0.88125E-02
         0.88125E-02
         0.88125E-02
         0.88125E-02
         0.88125E-02
         0.88125E-02
         0.88125E-02
         0.97917E-02
         0.97917E-02
         0.97917E-02
         0.97917E-02
         0.97917E-02
         0.97917E-02
         0.97917E-02
         0.97917E-02
         0.97917E-02
         0.97917E-02
         0.97917E-02
         0.97917E-02
         0.97917E-02
         0.97917E-02
         0.97917E-02
         0.97917E-02
         0.97917E-02
         0.97917E-02
         0.97917E-02
         0.97917E-02
         0.97917E-02
         0.97917E-02
         0.97917E-02
         0.97917E-02
         0.97917E-02
         0.97917E-02
         0.97917E-02
         0.97917E-02
         0.97917E-02
         0.97917E-02
         0.97917E-02
         0.97917E-02
         0.97917E-02
         0.97917E-02
         0.97917E-02
         0.97917E-02
         0.97917E-02
         0.97917E-02
         0.97917E-02
         0.97917E-02
         0.97917E-02
         0.97917E-02
         0.97917E-02
         0.97917E-02
         0.97917E-02
         0.97917E-02
         0.97917E-02
         0.97917E-02
         0.97917E-02
         0.97917E-02
         0.97917E-02
         0.97917E-02
         0.97917E-02
         0.97917E-02
         0.97917E-02
         0.97917E-02
         0.97917E-02
         0.97917E-02
         0.97917E-02
         0.97917E-02
         0.97917E-02
         0.97917E-02
         0.97917E-02
         0.97917E-02
         0.97917E-02
         0.97917E-02
         0.97917E-02
         0.97917E-02
         0.97917E-02
         0.97917E-02
         0.97917E-02
         0.97917E-02
         0.97917E-02
         0.97917E-02
         0.97917E-02
         0.97917E-02
         0.97917E-02
         0.97917E-02
         0.10771E-01
         0.10771E-01
         0.10771E-01
         0.10771E-01
         0.10771E-01
         0.10771E-01
         0.10771E-01
         0.10771E-01
         0.10771E-01
         0.10771E-01
         0.10771E-01
         0.10771E-01
         0.10771E-01
         0.10771E-01
         0.10771E-01
         0.10771E-01
         0.10771E-01
         0.10771E-01
         0.10771E-01
         0.10771E-01
         0.10771E-01
         0.10771E-01
         0.10771E-01
         0.10771E-01
         0.10771E-01
         0.10771E-01
         0.10771E-01
         0.10771E-01
         0.10771E-01
         0.10771E-01
         0.10771E-01
         0.10771E-01
         0.10771E-01
         0.10771E-01
         0.10771E-01
         0.10771E-01
         0.10771E-01
         0.10771E-01
         0.10771E-01
         0.10771E-01
         0.10771E-01
         0.10771E-01
         0.10771E-01
         0.10771E-01
         0.10771E-01
         0.10771E-01
         0.10771E-01
         0.10771E-01
         0.10771E-01
         0.10771E-01
         0.10771E-01
         0.10771E-01
         0.10771E-01
         0.10771E-01
         0.10771E-01
         0.10771E-01
         0.10771E-01
         0.10771E-01
         0.10771E-01
         0.10771E-01
         0.10771E-01
         0.10771E-01
         0.10771E-01
         0.10771E-01
         0.10771E-01
         0.10771E-01
         0.10771E-01
         0.10771E-01
         0.10771E-01
         0.10771E-01
         0.10771E-01
         0.10771E-01
         0.10771E-01
         0.10771E-01
         0.10771E-01
         0.10771E-01
         0.10771E-01
         0.10771E-01
         0.11750E-01
         0.11750E-01
         0.11750E-01
         0.11750E-01
         0.11750E-01
         0.11750E-01
         0.11750E-01
         0.11750E-01
         0.11750E-01
         0.11750E-01
         0.11750E-01
         0.11750E-01
         0.11750E-01
         0.11750E-01
         0.11750E-01
         0.11750E-01
         0.11750E-01
         0.11750E-01
         0.11750E-01
         0.11750E-01
         0.11750E-01
         0.11750E-01
         0.11750E-01
         0.11750E-01
         0.11750E-01
         0.11750E-01
         0.11750E-01
         0.11750E-01
         0.11750E-01
         0.11750E-01
         0.11750E-01
         0.11750E-01
         0.11750E-01
         0.11750E-01
         0.11750E-01
         0.11750E-01
         0.11750E-01
         0.11750E-01
         0.11750E-01
         0.11750E-01
         0.11750E-01
         0.11750E-01
         0.11750E-01
         0.11750E-01
         0.11750E-01
         0.11750E-01
         0.11750E-01
         0.11750E-01
         0.11750E-01
         0.11750E-01
         0.11750E-01
         0.11750E-01
         0.11750E-01
         0.11750E-01
         0.11750E-01
         0.11750E-01
         0.11750E-01
         0.11750E-01
         0.11750E-01
         0.11750E-01
         0.11750E-01
         0.11750E-01
         0.11750E-01
         0.11750E-01
         0.11750E-01
         0.11750E-01
         0.11750E-01
         0.11750E-01
         0.11750E-01
         0.11750E-01
         0.11750E-01
         0.11750E-01
         0.11750E-01
         0.11750E-01
         0.11750E-01
         0.11750E-01
         0.11750E-01
         0.11750E-01
  
SCALARS                init_velocity_x  double 1
LOOKUP_TABLE default
         0.00000E+00
         0.00000E+00
         0.00000E+00
         0.00000E+00
         0.00000E+00
         0.00000E+00
         0.00000E+00
         0.00000E+00
         0.00000E+00
         0.00000E+00
         0.00000E+00
         0.00000E+00
         0.00000E+00
         0.00000E+00
         0.00000E+00
         0.00000E+00
         0.00000E+00
         0.00000E+00
         0.00000E+00
         0.00000E+00
         0.00000E+00
         0.00000E+00
         0.00000E+00
         0.00000E+00
         0.00000E+00
         0.00000E+00
         0.00000E+00
         0.00000E+00
         0.00000E+00
         0.00000E+00
         0.00000E+00
         0.00000E+00
         0.00000E+00
         0.00000E+00
         0.00000E+00
         0.00000E+00
         0.00000E+00
         0.00000E+00
         0.00000E+00
         0.00000E+00
         0.00000E+00
         0.00000E+00
         0.00000E+00
         0.00000E+00
         0.00000E+00
         0.00000E+00
         0.00000E+00
         0.00000E+00
         0.00000E+00
         0.00000E+00
         0.00000E+00
         0.00000E+00
         0.00000E+00
         0.00000E+00
         0.00000E+00
         0.00000E+00
         0.00000E+00
         0.00000E+00
         0.00000E+00
         0.00000E+00
         0.00000E+00
         0.00000E+00
         0.00000E+00
         0.00000E+00
         0.00000E+00
         0.00000E+00
         0.00000E+00
         0.00000E+00
         0.00000E+00
         0.00000E+00
         0.00000E+00
         0.00000E+00
         0.00000E+00
         0.00000E+00
         0.00000E+00
         0.00000E+00
         0.00000E+00
         0.00000E+00
         0.00000E+00
         0.00000E+00
         0.00000E+00
         0.00000E+00
         0.00000E+00
         0.00000E+00
         0.00000E+00
         0.00000E+00
         0.00000E+00
         0.00000E+00
         0.00000E+00
         0.00000E+00
         0.00000E+00
         0.00000E+00
         0.00000E+00
         0.00000E+00
         0.00000E+00
         0.00000E+00
         0.00000E+00
         0.00000E+00
         0.00000E+00
         0.00000E+00
         0.00000E+00
         0.00000E+00
         0.00000E+00
         0.00000E+00
         0.00000E+00
         0.00000E+00
         0.00000E+00
         0.00000E+00
         0.00000E+00
         0.00000E+00
         0.00000E+00
         0.00000E+00
         0.00000E+00
         0.00000E+00
         0.00000E+00
         0.00000E+00
         0.00000E+00
         0.00000E+00
         0.00000E+00
         0.00000E+00
         0.00000E+00
         0.00000E+00
         0.00000E+00
         0.00000E+00
         0.00000E+00
         0.00000E+00
         0.00000E+00
         0.00000E+00
         0.00000E+00
         0.00000E+00
         0.00000E+00
         0.00000E+00
         0.00000E+00
         0.00000E+00
         0.00000E+00
         0.00000E+00
         0.00000E+00
         0.00000E+00
         0.00000E+00
         0.00000E+00
         0.00000E+00
         0.00000E+00
         0.00000E+00
         0.00000E+00
         0.00000E+00
         0.00000E+00
         0.00000E+00
         0.00000E+00
         0.00000E+00
         0.00000E+00
         0.00000E+00
         0.00000E+00
         0.00000E+00
         0.00000E+00
         0.00000E+00
         0.00000E+00
         0.00000E+00
         0.00000E+00
         0.00000E+00
         0.00000E+00
         0.00000E+00
         0.00000E+00
         0.00000E+00
         0.00000E+00
         0.00000E+00
         0.00000E+00
         0.00000E+00
         0.00000E+00
         0.00000E+00
         0.00000E+00
         0.00000E+00
         0.00000E+00
         0.00000E+00
         0.00000E+00
         0.00000E+00
         0.00000E+00
         0.00000E+00
         0.00000E+00
         0.00000E+00
         0.00000E+00
         0.00000E+00
         0.00000E+00
         0.00000E+00
         0.00000E+00
         0.00000E+00
         0.00000E+00
         0.00000E+00
         0.00000E+00
         0.00000E+00
         0.00000E+00
         0.00000E+00
         0.00000E+00
         0.00000E+00
         0.00000E+00
         0.00000E+00
         0.00000E+00
         0.00000E+00
         0.00000E+00
         0.00000E+00
         0.00000E+00
         0.00000E+00
         0.00000E+00
         0.00000E+00
         0.00000E+00
         0.00000E+00
         0.00000E+00
         0.00000E+00
         0.00000E+00
         0.00000E+00
         0.00000E+00
         0.00000E+00
         0.00000E+00
         0.00000E+00
         0.00000E+00
         0.00000E+00
         0.00000E+00
         0.00000E+00
         0.00000E+00
         0.00000E+00
         0.00000E+00
         0.00000E+00
         0.00000E+00
         0.00000E+00
         0.00000E+00
         0.00000E+00
         0.00000E+00
         0.00000E+00
         0.00000E+00
         0.00000E+00
         0.00000E+00
         0.00000E+00
         0.00000E+00
         0.00000E+00
         0.00000E+00
         0.00000E+00
         0.00000E+00
         0.00000E+00
         0.00000E+00
         0.00000E+00
         0.00000E+00
         0.00000E+00
         0.00000E+00
         0.00000E+00
         0.00000E+00
         0.00000E+00
         0.00000E+00
         0.00000E+00
         0.00000E+00
         0.00000E+00
         0.00000E+00
         0.00000E+00
         0.00000E+00
         0.00000E+00
         0.00000E+00
         0.00000E+00
         0.00000E+00
         0.00000E+00
         0.00000E+00
         0.00000E+00
         0.00000E+00
         0.00000E+00
         0.00000E+00
         0.00000E+00
         0.00000E+00
         0.00000E+00
         0.00000E+00
         0.00000E+00
         0.00000E+00
         0.00000E+00
         0.00000E+00
         0.00000E+00
         0.00000E+00
         0.00000E+00
         0.00000E+00
         0.00000E+00
         0.00000E+00
         0.00000E+00
         0.00000E+00
         0.00000E+00
         0.00000E+00
         0.00000E+00
         0.00000E+00
         0.00000E+00
         0.00000E+00
         0.00000E+00
         0.00000E+00
         0.00000E+00
         0.00000E+00
         0.00000E+00
         0.00000E+00
         0.00000E+00
         0.00000E+00
         0.00000E+00
         0.00000E+00
         0.00000E+00
         0.00000E+00
         0.00000E+00
         0.00000E+00
         0.00000E+00
         0.00000E+00
         0.00000E+00
         0.00000E+00
         0.00000E+00
         0.00000E+00
         0.00000E+00
         0.00000E+00
         0.00000E+00
         0.00000E+00
         0.00000E+00
         0.00000E+00
         0.00000E+00
         0.00000E+00
         0.00000E+00
         0.00000E+00
         0.00000E+00
         0.00000E+00
         0.00000E+00
         0.00000E+00
         0.00000E+00
         0.00000E+00
         0.00000E+00
         0.00000E+00
         0.00000E+00
         0.00000E+00
         0.00000E+00
         0.00000E+00
         0.00000E+00
         0.00000E+00
         0.00000E+00
         0.00000E+00
         0.00000E+00
         0.00000E+00
         0.00000E+00
         0.00000E+00
         0.00000E+00
         0.00000E+00
         0.00000E+00
         0.00000E+00
         0.00000E+00
         0.00000E+00
         0.00000E+00
         0.00000E+00
         0.00000E+00
         0.00000E+00
         0.00000E+00
         0.00000E+00
         0.00000E+00
         0.00000E+00
         0.00000E+00
         0.00000E+00
         0.00000E+00
         0.00000E+00
         0.00000E+00
         0.00000E+00
         0.00000E+00
         0.00000E+00
         0.00000E+00
         0.00000E+00
         0.00000E+00
         0.00000E+00
         0.00000E+00
         0.00000E+00
         0.00000E+00
         0.00000E+00
         0.00000E+00
         0.00000E+00
         0.00000E+00
         0.00000E+00
         0.00000E+00
         0.00000E+00
         0.00000E+00
         0.00000E+00
         0.00000E+00
         0.00000E+00
         0.00000E+00
         0.00000E+00
         0.00000E+00
         0.00000E+00
         0.00000E+00
         0.00000E+00
         0.00000E+00
         0.00000E+00
         0.00000E+00
         0.00000E+00
         0.00000E+00
         0.00000E+00
         0.00000E+00
         0.00000E+00
         0.00000E+00
         0.00000E+00
         0.00000E+00
         0.00000E+00
         0.00000E+00
         0.00000E+00
         0.00000E+00
         0.00000E+00
         0.00000E+00
         0.00000E+00
         0.00000E+00
         0.00000E+00
         0.00000E+00
         0.00000E+00
         0.00000E+00
         0.00000E+00
         0.00000E+00
         0.00000E+00
         0.00000E+00
         0.00000E+00
         0.00000E+00
         0.00000E+00
         0.00000E+00
         0.00000E+00
         0.00000E+00
         0.00000E+00
         0.00000E+00
         0.00000E+00
         0.00000E+00
         0.00000E+00
         0.00000E+00
         0.00000E+00
         0.00000E+00
         0.00000E+00
         0.00000E+00
         0.00000E+00
         0.00000E+00
         0.00000E+00
         0.00000E+00
         0.00000E+00
         0.00000E+00
         0.00000E+00
         0.00000E+00
         0.00000E+00
         0.00000E+00
         0.00000E+00
         0.00000E+00
         0.00000E+00
         0.00000E+00
         0.00000E+00
         0.00000E+00
         0.00000E+00
         0.00000E+00
         0.00000E+00
         0.00000E+00
         0.00000E+00
         0.00000E+00
         0.00000E+00
         0.00000E+00
         0.00000E+00
         0.00000E+00
         0.00000E+00
         0.00000E+00
         0.00000E+00
         0.00000E+00
         0.00000E+00
         0.00000E+00
         0.00000E+00
         0.00000E+00
         0.00000E+00
         0.00000E+00
         0.00000E+00
         0.00000E+00
         0.00000E+00
         0.00000E+00
         0.00000E+00
         0.00000E+00
         0.00000E+00
         0.00000E+00
         0.00000E+00
         0.00000E+00
         0.00000E+00
         0.00000E+00
         0.00000E+00
         0.00000E+00
         0.00000E+00
         0.00000E+00
         0.00000E+00
         0.00000E+00
         0.00000E+00
         0.00000E+00
         0.00000E+00
         0.00000E+00
         0.00000E+00
         0.00000E+00
         0.00000E+00
         0.00000E+00
         0.00000E+00
         0.00000E+00
         0.00000E+00
         0.00000E+00
         0.00000E+00
         0.00000E+00
         0.00000E+00
         0.00000E+00
         0.00000E+00
         0.00000E+00
         0.00000E+00
         0.00000E+00
         0.00000E+00
         0.00000E+00
         0.00000E+00
         0.00000E+00
         0.00000E+00
         0.00000E+00
         0.00000E+00
         0.00000E+00
         0.00000E+00
         0.00000E+00
         0.00000E+00
         0.00000E+00
         0.00000E+00
         0.00000E+00
         0.00000E+00
         0.00000E+00
         0.00000E+00
         0.00000E+00
         0.00000E+00
         0.00000E+00
         0.00000E+00
         0.00000E+00
         0.00000E+00
         0.00000E+00
         0.00000E+00
         0.00000E+00
         0.00000E+00
         0.00000E+00
         0.00000E+00
         0.00000E+00
         0.00000E+00
         0.00000E+00
         0.00000E+00
         0.00000E+00
         0.00000E+00
         0.00000E+00
         0.00000E+00
         0.00000E+00
         0.00000E+00
         0.00000E+00
         0.00000E+00
         0.00000E+00
         0.00000E+00
         0.00000E+00
         0.00000E+00
         0.00000E+00
         0.00000E+00
         0.00000E+00
         0.00000E+00
         0.00000E+00
         0.00000E+00
         0.00000E+00
         0.00000E+00
         0.00000E+00
         0.00000E+00
         0.00000E+00
         0.00000E+00
         0.00000E+00
         0.00000E+00
         0.00000E+00
         0.00000E+00
         0.00000E+00
         0.00000E+00
         0.00000E+00
         0.00000E+00
         0.00000E+00
         0.00000E+00
         0.00000E+00
         0.00000E+00
         0.00000E+00
         0.00000E+00
         0.00000E+00
         0.00000E+00
         0.00000E+00
         0.00000E+00
         0.00000E+00
         0.00000E+00
         0.00000E+00
         0.00000E+00
         0.00000E+00
         0.00000E+00
         0.00000E+00
         0.00000E+00
         0.00000E+00
         0.00000E+00
         0.00000E+00
         0.00000E+00
         0.00000E+00
         0.00000E+00
         0.00000E+00
         0.00000E+00
         0.00000E+00
         0.00000E+00
         0.00000E+00
         0.00000E+00
         0.00000E+00
         0.00000E+00
         0.00000E+00
         0.00000E+00
         0.00000E+00
         0.00000E+00
         0.00000E+00
         0.00000E+00
         0.00000E+00
         0.00000E+00
         0.00000E+00
         0.00000E+00
         0.00000E+00
         0.00000E+00
         0.00000E+00
         0.00000E+00
         0.00000E+00
         0.00000E+00
         0.00000E+00
         0.00000E+00
         0.00000E+00
         0.00000E+00
         0.00000E+00
         0.00000E+00
         0.00000E+00
         0.00000E+00
         0.00000E+00
         0.00000E+00
         0.00000E+00
         0.00000E+00
         0.00000E+00
         0.00000E+00
         0.00000E+00
         0.00000E+00
         0.00000E+00
         0.00000E+00
         0.00000E+00
         0.00000E+00
         0.00000E+00
         0.00000E+00
         0.00000E+00
         0.00000E+00
         0.00000E+00
         0.00000E+00
         0.00000E+00
         0.00000E+00
         0.00000E+00
         0.00000E+00
         0.00000E+00
         0.00000E+00
         0.00000E+00
         0.00000E+00
         0.00000E+00
         0.00000E+00
         0.00000E+00
         0.00000E+00
         0.00000E+00
         0.00000E+00
         0.00000E+00
         0.00000E+00
         0.00000E+00
         0.00000E+00
         0.00000E+00
         0.00000E+00
         0.00000E+00
         0.00000E+00
         0.00000E+00
         0.00000E+00
         0.00000E+00
         0.00000E+00
         0.00000E+00
         0.00000E+00
         0.00000E+00
         0.00000E+00
         0.00000E+00
         0.00000E+00
         0.00000E+00
         0.00000E+00
         0.00000E+00
         0.00000E+00
         0.00000E+00
         0.00000E+00
         0.00000E+00
         0.00000E+00
         0.00000E+00
         0.00000E+00
         0.00000E+00
         0.00000E+00
         0.00000E+00
         0.00000E+00
         0.00000E+00
         0.00000E+00
         0.00000E+00
         0.00000E+00
         0.00000E+00
         0.00000E+00
         0.00000E+00
         0.00000E+00
         0.00000E+00
         0.00000E+00
         0.00000E+00
         0.00000E+00
         0.00000E+00
         0.00000E+00
         0.00000E+00
         0.00000E+00
         0.00000E+00
         0.00000E+00
         0.00000E+00
         0.00000E+00
         0.00000E+00
         0.00000E+00
         0.00000E+00
         0.00000E+00
         0.00000E+00
         0.00000E+00
         0.00000E+00
         0.00000E+00
         0.00000E+00
         0.00000E+00
         0.00000E+00
         0.00000E+00
         0.00000E+00
         0.00000E+00
         0.00000E+00
         0.00000E+00
         0.00000E+00
         0.00000E+00
         0.00000E+00
         0.00000E+00
         0.00000E+00
         0.00000E+00
         0.00000E+00
         0.00000E+00
         0.00000E+00
         0.00000E+00
         0.00000E+00
         0.00000E+00
         0.00000E+00
         0.00000E+00
         0.00000E+00
         0.00000E+00
         0.00000E+00
         0.00000E+00
         0.00000E+00
         0.00000E+00
         0.00000E+00
         0.00000E+00
         0.00000E+00
         0.00000E+00
         0.00000E+00
         0.00000E+00
         0.00000E+00
         0.00000E+00
         0.00000E+00
         0.00000E+00
         0.00000E+00
         0.00000E+00
         0.00000E+00
         0.00000E+00
         0.00000E+00
         0.00000E+00
         0.00000E+00
         0.00000E+00
         0.00000E+00
         0.00000E+00
         0.00000E+00
         0.00000E+00
         0.00000E+00
         0.00000E+00
         0.00000E+00
         0.00000E+00
         0.00000E+00
         0.00000E+00
         0.00000E+00
         0.00000E+00
         0.00000E+00
         0.00000E+00
         0.00000E+00
         0.00000E+00
         0.00000E+00
         0.00000E+00
         0.00000E+00
         0.00000E+00
         0.00000E+00
         0.00000E+00
         0.00000E+00
         0.00000E+00
         0.00000E+00
         0.00000E+00
         0.00000E+00
         0.00000E+00
         0.00000E+00
         0.00000E+00
         0.00000E+00
         0.00000E+00
         0.00000E+00
         0.00000E+00
         0.00000E+00
         0.00000E+00
         0.00000E+00
         0.00000E+00
         0.00000E+00
         0.00000E+00
         0.00000E+00
         0.00000E+00
         0.00000E+00
         0.00000E+00
         0.00000E+00
         0.00000E+00
         0.00000E+00
         0.00000E+00
         0.00000E+00
         0.00000E+00
         0.00000E+00
         0.00000E+00
         0.00000E+00
         0.00000E+00
         0.00000E+00
         0.00000E+00
         0.00000E+00
         0.00000E+00
         0.00000E+00
         0.00000E+00
         0.00000E+00
         0.00000E+00
         0.00000E+00
         0.00000E+00
         0.00000E+00
         0.00000E+00
         0.00000E+00
         0.00000E+00
         0.00000E+00
         0.00000E+00
         0.00000E+00
         0.00000E+00
         0.00000E+00
         0.00000E+00
         0.00000E+00
         0.00000E+00
         0.00000E+00
         0.00000E+00
         0.00000E+00
         0.00000E+00
         0.00000E+00
         0.00000E+00
         0.00000E+00
         0.00000E+00
         0.00000E+00
         0.00000E+00
         0.00000E+00
         0.00000E+00
         0.00000E+00
         0.00000E+00
         0.00000E+00
         0.00000E+00
         0.00000E+00
         0.00000E+00
         0.00000E+00
         0.00000E+00
         0.00000E+00
         0.00000E+00
         0.00000E+00
         0.00000E+00
         0.00000E+00
         0.00000E+00
         0.00000E+00
         0.00000E+00
         0.00000E+00
         0.00000E+00
         0.00000E+00
         0.00000E+00
         0.00000E+00
         0.00000E+00
         0.00000E+00
         0.00000E+00
         0.00000E+00
         0.00000E+00
         0.00000E+00
         0.00000E+00
         0.00000E+00
         0.00000E+00
         0.00000E+00
         0.00000E+00
         0.00000E+00
         0.00000E+00
         0.00000E+00
         0.00000E+00
         0.00000E+00
         0.00000E+00
         0.00000E+00
         0.00000E+00
         0.00000E+00
         0.00000E+00
         0.00000E+00
         0.00000E+00
         0.00000E+00
         0.00000E+00
         0.00000E+00
         0.00000E+00
         0.00000E+00
         0.00000E+00
         0.00000E+00
         0.00000E+00
         0.00000E+00
         0.00000E+00
         0.00000E+00
         0.00000E+00
         0.00000E+00
         0.00000E+00
         0.00000E+00
         0.00000E+00
         0.00000E+00
         0.00000E+00
         0.00000E+00
         0.00000E+00
         0.00000E+00
         0.00000E+00
         0.00000E+00
         0.00000E+00
         0.00000E+00
         0.00000E+00
         0.00000E+00
         0.00000E+00
         0.00000E+00
         0.00000E+00
         0.00000E+00
         0.00000E+00
         0.00000E+00
         0.00000E+00
         0.00000E+00
         0.00000E+00
         0.00000E+00
         0.00000E+00
         0.00000E+00
         0.00000E+00
         0.00000E+00
         0.00000E+00
         0.00000E+00
         0.00000E+00
         0.00000E+00
         0.00000E+00
         0.00000E+00
         0.00000E+00
         0.00000E+00
         0.00000E+00
         0.00000E+00
         0.00000E+00
         0.00000E+00
         0.00000E+00
         0.00000E+00
         0.00000E+00
         0.00000E+00
         0.00000E+00
         0.00000E+00
         0.00000E+00
         0.00000E+00
         0.00000E+00
         0.00000E+00
         0.00000E+00
         0.00000E+00
         0.00000E+00
         0.00000E+00
         0.00000E+00
         0.00000E+00
         0.00000E+00
         0.00000E+00
         0.00000E+00
         0.00000E+00
         0.00000E+00
         0.00000E+00
         0.00000E+00
         0.00000E+00
         0.00000E+00
         0.00000E+00
         0.00000E+00
         0.00000E+00
         0.00000E+00
         0.00000E+00
         0.00000E+00
         0.00000E+00
         0.00000E+00
         0.00000E+00
         0.00000E+00
         0.00000E+00
         0.00000E+00
         0.00000E+00
         0.00000E+00
         0.00000E+00
         0.00000E+00
         0.00000E+00
         0.00000E+00
         0.00000E+00
         0.00000E+00
         0.00000E+00
         0.00000E+00
         0.00000E+00
         0.00000E+00
         0.00000E+00
         0.00000E+00
         0.00000E+00
         0.00000E+00
         0.00000E+00
         0.00000E+00
         0.00000E+00
         0.00000E+00
         0.00000E+00
         0.00000E+00
         0.00000E+00
         0.00000E+00
         0.00000E+00
         0.00000E+00
         0.00000E+00
         0.00000E+00
         0.00000E+00
         0.00000E+00
         0.00000E+00
         0.00000E+00
         0.00000E+00
         0.00000E+00
         0.00000E+00
         0.00000E+00
         0.00000E+00
         0.00000E+00
         0.00000E+00
         0.00000E+00
         0.00000E+00
         0.00000E+00
         0.00000E+00
         0.00000E+00
         0.00000E+00
         0.00000E+00
         0.00000E+00
         0.00000E+00
         0.00000E+00
         0.00000E+00
         0.00000E+00
         0.00000E+00
         0.00000E+00
         0.00000E+00
         0.00000E+00
         0.00000E+00
         0.00000E+00
         0.00000E+00
         0.00000E+00
         0.00000E+00
         0.00000E+00
         0.00000E+00
         0.00000E+00
         0.00000E+00
         0.00000E+00
         0.00000E+00
         0.00000E+00
         0.00000E+00
         0.00000E+00
         0.00000E+00
         0.00000E+00
         0.00000E+00
         0.00000E+00
         0.00000E+00
         0.00000E+00
         0.00000E+00
         0.00000E+00
         0.00000E+00
         0.00000E+00
         0.00000E+00
         0.00000E+00
         0.00000E+00
         0.00000E+00
         0.00000E+00
         0.00000E+00
         0.00000E+00
         0.00000E+00
         0.00000E+00
         0.00000E+00
         0.00000E+00
         0.00000E+00
         0.00000E+00
         0.00000E+00
         0.00000E+00
         0.00000E+00
         0.00000E+00
         0.00000E+00
         0.00000E+00
         0.00000E+00
         0.00000E+00
         0.00000E+00
         0.00000E+00
         0.00000E+00
         0.00000E+00
         0.00000E+00
         0.00000E+00
         0.00000E+00
         0.00000E+00
         0.00000E+00
         0.00000E+00
         0.00000E+00
         0.00000E+00
         0.00000E+00
         0.00000E+00
         0.00000E+00
         0.00000E+00
         0.00000E+00
         0.00000E+00
         0.00000E+00
         0.00000E+00
         0.00000E+00
         0.00000E+00
         0.00000E+00
         0.00000E+00
         0.00000E+00
         0.00000E+00
         0.00000E+00
         0.00000E+00
         0.00000E+00
         0.00000E+00
         0.00000E+00
         0.00000E+00
         0.00000E+00
         0.00000E+00
         0.00000E+00
         0.00000E+00
         0.00000E+00
         0.00000E+00
         0.00000E+00
         0.00000E+00
         0.00000E+00
         0.00000E+00
         0.00000E+00
         0.00000E+00
         0.00000E+00
         0.00000E+00
         0.00000E+00
         0.00000E+00
         0.00000E+00
         0.00000E+00
         0.00000E+00
         0.00000E+00
         0.00000E+00
         0.00000E+00
         0.00000E+00
         0.00000E+00
         0.00000E+00
         0.00000E+00
         0.00000E+00
         0.00000E+00
         0.00000E+00
         0.00000E+00
         0.00000E+00
         0.00000E+00
         0.00000E+00
         0.00000E+00
         0.00000E+00
         0.00000E+00
         0.00000E+00
         0.00000E+00
         0.00000E+00
         0.00000E+00
         0.00000E+00
         0.00000E+00
         0.00000E+00
         0.00000E+00
         0.00000E+00
         0.00000E+00
         0.00000E+00
         0.00000E+00
         0.00000E+00
         0.00000E+00
         0.00000E+00
         0.00000E+00
         0.00000E+00
         0.00000E+00
         0.00000E+00
         0.00000E+00
         0.00000E+00
         0.00000E+00
         0.00000E+00
         0.00000E+00
         0.00000E+00
         0.00000E+00
         0.00000E+00
         0.00000E+00
         0.00000E+00
         0.00000E+00
         0.00000E+00
         0.00000E+00
         0.00000E+00
         0.00000E+00
         0.00000E+00
         0.00000E+00
         0.00000E+00
         0.00000E+00
         0.00000E+00
         0.00000E+00
         0.00000E+00
         0.00000E+00
         0.00000E+00
         0.00000E+00
         0.00000E+00
         0.00000E+00
         0.00000E+00
         0.00000E+00
         0.00000E+00
         0.00000E+00
         0.00000E+00
         0.00000E+00
         0.00000E+00
         0.00000E+00
         0.00000E+00
         0.00000E+00
         0.00000E+00
         0.00000E+00
         0.00000E+00
         0.00000E+00
         0.00000E+00
         0.00000E+00
         0.00000E+00
         0.00000E+00
         0.00000E+00
         0.00000E+00
         0.00000E+00
         0.00000E+00
         0.00000E+00
         0.00000E+00
         0.00000E+00
         0.00000E+00
         0.00000E+00
         0.00000E+00
         0.00000E+00
         0.00000E+00
         0.00000E+00
         0.00000E+00
         0.00000E+00
         0.00000E+00
         0.00000E+00
         0.00000E+00
         0.00000E+00
         0.00000E+00
         0.00000E+00
         0.00000E+00
         0.00000E+00
         0.00000E+00
         0.00000E+00
         0.00000E+00
         0.00000E+00
         0.00000E+00
         0.00000E+00
         0.00000E+00
         0.00000E+00
         0.00000E+00
         0.00000E+00
         0.00000E+00
         0.00000E+00
         0.00000E+00
         0.00000E+00
         0.00000E+00
         0.00000E+00
         0.00000E+00
         0.00000E+00
         0.00000E+00
         0.00000E+00
         0.00000E+00
         0.00000E+00
         0.00000E+00
         0.00000E+00
         0.00000E+00
         0.00000E+00
         0.00000E+00
         0.00000E+00
         0.00000E+00
         0.00000E+00
         0.00000E+00
         0.00000E+00
         0.00000E+00
         0.00000E+00
         0.00000E+00
         0.00000E+00
         0.00000E+00
         0.00000E+00
         0.00000E+00
         0.00000E+00
         0.00000E+00
         0.00000E+00
         0.00000E+00
         0.00000E+00
         0.00000E+00
         0.00000E+00
         0.00000E+00
         0.00000E+00
         0.00000E+00
         0.00000E+00
         0.00000E+00
         0.00000E+00
         0.00000E+00
         0.00000E+00
         0.00000E+00
         0.00000E+00
         0.00000E+00
         0.00000E+00
         0.00000E+00
         0.00000E+00
         0.00000E+00
         0.00000E+00
         0.00000E+00
         0.00000E+00
         0.00000E+00
         0.00000E+00
         0.00000E+00
         0.00000E+00
         0.00000E+00
         0.00000E+00
         0.00000E+00
         0.00000E+00
         0.00000E+00
         0.00000E+00
         0.00000E+00
         0.00000E+00
         0.00000E+00
         0.00000E+00
         0.00000E+00
         0.00000E+00
         0.00000E+00
         0.00000E+00
         0.00000E+00
         0.00000E+00
         0.00000E+00
         0.00000E+00
         0.00000E+00
         0.00000E+00
         0.00000E+00
         0.00000E+00
         0.00000E+00
         0.00000E+00
         0.00000E+00
         0.00000E+00
         0.00000E+00
         0.00000E+00
         0.00000E+00
         0.00000E+00
         0.00000E+00
         0.00000E+00
         0.00000E+00
         0.00000E+00
         0.00000E+00
         0.00000E+00
         0.00000E+00
         0.00000E+00
         0.00000E+00
         0.00000E+00
         0.00000E+00
         0.00000E+00
         0.00000E+00
         0.00000E+00
         0.00000E+00
         0.00000E+00
         0.00000E+00
         0.00000E+00
         0.00000E+00
         0.00000E+00
         0.00000E+00
         0.00000E+00
         0.00000E+00
         0.00000E+00
         0.00000E+00
         0.00000E+00
         0.00000E+00
         0.00000E+00
         0.00000E+00
         0.00000E+00
         0.00000E+00
         0.00000E+00
         0.00000E+00
         0.00000E+00
         0.00000E+00
         0.00000E+00
         0.00000E+00
         0.00000E+00
         0.00000E+00
         0.00000E+00
         0.00000E+00
         0.00000E+00
         0.00000E+00
         0.00000E+00
         0.00000E+00
         0.00000E+00
         0.00000E+00
         0.00000E+00
         0.00000E+00
         0.00000E+00
         0.00000E+00
         0.00000E+00
         0.00000E+00
         0.00000E+00
         0.00000E+00
         0.00000E+00
         0.00000E+00
         0.00000E+00
         0.00000E+00
         0.00000E+00
         0.00000E+00
         0.00000E+00
         0.00000E+00
         0.00000E+00
         0.00000E+00
         0.00000E+00
         0.00000E+00
         0.00000E+00
         0.00000E+00
         0.00000E+00
         0.00000E+00
         0.00000E+00
         0.00000E+00
         0.00000E+00
         0.00000E+00
         0.00000E+00
         0.00000E+00
         0.00000E+00
         0.00000E+00
         0.00000E+00
         0.00000E+00
         0.00000E+00
         0.00000E+00
         0.00000E+00
         0.00000E+00
         0.00000E+00
         0.00000E+00
         0.00000E+00
         0.00000E+00
         0.00000E+00
         0.00000E+00
         0.00000E+00
         0.00000E+00
         0.00000E+00
         0.00000E+00
         0.00000E+00
         0.00000E+00
         0.00000E+00
         0.00000E+00
         0.00000E+00
         0.00000E+00
         0.00000E+00
         0.00000E+00
         0.00000E+00
         0.00000E+00
         0.00000E+00
         0.00000E+00
         0.00000E+00
         0.00000E+00
         0.00000E+00
         0.00000E+00
         0.00000E+00
         0.00000E+00
         0.00000E+00
         0.00000E+00
         0.00000E+00
         0.00000E+00
         0.00000E+00
         0.00000E+00
         0.00000E+00
         0.00000E+00
         0.00000E+00
         0.00000E+00
         0.00000E+00
         0.00000E+00
         0.00000E+00
         0.00000E+00
         0.00000E+00
         0.00000E+00
         0.00000E+00
         0.00000E+00
         0.00000E+00
         0.00000E+00
         0.00000E+00
         0.00000E+00
         0.00000E+00
         0.00000E+00
         0.00000E+00
         0.00000E+00
         0.00000E+00
         0.00000E+00
         0.00000E+00
         0.00000E+00
         0.00000E+00
         0.00000E+00
         0.00000E+00
         0.00000E+00
         0.00000E+00
         0.00000E+00
         0.00000E+00
         0.00000E+00
         0.00000E+00
         0.00000E+00
         0.00000E+00
         0.00000E+00
         0.00000E+00
         0.00000E+00
         0.00000E+00
         0.00000E+00
         0.00000E+00
         0.00000E+00
         0.00000E+00
         0.00000E+00
         0.00000E+00
         0.00000E+00
         0.00000E+00
         0.00000E+00
         0.00000E+00
         0.00000E+00
         0.00000E+00
         0.00000E+00
         0.00000E+00
         0.00000E+00
         0.00000E+00
         0.00000E+00
         0.00000E+00
         0.00000E+00
         0.00000E+00
         0.00000E+00
         0.00000E+00
         0.00000E+00
         0.00000E+00
         0.00000E+00
         0.00000E+00
         0.00000E+00
         0.00000E+00
         0.00000E+00
         0.00000E+00
         0.00000E+00
         0.00000E+00
         0.00000E+00
         0.00000E+00
         0.00000E+00
         0.00000E+00
         0.00000E+00
         0.00000E+00
         0.00000E+00
         0.00000E+00
         0.00000E+00
         0.00000E+00
         0.00000E+00
         0.00000E+00
         0.00000E+00
         0.00000E+00
         0.00000E+00
         0.00000E+00
         0.00000E+00
         0.00000E+00
         0.00000E+00
         0.00000E+00
         0.00000E+00
         0.00000E+00
         0.00000E+00
         0.00000E+00
         0.00000E+00
         0.00000E+00
         0.00000E+00
         0.00000E+00
         0.00000E+00
         0.00000E+00
         0.00000E+00
         0.00000E+00
         0.00000E+00
         0.00000E+00
         0.00000E+00
         0.00000E+00
         0.00000E+00
         0.00000E+00
         0.00000E+00
         0.00000E+00
         0.00000E+00
         0.00000E+00
         0.00000E+00
         0.00000E+00
         0.00000E+00
         0.00000E+00
         0.00000E+00
         0.00000E+00
         0.00000E+00
         0.00000E+00
         0.00000E+00
         0.00000E+00
         0.00000E+00
         0.00000E+00
         0.00000E+00
         0.00000E+00
         0.00000E+00
         0.00000E+00
         0.00000E+00
         0.00000E+00
         0.00000E+00
         0.00000E+00
         0.00000E+00
         0.00000E+00
         0.00000E+00
         0.00000E+00
         0.00000E+00
         0.00000E+00
         0.00000E+00
         0.00000E+00
         0.00000E+00
         0.00000E+00
         0.00000E+00
         0.00000E+00
         0.00000E+00
         0.00000E+00
         0.00000E+00
         0.00000E+00
         0.00000E+00
         0.00000E+00
         0.00000E+00
         0.00000E+00
         0.00000E+00
         0.00000E+00
         0.00000E+00
         0.00000E+00
         0.00000E+00
         0.00000E+00
         0.00000E+00
         0.00000E+00
         0.00000E+00
         0.00000E+00
         0.00000E+00
         0.00000E+00
         0.00000E+00
         0.00000E+00
         0.00000E+00
         0.00000E+00
         0.00000E+00
         0.00000E+00
         0.00000E+00
         0.00000E+00
         0.00000E+00
         0.00000E+00
         0.00000E+00
         0.00000E+00
         0.00000E+00
         0.00000E+00
         0.00000E+00
         0.00000E+00
         0.00000E+00
         0.00000E+00
         0.00000E+00
         0.00000E+00
         0.00000E+00
         0.00000E+00
         0.00000E+00
         0.00000E+00
         0.00000E+00
         0.00000E+00
         0.00000E+00
         0.00000E+00
         0.00000E+00
         0.00000E+00
         0.00000E+00
         0.00000E+00
         0.00000E+00
         0.00000E+00
         0.00000E+00
         0.00000E+00
         0.00000E+00
         0.00000E+00
         0.00000E+00
         0.00000E+00
         0.00000E+00
         0.00000E+00
         0.00000E+00
         0.00000E+00
         0.00000E+00
         0.00000E+00
         0.00000E+00
         0.00000E+00
         0.00000E+00
         0.00000E+00
         0.00000E+00
         0.00000E+00
         0.00000E+00
         0.00000E+00
         0.00000E+00
         0.00000E+00
         0.00000E+00
         0.00000E+00
         0.00000E+00
         0.00000E+00
         0.00000E+00
         0.00000E+00
         0.00000E+00
         0.00000E+00
         0.00000E+00
         0.00000E+00
         0.00000E+00
         0.00000E+00
         0.00000E+00
         0.00000E+00
         0.00000E+00
         0.00000E+00
         0.00000E+00
         0.00000E+00
         0.00000E+00
         0.00000E+00
         0.00000E+00
         0.00000E+00
         0.00000E+00
         0.00000E+00
         0.00000E+00
         0.00000E+00
         0.00000E+00
         0.00000E+00
         0.00000E+00
         0.00000E+00
         0.00000E+00
         0.00000E+00
         0.00000E+00
         0.00000E+00
         0.00000E+00
         0.00000E+00
         0.00000E+00
         0.00000E+00
         0.00000E+00
         0.00000E+00
         0.00000E+00
         0.00000E+00
         0.00000E+00
         0.00000E+00
         0.00000E+00
         0.00000E+00
         0.00000E+00
         0.00000E+00
         0.00000E+00
         0.00000E+00
         0.00000E+00
         0.00000E+00
         0.00000E+00
         0.00000E+00
         0.00000E+00
         0.00000E+00
         0.00000E+00
         0.00000E+00
         0.00000E+00
         0.00000E+00
         0.00000E+00
         0.00000E+00
         0.00000E+00
         0.00000E+00
         0.00000E+00
         0.00000E+00
         0.00000E+00
         0.00000E+00
         0.00000E+00
         0.00000E+00
         0.00000E+00
         0.00000E+00
         0.00000E+00
         0.00000E+00
         0.00000E+00
         0.00000E+00
         0.00000E+00
         0.00000E+00
         0.00000E+00
         0.00000E+00
         0.00000E+00
         0.00000E+00
         0.00000E+00
         0.00000E+00
         0.00000E+00
         0.00000E+00
         0.00000E+00
         0.00000E+00
         0.00000E+00
         0.00000E+00
         0.00000E+00
         0.00000E+00
         0.00000E+00
         0.00000E+00
         0.00000E+00
         0.00000E+00
         0.00000E+00
         0.00000E+00
         0.00000E+00
         0.00000E+00
         0.00000E+00
         0.00000E+00
         0.00000E+00
         0.00000E+00
         0.00000E+00
         0.00000E+00
         0.00000E+00
         0.00000E+00
         0.00000E+00
         0.00000E+00
         0.00000E+00
         0.00000E+00
         0.00000E+00
         0.00000E+00
         0.00000E+00
         0.00000E+00
         0.00000E+00
         0.00000E+00
         0.00000E+00
         0.00000E+00
         0.00000E+00
         0.00000E+00
         0.00000E+00
         0.00000E+00
         0.00000E+00
         0.00000E+00
         0.00000E+00
         0.00000E+00
         0.00000E+00
         0.00000E+00
         0.00000E+00
         0.00000E+00
         0.00000E+00
         0.00000E+00
         0.00000E+00
         0.00000E+00
         0.00000E+00
         0.00000E+00
         0.00000E+00
         0.00000E+00
         0.00000E+00
         0.00000E+00
         0.00000E+00
         0.00000E+00
         0.00000E+00
         0.00000E+00
         0.00000E+00
         0.00000E+00
         0.00000E+00
         0.00000E+00
         0.00000E+00
         0.00000E+00
         0.00000E+00
         0.00000E+00
         0.00000E+00
         0.00000E+00
         0.00000E+00
         0.00000E+00
         0.00000E+00
         0.00000E+00
         0.00000E+00
         0.00000E+00
         0.00000E+00
         0.00000E+00
         0.00000E+00
         0.00000E+00
         0.00000E+00
         0.00000E+00
         0.00000E+00
         0.00000E+00
         0.00000E+00
         0.00000E+00
         0.00000E+00
         0.00000E+00
         0.00000E+00
         0.00000E+00
         0.00000E+00
         0.00000E+00
         0.00000E+00
         0.00000E+00
         0.00000E+00
         0.00000E+00
         0.00000E+00
         0.00000E+00
         0.00000E+00
         0.00000E+00
         0.00000E+00
         0.00000E+00
         0.00000E+00
         0.00000E+00
         0.00000E+00
         0.00000E+00
         0.00000E+00
         0.00000E+00
         0.00000E+00
         0.00000E+00
         0.00000E+00
         0.00000E+00
         0.00000E+00
         0.00000E+00
         0.00000E+00
         0.00000E+00
         0.00000E+00
         0.00000E+00
         0.00000E+00
         0.00000E+00
         0.00000E+00
         0.00000E+00
         0.00000E+00
         0.00000E+00
         0.00000E+00
         0.00000E+00
         0.00000E+00
         0.00000E+00
         0.00000E+00
         0.00000E+00
         0.00000E+00
         0.00000E+00
         0.00000E+00
         0.00000E+00
         0.00000E+00
         0.00000E+00
         0.00000E+00
         0.00000E+00
         0.00000E+00
         0.00000E+00
         0.00000E+00
         0.00000E+00
         0.00000E+00
         0.00000E+00
         0.00000E+00
         0.00000E+00
         0.00000E+00
         0.00000E+00
         0.00000E+00
         0.00000E+00
         0.00000E+00
         0.00000E+00
         0.00000E+00
         0.00000E+00
         0.00000E+00
         0.00000E+00
         0.00000E+00
         0.00000E+00
         0.00000E+00
         0.00000E+00
         0.00000E+00
         0.00000E+00
         0.00000E+00
         0.00000E+00
         0.00000E+00
         0.00000E+00
         0.00000E+00
         0.00000E+00
         0.00000E+00
         0.00000E+00
         0.00000E+00
         0.00000E+00
         0.00000E+00
         0.00000E+00
         0.00000E+00
         0.00000E+00
         0.00000E+00
         0.00000E+00
         0.00000E+00
         0.00000E+00
         0.00000E+00
         0.00000E+00
         0.00000E+00
         0.00000E+00
         0.00000E+00
         0.00000E+00
         0.00000E+00
         0.00000E+00
         0.00000E+00
         0.00000E+00
         0.00000E+00
         0.00000E+00
         0.00000E+00
  
SCALARS                init_velocity_y  double 1
LOOKUP_TABLE default
         0.00000E+00
         0.00000E+00
         0.00000E+00
         0.00000E+00
         0.00000E+00
         0.00000E+00
         0.00000E+00
         0.00000E+00
         0.00000E+00
         0.00000E+00
         0.00000E+00
         0.00000E+00
         0.00000E+00
         0.00000E+00
         0.00000E+00
         0.00000E+00
         0.00000E+00
         0.00000E+00
         0.00000E+00
         0.00000E+00
         0.00000E+00
         0.00000E+00
         0.00000E+00
         0.00000E+00
         0.00000E+00
         0.00000E+00
         0.00000E+00
         0.00000E+00
         0.00000E+00
         0.00000E+00
         0.00000E+00
         0.00000E+00
         0.00000E+00
         0.00000E+00
         0.00000E+00
         0.00000E+00
         0.00000E+00
         0.00000E+00
         0.00000E+00
         0.00000E+00
         0.00000E+00
         0.00000E+00
         0.00000E+00
         0.00000E+00
         0.00000E+00
         0.00000E+00
         0.00000E+00
         0.00000E+00
         0.00000E+00
         0.00000E+00
         0.00000E+00
         0.00000E+00
         0.00000E+00
         0.00000E+00
         0.00000E+00
         0.00000E+00
         0.00000E+00
         0.00000E+00
         0.00000E+00
         0.00000E+00
         0.00000E+00
         0.00000E+00
         0.00000E+00
         0.00000E+00
         0.00000E+00
         0.00000E+00
         0.00000E+00
         0.00000E+00
         0.00000E+00
         0.00000E+00
         0.00000E+00
         0.00000E+00
         0.00000E+00
         0.00000E+00
         0.00000E+00
         0.00000E+00
         0.00000E+00
         0.00000E+00
         0.00000E+00
         0.00000E+00
         0.00000E+00
         0.00000E+00
         0.00000E+00
         0.00000E+00
         0.00000E+00
         0.00000E+00
         0.00000E+00
         0.00000E+00
         0.00000E+00
         0.00000E+00
         0.00000E+00
         0.00000E+00
         0.00000E+00
         0.00000E+00
         0.00000E+00
         0.00000E+00
         0.00000E+00
         0.00000E+00
         0.00000E+00
         0.00000E+00
         0.00000E+00
         0.00000E+00
         0.00000E+00
         0.00000E+00
         0.00000E+00
         0.00000E+00
         0.00000E+00
         0.00000E+00
         0.00000E+00
         0.00000E+00
         0.00000E+00
         0.00000E+00
         0.00000E+00
         0.00000E+00
         0.00000E+00
         0.00000E+00
         0.00000E+00
         0.00000E+00
         0.00000E+00
         0.00000E+00
         0.00000E+00
         0.00000E+00
         0.00000E+00
         0.00000E+00
         0.00000E+00
         0.00000E+00
         0.00000E+00
         0.00000E+00
         0.00000E+00
         0.00000E+00
         0.00000E+00
         0.00000E+00
         0.00000E+00
         0.00000E+00
         0.00000E+00
         0.00000E+00
         0.00000E+00
         0.00000E+00
         0.00000E+00
         0.00000E+00
         0.00000E+00
         0.00000E+00
         0.00000E+00
         0.00000E+00
         0.00000E+00
         0.00000E+00
         0.00000E+00
         0.00000E+00
         0.00000E+00
         0.00000E+00
         0.00000E+00
         0.00000E+00
         0.00000E+00
         0.00000E+00
         0.00000E+00
         0.00000E+00
         0.00000E+00
         0.00000E+00
         0.00000E+00
         0.00000E+00
         0.00000E+00
         0.00000E+00
         0.00000E+00
         0.00000E+00
         0.00000E+00
         0.00000E+00
         0.00000E+00
         0.00000E+00
         0.00000E+00
         0.00000E+00
         0.00000E+00
         0.00000E+00
         0.00000E+00
         0.00000E+00
         0.00000E+00
         0.00000E+00
         0.00000E+00
         0.00000E+00
         0.00000E+00
         0.00000E+00
         0.00000E+00
         0.00000E+00
         0.00000E+00
         0.00000E+00
         0.00000E+00
         0.00000E+00
         0.00000E+00
         0.00000E+00
         0.00000E+00
         0.00000E+00
         0.00000E+00
         0.00000E+00
         0.00000E+00
         0.00000E+00
         0.00000E+00
         0.00000E+00
         0.00000E+00
         0.00000E+00
         0.00000E+00
         0.00000E+00
         0.00000E+00
         0.00000E+00
         0.00000E+00
         0.00000E+00
         0.00000E+00
         0.00000E+00
         0.00000E+00
         0.00000E+00
         0.00000E+00
         0.00000E+00
         0.00000E+00
         0.00000E+00
         0.00000E+00
         0.00000E+00
         0.00000E+00
         0.00000E+00
         0.00000E+00
         0.00000E+00
         0.00000E+00
         0.00000E+00
         0.00000E+00
         0.00000E+00
         0.00000E+00
         0.00000E+00
         0.00000E+00
         0.00000E+00
         0.00000E+00
         0.00000E+00
         0.00000E+00
         0.00000E+00
         0.00000E+00
         0.00000E+00
         0.00000E+00
         0.00000E+00
         0.00000E+00
         0.00000E+00
         0.00000E+00
         0.00000E+00
         0.00000E+00
         0.00000E+00
         0.00000E+00
         0.00000E+00
         0.00000E+00
         0.00000E+00
         0.00000E+00
         0.00000E+00
         0.00000E+00
         0.00000E+00
         0.00000E+00
         0.00000E+00
         0.00000E+00
         0.00000E+00
         0.00000E+00
         0.00000E+00
         0.00000E+00
         0.00000E+00
         0.00000E+00
         0.00000E+00
         0.00000E+00
         0.00000E+00
         0.00000E+00
         0.00000E+00
         0.00000E+00
         0.00000E+00
         0.00000E+00
         0.00000E+00
         0.00000E+00
         0.00000E+00
         0.00000E+00
         0.00000E+00
         0.00000E+00
         0.00000E+00
         0.00000E+00
         0.00000E+00
         0.00000E+00
         0.00000E+00
         0.00000E+00
         0.00000E+00
         0.00000E+00
         0.00000E+00
         0.00000E+00
         0.00000E+00
         0.00000E+00
         0.00000E+00
         0.00000E+00
         0.00000E+00
         0.00000E+00
         0.00000E+00
         0.00000E+00
         0.00000E+00
         0.00000E+00
         0.00000E+00
         0.00000E+00
         0.00000E+00
         0.00000E+00
         0.00000E+00
         0.00000E+00
         0.00000E+00
         0.00000E+00
         0.00000E+00
         0.00000E+00
         0.00000E+00
         0.00000E+00
         0.00000E+00
         0.00000E+00
         0.00000E+00
         0.00000E+00
         0.00000E+00
         0.00000E+00
         0.00000E+00
         0.00000E+00
         0.00000E+00
         0.00000E+00
         0.00000E+00
         0.00000E+00
         0.00000E+00
         0.00000E+00
         0.00000E+00
         0.00000E+00
         0.00000E+00
         0.00000E+00
         0.00000E+00
         0.00000E+00
         0.00000E+00
         0.00000E+00
         0.00000E+00
         0.00000E+00
         0.00000E+00
         0.00000E+00
         0.00000E+00
         0.00000E+00
         0.00000E+00
         0.00000E+00
         0.00000E+00
         0.00000E+00
         0.00000E+00
         0.00000E+00
         0.00000E+00
         0.00000E+00
         0.00000E+00
         0.00000E+00
         0.00000E+00
         0.00000E+00
         0.00000E+00
         0.00000E+00
         0.00000E+00
         0.00000E+00
         0.00000E+00
         0.00000E+00
         0.00000E+00
         0.00000E+00
         0.00000E+00
         0.00000E+00
         0.00000E+00
         0.00000E+00
         0.00000E+00
         0.00000E+00
         0.00000E+00
         0.00000E+00
         0.00000E+00
         0.00000E+00
         0.00000E+00
         0.00000E+00
         0.00000E+00
         0.00000E+00
         0.00000E+00
         0.00000E+00
         0.00000E+00
         0.00000E+00
         0.00000E+00
         0.00000E+00
         0.00000E+00
         0.00000E+00
         0.00000E+00
         0.00000E+00
         0.00000E+00
         0.00000E+00
         0.00000E+00
         0.00000E+00
         0.00000E+00
         0.00000E+00
         0.00000E+00
         0.00000E+00
         0.00000E+00
         0.00000E+00
         0.00000E+00
         0.00000E+00
         0.00000E+00
         0.00000E+00
         0.00000E+00
         0.00000E+00
         0.00000E+00
         0.00000E+00
         0.00000E+00
         0.00000E+00
         0.00000E+00
         0.00000E+00
         0.00000E+00
         0.00000E+00
         0.00000E+00
         0.00000E+00
         0.00000E+00
         0.00000E+00
         0.00000E+00
         0.00000E+00
         0.00000E+00
         0.00000E+00
         0.00000E+00
         0.00000E+00
         0.00000E+00
         0.00000E+00
         0.00000E+00
         0.00000E+00
         0.00000E+00
         0.00000E+00
         0.00000E+00
         0.00000E+00
         0.00000E+00
         0.00000E+00
         0.00000E+00
         0.00000E+00
         0.00000E+00
         0.00000E+00
         0.00000E+00
         0.00000E+00
         0.00000E+00
         0.00000E+00
         0.00000E+00
         0.00000E+00
         0.00000E+00
         0.00000E+00
         0.00000E+00
         0.00000E+00
         0.00000E+00
         0.00000E+00
         0.00000E+00
         0.00000E+00
         0.00000E+00
         0.00000E+00
         0.00000E+00
         0.00000E+00
         0.00000E+00
         0.00000E+00
         0.00000E+00
         0.00000E+00
         0.00000E+00
         0.00000E+00
         0.00000E+00
         0.00000E+00
         0.00000E+00
         0.00000E+00
         0.00000E+00
         0.00000E+00
         0.00000E+00
         0.00000E+00
         0.00000E+00
         0.00000E+00
         0.00000E+00
         0.00000E+00
         0.00000E+00
         0.00000E+00
         0.00000E+00
         0.00000E+00
         0.00000E+00
         0.00000E+00
         0.00000E+00
         0.00000E+00
         0.00000E+00
         0.00000E+00
         0.00000E+00
         0.00000E+00
         0.00000E+00
         0.00000E+00
         0.00000E+00
         0.00000E+00
         0.00000E+00
         0.00000E+00
         0.00000E+00
         0.00000E+00
         0.00000E+00
         0.00000E+00
         0.00000E+00
         0.00000E+00
         0.00000E+00
         0.00000E+00
         0.00000E+00
         0.00000E+00
         0.00000E+00
         0.00000E+00
         0.00000E+00
         0.00000E+00
         0.00000E+00
         0.00000E+00
         0.00000E+00
         0.00000E+00
         0.00000E+00
         0.00000E+00
         0.00000E+00
         0.00000E+00
         0.00000E+00
         0.00000E+00
         0.00000E+00
         0.00000E+00
         0.00000E+00
         0.00000E+00
         0.00000E+00
         0.00000E+00
         0.00000E+00
         0.00000E+00
         0.00000E+00
         0.00000E+00
         0.00000E+00
         0.00000E+00
         0.00000E+00
         0.00000E+00
         0.00000E+00
         0.00000E+00
         0.00000E+00
         0.00000E+00
         0.00000E+00
         0.00000E+00
         0.00000E+00
         0.00000E+00
         0.00000E+00
         0.00000E+00
         0.00000E+00
         0.00000E+00
         0.00000E+00
         0.00000E+00
         0.00000E+00
         0.00000E+00
         0.00000E+00
         0.00000E+00
         0.00000E+00
         0.00000E+00
         0.00000E+00
         0.00000E+00
         0.00000E+00
         0.00000E+00
         0.00000E+00
         0.00000E+00
         0.00000E+00
         0.00000E+00
         0.00000E+00
         0.00000E+00
         0.00000E+00
         0.00000E+00
         0.00000E+00
         0.00000E+00
         0.00000E+00
         0.00000E+00
         0.00000E+00
         0.00000E+00
         0.00000E+00
         0.00000E+00
         0.00000E+00
         0.00000E+00
         0.00000E+00
         0.00000E+00
         0.00000E+00
         0.00000E+00
         0.00000E+00
         0.00000E+00
         0.00000E+00
         0.00000E+00
         0.00000E+00
         0.00000E+00
         0.00000E+00
         0.00000E+00
         0.00000E+00
         0.00000E+00
         0.00000E+00
         0.00000E+00
         0.00000E+00
         0.00000E+00
         0.00000E+00
         0.00000E+00
         0.00000E+00
         0.00000E+00
         0.00000E+00
         0.00000E+00
         0.00000E+00
         0.00000E+00
         0.00000E+00
         0.00000E+00
         0.00000E+00
         0.00000E+00
         0.00000E+00
         0.00000E+00
         0.00000E+00
         0.00000E+00
         0.00000E+00
         0.00000E+00
         0.00000E+00
         0.00000E+00
         0.00000E+00
         0.00000E+00
         0.00000E+00
         0.00000E+00
         0.00000E+00
         0.00000E+00
         0.00000E+00
         0.00000E+00
         0.00000E+00
         0.00000E+00
         0.00000E+00
         0.00000E+00
         0.00000E+00
         0.00000E+00
         0.00000E+00
         0.00000E+00
         0.00000E+00
         0.00000E+00
         0.00000E+00
         0.00000E+00
         0.00000E+00
         0.00000E+00
         0.00000E+00
         0.00000E+00
         0.00000E+00
         0.00000E+00
         0.00000E+00
         0.00000E+00
         0.00000E+00
         0.00000E+00
         0.00000E+00
         0.00000E+00
         0.00000E+00
         0.00000E+00
         0.00000E+00
         0.00000E+00
         0.00000E+00
         0.00000E+00
         0.00000E+00
         0.00000E+00
         0.00000E+00
         0.00000E+00
         0.00000E+00
         0.00000E+00
         0.00000E+00
         0.00000E+00
         0.00000E+00
         0.00000E+00
         0.00000E+00
         0.00000E+00
         0.00000E+00
         0.00000E+00
         0.00000E+00
         0.00000E+00
         0.00000E+00
         0.00000E+00
         0.00000E+00
         0.00000E+00
         0.00000E+00
         0.00000E+00
         0.00000E+00
         0.00000E+00
         0.00000E+00
         0.00000E+00
         0.00000E+00
         0.00000E+00
         0.00000E+00
         0.00000E+00
         0.00000E+00
         0.00000E+00
         0.00000E+00
         0.00000E+00
         0.00000E+00
         0.00000E+00
         0.00000E+00
         0.00000E+00
         0.00000E+00
         0.00000E+00
         0.00000E+00
         0.00000E+00
         0.00000E+00
         0.00000E+00
         0.00000E+00
         0.00000E+00
         0.00000E+00
         0.00000E+00
         0.00000E+00
         0.00000E+00
         0.00000E+00
         0.00000E+00
         0.00000E+00
         0.00000E+00
         0.00000E+00
         0.00000E+00
         0.00000E+00
         0.00000E+00
         0.00000E+00
         0.00000E+00
         0.00000E+00
         0.00000E+00
         0.00000E+00
         0.00000E+00
         0.00000E+00
         0.00000E+00
         0.00000E+00
         0.00000E+00
         0.00000E+00
         0.00000E+00
         0.00000E+00
         0.00000E+00
         0.00000E+00
         0.00000E+00
         0.00000E+00
         0.00000E+00
         0.00000E+00
         0.00000E+00
         0.00000E+00
         0.00000E+00
         0.00000E+00
         0.00000E+00
         0.00000E+00
         0.00000E+00
         0.00000E+00
         0.00000E+00
         0.00000E+00
         0.00000E+00
         0.00000E+00
         0.00000E+00
         0.00000E+00
         0.00000E+00
         0.00000E+00
         0.00000E+00
         0.00000E+00
         0.00000E+00
         0.00000E+00
         0.00000E+00
         0.00000E+00
         0.00000E+00
         0.00000E+00
         0.00000E+00
         0.00000E+00
         0.00000E+00
         0.00000E+00
         0.00000E+00
         0.00000E+00
         0.00000E+00
         0.00000E+00
         0.00000E+00
         0.00000E+00
         0.00000E+00
         0.00000E+00
         0.00000E+00
         0.00000E+00
         0.00000E+00
         0.00000E+00
         0.00000E+00
         0.00000E+00
         0.00000E+00
         0.00000E+00
         0.00000E+00
         0.00000E+00
         0.00000E+00
         0.00000E+00
         0.00000E+00
         0.00000E+00
         0.00000E+00
         0.00000E+00
         0.00000E+00
         0.00000E+00
         0.00000E+00
         0.00000E+00
         0.00000E+00
         0.00000E+00
         0.00000E+00
         0.00000E+00
         0.00000E+00
         0.00000E+00
         0.00000E+00
         0.00000E+00
         0.00000E+00
         0.00000E+00
         0.00000E+00
         0.00000E+00
         0.00000E+00
         0.00000E+00
         0.00000E+00
         0.00000E+00
         0.00000E+00
         0.00000E+00
         0.00000E+00
         0.00000E+00
         0.00000E+00
         0.00000E+00
         0.00000E+00
         0.00000E+00
         0.00000E+00
         0.00000E+00
         0.00000E+00
         0.00000E+00
         0.00000E+00
         0.00000E+00
         0.00000E+00
         0.00000E+00
         0.00000E+00
         0.00000E+00
         0.00000E+00
         0.00000E+00
         0.00000E+00
         0.00000E+00
         0.00000E+00
         0.00000E+00
         0.00000E+00
         0.00000E+00
         0.00000E+00
         0.00000E+00
         0.00000E+00
         0.00000E+00
         0.00000E+00
         0.00000E+00
         0.00000E+00
         0.00000E+00
         0.00000E+00
         0.00000E+00
         0.00000E+00
         0.00000E+00
         0.00000E+00
         0.00000E+00
         0.00000E+00
         0.00000E+00
         0.00000E+00
         0.00000E+00
         0.00000E+00
         0.00000E+00
         0.00000E+00
         0.00000E+00
         0.00000E+00
         0.00000E+00
         0.00000E+00
         0.00000E+00
         0.00000E+00
         0.00000E+00
         0.00000E+00
         0.00000E+00
         0.00000E+00
         0.00000E+00
         0.00000E+00
         0.00000E+00
         0.00000E+00
         0.00000E+00
         0.00000E+00
         0.00000E+00
         0.00000E+00
         0.00000E+00
         0.00000E+00
         0.00000E+00
         0.00000E+00
         0.00000E+00
         0.00000E+00
         0.00000E+00
         0.00000E+00
         0.00000E+00
         0.00000E+00
         0.00000E+00
         0.00000E+00
         0.00000E+00
         0.00000E+00
         0.00000E+00
         0.00000E+00
         0.00000E+00
         0.00000E+00
         0.00000E+00
         0.00000E+00
         0.00000E+00
         0.00000E+00
         0.00000E+00
         0.00000E+00
         0.00000E+00
         0.00000E+00
         0.00000E+00
         0.00000E+00
         0.00000E+00
         0.00000E+00
         0.00000E+00
         0.00000E+00
         0.00000E+00
         0.00000E+00
         0.00000E+00
         0.00000E+00
         0.00000E+00
         0.00000E+00
         0.00000E+00
         0.00000E+00
         0.00000E+00
         0.00000E+00
         0.00000E+00
         0.00000E+00
         0.00000E+00
         0.00000E+00
         0.00000E+00
         0.00000E+00
         0.00000E+00
         0.00000E+00
         0.00000E+00
         0.00000E+00
         0.00000E+00
         0.00000E+00
         0.00000E+00
         0.00000E+00
         0.00000E+00
         0.00000E+00
         0.00000E+00
         0.00000E+00
         0.00000E+00
         0.00000E+00
         0.00000E+00
         0.00000E+00
         0.00000E+00
         0.00000E+00
         0.00000E+00
         0.00000E+00
         0.00000E+00
         0.00000E+00
         0.00000E+00
         0.00000E+00
         0.00000E+00
         0.00000E+00
         0.00000E+00
         0.00000E+00
         0.00000E+00
         0.00000E+00
         0.00000E+00
         0.00000E+00
         0.00000E+00
         0.00000E+00
         0.00000E+00
         0.00000E+00
         0.00000E+00
         0.00000E+00
         0.00000E+00
         0.00000E+00
         0.00000E+00
         0.00000E+00
         0.00000E+00
         0.00000E+00
         0.00000E+00
         0.00000E+00
         0.00000E+00
         0.00000E+00
         0.00000E+00
         0.00000E+00
         0.00000E+00
         0.00000E+00
         0.00000E+00
         0.00000E+00
         0.00000E+00
         0.00000E+00
         0.00000E+00
         0.00000E+00
         0.00000E+00
         0.00000E+00
         0.00000E+00
         0.00000E+00
         0.00000E+00
         0.00000E+00
         0.00000E+00
         0.00000E+00
         0.00000E+00
         0.00000E+00
         0.00000E+00
         0.00000E+00
         0.00000E+00
         0.00000E+00
         0.00000E+00
         0.00000E+00
         0.00000E+00
         0.00000E+00
         0.00000E+00
         0.00000E+00
         0.00000E+00
         0.00000E+00
         0.00000E+00
         0.00000E+00
         0.00000E+00
         0.00000E+00
         0.00000E+00
         0.00000E+00
         0.00000E+00
         0.00000E+00
         0.00000E+00
         0.00000E+00
         0.00000E+00
         0.00000E+00
         0.00000E+00
         0.00000E+00
         0.00000E+00
         0.00000E+00
         0.00000E+00
         0.00000E+00
         0.00000E+00
         0.00000E+00
         0.00000E+00
         0.00000E+00
         0.00000E+00
         0.00000E+00
         0.00000E+00
         0.00000E+00
         0.00000E+00
         0.00000E+00
         0.00000E+00
         0.00000E+00
         0.00000E+00
         0.00000E+00
         0.00000E+00
         0.00000E+00
         0.00000E+00
         0.00000E+00
         0.00000E+00
         0.00000E+00
         0.00000E+00
         0.00000E+00
         0.00000E+00
         0.00000E+00
         0.00000E+00
         0.00000E+00
         0.00000E+00
         0.00000E+00
         0.00000E+00
         0.00000E+00
         0.00000E+00
         0.00000E+00
         0.00000E+00
         0.00000E+00
         0.00000E+00
         0.00000E+00
         0.00000E+00
         0.00000E+00
         0.00000E+00
         0.00000E+00
         0.00000E+00
         0.00000E+00
         0.00000E+00
         0.00000E+00
         0.00000E+00
         0.00000E+00
         0.00000E+00
         0.00000E+00
         0.00000E+00
         0.00000E+00
         0.00000E+00
         0.00000E+00
         0.00000E+00
         0.00000E+00
         0.00000E+00
         0.00000E+00
         0.00000E+00
         0.00000E+00
         0.00000E+00
         0.00000E+00
         0.00000E+00
         0.00000E+00
         0.00000E+00
         0.00000E+00
         0.00000E+00
         0.00000E+00
         0.00000E+00
         0.00000E+00
         0.00000E+00
         0.00000E+00
         0.00000E+00
         0.00000E+00
         0.00000E+00
         0.00000E+00
         0.00000E+00
         0.00000E+00
         0.00000E+00
         0.00000E+00
         0.00000E+00
         0.00000E+00
         0.00000E+00
         0.00000E+00
         0.00000E+00
         0.00000E+00
         0.00000E+00
         0.00000E+00
         0.00000E+00
         0.00000E+00
         0.00000E+00
         0.00000E+00
         0.00000E+00
         0.00000E+00
         0.00000E+00
         0.00000E+00
         0.00000E+00
         0.00000E+00
         0.00000E+00
         0.00000E+00
         0.00000E+00
         0.00000E+00
         0.00000E+00
         0.00000E+00
         0.00000E+00
         0.00000E+00
         0.00000E+00
         0.00000E+00
         0.00000E+00
         0.00000E+00
         0.00000E+00
         0.00000E+00
         0.00000E+00
         0.00000E+00
         0.00000E+00
         0.00000E+00
         0.00000E+00
         0.00000E+00
         0.00000E+00
         0.00000E+00
         0.00000E+00
         0.00000E+00
         0.00000E+00
         0.00000E+00
         0.00000E+00
         0.00000E+00
         0.00000E+00
         0.00000E+00
         0.00000E+00
         0.00000E+00
         0.00000E+00
         0.00000E+00
         0.00000E+00
         0.00000E+00
         0.00000E+00
         0.00000E+00
         0.00000E+00
         0.00000E+00
         0.00000E+00
         0.00000E+00
         0.00000E+00
         0.00000E+00
         0.00000E+00
         0.00000E+00
         0.00000E+00
         0.00000E+00
         0.00000E+00
         0.00000E+00
         0.00000E+00
         0.00000E+00
         0.00000E+00
         0.00000E+00
         0.00000E+00
         0.00000E+00
         0.00000E+00
         0.00000E+00
         0.00000E+00
         0.00000E+00
         0.00000E+00
         0.00000E+00
         0.00000E+00
         0.00000E+00
         0.00000E+00
         0.00000E+00
         0.00000E+00
         0.00000E+00
         0.00000E+00
         0.00000E+00
         0.00000E+00
         0.00000E+00
         0.00000E+00
         0.00000E+00
         0.00000E+00
         0.00000E+00
         0.00000E+00
         0.00000E+00
         0.00000E+00
         0.00000E+00
         0.00000E+00
         0.00000E+00
         0.00000E+00
         0.00000E+00
         0.00000E+00
         0.00000E+00
         0.00000E+00
         0.00000E+00
         0.00000E+00
         0.00000E+00
         0.00000E+00
         0.00000E+00
         0.00000E+00
         0.00000E+00
         0.00000E+00
         0.00000E+00
         0.00000E+00
         0.00000E+00
         0.00000E+00
         0.00000E+00
         0.00000E+00
         0.00000E+00
         0.00000E+00
         0.00000E+00
         0.00000E+00
         0.00000E+00
         0.00000E+00
         0.00000E+00
         0.00000E+00
         0.00000E+00
         0.00000E+00
         0.00000E+00
         0.00000E+00
         0.00000E+00
         0.00000E+00
         0.00000E+00
         0.00000E+00
         0.00000E+00
         0.00000E+00
         0.00000E+00
         0.00000E+00
         0.00000E+00
         0.00000E+00
         0.00000E+00
         0.00000E+00
         0.00000E+00
         0.00000E+00
         0.00000E+00
         0.00000E+00
         0.00000E+00
         0.00000E+00
         0.00000E+00
         0.00000E+00
         0.00000E+00
         0.00000E+00
         0.00000E+00
         0.00000E+00
         0.00000E+00
         0.00000E+00
         0.00000E+00
         0.00000E+00
         0.00000E+00
         0.00000E+00
         0.00000E+00
         0.00000E+00
         0.00000E+00
         0.00000E+00
         0.00000E+00
         0.00000E+00
         0.00000E+00
         0.00000E+00
         0.00000E+00
         0.00000E+00
         0.00000E+00
         0.00000E+00
         0.00000E+00
         0.00000E+00
         0.00000E+00
         0.00000E+00
         0.00000E+00
         0.00000E+00
         0.00000E+00
         0.00000E+00
         0.00000E+00
         0.00000E+00
         0.00000E+00
         0.00000E+00
         0.00000E+00
         0.00000E+00
         0.00000E+00
         0.00000E+00
         0.00000E+00
         0.00000E+00
         0.00000E+00
         0.00000E+00
         0.00000E+00
         0.00000E+00
         0.00000E+00
         0.00000E+00
         0.00000E+00
         0.00000E+00
         0.00000E+00
         0.00000E+00
         0.00000E+00
         0.00000E+00
         0.00000E+00
         0.00000E+00
         0.00000E+00
         0.00000E+00
         0.00000E+00
         0.00000E+00
         0.00000E+00
         0.00000E+00
         0.00000E+00
         0.00000E+00
         0.00000E+00
         0.00000E+00
         0.00000E+00
         0.00000E+00
         0.00000E+00
         0.00000E+00
         0.00000E+00
         0.00000E+00
         0.00000E+00
         0.00000E+00
         0.00000E+00
         0.00000E+00
         0.00000E+00
         0.00000E+00
         0.00000E+00
         0.00000E+00
         0.00000E+00
         0.00000E+00
         0.00000E+00
         0.00000E+00
         0.00000E+00
         0.00000E+00
         0.00000E+00
         0.00000E+00
         0.00000E+00
         0.00000E+00
         0.00000E+00
         0.00000E+00
         0.00000E+00
         0.00000E+00
         0.00000E+00
         0.00000E+00
         0.00000E+00
         0.00000E+00
         0.00000E+00
         0.00000E+00
         0.00000E+00
         0.00000E+00
         0.00000E+00
         0.00000E+00
         0.00000E+00
         0.00000E+00
         0.00000E+00
         0.00000E+00
         0.00000E+00
         0.00000E+00
         0.00000E+00
         0.00000E+00
         0.00000E+00
         0.00000E+00
         0.00000E+00
         0.00000E+00
         0.00000E+00
         0.00000E+00
         0.00000E+00
         0.00000E+00
         0.00000E+00
         0.00000E+00
         0.00000E+00
         0.00000E+00
         0.00000E+00
         0.00000E+00
         0.00000E+00
         0.00000E+00
         0.00000E+00
         0.00000E+00
         0.00000E+00
         0.00000E+00
         0.00000E+00
         0.00000E+00
         0.00000E+00
         0.00000E+00
         0.00000E+00
         0.00000E+00
         0.00000E+00
         0.00000E+00
         0.00000E+00
         0.00000E+00
         0.00000E+00
         0.00000E+00
         0.00000E+00
         0.00000E+00
         0.00000E+00
         0.00000E+00
         0.00000E+00
         0.00000E+00
         0.00000E+00
         0.00000E+00
         0.00000E+00
         0.00000E+00
         0.00000E+00
         0.00000E+00
         0.00000E+00
         0.00000E+00
         0.00000E+00
         0.00000E+00
         0.00000E+00
         0.00000E+00
         0.00000E+00
         0.00000E+00
         0.00000E+00
         0.00000E+00
         0.00000E+00
         0.00000E+00
         0.00000E+00
         0.00000E+00
         0.00000E+00
         0.00000E+00
         0.00000E+00
         0.00000E+00
         0.00000E+00
         0.00000E+00
         0.00000E+00
         0.00000E+00
         0.00000E+00
         0.00000E+00
         0.00000E+00
         0.00000E+00
         0.00000E+00
         0.00000E+00
         0.00000E+00
         0.00000E+00
         0.00000E+00
         0.00000E+00
         0.00000E+00
         0.00000E+00
         0.00000E+00
         0.00000E+00
         0.00000E+00
         0.00000E+00
         0.00000E+00
         0.00000E+00
         0.00000E+00
         0.00000E+00
         0.00000E+00
         0.00000E+00
         0.00000E+00
         0.00000E+00
         0.00000E+00
         0.00000E+00
         0.00000E+00
         0.00000E+00
         0.00000E+00
         0.00000E+00
         0.00000E+00
         0.00000E+00
         0.00000E+00
         0.00000E+00
         0.00000E+00
         0.00000E+00
         0.00000E+00
         0.00000E+00
         0.00000E+00
         0.00000E+00
         0.00000E+00
         0.00000E+00
         0.00000E+00
         0.00000E+00
         0.00000E+00
         0.00000E+00
         0.00000E+00
         0.00000E+00
         0.00000E+00
         0.00000E+00
         0.00000E+00
         0.00000E+00
         0.00000E+00
         0.00000E+00
         0.00000E+00
         0.00000E+00
         0.00000E+00
         0.00000E+00
         0.00000E+00
         0.00000E+00
         0.00000E+00
         0.00000E+00
         0.00000E+00
         0.00000E+00
         0.00000E+00
         0.00000E+00
         0.00000E+00
         0.00000E+00
         0.00000E+00
         0.00000E+00
         0.00000E+00
         0.00000E+00
         0.00000E+00
         0.00000E+00
         0.00000E+00
         0.00000E+00
         0.00000E+00
         0.00000E+00
         0.00000E+00
         0.00000E+00
         0.00000E+00
         0.00000E+00
         0.00000E+00
         0.00000E+00
         0.00000E+00
         0.00000E+00
         0.00000E+00
         0.00000E+00
         0.00000E+00
         0.00000E+00
         0.00000E+00
         0.00000E+00
         0.00000E+00
         0.00000E+00
         0.00000E+00
         0.00000E+00
         0.00000E+00
         0.00000E+00
         0.00000E+00
         0.00000E+00
         0.00000E+00
         0.00000E+00
         0.00000E+00
         0.00000E+00
         0.00000E+00
         0.00000E+00
         0.00000E+00
         0.00000E+00
         0.00000E+00
         0.00000E+00
         0.00000E+00
         0.00000E+00
         0.00000E+00
         0.00000E+00
         0.00000E+00
         0.00000E+00
         0.00000E+00
         0.00000E+00
         0.00000E+00
         0.00000E+00
         0.00000E+00
         0.00000E+00
         0.00000E+00
         0.00000E+00
         0.00000E+00
         0.00000E+00
         0.00000E+00
         0.00000E+00
         0.00000E+00
         0.00000E+00
         0.00000E+00
         0.00000E+00
         0.00000E+00
         0.00000E+00
         0.00000E+00
         0.00000E+00
         0.00000E+00
         0.00000E+00
         0.00000E+00
         0.00000E+00
         0.00000E+00
         0.00000E+00
         0.00000E+00
         0.00000E+00
         0.00000E+00
         0.00000E+00
         0.00000E+00
         0.00000E+00
         0.00000E+00
         0.00000E+00
         0.00000E+00
         0.00000E+00
         0.00000E+00
         0.00000E+00
         0.00000E+00
         0.00000E+00
         0.00000E+00
         0.00000E+00
         0.00000E+00
         0.00000E+00
         0.00000E+00
         0.00000E+00
         0.00000E+00
         0.00000E+00
         0.00000E+00
         0.00000E+00
         0.00000E+00
         0.00000E+00
         0.00000E+00
         0.00000E+00
         0.00000E+00
         0.00000E+00
         0.00000E+00
         0.00000E+00
         0.00000E+00
         0.00000E+00
         0.00000E+00
         0.00000E+00
         0.00000E+00
         0.00000E+00
         0.00000E+00
         0.00000E+00
         0.00000E+00
         0.00000E+00
         0.00000E+00
         0.00000E+00
         0.00000E+00
         0.00000E+00
         0.00000E+00
         0.00000E+00
         0.00000E+00
         0.00000E+00
         0.00000E+00
         0.00000E+00
         0.00000E+00
         0.00000E+00
         0.00000E+00
         0.00000E+00
         0.00000E+00
         0.00000E+00
         0.00000E+00
         0.00000E+00
         0.00000E+00
         0.00000E+00
         0.00000E+00
         0.00000E+00
         0.00000E+00
         0.00000E+00
         0.00000E+00
         0.00000E+00
         0.00000E+00
         0.00000E+00
         0.00000E+00
         0.00000E+00
         0.00000E+00
         0.00000E+00
         0.00000E+00
         0.00000E+00
         0.00000E+00
         0.00000E+00
         0.00000E+00
         0.00000E+00
         0.00000E+00
         0.00000E+00
         0.00000E+00
         0.00000E+00
         0.00000E+00
         0.00000E+00
         0.00000E+00
         0.00000E+00
         0.00000E+00
         0.00000E+00
         0.00000E+00
         0.00000E+00
         0.00000E+00
         0.00000E+00
         0.00000E+00
         0.00000E+00
         0.00000E+00
         0.00000E+00
         0.00000E+00
         0.00000E+00
         0.00000E+00
         0.00000E+00
         0.00000E+00
         0.00000E+00
         0.00000E+00
         0.00000E+00
         0.00000E+00
         0.00000E+00
         0.00000E+00
         0.00000E+00
         0.00000E+00
         0.00000E+00
         0.00000E+00
         0.00000E+00
         0.00000E+00
         0.00000E+00
         0.00000E+00
         0.00000E+00
         0.00000E+00
         0.00000E+00
         0.00000E+00
         0.00000E+00
         0.00000E+00
         0.00000E+00
         0.00000E+00
         0.00000E+00
         0.00000E+00
         0.00000E+00
         0.00000E+00
         0.00000E+00
         0.00000E+00
         0.00000E+00
         0.00000E+00
         0.00000E+00
         0.00000E+00
         0.00000E+00
         0.00000E+00
         0.00000E+00
         0.00000E+00
         0.00000E+00
         0.00000E+00
         0.00000E+00
         0.00000E+00
         0.00000E+00
         0.00000E+00
         0.00000E+00
         0.00000E+00
         0.00000E+00
         0.00000E+00
         0.00000E+00
         0.00000E+00
         0.00000E+00
         0.00000E+00
         0.00000E+00
         0.00000E+00
         0.00000E+00
         0.00000E+00
         0.00000E+00
         0.00000E+00
         0.00000E+00
         0.00000E+00
         0.00000E+00
         0.00000E+00
         0.00000E+00
         0.00000E+00
         0.00000E+00
         0.00000E+00
         0.00000E+00
         0.00000E+00
         0.00000E+00
         0.00000E+00
         0.00000E+00
         0.00000E+00
         0.00000E+00
         0.00000E+00
         0.00000E+00
         0.00000E+00
         0.00000E+00
         0.00000E+00
         0.00000E+00
         0.00000E+00
         0.00000E+00
         0.00000E+00
         0.00000E+00
         0.00000E+00
         0.00000E+00
         0.00000E+00
         0.00000E+00
         0.00000E+00
         0.00000E+00
         0.00000E+00
         0.00000E+00
         0.00000E+00
         0.00000E+00
         0.00000E+00
         0.00000E+00
         0.00000E+00
         0.00000E+00
         0.00000E+00
         0.00000E+00
         0.00000E+00
         0.00000E+00
         0.00000E+00
         0.00000E+00
         0.00000E+00
         0.00000E+00
         0.00000E+00
         0.00000E+00
         0.00000E+00
         0.00000E+00
         0.00000E+00
         0.00000E+00
         0.00000E+00
         0.00000E+00
         0.00000E+00
         0.00000E+00
         0.00000E+00
         0.00000E+00
         0.00000E+00
         0.00000E+00
         0.00000E+00
         0.00000E+00
         0.00000E+00
         0.00000E+00
         0.00000E+00
         0.00000E+00
         0.00000E+00
         0.00000E+00
         0.00000E+00
         0.00000E+00
         0.00000E+00
         0.00000E+00
         0.00000E+00
         0.00000E+00
         0.00000E+00
         0.00000E+00
         0.00000E+00
         0.00000E+00
         0.00000E+00
         0.00000E+00
         0.00000E+00
         0.00000E+00
         0.00000E+00
         0.00000E+00
         0.00000E+00
         0.00000E+00
         0.00000E+00
         0.00000E+00
         0.00000E+00
         0.00000E+00
         0.00000E+00
         0.00000E+00
         0.00000E+00
         0.00000E+00
         0.00000E+00
         0.00000E+00
         0.00000E+00
         0.00000E+00
         0.00000E+00
         0.00000E+00
         0.00000E+00
         0.00000E+00
         0.00000E+00
         0.00000E+00
         0.00000E+00
         0.00000E+00
         0.00000E+00
         0.00000E+00
         0.00000E+00
         0.00000E+00
         0.00000E+00
         0.00000E+00
         0.00000E+00
         0.00000E+00
         0.00000E+00
         0.00000E+00
         0.00000E+00
         0.00000E+00
         0.00000E+00
         0.00000E+00
         0.00000E+00
         0.00000E+00
         0.00000E+00
         0.00000E+00
         0.00000E+00
         0.00000E+00
         0.00000E+00
         0.00000E+00
         0.00000E+00
         0.00000E+00
         0.00000E+00
         0.00000E+00
         0.00000E+00
         0.00000E+00
         0.00000E+00
         0.00000E+00
         0.00000E+00
         0.00000E+00
         0.00000E+00
         0.00000E+00
         0.00000E+00
         0.00000E+00
         0.00000E+00
         0.00000E+00
         0.00000E+00
         0.00000E+00
         0.00000E+00
         0.00000E+00
         0.00000E+00
         0.00000E+00
         0.00000E+00
         0.00000E+00
         0.00000E+00
         0.00000E+00
         0.00000E+00
         0.00000E+00
         0.00000E+00
         0.00000E+00
         0.00000E+00
         0.00000E+00
         0.00000E+00
         0.00000E+00
         0.00000E+00
         0.00000E+00
         0.00000E+00
         0.00000E+00
         0.00000E+00
         0.00000E+00
         0.00000E+00
         0.00000E+00
         0.00000E+00
         0.00000E+00
         0.00000E+00
         0.00000E+00
         0.00000E+00
         0.00000E+00
         0.00000E+00
         0.00000E+00
         0.00000E+00
         0.00000E+00
         0.00000E+00
         0.00000E+00
         0.00000E+00
         0.00000E+00
         0.00000E+00
         0.00000E+00
         0.00000E+00
         0.00000E+00
         0.00000E+00
         0.00000E+00
         0.00000E+00
         0.00000E+00
         0.00000E+00
         0.00000E+00
         0.00000E+00
         0.00000E+00
         0.00000E+00
         0.00000E+00
         0.00000E+00
         0.00000E+00
         0.00000E+00
         0.00000E+00
         0.00000E+00
         0.00000E+00
         0.00000E+00
         0.00000E+00
         0.00000E+00
         0.00000E+00
         0.00000E+00
         0.00000E+00
         0.00000E+00
         0.00000E+00
         0.00000E+00
         0.00000E+00
         0.00000E+00
         0.00000E+00
         0.00000E+00
         0.00000E+00
         0.00000E+00
         0.00000E+00
         0.00000E+00
         0.00000E+00
         0.00000E+00
         0.00000E+00
         0.00000E+00
         0.00000E+00
         0.00000E+00
         0.00000E+00
         0.00000E+00
         0.00000E+00
         0.00000E+00
         0.00000E+00
         0.00000E+00
         0.00000E+00
         0.00000E+00
         0.00000E+00
         0.00000E+00
         0.00000E+00
         0.00000E+00
         0.00000E+00
         0.00000E+00
         0.00000E+00
         0.00000E+00
         0.00000E+00
         0.00000E+00
         0.00000E+00
         0.00000E+00
         0.00000E+00
         0.00000E+00
         0.00000E+00
  
SCALARS                init_velocity_z  double 1
LOOKUP_TABLE default
        -0.37300E+03
        -0.37300E+03
        -0.37300E+03
        -0.37300E+03
        -0.37300E+03
        -0.37300E+03
        -0.37300E+03
        -0.37300E+03
        -0.37300E+03
        -0.37300E+03
        -0.37300E+03
        -0.37300E+03
        -0.37300E+03
        -0.37300E+03
        -0.37300E+03
        -0.37300E+03
        -0.37300E+03
        -0.37300E+03
        -0.37300E+03
        -0.37300E+03
        -0.37300E+03
        -0.37300E+03
        -0.37300E+03
        -0.37300E+03
        -0.37300E+03
        -0.37300E+03
        -0.37300E+03
        -0.37300E+03
        -0.37300E+03
        -0.37300E+03
        -0.37300E+03
        -0.37300E+03
        -0.37300E+03
        -0.37300E+03
        -0.37300E+03
        -0.37300E+03
        -0.37300E+03
        -0.37300E+03
        -0.37300E+03
        -0.37300E+03
        -0.37300E+03
        -0.37300E+03
        -0.37300E+03
        -0.37300E+03
        -0.37300E+03
        -0.37300E+03
        -0.37300E+03
        -0.37300E+03
        -0.37300E+03
        -0.37300E+03
        -0.37300E+03
        -0.37300E+03
        -0.37300E+03
        -0.37300E+03
        -0.37300E+03
        -0.37300E+03
        -0.37300E+03
        -0.37300E+03
        -0.37300E+03
        -0.37300E+03
        -0.37300E+03
        -0.37300E+03
        -0.37300E+03
        -0.37300E+03
        -0.37300E+03
        -0.37300E+03
        -0.37300E+03
        -0.37300E+03
        -0.37300E+03
        -0.37300E+03
        -0.37300E+03
        -0.37300E+03
        -0.37300E+03
        -0.37300E+03
        -0.37300E+03
        -0.37300E+03
        -0.37300E+03
        -0.37300E+03
        -0.37300E+03
        -0.37300E+03
        -0.37300E+03
        -0.37300E+03
        -0.37300E+03
        -0.37300E+03
        -0.37300E+03
        -0.37300E+03
        -0.37300E+03
        -0.37300E+03
        -0.37300E+03
        -0.37300E+03
        -0.37300E+03
        -0.37300E+03
        -0.37300E+03
        -0.37300E+03
        -0.37300E+03
        -0.37300E+03
        -0.37300E+03
        -0.37300E+03
        -0.37300E+03
        -0.37300E+03
        -0.37300E+03
        -0.37300E+03
        -0.37300E+03
        -0.37300E+03
        -0.37300E+03
        -0.37300E+03
        -0.37300E+03
        -0.37300E+03
        -0.37300E+03
        -0.37300E+03
        -0.37300E+03
        -0.37300E+03
        -0.37300E+03
        -0.37300E+03
        -0.37300E+03
        -0.37300E+03
        -0.37300E+03
        -0.37300E+03
        -0.37300E+03
        -0.37300E+03
        -0.37300E+03
        -0.37300E+03
        -0.37300E+03
        -0.37300E+03
        -0.37300E+03
        -0.37300E+03
        -0.37300E+03
        -0.37300E+03
        -0.37300E+03
        -0.37300E+03
        -0.37300E+03
        -0.37300E+03
        -0.37300E+03
        -0.37300E+03
        -0.37300E+03
        -0.37300E+03
        -0.37300E+03
        -0.37300E+03
        -0.37300E+03
        -0.37300E+03
        -0.37300E+03
        -0.37300E+03
        -0.37300E+03
        -0.37300E+03
        -0.37300E+03
        -0.37300E+03
        -0.37300E+03
        -0.37300E+03
        -0.37300E+03
        -0.37300E+03
        -0.37300E+03
        -0.37300E+03
        -0.37300E+03
        -0.37300E+03
        -0.37300E+03
        -0.37300E+03
        -0.37300E+03
        -0.37300E+03
        -0.37300E+03
        -0.37300E+03
        -0.37300E+03
        -0.37300E+03
        -0.37300E+03
        -0.37300E+03
        -0.37300E+03
        -0.37300E+03
        -0.37300E+03
        -0.37300E+03
        -0.37300E+03
        -0.37300E+03
        -0.37300E+03
        -0.37300E+03
        -0.37300E+03
        -0.37300E+03
        -0.37300E+03
        -0.37300E+03
        -0.37300E+03
        -0.37300E+03
        -0.37300E+03
        -0.37300E+03
        -0.37300E+03
        -0.37300E+03
        -0.37300E+03
        -0.37300E+03
        -0.37300E+03
        -0.37300E+03
        -0.37300E+03
        -0.37300E+03
        -0.37300E+03
        -0.37300E+03
        -0.37300E+03
        -0.37300E+03
        -0.37300E+03
        -0.37300E+03
        -0.37300E+03
        -0.37300E+03
        -0.37300E+03
        -0.37300E+03
        -0.37300E+03
        -0.37300E+03
        -0.37300E+03
        -0.37300E+03
        -0.37300E+03
        -0.37300E+03
        -0.37300E+03
        -0.37300E+03
        -0.37300E+03
        -0.37300E+03
        -0.37300E+03
        -0.37300E+03
        -0.37300E+03
        -0.37300E+03
        -0.37300E+03
        -0.37300E+03
        -0.37300E+03
        -0.37300E+03
        -0.37300E+03
        -0.37300E+03
        -0.37300E+03
        -0.37300E+03
        -0.37300E+03
        -0.37300E+03
        -0.37300E+03
        -0.37300E+03
        -0.37300E+03
        -0.37300E+03
        -0.37300E+03
        -0.37300E+03
        -0.37300E+03
        -0.37300E+03
        -0.37300E+03
        -0.37300E+03
        -0.37300E+03
        -0.37300E+03
        -0.37300E+03
        -0.37300E+03
        -0.37300E+03
        -0.37300E+03
        -0.37300E+03
        -0.37300E+03
        -0.37300E+03
        -0.37300E+03
        -0.37300E+03
        -0.37300E+03
        -0.37300E+03
        -0.37300E+03
        -0.37300E+03
        -0.37300E+03
        -0.37300E+03
        -0.37300E+03
        -0.37300E+03
        -0.37300E+03
        -0.37300E+03
        -0.37300E+03
        -0.37300E+03
        -0.37300E+03
        -0.37300E+03
        -0.37300E+03
        -0.37300E+03
        -0.37300E+03
        -0.37300E+03
        -0.37300E+03
        -0.37300E+03
        -0.37300E+03
        -0.37300E+03
        -0.37300E+03
        -0.37300E+03
        -0.37300E+03
        -0.37300E+03
        -0.37300E+03
        -0.37300E+03
        -0.37300E+03
        -0.37300E+03
        -0.37300E+03
        -0.37300E+03
        -0.37300E+03
        -0.37300E+03
        -0.37300E+03
        -0.37300E+03
        -0.37300E+03
        -0.37300E+03
        -0.37300E+03
        -0.37300E+03
        -0.37300E+03
        -0.37300E+03
        -0.37300E+03
        -0.37300E+03
        -0.37300E+03
        -0.37300E+03
        -0.37300E+03
        -0.37300E+03
        -0.37300E+03
        -0.37300E+03
        -0.37300E+03
        -0.37300E+03
        -0.37300E+03
        -0.37300E+03
        -0.37300E+03
        -0.37300E+03
        -0.37300E+03
        -0.37300E+03
        -0.37300E+03
        -0.37300E+03
        -0.37300E+03
        -0.37300E+03
        -0.37300E+03
        -0.37300E+03
        -0.37300E+03
        -0.37300E+03
        -0.37300E+03
        -0.37300E+03
        -0.37300E+03
        -0.37300E+03
        -0.37300E+03
        -0.37300E+03
        -0.37300E+03
        -0.37300E+03
        -0.37300E+03
        -0.37300E+03
        -0.37300E+03
        -0.37300E+03
        -0.37300E+03
        -0.37300E+03
        -0.37300E+03
        -0.37300E+03
        -0.37300E+03
        -0.37300E+03
        -0.37300E+03
        -0.37300E+03
        -0.37300E+03
        -0.37300E+03
        -0.37300E+03
        -0.37300E+03
        -0.37300E+03
        -0.37300E+03
        -0.37300E+03
        -0.37300E+03
        -0.37300E+03
        -0.37300E+03
        -0.37300E+03
        -0.37300E+03
        -0.37300E+03
        -0.37300E+03
        -0.37300E+03
        -0.37300E+03
        -0.37300E+03
        -0.37300E+03
        -0.37300E+03
        -0.37300E+03
        -0.37300E+03
        -0.37300E+03
        -0.37300E+03
        -0.37300E+03
        -0.37300E+03
        -0.37300E+03
        -0.37300E+03
        -0.37300E+03
        -0.37300E+03
        -0.37300E+03
        -0.37300E+03
        -0.37300E+03
        -0.37300E+03
        -0.37300E+03
        -0.37300E+03
        -0.37300E+03
        -0.37300E+03
        -0.37300E+03
        -0.37300E+03
        -0.37300E+03
        -0.37300E+03
        -0.37300E+03
        -0.37300E+03
        -0.37300E+03
        -0.37300E+03
        -0.37300E+03
        -0.37300E+03
        -0.37300E+03
        -0.37300E+03
        -0.37300E+03
        -0.37300E+03
        -0.37300E+03
        -0.37300E+03
        -0.37300E+03
        -0.37300E+03
        -0.37300E+03
        -0.37300E+03
        -0.37300E+03
        -0.37300E+03
        -0.37300E+03
        -0.37300E+03
        -0.37300E+03
        -0.37300E+03
        -0.37300E+03
        -0.37300E+03
        -0.37300E+03
        -0.37300E+03
        -0.37300E+03
        -0.37300E+03
        -0.37300E+03
        -0.37300E+03
        -0.37300E+03
        -0.37300E+03
        -0.37300E+03
        -0.37300E+03
        -0.37300E+03
        -0.37300E+03
        -0.37300E+03
        -0.37300E+03
        -0.37300E+03
        -0.37300E+03
        -0.37300E+03
        -0.37300E+03
        -0.37300E+03
        -0.37300E+03
        -0.37300E+03
        -0.37300E+03
        -0.37300E+03
        -0.37300E+03
        -0.37300E+03
        -0.37300E+03
        -0.37300E+03
        -0.37300E+03
        -0.37300E+03
        -0.37300E+03
        -0.37300E+03
        -0.37300E+03
        -0.37300E+03
        -0.37300E+03
        -0.37300E+03
        -0.37300E+03
        -0.37300E+03
        -0.37300E+03
        -0.37300E+03
        -0.37300E+03
        -0.37300E+03
        -0.37300E+03
        -0.37300E+03
        -0.37300E+03
        -0.37300E+03
        -0.37300E+03
        -0.37300E+03
        -0.37300E+03
        -0.37300E+03
        -0.37300E+03
        -0.37300E+03
        -0.37300E+03
        -0.37300E+03
        -0.37300E+03
        -0.37300E+03
        -0.37300E+03
        -0.37300E+03
        -0.37300E+03
        -0.37300E+03
        -0.37300E+03
        -0.37300E+03
        -0.37300E+03
        -0.37300E+03
        -0.37300E+03
        -0.37300E+03
        -0.37300E+03
        -0.37300E+03
        -0.37300E+03
        -0.37300E+03
        -0.37300E+03
        -0.37300E+03
        -0.37300E+03
        -0.37300E+03
        -0.37300E+03
        -0.37300E+03
        -0.37300E+03
        -0.37300E+03
        -0.37300E+03
        -0.37300E+03
        -0.37300E+03
        -0.37300E+03
        -0.37300E+03
        -0.37300E+03
        -0.37300E+03
        -0.37300E+03
        -0.37300E+03
        -0.37300E+03
        -0.37300E+03
        -0.37300E+03
        -0.37300E+03
        -0.37300E+03
        -0.37300E+03
        -0.37300E+03
        -0.37300E+03
        -0.37300E+03
        -0.37300E+03
        -0.37300E+03
        -0.37300E+03
        -0.37300E+03
        -0.37300E+03
        -0.37300E+03
        -0.37300E+03
        -0.37300E+03
        -0.37300E+03
        -0.37300E+03
        -0.37300E+03
        -0.37300E+03
        -0.37300E+03
        -0.37300E+03
        -0.37300E+03
        -0.37300E+03
        -0.37300E+03
        -0.37300E+03
        -0.37300E+03
        -0.37300E+03
        -0.37300E+03
        -0.37300E+03
        -0.37300E+03
        -0.37300E+03
        -0.37300E+03
        -0.37300E+03
        -0.37300E+03
        -0.37300E+03
        -0.37300E+03
        -0.37300E+03
        -0.37300E+03
        -0.37300E+03
        -0.37300E+03
        -0.37300E+03
        -0.37300E+03
        -0.37300E+03
        -0.37300E+03
        -0.37300E+03
        -0.37300E+03
        -0.37300E+03
        -0.37300E+03
        -0.37300E+03
        -0.37300E+03
        -0.37300E+03
        -0.37300E+03
        -0.37300E+03
        -0.37300E+03
        -0.37300E+03
        -0.37300E+03
        -0.37300E+03
        -0.37300E+03
        -0.37300E+03
        -0.37300E+03
        -0.37300E+03
        -0.37300E+03
        -0.37300E+03
        -0.37300E+03
        -0.37300E+03
        -0.37300E+03
        -0.37300E+03
        -0.37300E+03
        -0.37300E+03
        -0.37300E+03
        -0.37300E+03
        -0.37300E+03
        -0.37300E+03
        -0.37300E+03
        -0.37300E+03
        -0.37300E+03
        -0.37300E+03
        -0.37300E+03
        -0.37300E+03
        -0.37300E+03
        -0.37300E+03
        -0.37300E+03
        -0.37300E+03
        -0.37300E+03
        -0.37300E+03
        -0.37300E+03
        -0.37300E+03
        -0.37300E+03
        -0.37300E+03
        -0.37300E+03
        -0.37300E+03
        -0.37300E+03
        -0.37300E+03
        -0.37300E+03
        -0.37300E+03
        -0.37300E+03
        -0.37300E+03
        -0.37300E+03
        -0.37300E+03
        -0.37300E+03
        -0.37300E+03
        -0.37300E+03
        -0.37300E+03
        -0.37300E+03
        -0.37300E+03
        -0.37300E+03
        -0.37300E+03
        -0.37300E+03
        -0.37300E+03
        -0.37300E+03
        -0.37300E+03
        -0.37300E+03
        -0.37300E+03
        -0.37300E+03
        -0.37300E+03
        -0.37300E+03
        -0.37300E+03
        -0.37300E+03
        -0.37300E+03
        -0.37300E+03
        -0.37300E+03
        -0.37300E+03
        -0.37300E+03
        -0.37300E+03
        -0.37300E+03
        -0.37300E+03
        -0.37300E+03
        -0.37300E+03
        -0.37300E+03
        -0.37300E+03
        -0.37300E+03
        -0.37300E+03
        -0.37300E+03
        -0.37300E+03
        -0.37300E+03
        -0.37300E+03
        -0.37300E+03
        -0.37300E+03
        -0.37300E+03
        -0.37300E+03
        -0.37300E+03
        -0.37300E+03
        -0.37300E+03
        -0.37300E+03
        -0.37300E+03
        -0.37300E+03
        -0.37300E+03
        -0.37300E+03
        -0.37300E+03
        -0.37300E+03
        -0.37300E+03
        -0.37300E+03
        -0.37300E+03
        -0.37300E+03
        -0.37300E+03
        -0.37300E+03
        -0.37300E+03
        -0.37300E+03
        -0.37300E+03
        -0.37300E+03
        -0.37300E+03
        -0.37300E+03
        -0.37300E+03
        -0.37300E+03
        -0.37300E+03
        -0.37300E+03
        -0.37300E+03
        -0.37300E+03
        -0.37300E+03
        -0.37300E+03
        -0.37300E+03
        -0.37300E+03
        -0.37300E+03
        -0.37300E+03
        -0.37300E+03
        -0.37300E+03
        -0.37300E+03
        -0.37300E+03
        -0.37300E+03
        -0.37300E+03
        -0.37300E+03
        -0.37300E+03
        -0.37300E+03
        -0.37300E+03
        -0.37300E+03
        -0.37300E+03
        -0.37300E+03
        -0.37300E+03
        -0.37300E+03
        -0.37300E+03
        -0.37300E+03
        -0.37300E+03
        -0.37300E+03
        -0.37300E+03
        -0.37300E+03
        -0.37300E+03
        -0.37300E+03
        -0.37300E+03
        -0.37300E+03
        -0.37300E+03
        -0.37300E+03
        -0.37300E+03
        -0.37300E+03
        -0.37300E+03
        -0.37300E+03
        -0.37300E+03
        -0.37300E+03
        -0.37300E+03
        -0.37300E+03
        -0.37300E+03
        -0.37300E+03
        -0.37300E+03
        -0.37300E+03
        -0.37300E+03
        -0.37300E+03
        -0.37300E+03
        -0.37300E+03
        -0.37300E+03
        -0.37300E+03
        -0.37300E+03
        -0.37300E+03
        -0.37300E+03
        -0.37300E+03
        -0.37300E+03
        -0.37300E+03
        -0.37300E+03
        -0.37300E+03
        -0.37300E+03
        -0.37300E+03
        -0.37300E+03
        -0.37300E+03
        -0.37300E+03
        -0.37300E+03
        -0.37300E+03
        -0.37300E+03
        -0.37300E+03
        -0.37300E+03
        -0.37300E+03
        -0.37300E+03
        -0.37300E+03
        -0.37300E+03
        -0.37300E+03
        -0.37300E+03
        -0.37300E+03
        -0.37300E+03
        -0.37300E+03
        -0.37300E+03
        -0.37300E+03
        -0.37300E+03
        -0.37300E+03
        -0.37300E+03
        -0.37300E+03
        -0.37300E+03
        -0.37300E+03
        -0.37300E+03
        -0.37300E+03
        -0.37300E+03
        -0.37300E+03
        -0.37300E+03
        -0.37300E+03
        -0.37300E+03
        -0.37300E+03
        -0.37300E+03
        -0.37300E+03
        -0.37300E+03
        -0.37300E+03
        -0.37300E+03
        -0.37300E+03
        -0.37300E+03
        -0.37300E+03
        -0.37300E+03
        -0.37300E+03
        -0.37300E+03
        -0.37300E+03
        -0.37300E+03
        -0.37300E+03
        -0.37300E+03
        -0.37300E+03
        -0.37300E+03
        -0.37300E+03
        -0.37300E+03
        -0.37300E+03
        -0.37300E+03
        -0.37300E+03
        -0.37300E+03
        -0.37300E+03
        -0.37300E+03
        -0.37300E+03
        -0.37300E+03
        -0.37300E+03
        -0.37300E+03
        -0.37300E+03
        -0.37300E+03
        -0.37300E+03
        -0.37300E+03
        -0.37300E+03
        -0.37300E+03
        -0.37300E+03
        -0.37300E+03
        -0.37300E+03
        -0.37300E+03
        -0.37300E+03
        -0.37300E+03
        -0.37300E+03
        -0.37300E+03
        -0.37300E+03
        -0.37300E+03
        -0.37300E+03
        -0.37300E+03
        -0.37300E+03
        -0.37300E+03
        -0.37300E+03
        -0.37300E+03
        -0.37300E+03
        -0.37300E+03
        -0.37300E+03
        -0.37300E+03
        -0.37300E+03
        -0.37300E+03
        -0.37300E+03
        -0.37300E+03
        -0.37300E+03
        -0.37300E+03
        -0.37300E+03
        -0.37300E+03
        -0.37300E+03
        -0.37300E+03
        -0.37300E+03
        -0.37300E+03
        -0.37300E+03
        -0.37300E+03
        -0.37300E+03
        -0.37300E+03
        -0.37300E+03
        -0.37300E+03
        -0.37300E+03
        -0.37300E+03
        -0.37300E+03
        -0.37300E+03
        -0.37300E+03
        -0.37300E+03
        -0.37300E+03
        -0.37300E+03
        -0.37300E+03
        -0.37300E+03
        -0.37300E+03
        -0.37300E+03
        -0.37300E+03
        -0.37300E+03
        -0.37300E+03
        -0.37300E+03
        -0.37300E+03
        -0.37300E+03
        -0.37300E+03
        -0.37300E+03
        -0.37300E+03
        -0.37300E+03
        -0.37300E+03
        -0.37300E+03
        -0.37300E+03
        -0.37300E+03
        -0.37300E+03
        -0.37300E+03
        -0.37300E+03
        -0.37300E+03
        -0.37300E+03
        -0.37300E+03
        -0.37300E+03
        -0.37300E+03
        -0.37300E+03
        -0.37300E+03
        -0.37300E+03
        -0.37300E+03
        -0.37300E+03
        -0.37300E+03
        -0.37300E+03
        -0.37300E+03
        -0.37300E+03
        -0.37300E+03
        -0.37300E+03
        -0.37300E+03
        -0.37300E+03
        -0.37300E+03
        -0.37300E+03
        -0.37300E+03
        -0.37300E+03
        -0.37300E+03
        -0.37300E+03
        -0.37300E+03
        -0.37300E+03
        -0.37300E+03
        -0.37300E+03
        -0.37300E+03
        -0.37300E+03
        -0.37300E+03
        -0.37300E+03
        -0.37300E+03
        -0.37300E+03
        -0.37300E+03
        -0.37300E+03
        -0.37300E+03
        -0.37300E+03
        -0.37300E+03
        -0.37300E+03
        -0.37300E+03
        -0.37300E+03
        -0.37300E+03
        -0.37300E+03
        -0.37300E+03
        -0.37300E+03
        -0.37300E+03
        -0.37300E+03
        -0.37300E+03
        -0.37300E+03
        -0.37300E+03
        -0.37300E+03
        -0.37300E+03
        -0.37300E+03
        -0.37300E+03
        -0.37300E+03
        -0.37300E+03
        -0.37300E+03
        -0.37300E+03
        -0.37300E+03
        -0.37300E+03
        -0.37300E+03
        -0.37300E+03
        -0.37300E+03
        -0.37300E+03
        -0.37300E+03
        -0.37300E+03
        -0.37300E+03
        -0.37300E+03
        -0.37300E+03
        -0.37300E+03
        -0.37300E+03
        -0.37300E+03
        -0.37300E+03
        -0.37300E+03
        -0.37300E+03
        -0.37300E+03
        -0.37300E+03
        -0.37300E+03
        -0.37300E+03
        -0.37300E+03
        -0.37300E+03
        -0.37300E+03
        -0.37300E+03
        -0.37300E+03
        -0.37300E+03
        -0.37300E+03
        -0.37300E+03
        -0.37300E+03
        -0.37300E+03
        -0.37300E+03
        -0.37300E+03
        -0.37300E+03
        -0.37300E+03
        -0.37300E+03
        -0.37300E+03
        -0.37300E+03
        -0.37300E+03
        -0.37300E+03
        -0.37300E+03
        -0.37300E+03
        -0.37300E+03
        -0.37300E+03
        -0.37300E+03
        -0.37300E+03
        -0.37300E+03
        -0.37300E+03
        -0.37300E+03
        -0.37300E+03
        -0.37300E+03
        -0.37300E+03
        -0.37300E+03
        -0.37300E+03
        -0.37300E+03
        -0.37300E+03
        -0.37300E+03
        -0.37300E+03
        -0.37300E+03
        -0.37300E+03
        -0.37300E+03
        -0.37300E+03
        -0.37300E+03
        -0.37300E+03
        -0.37300E+03
        -0.37300E+03
        -0.37300E+03
        -0.37300E+03
        -0.37300E+03
        -0.37300E+03
        -0.37300E+03
        -0.37300E+03
        -0.37300E+03
        -0.37300E+03
        -0.37300E+03
        -0.37300E+03
        -0.37300E+03
        -0.37300E+03
        -0.37300E+03
        -0.37300E+03
        -0.37300E+03
        -0.37300E+03
        -0.37300E+03
        -0.37300E+03
        -0.37300E+03
        -0.37300E+03
        -0.37300E+03
        -0.37300E+03
        -0.37300E+03
        -0.37300E+03
        -0.37300E+03
        -0.37300E+03
        -0.37300E+03
        -0.37300E+03
        -0.37300E+03
        -0.37300E+03
        -0.37300E+03
        -0.37300E+03
        -0.37300E+03
        -0.37300E+03
        -0.37300E+03
        -0.37300E+03
        -0.37300E+03
        -0.37300E+03
        -0.37300E+03
        -0.37300E+03
        -0.37300E+03
        -0.37300E+03
        -0.37300E+03
        -0.37300E+03
        -0.37300E+03
        -0.37300E+03
        -0.37300E+03
        -0.37300E+03
        -0.37300E+03
        -0.37300E+03
        -0.37300E+03
        -0.37300E+03
        -0.37300E+03
        -0.37300E+03
        -0.37300E+03
        -0.37300E+03
        -0.37300E+03
        -0.37300E+03
        -0.37300E+03
        -0.37300E+03
        -0.37300E+03
        -0.37300E+03
        -0.37300E+03
        -0.37300E+03
        -0.37300E+03
        -0.37300E+03
        -0.37300E+03
        -0.37300E+03
        -0.37300E+03
        -0.37300E+03
        -0.37300E+03
        -0.37300E+03
        -0.37300E+03
        -0.37300E+03
        -0.37300E+03
        -0.37300E+03
        -0.37300E+03
        -0.37300E+03
        -0.37300E+03
        -0.37300E+03
        -0.37300E+03
        -0.37300E+03
        -0.37300E+03
        -0.37300E+03
        -0.37300E+03
        -0.37300E+03
        -0.37300E+03
        -0.37300E+03
        -0.37300E+03
        -0.37300E+03
        -0.37300E+03
        -0.37300E+03
        -0.37300E+03
        -0.37300E+03
        -0.37300E+03
        -0.37300E+03
        -0.37300E+03
        -0.37300E+03
        -0.37300E+03
        -0.37300E+03
        -0.37300E+03
        -0.37300E+03
        -0.37300E+03
        -0.37300E+03
        -0.37300E+03
        -0.37300E+03
        -0.37300E+03
        -0.37300E+03
        -0.37300E+03
        -0.37300E+03
        -0.37300E+03
        -0.37300E+03
        -0.37300E+03
        -0.37300E+03
        -0.37300E+03
        -0.37300E+03
        -0.37300E+03
        -0.37300E+03
        -0.37300E+03
        -0.37300E+03
        -0.37300E+03
        -0.37300E+03
        -0.37300E+03
        -0.37300E+03
        -0.37300E+03
        -0.37300E+03
        -0.37300E+03
        -0.37300E+03
        -0.37300E+03
        -0.37300E+03
        -0.37300E+03
        -0.37300E+03
        -0.37300E+03
        -0.37300E+03
        -0.37300E+03
        -0.37300E+03
        -0.37300E+03
        -0.37300E+03
        -0.37300E+03
        -0.37300E+03
        -0.37300E+03
        -0.37300E+03
        -0.37300E+03
        -0.37300E+03
        -0.37300E+03
        -0.37300E+03
        -0.37300E+03
        -0.37300E+03
        -0.37300E+03
        -0.37300E+03
        -0.37300E+03
        -0.37300E+03
        -0.37300E+03
        -0.37300E+03
        -0.37300E+03
        -0.37300E+03
        -0.37300E+03
        -0.37300E+03
        -0.37300E+03
        -0.37300E+03
        -0.37300E+03
        -0.37300E+03
        -0.37300E+03
        -0.37300E+03
        -0.37300E+03
        -0.37300E+03
        -0.37300E+03
        -0.37300E+03
        -0.37300E+03
        -0.37300E+03
        -0.37300E+03
        -0.37300E+03
        -0.37300E+03
        -0.37300E+03
        -0.37300E+03
        -0.37300E+03
        -0.37300E+03
        -0.37300E+03
        -0.37300E+03
        -0.37300E+03
        -0.37300E+03
        -0.37300E+03
        -0.37300E+03
        -0.37300E+03
        -0.37300E+03
        -0.37300E+03
        -0.37300E+03
        -0.37300E+03
        -0.37300E+03
        -0.37300E+03
        -0.37300E+03
        -0.37300E+03
        -0.37300E+03
        -0.37300E+03
        -0.37300E+03
        -0.37300E+03
        -0.37300E+03
        -0.37300E+03
        -0.37300E+03
        -0.37300E+03
        -0.37300E+03
        -0.37300E+03
        -0.37300E+03
        -0.37300E+03
        -0.37300E+03
        -0.37300E+03
        -0.37300E+03
        -0.37300E+03
        -0.37300E+03
        -0.37300E+03
        -0.37300E+03
        -0.37300E+03
        -0.37300E+03
        -0.37300E+03
        -0.37300E+03
        -0.37300E+03
        -0.37300E+03
        -0.37300E+03
        -0.37300E+03
        -0.37300E+03
        -0.37300E+03
        -0.37300E+03
        -0.37300E+03
        -0.37300E+03
        -0.37300E+03
        -0.37300E+03
        -0.37300E+03
        -0.37300E+03
        -0.37300E+03
        -0.37300E+03
        -0.37300E+03
        -0.37300E+03
        -0.37300E+03
        -0.37300E+03
        -0.37300E+03
        -0.37300E+03
        -0.37300E+03
        -0.37300E+03
        -0.37300E+03
        -0.37300E+03
        -0.37300E+03
        -0.37300E+03
        -0.37300E+03
        -0.37300E+03
        -0.37300E+03
        -0.37300E+03
        -0.37300E+03
        -0.37300E+03
        -0.37300E+03
        -0.37300E+03
        -0.37300E+03
        -0.37300E+03
        -0.37300E+03
        -0.37300E+03
        -0.37300E+03
        -0.37300E+03
        -0.37300E+03
        -0.37300E+03
        -0.37300E+03
        -0.37300E+03
        -0.37300E+03
        -0.37300E+03
        -0.37300E+03
        -0.37300E+03
        -0.37300E+03
        -0.37300E+03
        -0.37300E+03
        -0.37300E+03
        -0.37300E+03
        -0.37300E+03
        -0.37300E+03
        -0.37300E+03
        -0.37300E+03
        -0.37300E+03
        -0.37300E+03
        -0.37300E+03
        -0.37300E+03
        -0.37300E+03
        -0.37300E+03
        -0.37300E+03
        -0.37300E+03
        -0.37300E+03
        -0.37300E+03
        -0.37300E+03
        -0.37300E+03
        -0.37300E+03
        -0.37300E+03
        -0.37300E+03
        -0.37300E+03
        -0.37300E+03
        -0.37300E+03
        -0.37300E+03
        -0.37300E+03
        -0.37300E+03
        -0.37300E+03
        -0.37300E+03
        -0.37300E+03
        -0.37300E+03
        -0.37300E+03
        -0.37300E+03
        -0.37300E+03
        -0.37300E+03
        -0.37300E+03
        -0.37300E+03
        -0.37300E+03
        -0.37300E+03
        -0.37300E+03
        -0.37300E+03
        -0.37300E+03
        -0.37300E+03
        -0.37300E+03
        -0.37300E+03
        -0.37300E+03
        -0.37300E+03
        -0.37300E+03
        -0.37300E+03
        -0.37300E+03
        -0.37300E+03
        -0.37300E+03
        -0.37300E+03
        -0.37300E+03
        -0.37300E+03
        -0.37300E+03
        -0.37300E+03
        -0.37300E+03
        -0.37300E+03
        -0.37300E+03
        -0.37300E+03
        -0.37300E+03
        -0.37300E+03
        -0.37300E+03
        -0.37300E+03
        -0.37300E+03
        -0.37300E+03
        -0.37300E+03
        -0.37300E+03
        -0.37300E+03
        -0.37300E+03
        -0.37300E+03
        -0.37300E+03
        -0.37300E+03
        -0.37300E+03
        -0.37300E+03
        -0.37300E+03
        -0.37300E+03
        -0.37300E+03
        -0.37300E+03
        -0.37300E+03
        -0.37300E+03
        -0.37300E+03
        -0.37300E+03
        -0.37300E+03
        -0.37300E+03
        -0.37300E+03
        -0.37300E+03
        -0.37300E+03
        -0.37300E+03
        -0.37300E+03
        -0.37300E+03
        -0.37300E+03
        -0.37300E+03
        -0.37300E+03
        -0.37300E+03
        -0.37300E+03
        -0.37300E+03
        -0.37300E+03
        -0.37300E+03
        -0.37300E+03
        -0.37300E+03
        -0.37300E+03
        -0.37300E+03
        -0.37300E+03
        -0.37300E+03
        -0.37300E+03
        -0.37300E+03
        -0.37300E+03
        -0.37300E+03
        -0.37300E+03
        -0.37300E+03
        -0.37300E+03
        -0.37300E+03
        -0.37300E+03
        -0.37300E+03
        -0.37300E+03
        -0.37300E+03
        -0.37300E+03
        -0.37300E+03
        -0.37300E+03
        -0.37300E+03
        -0.37300E+03
        -0.37300E+03
        -0.37300E+03
        -0.37300E+03
        -0.37300E+03
        -0.37300E+03
        -0.37300E+03
        -0.37300E+03
        -0.37300E+03
        -0.37300E+03
        -0.37300E+03
        -0.37300E+03
        -0.37300E+03
        -0.37300E+03
        -0.37300E+03
        -0.37300E+03
        -0.37300E+03
        -0.37300E+03
        -0.37300E+03
        -0.37300E+03
        -0.37300E+03
        -0.37300E+03
        -0.37300E+03
        -0.37300E+03
        -0.37300E+03
        -0.37300E+03
        -0.37300E+03
        -0.37300E+03
        -0.37300E+03
        -0.37300E+03
        -0.37300E+03
        -0.37300E+03
        -0.37300E+03
        -0.37300E+03
        -0.37300E+03
        -0.37300E+03
        -0.37300E+03
        -0.37300E+03
        -0.37300E+03
        -0.37300E+03
        -0.37300E+03
        -0.37300E+03
        -0.37300E+03
        -0.37300E+03
        -0.37300E+03
        -0.37300E+03
        -0.37300E+03
        -0.37300E+03
        -0.37300E+03
        -0.37300E+03
        -0.37300E+03
        -0.37300E+03
        -0.37300E+03
        -0.37300E+03
        -0.37300E+03
        -0.37300E+03
        -0.37300E+03
        -0.37300E+03
        -0.37300E+03
        -0.37300E+03
        -0.37300E+03
        -0.37300E+03
        -0.37300E+03
        -0.37300E+03
        -0.37300E+03
        -0.37300E+03
        -0.37300E+03
        -0.37300E+03
        -0.37300E+03
        -0.37300E+03
        -0.37300E+03
        -0.37300E+03
        -0.37300E+03
        -0.37300E+03
        -0.37300E+03
        -0.37300E+03
        -0.37300E+03
        -0.37300E+03
        -0.37300E+03
        -0.37300E+03
        -0.37300E+03
        -0.37300E+03
        -0.37300E+03
        -0.37300E+03
        -0.37300E+03
        -0.37300E+03
        -0.37300E+03
        -0.37300E+03
        -0.37300E+03
        -0.37300E+03
        -0.37300E+03
        -0.37300E+03
        -0.37300E+03
        -0.37300E+03
        -0.37300E+03
        -0.37300E+03
        -0.37300E+03
        -0.37300E+03
        -0.37300E+03
        -0.37300E+03
        -0.37300E+03
        -0.37300E+03
        -0.37300E+03
        -0.37300E+03
        -0.37300E+03
        -0.37300E+03
        -0.37300E+03
        -0.37300E+03
        -0.37300E+03
        -0.37300E+03
        -0.37300E+03
        -0.37300E+03
        -0.37300E+03
        -0.37300E+03
        -0.37300E+03
        -0.37300E+03
        -0.37300E+03
        -0.37300E+03
        -0.37300E+03
        -0.37300E+03
        -0.37300E+03
        -0.37300E+03
        -0.37300E+03
        -0.37300E+03
        -0.37300E+03
        -0.37300E+03
        -0.37300E+03
        -0.37300E+03
        -0.37300E+03
        -0.37300E+03
        -0.37300E+03
        -0.37300E+03
        -0.37300E+03
        -0.37300E+03
        -0.37300E+03
        -0.37300E+03
        -0.37300E+03
        -0.37300E+03
        -0.37300E+03
        -0.37300E+03
        -0.37300E+03
        -0.37300E+03
        -0.37300E+03
        -0.37300E+03
        -0.37300E+03
        -0.37300E+03
        -0.37300E+03
        -0.37300E+03
        -0.37300E+03
        -0.37300E+03
        -0.37300E+03
        -0.37300E+03
        -0.37300E+03
        -0.37300E+03
        -0.37300E+03
        -0.37300E+03
        -0.37300E+03
        -0.37300E+03
        -0.37300E+03
        -0.37300E+03
        -0.37300E+03
        -0.37300E+03
        -0.37300E+03
        -0.37300E+03
        -0.37300E+03
        -0.37300E+03
        -0.37300E+03
        -0.37300E+03
        -0.37300E+03
        -0.37300E+03
        -0.37300E+03
        -0.37300E+03
        -0.37300E+03
        -0.37300E+03
        -0.37300E+03
        -0.37300E+03
        -0.37300E+03
        -0.37300E+03
        -0.37300E+03
        -0.37300E+03
        -0.37300E+03
        -0.37300E+03
        -0.37300E+03
        -0.37300E+03
        -0.37300E+03
        -0.37300E+03
        -0.37300E+03
        -0.37300E+03
        -0.37300E+03
        -0.37300E+03
        -0.37300E+03
        -0.37300E+03
        -0.37300E+03
        -0.37300E+03
        -0.37300E+03
        -0.37300E+03
        -0.37300E+03
        -0.37300E+03
        -0.37300E+03
        -0.37300E+03
        -0.37300E+03
        -0.37300E+03
        -0.37300E+03
        -0.37300E+03
        -0.37300E+03
        -0.37300E+03
        -0.37300E+03
        -0.37300E+03
        -0.37300E+03
        -0.37300E+03
        -0.37300E+03
        -0.37300E+03
        -0.37300E+03
        -0.37300E+03
        -0.37300E+03
        -0.37300E+03
        -0.37300E+03
        -0.37300E+03
        -0.37300E+03
        -0.37300E+03
        -0.37300E+03
        -0.37300E+03
        -0.37300E+03
        -0.37300E+03
        -0.37300E+03
        -0.37300E+03
        -0.37300E+03
        -0.37300E+03
        -0.37300E+03
        -0.37300E+03
        -0.37300E+03
        -0.37300E+03
        -0.37300E+03
        -0.37300E+03
        -0.37300E+03
        -0.37300E+03
        -0.37300E+03
        -0.37300E+03
        -0.37300E+03
        -0.37300E+03
        -0.37300E+03
        -0.37300E+03
        -0.37300E+03
        -0.37300E+03
        -0.37300E+03
        -0.37300E+03
        -0.37300E+03
        -0.37300E+03
        -0.37300E+03
        -0.37300E+03
        -0.37300E+03
        -0.37300E+03
        -0.37300E+03
        -0.37300E+03
        -0.37300E+03
        -0.37300E+03
        -0.37300E+03
        -0.37300E+03
        -0.37300E+03
        -0.37300E+03
        -0.37300E+03
        -0.37300E+03
        -0.37300E+03
        -0.37300E+03
        -0.37300E+03
        -0.37300E+03
        -0.37300E+03
        -0.37300E+03
        -0.37300E+03
        -0.37300E+03
        -0.37300E+03
        -0.37300E+03
        -0.37300E+03
        -0.37300E+03
        -0.37300E+03
        -0.37300E+03
        -0.37300E+03
        -0.37300E+03
        -0.37300E+03
        -0.37300E+03
        -0.37300E+03
        -0.37300E+03
        -0.37300E+03
        -0.37300E+03
        -0.37300E+03
        -0.37300E+03
        -0.37300E+03
        -0.37300E+03
        -0.37300E+03
        -0.37300E+03
        -0.37300E+03
        -0.37300E+03
        -0.37300E+03
        -0.37300E+03
        -0.37300E+03
        -0.37300E+03
        -0.37300E+03
        -0.37300E+03
        -0.37300E+03
        -0.37300E+03
        -0.37300E+03
        -0.37300E+03
        -0.37300E+03
        -0.37300E+03
        -0.37300E+03
        -0.37300E+03
        -0.37300E+03
        -0.37300E+03
        -0.37300E+03
        -0.37300E+03
        -0.37300E+03
        -0.37300E+03
        -0.37300E+03
        -0.37300E+03
        -0.37300E+03
        -0.37300E+03
        -0.37300E+03
        -0.37300E+03
        -0.37300E+03
        -0.37300E+03
        -0.37300E+03
        -0.37300E+03
        -0.37300E+03
        -0.37300E+03
        -0.37300E+03
        -0.37300E+03
        -0.37300E+03
        -0.37300E+03
        -0.37300E+03
        -0.37300E+03
        -0.37300E+03
        -0.37300E+03
        -0.37300E+03
        -0.37300E+03
        -0.37300E+03
        -0.37300E+03
        -0.37300E+03
        -0.37300E+03
        -0.37300E+03
        -0.37300E+03
        -0.37300E+03
        -0.37300E+03
        -0.37300E+03
        -0.37300E+03
        -0.37300E+03
        -0.37300E+03
        -0.37300E+03
        -0.37300E+03
        -0.37300E+03
        -0.37300E+03
        -0.37300E+03
        -0.37300E+03
        -0.37300E+03
        -0.37300E+03
        -0.37300E+03
        -0.37300E+03
        -0.37300E+03
        -0.37300E+03
        -0.37300E+03
        -0.37300E+03
        -0.37300E+03
        -0.37300E+03
        -0.37300E+03
        -0.37300E+03
        -0.37300E+03
        -0.37300E+03
        -0.37300E+03
        -0.37300E+03
        -0.37300E+03
        -0.37300E+03
        -0.37300E+03
        -0.37300E+03
        -0.37300E+03
        -0.37300E+03
        -0.37300E+03
        -0.37300E+03
        -0.37300E+03
        -0.37300E+03
        -0.37300E+03
        -0.37300E+03
        -0.37300E+03
        -0.37300E+03
        -0.37300E+03
        -0.37300E+03
        -0.37300E+03
        -0.37300E+03
        -0.37300E+03
        -0.37300E+03
        -0.37300E+03
        -0.37300E+03
        -0.37300E+03
        -0.37300E+03
        -0.37300E+03
        -0.37300E+03
        -0.37300E+03
        -0.37300E+03
        -0.37300E+03
        -0.37300E+03
        -0.37300E+03
        -0.37300E+03
        -0.37300E+03
        -0.37300E+03
        -0.37300E+03
        -0.37300E+03
        -0.37300E+03
        -0.37300E+03
        -0.37300E+03
        -0.37300E+03
        -0.37300E+03
        -0.37300E+03
        -0.37300E+03
        -0.37300E+03
        -0.37300E+03
        -0.37300E+03
        -0.37300E+03
        -0.37300E+03
        -0.37300E+03
        -0.37300E+03
        -0.37300E+03
        -0.37300E+03
        -0.37300E+03
        -0.37300E+03
        -0.37300E+03
        -0.37300E+03
        -0.37300E+03
        -0.37300E+03
        -0.37300E+03
        -0.37300E+03
        -0.37300E+03
        -0.37300E+03
        -0.37300E+03
        -0.37300E+03
        -0.37300E+03
        -0.37300E+03
        -0.37300E+03
        -0.37300E+03
        -0.37300E+03
        -0.37300E+03
        -0.37300E+03
        -0.37300E+03
        -0.37300E+03
        -0.37300E+03
        -0.37300E+03
        -0.37300E+03
        -0.37300E+03
        -0.37300E+03
        -0.37300E+03
        -0.37300E+03
        -0.37300E+03
        -0.37300E+03
        -0.37300E+03
        -0.37300E+03
        -0.37300E+03
        -0.37300E+03
        -0.37300E+03
        -0.37300E+03
        -0.37300E+03
        -0.37300E+03
        -0.37300E+03
        -0.37300E+03
        -0.37300E+03
        -0.37300E+03
        -0.37300E+03
        -0.37300E+03
        -0.37300E+03
        -0.37300E+03
        -0.37300E+03
        -0.37300E+03
        -0.37300E+03
        -0.37300E+03
        -0.37300E+03
        -0.37300E+03
        -0.37300E+03
        -0.37300E+03
        -0.37300E+03
        -0.37300E+03
        -0.37300E+03
        -0.37300E+03
        -0.37300E+03
        -0.37300E+03
        -0.37300E+03
        -0.37300E+03
        -0.37300E+03
        -0.37300E+03
        -0.37300E+03
        -0.37300E+03
        -0.37300E+03
        -0.37300E+03
        -0.37300E+03
        -0.37300E+03
        -0.37300E+03
        -0.37300E+03
        -0.37300E+03
        -0.37300E+03
        -0.37300E+03
        -0.37300E+03
        -0.37300E+03
        -0.37300E+03
        -0.37300E+03
        -0.37300E+03
        -0.37300E+03
        -0.37300E+03
        -0.37300E+03
        -0.37300E+03
        -0.37300E+03
        -0.37300E+03
        -0.37300E+03
        -0.37300E+03
        -0.37300E+03
        -0.37300E+03
        -0.37300E+03
        -0.37300E+03
        -0.37300E+03
        -0.37300E+03
        -0.37300E+03
        -0.37300E+03
        -0.37300E+03
        -0.37300E+03
        -0.37300E+03
        -0.37300E+03
        -0.37300E+03
        -0.37300E+03
        -0.37300E+03
        -0.37300E+03
        -0.37300E+03
        -0.37300E+03
        -0.37300E+03
        -0.37300E+03
        -0.37300E+03
        -0.37300E+03
        -0.37300E+03
        -0.37300E+03
        -0.37300E+03
        -0.37300E+03
        -0.37300E+03
        -0.37300E+03
        -0.37300E+03
        -0.37300E+03
        -0.37300E+03
        -0.37300E+03
        -0.37300E+03
        -0.37300E+03
        -0.37300E+03
        -0.37300E+03
        -0.37300E+03
        -0.37300E+03
        -0.37300E+03
        -0.37300E+03
        -0.37300E+03
        -0.37300E+03
        -0.37300E+03
        -0.37300E+03
        -0.37300E+03
        -0.37300E+03
        -0.37300E+03
        -0.37300E+03
        -0.37300E+03
        -0.37300E+03
        -0.37300E+03
        -0.37300E+03
        -0.37300E+03
        -0.37300E+03
        -0.37300E+03
        -0.37300E+03
        -0.37300E+03
        -0.37300E+03
        -0.37300E+03
        -0.37300E+03
        -0.37300E+03
        -0.37300E+03
        -0.37300E+03
        -0.37300E+03
        -0.37300E+03
        -0.37300E+03
        -0.37300E+03
        -0.37300E+03
        -0.37300E+03
        -0.37300E+03
        -0.37300E+03
        -0.37300E+03
        -0.37300E+03
        -0.37300E+03
        -0.37300E+03
        -0.37300E+03
        -0.37300E+03
        -0.37300E+03
        -0.37300E+03
        -0.37300E+03
        -0.37300E+03
        -0.37300E+03
  
SCALARS              normalized_window  double 1
LOOKUP_TABLE default
         0.27500E+01
         0.27500E+01
         0.27500E+01
         0.27500E+01
         0.27500E+01
         0.27500E+01
         0.27500E+01
         0.27500E+01
         0.27500E+01
         0.27500E+01
         0.27500E+01
         0.27500E+01
         0.27500E+01
         0.27500E+01
         0.27500E+01
         0.27500E+01
         0.27500E+01
         0.27500E+01
         0.27500E+01
         0.27500E+01
         0.27500E+01
         0.27500E+01
         0.27500E+01
         0.27500E+01
         0.27500E+01
         0.27500E+01
         0.27500E+01
         0.27500E+01
         0.27500E+01
         0.27500E+01
         0.27500E+01
         0.27500E+01
         0.27500E+01
         0.27500E+01
         0.27500E+01
         0.27500E+01
         0.27500E+01
         0.27500E+01
         0.27500E+01
         0.27500E+01
         0.27500E+01
         0.27500E+01
         0.27500E+01
         0.27500E+01
         0.27500E+01
         0.27500E+01
         0.27500E+01
         0.27500E+01
         0.27500E+01
         0.27500E+01
         0.27500E+01
         0.27500E+01
         0.27500E+01
         0.27500E+01
         0.27500E+01
         0.27500E+01
         0.27500E+01
         0.27500E+01
         0.27500E+01
         0.27500E+01
         0.27500E+01
         0.27500E+01
         0.27500E+01
         0.27500E+01
         0.27500E+01
         0.27500E+01
         0.27500E+01
         0.27500E+01
         0.27500E+01
         0.27500E+01
         0.27500E+01
         0.27500E+01
         0.27500E+01
         0.27500E+01
         0.27500E+01
         0.27500E+01
         0.27500E+01
         0.27500E+01
         0.27500E+01
         0.27500E+01
         0.27500E+01
         0.27500E+01
         0.27500E+01
         0.27500E+01
         0.27500E+01
         0.27500E+01
         0.27500E+01
         0.27500E+01
         0.27500E+01
         0.27500E+01
         0.27500E+01
         0.27500E+01
         0.27500E+01
         0.27500E+01
         0.27500E+01
         0.27500E+01
         0.27500E+01
         0.27500E+01
         0.27500E+01
         0.27500E+01
         0.27500E+01
         0.27500E+01
         0.27500E+01
         0.27500E+01
         0.27500E+01
         0.27500E+01
         0.27500E+01
         0.27500E+01
         0.27500E+01
         0.27500E+01
         0.27500E+01
         0.27500E+01
         0.27500E+01
         0.27500E+01
         0.27500E+01
         0.27500E+01
         0.27500E+01
         0.27500E+01
         0.27500E+01
         0.27500E+01
         0.27500E+01
         0.27500E+01
         0.27500E+01
         0.27500E+01
         0.27500E+01
         0.27500E+01
         0.27500E+01
         0.27500E+01
         0.27500E+01
         0.27500E+01
         0.27500E+01
         0.27500E+01
         0.27500E+01
         0.27500E+01
         0.27500E+01
         0.27500E+01
         0.27500E+01
         0.27500E+01
         0.27500E+01
         0.27500E+01
         0.27500E+01
         0.27500E+01
         0.27500E+01
         0.27500E+01
         0.27500E+01
         0.27500E+01
         0.27500E+01
         0.27500E+01
         0.27500E+01
         0.27500E+01
         0.27500E+01
         0.27500E+01
         0.27500E+01
         0.27500E+01
         0.27500E+01
         0.27500E+01
         0.27500E+01
         0.27500E+01
         0.27500E+01
         0.27500E+01
         0.27500E+01
         0.27500E+01
         0.27500E+01
         0.27500E+01
         0.27500E+01
         0.27500E+01
         0.27500E+01
         0.27500E+01
         0.27500E+01
         0.27500E+01
         0.27500E+01
         0.27500E+01
         0.27500E+01
         0.27500E+01
         0.27500E+01
         0.27500E+01
         0.27500E+01
         0.27500E+01
         0.27500E+01
         0.27500E+01
         0.27500E+01
         0.27500E+01
         0.27500E+01
         0.27500E+01
         0.27500E+01
         0.27500E+01
         0.27500E+01
         0.27500E+01
         0.27500E+01
         0.27500E+01
         0.27500E+01
         0.27500E+01
         0.27500E+01
         0.27500E+01
         0.27500E+01
         0.27500E+01
         0.27500E+01
         0.27500E+01
         0.27500E+01
         0.27500E+01
         0.27500E+01
         0.27500E+01
         0.27500E+01
         0.27500E+01
         0.27500E+01
         0.27500E+01
         0.27500E+01
         0.27500E+01
         0.27500E+01
         0.27500E+01
         0.27500E+01
         0.27500E+01
         0.27500E+01
         0.27500E+01
         0.27500E+01
         0.27500E+01
         0.27500E+01
         0.27500E+01
         0.27500E+01
         0.27500E+01
         0.27500E+01
         0.27500E+01
         0.27500E+01
         0.27500E+01
         0.27500E+01
         0.27500E+01
         0.27500E+01
         0.27500E+01
         0.27500E+01
         0.27500E+01
         0.27500E+01
         0.27500E+01
         0.27500E+01
         0.27500E+01
         0.27500E+01
         0.27500E+01
         0.27500E+01
         0.27500E+01
         0.27500E+01
         0.27500E+01
         0.27500E+01
         0.27500E+01
         0.27500E+01
         0.27500E+01
         0.27500E+01
         0.27500E+01
         0.27500E+01
         0.27500E+01
         0.27500E+01
         0.27500E+01
         0.27500E+01
         0.27500E+01
         0.27500E+01
         0.27500E+01
         0.27500E+01
         0.27500E+01
         0.27500E+01
         0.27500E+01
         0.27500E+01
         0.27500E+01
         0.27500E+01
         0.27500E+01
         0.27500E+01
         0.27500E+01
         0.27500E+01
         0.27500E+01
         0.27500E+01
         0.27500E+01
         0.27500E+01
         0.27500E+01
         0.27500E+01
         0.27500E+01
         0.27500E+01
         0.27500E+01
         0.27500E+01
         0.27500E+01
         0.27500E+01
         0.27500E+01
         0.27500E+01
         0.27500E+01
         0.27500E+01
         0.27500E+01
         0.27500E+01
         0.27500E+01
         0.27500E+01
         0.27500E+01
         0.27500E+01
         0.27500E+01
         0.27500E+01
         0.27500E+01
         0.27500E+01
         0.27500E+01
         0.27500E+01
         0.27500E+01
         0.27500E+01
         0.27500E+01
         0.27500E+01
         0.27500E+01
         0.27500E+01
         0.27500E+01
         0.27500E+01
         0.27500E+01
         0.27500E+01
         0.27500E+01
         0.27500E+01
         0.27500E+01
         0.27500E+01
         0.27500E+01
         0.27500E+01
         0.27500E+01
         0.27500E+01
         0.27500E+01
         0.27500E+01
         0.27500E+01
         0.27500E+01
         0.27500E+01
         0.27500E+01
         0.27500E+01
         0.27500E+01
         0.27500E+01
         0.27500E+01
         0.27500E+01
         0.27500E+01
         0.27500E+01
         0.27500E+01
         0.27500E+01
         0.27500E+01
         0.27500E+01
         0.27500E+01
         0.27500E+01
         0.27500E+01
         0.27500E+01
         0.27500E+01
         0.27500E+01
         0.27500E+01
         0.27500E+01
         0.27500E+01
         0.27500E+01
         0.27500E+01
         0.27500E+01
         0.27500E+01
         0.27500E+01
         0.27500E+01
         0.27500E+01
         0.27500E+01
         0.27500E+01
         0.27500E+01
         0.27500E+01
         0.27500E+01
         0.27500E+01
         0.27500E+01
         0.27500E+01
         0.27500E+01
         0.27500E+01
         0.27500E+01
         0.27500E+01
         0.27500E+01
         0.27500E+01
         0.27500E+01
         0.27500E+01
         0.27500E+01
         0.27500E+01
         0.27500E+01
         0.27500E+01
         0.27500E+01
         0.27500E+01
         0.27500E+01
         0.27500E+01
         0.27500E+01
         0.27500E+01
         0.27500E+01
         0.27500E+01
         0.27500E+01
         0.27500E+01
         0.27500E+01
         0.27500E+01
         0.27500E+01
         0.27500E+01
         0.27500E+01
         0.27500E+01
         0.27500E+01
         0.27500E+01
         0.27500E+01
         0.27500E+01
         0.27500E+01
         0.27500E+01
         0.27500E+01
         0.27500E+01
         0.27500E+01
         0.27500E+01
         0.27500E+01
         0.27500E+01
         0.27500E+01
         0.27500E+01
         0.27500E+01
         0.27500E+01
         0.27500E+01
         0.27500E+01
         0.27500E+01
         0.27500E+01
         0.27500E+01
         0.27500E+01
         0.27500E+01
         0.27500E+01
         0.27500E+01
         0.27500E+01
         0.27500E+01
         0.27500E+01
         0.27500E+01
         0.27500E+01
         0.27500E+01
         0.27500E+01
         0.27500E+01
         0.27500E+01
         0.27500E+01
         0.27500E+01
         0.27500E+01
         0.27500E+01
         0.27500E+01
         0.27500E+01
         0.27500E+01
         0.27500E+01
         0.27500E+01
         0.27500E+01
         0.27500E+01
         0.27500E+01
         0.27500E+01
         0.27500E+01
         0.27500E+01
         0.27500E+01
         0.27500E+01
         0.27500E+01
         0.27500E+01
         0.27500E+01
         0.27500E+01
         0.27500E+01
         0.27500E+01
         0.27500E+01
         0.27500E+01
         0.27500E+01
         0.27500E+01
         0.27500E+01
         0.27500E+01
         0.27500E+01
         0.27500E+01
         0.27500E+01
         0.27500E+01
         0.27500E+01
         0.27500E+01
         0.27500E+01
         0.27500E+01
         0.27500E+01
         0.27500E+01
         0.27500E+01
         0.27500E+01
         0.27500E+01
         0.27500E+01
         0.27500E+01
         0.27500E+01
         0.27500E+01
         0.27500E+01
         0.27500E+01
         0.27500E+01
         0.27500E+01
         0.27500E+01
         0.27500E+01
         0.27500E+01
         0.27500E+01
         0.27500E+01
         0.27500E+01
         0.27500E+01
         0.27500E+01
         0.27500E+01
         0.27500E+01
         0.27500E+01
         0.27500E+01
         0.27500E+01
         0.27500E+01
         0.27500E+01
         0.27500E+01
         0.27500E+01
         0.27500E+01
         0.27500E+01
         0.27500E+01
         0.27500E+01
         0.27500E+01
         0.27500E+01
         0.27500E+01
         0.27500E+01
         0.27500E+01
         0.27500E+01
         0.27500E+01
         0.27500E+01
         0.27500E+01
         0.27500E+01
         0.27500E+01
         0.27500E+01
         0.27500E+01
         0.27500E+01
         0.27500E+01
         0.27500E+01
         0.27500E+01
         0.27500E+01
         0.27500E+01
         0.27500E+01
         0.27500E+01
         0.27500E+01
         0.27500E+01
         0.27500E+01
         0.27500E+01
         0.27500E+01
         0.27500E+01
         0.27500E+01
         0.27500E+01
         0.27500E+01
         0.27500E+01
         0.27500E+01
         0.27500E+01
         0.27500E+01
         0.27500E+01
         0.27500E+01
         0.27500E+01
         0.27500E+01
         0.27500E+01
         0.27500E+01
         0.27500E+01
         0.27500E+01
         0.27500E+01
         0.27500E+01
         0.27500E+01
         0.27500E+01
         0.27500E+01
         0.27500E+01
         0.27500E+01
         0.27500E+01
         0.27500E+01
         0.27500E+01
         0.27500E+01
         0.27500E+01
         0.27500E+01
         0.27500E+01
         0.27500E+01
         0.27500E+01
         0.27500E+01
         0.27500E+01
         0.27500E+01
         0.27500E+01
         0.27500E+01
         0.27500E+01
         0.27500E+01
         0.27500E+01
         0.27500E+01
         0.27500E+01
         0.27500E+01
         0.27500E+01
         0.27500E+01
         0.27500E+01
         0.27500E+01
         0.27500E+01
         0.27500E+01
         0.27500E+01
         0.27500E+01
         0.27500E+01
         0.27500E+01
         0.27500E+01
         0.27500E+01
         0.27500E+01
         0.27500E+01
         0.27500E+01
         0.27500E+01
         0.27500E+01
         0.27500E+01
         0.27500E+01
         0.27500E+01
         0.27500E+01
         0.27500E+01
         0.27500E+01
         0.27500E+01
         0.27500E+01
         0.27500E+01
         0.27500E+01
         0.27500E+01
         0.27500E+01
         0.27500E+01
         0.27500E+01
         0.27500E+01
         0.27500E+01
         0.27500E+01
         0.27500E+01
         0.27500E+01
         0.27500E+01
         0.27500E+01
         0.27500E+01
         0.27500E+01
         0.27500E+01
         0.27500E+01
         0.27500E+01
         0.27500E+01
         0.27500E+01
         0.27500E+01
         0.27500E+01
         0.27500E+01
         0.27500E+01
         0.27500E+01
         0.27500E+01
         0.27500E+01
         0.27500E+01
         0.27500E+01
         0.27500E+01
         0.27500E+01
         0.27500E+01
         0.27500E+01
         0.27500E+01
         0.27500E+01
         0.27500E+01
         0.27500E+01
         0.27500E+01
         0.27500E+01
         0.27500E+01
         0.27500E+01
         0.27500E+01
         0.27500E+01
         0.27500E+01
         0.27500E+01
         0.27500E+01
         0.27500E+01
         0.27500E+01
         0.27500E+01
         0.27500E+01
         0.27500E+01
         0.27500E+01
         0.27500E+01
         0.27500E+01
         0.27500E+01
         0.27500E+01
         0.27500E+01
         0.27500E+01
         0.27500E+01
         0.27500E+01
         0.27500E+01
         0.27500E+01
         0.27500E+01
         0.27500E+01
         0.27500E+01
         0.27500E+01
         0.27500E+01
         0.27500E+01
         0.27500E+01
         0.27500E+01
         0.27500E+01
         0.27500E+01
         0.27500E+01
         0.27500E+01
         0.27500E+01
         0.27500E+01
         0.27500E+01
         0.27500E+01
         0.27500E+01
         0.27500E+01
         0.27500E+01
         0.27500E+01
         0.27500E+01
         0.27500E+01
         0.27500E+01
         0.27500E+01
         0.27500E+01
         0.27500E+01
         0.27500E+01
         0.27500E+01
         0.27500E+01
         0.27500E+01
         0.27500E+01
         0.27500E+01
         0.27500E+01
         0.27500E+01
         0.27500E+01
         0.27500E+01
         0.27500E+01
         0.27500E+01
         0.27500E+01
         0.27500E+01
         0.27500E+01
         0.27500E+01
         0.27500E+01
         0.27500E+01
         0.27500E+01
         0.27500E+01
         0.27500E+01
         0.27500E+01
         0.27500E+01
         0.27500E+01
         0.27500E+01
         0.27500E+01
         0.27500E+01
         0.27500E+01
         0.27500E+01
         0.27500E+01
         0.27500E+01
         0.27500E+01
         0.27500E+01
         0.27500E+01
         0.27500E+01
         0.27500E+01
         0.27500E+01
         0.27500E+01
         0.27500E+01
         0.27500E+01
         0.27500E+01
         0.27500E+01
         0.27500E+01
         0.27500E+01
         0.27500E+01
         0.27500E+01
         0.27500E+01
         0.27500E+01
         0.27500E+01
         0.27500E+01
         0.27500E+01
         0.27500E+01
         0.27500E+01
         0.27500E+01
         0.27500E+01
         0.27500E+01
         0.27500E+01
         0.27500E+01
         0.27500E+01
         0.27500E+01
         0.27500E+01
         0.27500E+01
         0.27500E+01
         0.27500E+01
         0.27500E+01
         0.27500E+01
         0.27500E+01
         0.27500E+01
         0.27500E+01
         0.27500E+01
         0.27500E+01
         0.27500E+01
         0.27500E+01
         0.27500E+01
         0.27500E+01
         0.27500E+01
         0.27500E+01
         0.27500E+01
         0.27500E+01
         0.27500E+01
         0.27500E+01
         0.27500E+01
         0.27500E+01
         0.27500E+01
         0.27500E+01
         0.27500E+01
         0.27500E+01
         0.27500E+01
         0.27500E+01
         0.27500E+01
         0.27500E+01
         0.27500E+01
         0.27500E+01
         0.27500E+01
         0.27500E+01
         0.27500E+01
         0.27500E+01
         0.27500E+01
         0.27500E+01
         0.27500E+01
         0.27500E+01
         0.27500E+01
         0.27500E+01
         0.27500E+01
         0.27500E+01
         0.27500E+01
         0.27500E+01
         0.27500E+01
         0.27500E+01
         0.27500E+01
         0.27500E+01
         0.27500E+01
         0.27500E+01
         0.27500E+01
         0.27500E+01
         0.27500E+01
         0.27500E+01
         0.27500E+01
         0.27500E+01
         0.27500E+01
         0.27500E+01
         0.27500E+01
         0.27500E+01
         0.27500E+01
         0.27500E+01
         0.27500E+01
         0.27500E+01
         0.27500E+01
         0.27500E+01
         0.27500E+01
         0.27500E+01
         0.27500E+01
         0.27500E+01
         0.27500E+01
         0.27500E+01
         0.27500E+01
         0.27500E+01
         0.27500E+01
         0.27500E+01
         0.27500E+01
         0.27500E+01
         0.27500E+01
         0.27500E+01
         0.27500E+01
         0.27500E+01
         0.27500E+01
         0.27500E+01
         0.27500E+01
         0.27500E+01
         0.27500E+01
         0.27500E+01
         0.27500E+01
         0.27500E+01
         0.27500E+01
         0.27500E+01
         0.27500E+01
         0.27500E+01
         0.27500E+01
         0.27500E+01
         0.27500E+01
         0.27500E+01
         0.27500E+01
         0.27500E+01
         0.27500E+01
         0.27500E+01
         0.27500E+01
         0.27500E+01
         0.27500E+01
         0.27500E+01
         0.27500E+01
         0.27500E+01
         0.27500E+01
         0.27500E+01
         0.27500E+01
         0.27500E+01
         0.27500E+01
         0.27500E+01
         0.27500E+01
         0.27500E+01
         0.27500E+01
         0.27500E+01
         0.27500E+01
         0.27500E+01
         0.27500E+01
         0.27500E+01
         0.27500E+01
         0.27500E+01
         0.27500E+01
         0.27500E+01
         0.27500E+01
         0.27500E+01
         0.27500E+01
         0.27500E+01
         0.27500E+01
         0.27500E+01
         0.27500E+01
         0.27500E+01
         0.27500E+01
         0.27500E+01
         0.27500E+01
         0.27500E+01
         0.27500E+01
         0.27500E+01
         0.27500E+01
         0.27500E+01
         0.27500E+01
         0.27500E+01
         0.27500E+01
         0.27500E+01
         0.27500E+01
         0.27500E+01
         0.27500E+01
         0.27500E+01
         0.27500E+01
         0.27500E+01
         0.27500E+01
         0.27500E+01
         0.27500E+01
         0.27500E+01
         0.27500E+01
         0.27500E+01
         0.27500E+01
         0.27500E+01
         0.27500E+01
         0.27500E+01
         0.27500E+01
         0.27500E+01
         0.27500E+01
         0.27500E+01
         0.27500E+01
         0.27500E+01
         0.27500E+01
         0.27500E+01
         0.27500E+01
         0.27500E+01
         0.27500E+01
         0.27500E+01
         0.27500E+01
         0.27500E+01
         0.27500E+01
         0.27500E+01
         0.27500E+01
         0.27500E+01
         0.27500E+01
         0.27500E+01
         0.27500E+01
         0.27500E+01
         0.27500E+01
         0.27500E+01
         0.27500E+01
         0.27500E+01
         0.27500E+01
         0.27500E+01
         0.27500E+01
         0.27500E+01
         0.27500E+01
         0.27500E+01
         0.27500E+01
         0.27500E+01
         0.27500E+01
         0.27500E+01
         0.27500E+01
         0.27500E+01
         0.27500E+01
         0.27500E+01
         0.27500E+01
         0.27500E+01
         0.27500E+01
         0.27500E+01
         0.27500E+01
         0.27500E+01
         0.27500E+01
         0.27500E+01
         0.27500E+01
         0.27500E+01
         0.27500E+01
         0.27500E+01
         0.27500E+01
         0.27500E+01
         0.27500E+01
         0.27500E+01
         0.27500E+01
         0.27500E+01
         0.27500E+01
         0.27500E+01
         0.27500E+01
         0.27500E+01
         0.27500E+01
         0.27500E+01
         0.27500E+01
         0.27500E+01
         0.27500E+01
         0.27500E+01
         0.27500E+01
         0.27500E+01
         0.27500E+01
         0.27500E+01
         0.27500E+01
         0.27500E+01
         0.27500E+01
         0.27500E+01
         0.27500E+01
         0.27500E+01
         0.27500E+01
         0.27500E+01
         0.27500E+01
         0.27500E+01
         0.27500E+01
         0.27500E+01
         0.27500E+01
         0.27500E+01
         0.27500E+01
         0.27500E+01
         0.27500E+01
         0.27500E+01
         0.27500E+01
         0.27500E+01
         0.27500E+01
         0.27500E+01
         0.27500E+01
         0.27500E+01
         0.27500E+01
         0.27500E+01
         0.27500E+01
         0.27500E+01
         0.27500E+01
         0.27500E+01
         0.27500E+01
         0.27500E+01
         0.27500E+01
         0.27500E+01
         0.27500E+01
         0.27500E+01
         0.27500E+01
         0.27500E+01
         0.27500E+01
         0.27500E+01
         0.27500E+01
         0.27500E+01
         0.27500E+01
         0.27500E+01
         0.27500E+01
         0.27500E+01
         0.27500E+01
         0.27500E+01
         0.27500E+01
         0.27500E+01
         0.27500E+01
         0.27500E+01
         0.27500E+01
         0.27500E+01
         0.27500E+01
         0.27500E+01
         0.27500E+01
         0.27500E+01
         0.27500E+01
         0.27500E+01
         0.27500E+01
         0.27500E+01
         0.27500E+01
         0.27500E+01
         0.27500E+01
         0.27500E+01
         0.27500E+01
         0.27500E+01
         0.27500E+01
         0.27500E+01
         0.27500E+01
         0.27500E+01
         0.27500E+01
         0.27500E+01
         0.27500E+01
         0.27500E+01
         0.27500E+01
         0.27500E+01
         0.27500E+01
         0.27500E+01
         0.27500E+01
         0.27500E+01
         0.27500E+01
         0.27500E+01
         0.27500E+01
         0.27500E+01
         0.27500E+01
         0.27500E+01
         0.27500E+01
         0.27500E+01
         0.27500E+01
         0.27500E+01
         0.27500E+01
         0.27500E+01
         0.27500E+01
         0.27500E+01
         0.27500E+01
         0.27500E+01
         0.27500E+01
         0.27500E+01
         0.27500E+01
         0.27500E+01
         0.27500E+01
         0.27500E+01
         0.27500E+01
         0.27500E+01
         0.27500E+01
         0.27500E+01
         0.27500E+01
         0.27500E+01
         0.27500E+01
         0.27500E+01
         0.27500E+01
         0.27500E+01
         0.27500E+01
         0.27500E+01
         0.27500E+01
         0.27500E+01
         0.27500E+01
         0.27500E+01
         0.27500E+01
         0.27500E+01
         0.27500E+01
         0.27500E+01
         0.27500E+01
         0.27500E+01
         0.27500E+01
         0.27500E+01
         0.27500E+01
         0.27500E+01
         0.27500E+01
         0.27500E+01
         0.27500E+01
         0.27500E+01
         0.27500E+01
         0.27500E+01
         0.27500E+01
         0.27500E+01
         0.27500E+01
         0.27500E+01
         0.27500E+01
         0.27500E+01
         0.27500E+01
         0.27500E+01
         0.27500E+01
         0.27500E+01
         0.27500E+01
         0.27500E+01
         0.27500E+01
         0.27500E+01
         0.27500E+01
         0.27500E+01
         0.27500E+01
         0.27500E+01
         0.27500E+01
         0.27500E+01
         0.27500E+01
         0.27500E+01
         0.27500E+01
         0.27500E+01
         0.27500E+01
         0.27500E+01
         0.27500E+01
         0.27500E+01
         0.27500E+01
         0.27500E+01
         0.27500E+01
         0.27500E+01
         0.27500E+01
         0.27500E+01
         0.27500E+01
         0.27500E+01
         0.27500E+01
         0.27500E+01
         0.27500E+01
         0.27500E+01
         0.27500E+01
         0.27500E+01
         0.27500E+01
         0.27500E+01
         0.27500E+01
         0.27500E+01
         0.27500E+01
         0.27500E+01
         0.27500E+01
         0.27500E+01
         0.27500E+01
         0.27500E+01
         0.27500E+01
         0.27500E+01
         0.27500E+01
         0.27500E+01
         0.27500E+01
         0.27500E+01
         0.27500E+01
         0.27500E+01
         0.27500E+01
         0.27500E+01
         0.27500E+01
         0.27500E+01
         0.27500E+01
         0.27500E+01
         0.27500E+01
         0.27500E+01
         0.27500E+01
         0.27500E+01
         0.27500E+01
         0.27500E+01
         0.27500E+01
         0.27500E+01
         0.27500E+01
         0.27500E+01
         0.27500E+01
         0.27500E+01
         0.27500E+01
         0.27500E+01
         0.27500E+01
         0.27500E+01
         0.27500E+01
         0.27500E+01
         0.27500E+01
         0.27500E+01
         0.27500E+01
         0.27500E+01
         0.27500E+01
         0.27500E+01
         0.27500E+01
         0.27500E+01
         0.27500E+01
         0.27500E+01
         0.27500E+01
         0.27500E+01
         0.27500E+01
         0.27500E+01
         0.27500E+01
         0.27500E+01
         0.27500E+01
         0.27500E+01
         0.27500E+01
         0.27500E+01
         0.27500E+01
         0.27500E+01
         0.27500E+01
         0.27500E+01
         0.27500E+01
         0.27500E+01
         0.27500E+01
         0.27500E+01
         0.27500E+01
         0.27500E+01
         0.27500E+01
         0.27500E+01
         0.27500E+01
         0.27500E+01
         0.27500E+01
         0.27500E+01
         0.27500E+01
         0.27500E+01
         0.27500E+01
         0.27500E+01
         0.27500E+01
         0.27500E+01
         0.27500E+01
         0.27500E+01
         0.27500E+01
         0.27500E+01
         0.27500E+01
         0.27500E+01
         0.27500E+01
         0.27500E+01
         0.27500E+01
         0.27500E+01
         0.27500E+01
         0.27500E+01
         0.27500E+01
         0.27500E+01
         0.27500E+01
         0.27500E+01
         0.27500E+01
         0.27500E+01
         0.27500E+01
         0.27500E+01
         0.27500E+01
         0.27500E+01
         0.27500E+01
         0.27500E+01
         0.27500E+01
         0.27500E+01
         0.27500E+01
         0.27500E+01
         0.27500E+01
         0.27500E+01
         0.27500E+01
         0.27500E+01
         0.27500E+01
         0.27500E+01
         0.27500E+01
         0.27500E+01
         0.27500E+01
         0.27500E+01
         0.27500E+01
         0.27500E+01
         0.27500E+01
         0.27500E+01
         0.27500E+01
         0.27500E+01
         0.27500E+01
         0.27500E+01
         0.27500E+01
         0.27500E+01
         0.27500E+01
         0.27500E+01
         0.27500E+01
         0.27500E+01
         0.27500E+01
         0.27500E+01
         0.27500E+01
         0.27500E+01
         0.27500E+01
         0.27500E+01
         0.27500E+01
         0.27500E+01
         0.27500E+01
         0.27500E+01
         0.27500E+01
         0.27500E+01
         0.27500E+01
         0.27500E+01
         0.27500E+01
         0.27500E+01
         0.27500E+01
         0.27500E+01
         0.27500E+01
         0.27500E+01
         0.27500E+01
         0.27500E+01
         0.27500E+01
         0.27500E+01
         0.27500E+01
         0.27500E+01
         0.27500E+01
         0.27500E+01
         0.27500E+01
         0.27500E+01
         0.27500E+01
         0.27500E+01
         0.27500E+01
         0.27500E+01
         0.27500E+01
         0.27500E+01
         0.27500E+01
         0.27500E+01
         0.27500E+01
         0.27500E+01
         0.27500E+01
         0.27500E+01
         0.27500E+01
         0.27500E+01
         0.27500E+01
         0.27500E+01
         0.27500E+01
         0.27500E+01
         0.27500E+01
         0.27500E+01
         0.27500E+01
         0.27500E+01
         0.27500E+01
         0.27500E+01
         0.27500E+01
         0.27500E+01
         0.27500E+01
         0.27500E+01
         0.27500E+01
         0.27500E+01
         0.27500E+01
         0.27500E+01
         0.27500E+01
         0.27500E+01
         0.27500E+01
         0.27500E+01
         0.27500E+01
         0.27500E+01
         0.27500E+01
         0.27500E+01
         0.27500E+01
         0.27500E+01
         0.27500E+01
         0.27500E+01
         0.27500E+01
         0.27500E+01
         0.27500E+01
         0.27500E+01
         0.27500E+01
         0.27500E+01
         0.27500E+01
         0.27500E+01
         0.27500E+01
         0.27500E+01
         0.27500E+01
         0.27500E+01
         0.27500E+01
         0.27500E+01
         0.27500E+01
         0.27500E+01
         0.27500E+01
         0.27500E+01
         0.27500E+01
         0.27500E+01
         0.27500E+01
         0.27500E+01
         0.27500E+01
         0.27500E+01
         0.27500E+01
         0.27500E+01
         0.27500E+01
         0.27500E+01
         0.27500E+01
         0.27500E+01
         0.27500E+01
         0.27500E+01
         0.27500E+01
         0.27500E+01
         0.27500E+01
         0.27500E+01
         0.27500E+01
         0.27500E+01
         0.27500E+01
         0.27500E+01
         0.27500E+01
         0.27500E+01
         0.27500E+01
         0.27500E+01
         0.27500E+01
         0.27500E+01
         0.27500E+01
         0.27500E+01
         0.27500E+01
         0.27500E+01
         0.27500E+01
         0.27500E+01
         0.27500E+01
         0.27500E+01
         0.27500E+01
         0.27500E+01
         0.27500E+01
         0.27500E+01
         0.27500E+01
         0.27500E+01
         0.27500E+01
         0.27500E+01
         0.27500E+01
         0.27500E+01
         0.27500E+01
         0.27500E+01
         0.27500E+01
         0.27500E+01
         0.27500E+01
         0.27500E+01
         0.27500E+01
         0.27500E+01
         0.27500E+01
         0.27500E+01
         0.27500E+01
         0.27500E+01
         0.27500E+01
         0.27500E+01
         0.27500E+01
         0.27500E+01
         0.27500E+01
         0.27500E+01
         0.27500E+01
         0.27500E+01
         0.27500E+01
         0.27500E+01
         0.27500E+01
         0.27500E+01
         0.27500E+01
         0.27500E+01
         0.27500E+01
         0.27500E+01
         0.27500E+01
         0.27500E+01
         0.27500E+01
         0.27500E+01
         0.27500E+01
         0.27500E+01
         0.27500E+01
         0.27500E+01
         0.27500E+01
         0.27500E+01
         0.27500E+01
         0.27500E+01
         0.27500E+01
         0.27500E+01
         0.27500E+01
         0.27500E+01
         0.27500E+01
         0.27500E+01
         0.27500E+01
         0.27500E+01
         0.27500E+01
         0.27500E+01
         0.27500E+01
         0.27500E+01
         0.27500E+01
         0.27500E+01
         0.27500E+01
         0.27500E+01
         0.27500E+01
         0.27500E+01
         0.27500E+01
         0.27500E+01
         0.27500E+01
         0.27500E+01
         0.27500E+01
         0.27500E+01
         0.27500E+01
         0.27500E+01
         0.27500E+01
         0.27500E+01
         0.27500E+01
         0.27500E+01
         0.27500E+01
         0.27500E+01
         0.27500E+01
         0.27500E+01
         0.27500E+01
         0.27500E+01
         0.27500E+01
         0.27500E+01
         0.27500E+01
         0.27500E+01
         0.27500E+01
         0.27500E+01
         0.27500E+01
         0.27500E+01
         0.27500E+01
         0.27500E+01
         0.27500E+01
         0.27500E+01
         0.27500E+01
         0.27500E+01
         0.27500E+01
         0.27500E+01
         0.27500E+01
         0.27500E+01
         0.27500E+01
         0.27500E+01
         0.27500E+01
         0.27500E+01
         0.27500E+01
         0.27500E+01
         0.27500E+01
         0.27500E+01
         0.27500E+01
         0.27500E+01
         0.27500E+01
         0.27500E+01
         0.27500E+01
         0.27500E+01
         0.27500E+01
         0.27500E+01
         0.27500E+01
         0.27500E+01
         0.27500E+01
         0.27500E+01
         0.27500E+01
         0.27500E+01
         0.27500E+01
         0.27500E+01
         0.27500E+01
         0.27500E+01
         0.27500E+01
         0.27500E+01
         0.27500E+01
         0.27500E+01
         0.27500E+01
         0.27500E+01
         0.27500E+01
         0.27500E+01
         0.27500E+01
         0.27500E+01
         0.27500E+01
         0.27500E+01
         0.27500E+01
         0.27500E+01
         0.27500E+01
         0.27500E+01
         0.27500E+01
         0.27500E+01
         0.27500E+01
         0.27500E+01
         0.27500E+01
         0.27500E+01
         0.27500E+01
         0.27500E+01
         0.27500E+01
         0.27500E+01
         0.27500E+01
         0.27500E+01
         0.27500E+01
         0.27500E+01
         0.27500E+01
         0.27500E+01
         0.27500E+01
         0.27500E+01
         0.27500E+01
         0.27500E+01
         0.27500E+01
         0.27500E+01
         0.27500E+01
         0.27500E+01
         0.27500E+01
         0.27500E+01
         0.27500E+01
         0.27500E+01
         0.27500E+01
         0.27500E+01
         0.27500E+01
         0.27500E+01
         0.27500E+01
         0.27500E+01
         0.27500E+01
         0.27500E+01
         0.27500E+01
         0.27500E+01
         0.27500E+01
         0.27500E+01
         0.27500E+01
         0.27500E+01
         0.27500E+01
         0.27500E+01
         0.27500E+01
         0.27500E+01
         0.27500E+01
         0.27500E+01
         0.27500E+01
         0.27500E+01
         0.27500E+01
         0.27500E+01
         0.27500E+01
         0.27500E+01
         0.27500E+01
         0.27500E+01
         0.27500E+01
         0.27500E+01
         0.27500E+01
         0.27500E+01
         0.27500E+01
         0.27500E+01
         0.27500E+01
         0.27500E+01
         0.27500E+01
         0.27500E+01
         0.27500E+01
         0.27500E+01
         0.27500E+01
         0.27500E+01
         0.27500E+01
         0.27500E+01
         0.27500E+01
         0.27500E+01
         0.27500E+01
         0.27500E+01
         0.27500E+01
         0.27500E+01
         0.27500E+01
         0.27500E+01
         0.27500E+01
         0.27500E+01
         0.27500E+01
         0.27500E+01
         0.27500E+01
         0.27500E+01
         0.27500E+01
         0.27500E+01
         0.27500E+01
         0.27500E+01
         0.27500E+01
         0.27500E+01
         0.27500E+01
         0.27500E+01
         0.27500E+01
         0.27500E+01
         0.27500E+01
         0.27500E+01
         0.27500E+01
         0.27500E+01
         0.27500E+01
         0.27500E+01
         0.27500E+01
         0.27500E+01
         0.27500E+01
         0.27500E+01
         0.27500E+01
         0.27500E+01
         0.27500E+01
         0.27500E+01
         0.27500E+01
         0.27500E+01
         0.27500E+01
         0.27500E+01
         0.27500E+01
         0.27500E+01
         0.27500E+01
         0.27500E+01
         0.27500E+01
         0.27500E+01
         0.27500E+01
         0.27500E+01
         0.27500E+01
         0.27500E+01
         0.27500E+01
         0.27500E+01
         0.27500E+01
         0.27500E+01
         0.27500E+01
         0.27500E+01
         0.27500E+01
         0.27500E+01
         0.27500E+01
         0.27500E+01
         0.27500E+01
         0.27500E+01
         0.27500E+01
         0.27500E+01
         0.27500E+01
         0.27500E+01
         0.27500E+01
         0.27500E+01
         0.27500E+01
         0.27500E+01
         0.27500E+01
         0.27500E+01
         0.27500E+01
         0.27500E+01
         0.27500E+01
         0.27500E+01
         0.27500E+01
         0.27500E+01
         0.27500E+01
         0.27500E+01
         0.27500E+01
         0.27500E+01
         0.27500E+01
         0.27500E+01
         0.27500E+01
         0.27500E+01
         0.27500E+01
         0.27500E+01
         0.27500E+01
         0.27500E+01
         0.27500E+01
         0.27500E+01
         0.27500E+01
         0.27500E+01
         0.27500E+01
         0.27500E+01
         0.27500E+01
         0.27500E+01
         0.27500E+01
         0.27500E+01
         0.27500E+01
         0.27500E+01
         0.27500E+01
         0.27500E+01
         0.27500E+01
         0.27500E+01
         0.27500E+01
         0.27500E+01
         0.27500E+01
         0.27500E+01
         0.27500E+01
         0.27500E+01
         0.27500E+01
         0.27500E+01
         0.27500E+01
         0.27500E+01
         0.27500E+01
         0.27500E+01
         0.27500E+01
         0.27500E+01
         0.27500E+01
         0.27500E+01
         0.27500E+01
         0.27500E+01
         0.27500E+01
         0.27500E+01
         0.27500E+01
         0.27500E+01
         0.27500E+01
         0.27500E+01
         0.27500E+01
         0.27500E+01
         0.27500E+01
         0.27500E+01
         0.27500E+01
         0.27500E+01
         0.27500E+01
         0.27500E+01
         0.27500E+01
         0.27500E+01
         0.27500E+01
         0.27500E+01
         0.27500E+01
         0.27500E+01
         0.27500E+01
         0.27500E+01
         0.27500E+01
         0.27500E+01
         0.27500E+01
         0.27500E+01
         0.27500E+01
         0.27500E+01
         0.27500E+01
         0.27500E+01
         0.27500E+01
         0.27500E+01
         0.27500E+01
         0.27500E+01
         0.27500E+01
         0.27500E+01
         0.27500E+01
         0.27500E+01
         0.27500E+01
         0.27500E+01
         0.27500E+01
         0.27500E+01
         0.27500E+01
         0.27500E+01
         0.27500E+01
         0.27500E+01
         0.27500E+01
         0.27500E+01
         0.27500E+01
         0.27500E+01
         0.27500E+01
         0.27500E+01
         0.27500E+01
         0.27500E+01
         0.27500E+01
         0.27500E+01
         0.27500E+01
         0.27500E+01
         0.27500E+01
         0.27500E+01
         0.27500E+01
         0.27500E+01
         0.27500E+01
         0.27500E+01
         0.27500E+01
         0.27500E+01
         0.27500E+01
         0.27500E+01
         0.27500E+01
         0.27500E+01
         0.27500E+01
         0.27500E+01
         0.27500E+01
         0.27500E+01
         0.27500E+01
         0.27500E+01
         0.27500E+01
         0.27500E+01
         0.27500E+01
         0.27500E+01
         0.27500E+01
         0.27500E+01
         0.27500E+01
         0.27500E+01
         0.27500E+01
         0.27500E+01
         0.27500E+01
         0.27500E+01
         0.27500E+01
         0.27500E+01
         0.27500E+01
         0.27500E+01
         0.27500E+01
         0.27500E+01
         0.27500E+01
         0.27500E+01
         0.27500E+01
         0.27500E+01
         0.27500E+01
         0.27500E+01
         0.27500E+01
         0.27500E+01
         0.27500E+01
         0.27500E+01
         0.27500E+01
         0.27500E+01
         0.27500E+01
         0.27500E+01
         0.27500E+01
         0.27500E+01
         0.27500E+01
         0.27500E+01
         0.27500E+01
         0.27500E+01
         0.27500E+01
         0.27500E+01
         0.27500E+01
         0.27500E+01
         0.27500E+01
         0.27500E+01
         0.27500E+01
         0.27500E+01
         0.27500E+01
         0.27500E+01
         0.27500E+01
         0.27500E+01
         0.27500E+01
         0.27500E+01
         0.27500E+01
         0.27500E+01
         0.27500E+01
         0.27500E+01
         0.27500E+01
         0.27500E+01
         0.27500E+01
         0.27500E+01
         0.27500E+01
         0.27500E+01
         0.27500E+01
         0.27500E+01
         0.27500E+01
         0.27500E+01
         0.27500E+01
         0.27500E+01
         0.27500E+01
         0.27500E+01
         0.27500E+01
         0.27500E+01
         0.27500E+01
         0.27500E+01
         0.27500E+01
         0.27500E+01
         0.27500E+01
         0.27500E+01
         0.27500E+01
         0.27500E+01
         0.27500E+01
         0.27500E+01
         0.27500E+01
         0.27500E+01
         0.27500E+01
         0.27500E+01
         0.27500E+01
         0.27500E+01
         0.27500E+01
         0.27500E+01
         0.27500E+01
         0.27500E+01
         0.27500E+01
         0.27500E+01
         0.27500E+01
         0.27500E+01
         0.27500E+01
         0.27500E+01
         0.27500E+01
         0.27500E+01
         0.27500E+01
         0.27500E+01
         0.27500E+01
         0.27500E+01
         0.27500E+01
         0.27500E+01
         0.27500E+01
         0.27500E+01
         0.27500E+01
         0.27500E+01
         0.27500E+01
         0.27500E+01
         0.27500E+01
         0.27500E+01
         0.27500E+01
         0.27500E+01
         0.27500E+01
         0.27500E+01
         0.27500E+01
         0.27500E+01
         0.27500E+01
         0.27500E+01
         0.27500E+01
         0.27500E+01
  
SCALARS              physical_window_x  double 1
LOOKUP_TABLE default
         0.42419E-02
         0.35201E-02
         0.37624E-02
         0.42419E-02
         0.42417E-02
         0.35201E-02
         0.37618E-02
         0.42417E-02
         0.37624E-02
         0.37624E-02
         0.37618E-02
         0.37618E-02
         0.30086E-02
         0.32069E-02
         0.30084E-02
         0.32067E-02
         0.42419E-02
         0.32069E-02
         0.42417E-02
         0.32067E-02
         0.24180E-02
         0.29942E-02
         0.32396E-02
         0.24180E-02
         0.29933E-02
         0.32385E-02
         0.26608E-02
         0.27190E-02
         0.26608E-02
         0.27190E-02
         0.42687E-02
         0.36511E-02
         0.42687E-02
         0.42687E-02
         0.36511E-02
         0.42687E-02
         0.32069E-02
         0.29739E-02
         0.32066E-02
         0.29739E-02
         0.34652E-02
         0.32621E-02
         0.34652E-02
         0.32621E-02
         0.37123E-02
         0.32069E-02
         0.37123E-02
         0.32066E-02
         0.30844E-02
         0.30844E-02
         0.35191E-02
         0.35189E-02
         0.26925E-02
         0.26925E-02
         0.26925E-02
         0.26925E-02
         0.24643E-02
         0.27651E-02
         0.24643E-02
         0.27651E-02
         0.42687E-02
         0.35191E-02
         0.42687E-02
         0.35189E-02
         0.42687E-02
         0.42687E-02
         0.34658E-02
         0.34648E-02
         0.27274E-02
         0.31799E-02
         0.27273E-02
         0.31796E-02
         0.32396E-02
         0.32385E-02
         0.26964E-02
         0.26960E-02
         0.27828E-02
         0.27828E-02
         0.27828E-02
         0.27828E-02
         0.27004E-02
         0.31883E-02
         0.27003E-02
         0.31880E-02
         0.31883E-02
         0.31880E-02
         0.37123E-02
         0.37123E-02
         0.36245E-02
         0.36245E-02
         0.28253E-02
         0.31642E-02
         0.28253E-02
         0.31636E-02
         0.33485E-02
         0.33485E-02
         0.33485E-02
         0.33485E-02
         0.31978E-02
         0.31969E-02
         0.29849E-02
         0.32843E-02
         0.29849E-02
         0.32843E-02
         0.27274E-02
         0.31109E-02
         0.27273E-02
         0.31109E-02
         0.31799E-02
         0.31796E-02
         0.32396E-02
         0.32385E-02
         0.32396E-02
         0.32385E-02
         0.29942E-02
         0.29933E-02
         0.27190E-02
         0.27190E-02
         0.26964E-02
         0.26960E-02
         0.27828E-02
         0.27828E-02
         0.27828E-02
         0.27828E-02
         0.27004E-02
         0.27003E-02
         0.31883E-02
         0.31880E-02
         0.31883E-02
         0.31880E-02
         0.32621E-02
         0.32621E-02
         0.34652E-02
         0.34652E-02
         0.37123E-02
         0.37123E-02
         0.37123E-02
         0.37123E-02
         0.36245E-02
         0.36245E-02
         0.28253E-02
         0.28253E-02
         0.29097E-02
         0.29087E-02
         0.32389E-02
         0.32378E-02
         0.32389E-02
         0.32378E-02
         0.31978E-02
         0.31969E-02
         0.29849E-02
         0.29849E-02
         0.32843E-02
         0.32843E-02
         0.32843E-02
         0.32843E-02
         0.42420E-02
         0.35201E-02
         0.37629E-02
         0.42420E-02
         0.37629E-02
         0.37629E-02
         0.30087E-02
         0.32071E-02
         0.42420E-02
         0.32071E-02
         0.24178E-02
         0.29952E-02
         0.32407E-02
         0.26596E-02
         0.27191E-02
         0.42679E-02
         0.36502E-02
         0.42679E-02
         0.32071E-02
         0.29727E-02
         0.34648E-02
         0.32622E-02
         0.37119E-02
         0.32071E-02
         0.30833E-02
         0.35193E-02
         0.26910E-02
         0.26910E-02
         0.24638E-02
         0.27644E-02
         0.42679E-02
         0.35193E-02
         0.42679E-02
         0.34670E-02
         0.27274E-02
         0.31802E-02
         0.32407E-02
         0.26968E-02
         0.27828E-02
         0.27828E-02
         0.27005E-02
         0.31885E-02
         0.31885E-02
         0.37119E-02
         0.36244E-02
         0.28250E-02
         0.31647E-02
         0.33484E-02
         0.33484E-02
         0.31986E-02
         0.29848E-02
         0.32841E-02
         0.27274E-02
         0.31099E-02
         0.31802E-02
         0.32407E-02
         0.32407E-02
         0.29952E-02
         0.27191E-02
         0.26968E-02
         0.27828E-02
         0.27828E-02
         0.27005E-02
         0.31885E-02
         0.31885E-02
         0.32622E-02
         0.34648E-02
         0.37119E-02
         0.37119E-02
         0.36244E-02
         0.28250E-02
         0.29106E-02
         0.32401E-02
         0.32401E-02
         0.31986E-02
         0.29848E-02
         0.32841E-02
         0.32841E-02
         0.42421E-02
         0.35201E-02
         0.37634E-02
         0.42421E-02
         0.37634E-02
         0.37634E-02
         0.30089E-02
         0.32073E-02
         0.42421E-02
         0.32073E-02
         0.24177E-02
         0.29961E-02
         0.32418E-02
         0.26584E-02
         0.27191E-02
         0.42670E-02
         0.36493E-02
         0.42670E-02
         0.32073E-02
         0.29714E-02
         0.34644E-02
         0.32623E-02
         0.37115E-02
         0.32073E-02
         0.30822E-02
         0.35195E-02
         0.26896E-02
         0.26896E-02
         0.24633E-02
         0.27638E-02
         0.42670E-02
         0.35195E-02
         0.42670E-02
         0.34681E-02
         0.27275E-02
         0.31805E-02
         0.32418E-02
         0.26972E-02
         0.27828E-02
         0.27828E-02
         0.27006E-02
         0.31888E-02
         0.31888E-02
         0.37115E-02
         0.36243E-02
         0.28247E-02
         0.31652E-02
         0.33483E-02
         0.33483E-02
         0.31995E-02
         0.29847E-02
         0.32839E-02
         0.27275E-02
         0.31090E-02
         0.31805E-02
         0.32418E-02
         0.32418E-02
         0.29961E-02
         0.27191E-02
         0.26972E-02
         0.27828E-02
         0.27828E-02
         0.27006E-02
         0.31888E-02
         0.31888E-02
         0.32623E-02
         0.34644E-02
         0.37115E-02
         0.37115E-02
         0.36243E-02
         0.28247E-02
         0.29116E-02
         0.32412E-02
         0.32412E-02
         0.31995E-02
         0.29847E-02
         0.32839E-02
         0.32839E-02
         0.42423E-02
         0.35200E-02
         0.37639E-02
         0.42423E-02
         0.37639E-02
         0.37639E-02
         0.30091E-02
         0.32075E-02
         0.42423E-02
         0.32075E-02
         0.24176E-02
         0.29970E-02
         0.32428E-02
         0.26572E-02
         0.27192E-02
         0.42662E-02
         0.36483E-02
         0.42662E-02
         0.32075E-02
         0.29702E-02
         0.34639E-02
         0.32624E-02
         0.37111E-02
         0.32075E-02
         0.30811E-02
         0.35197E-02
         0.26881E-02
         0.26881E-02
         0.24628E-02
         0.27631E-02
         0.42662E-02
         0.35197E-02
         0.42662E-02
         0.34692E-02
         0.27276E-02
         0.31808E-02
         0.32428E-02
         0.26975E-02
         0.27828E-02
         0.27828E-02
         0.27007E-02
         0.31890E-02
         0.31890E-02
         0.37111E-02
         0.36242E-02
         0.28243E-02
         0.31658E-02
         0.33482E-02
         0.33482E-02
         0.32003E-02
         0.29846E-02
         0.32837E-02
         0.27276E-02
         0.31081E-02
         0.31808E-02
         0.32428E-02
         0.32428E-02
         0.29970E-02
         0.27192E-02
         0.26975E-02
         0.27828E-02
         0.27828E-02
         0.27007E-02
         0.31890E-02
         0.31890E-02
         0.32624E-02
         0.34639E-02
         0.37111E-02
         0.37111E-02
         0.36242E-02
         0.28243E-02
         0.29125E-02
         0.32423E-02
         0.32423E-02
         0.32003E-02
         0.29846E-02
         0.32837E-02
         0.32837E-02
         0.42424E-02
         0.35200E-02
         0.37644E-02
         0.42424E-02
         0.37644E-02
         0.37644E-02
         0.30093E-02
         0.32077E-02
         0.42424E-02
         0.32077E-02
         0.24174E-02
         0.29979E-02
         0.32439E-02
         0.26559E-02
         0.27192E-02
         0.42653E-02
         0.36474E-02
         0.42653E-02
         0.32077E-02
         0.29690E-02
         0.34635E-02
         0.32624E-02
         0.37108E-02
         0.32077E-02
         0.30799E-02
         0.35199E-02
         0.26867E-02
         0.26867E-02
         0.24623E-02
         0.27625E-02
         0.42653E-02
         0.35199E-02
         0.42653E-02
         0.34703E-02
         0.27276E-02
         0.31812E-02
         0.32439E-02
         0.26979E-02
         0.27828E-02
         0.27828E-02
         0.27008E-02
         0.31893E-02
         0.31893E-02
         0.37108E-02
         0.36241E-02
         0.28240E-02
         0.31663E-02
         0.33481E-02
         0.33481E-02
         0.32012E-02
         0.29844E-02
         0.32835E-02
         0.27276E-02
         0.31071E-02
         0.31812E-02
         0.32439E-02
         0.32439E-02
         0.29979E-02
         0.27192E-02
         0.26979E-02
         0.27828E-02
         0.27828E-02
         0.27008E-02
         0.31893E-02
         0.31893E-02
         0.32624E-02
         0.34635E-02
         0.37108E-02
         0.37108E-02
         0.36241E-02
         0.28240E-02
         0.29135E-02
         0.32434E-02
         0.32434E-02
         0.32012E-02
         0.29844E-02
         0.32835E-02
         0.32835E-02
         0.42425E-02
         0.35200E-02
         0.37649E-02
         0.42425E-02
         0.37649E-02
         0.37649E-02
         0.30095E-02
         0.32079E-02
         0.42425E-02
         0.32079E-02
         0.24173E-02
         0.29989E-02
         0.32450E-02
         0.26547E-02
         0.27193E-02
         0.42645E-02
         0.36465E-02
         0.42645E-02
         0.32079E-02
         0.29677E-02
         0.34631E-02
         0.32625E-02
         0.37104E-02
         0.32079E-02
         0.30788E-02
         0.35201E-02
         0.26852E-02
         0.26852E-02
         0.24618E-02
         0.27618E-02
         0.42645E-02
         0.35201E-02
         0.42645E-02
         0.34715E-02
         0.27277E-02
         0.31815E-02
         0.32450E-02
         0.26983E-02
         0.27828E-02
         0.27828E-02
         0.27009E-02
         0.31895E-02
         0.31895E-02
         0.37104E-02
         0.36239E-02
         0.28237E-02
         0.31668E-02
         0.33480E-02
         0.33480E-02
         0.32020E-02
         0.29843E-02
         0.32833E-02
         0.27277E-02
         0.31062E-02
         0.31815E-02
         0.32450E-02
         0.32450E-02
         0.29989E-02
         0.27193E-02
         0.26983E-02
         0.27828E-02
         0.27828E-02
         0.27009E-02
         0.31895E-02
         0.31895E-02
         0.32625E-02
         0.34631E-02
         0.37104E-02
         0.37104E-02
         0.36239E-02
         0.28237E-02
         0.29145E-02
         0.32445E-02
         0.32445E-02
         0.32020E-02
         0.29843E-02
         0.32833E-02
         0.32833E-02
         0.42427E-02
         0.35200E-02
         0.37654E-02
         0.42427E-02
         0.37654E-02
         0.37654E-02
         0.30097E-02
         0.32081E-02
         0.42427E-02
         0.32081E-02
         0.24171E-02
         0.29998E-02
         0.32461E-02
         0.26535E-02
         0.27193E-02
         0.42636E-02
         0.36455E-02
         0.42636E-02
         0.32081E-02
         0.29665E-02
         0.34626E-02
         0.32626E-02
         0.37100E-02
         0.32081E-02
         0.30777E-02
         0.35203E-02
         0.26838E-02
         0.26838E-02
         0.24613E-02
         0.27611E-02
         0.42636E-02
         0.35203E-02
         0.42636E-02
         0.34726E-02
         0.27278E-02
         0.31818E-02
         0.32461E-02
         0.26987E-02
         0.27827E-02
         0.27827E-02
         0.27010E-02
         0.31898E-02
         0.31898E-02
         0.37100E-02
         0.36238E-02
         0.28234E-02
         0.31673E-02
         0.33479E-02
         0.33479E-02
         0.32029E-02
         0.29842E-02
         0.32831E-02
         0.27278E-02
         0.31052E-02
         0.31818E-02
         0.32461E-02
         0.32461E-02
         0.29998E-02
         0.27193E-02
         0.26987E-02
         0.27827E-02
         0.27827E-02
         0.27010E-02
         0.31898E-02
         0.31898E-02
         0.32626E-02
         0.34626E-02
         0.37100E-02
         0.37100E-02
         0.36238E-02
         0.28234E-02
         0.29154E-02
         0.32457E-02
         0.32457E-02
         0.32029E-02
         0.29842E-02
         0.32831E-02
         0.32831E-02
         0.42428E-02
         0.35199E-02
         0.37660E-02
         0.42428E-02
         0.37660E-02
         0.37660E-02
         0.30099E-02
         0.32083E-02
         0.42428E-02
         0.32083E-02
         0.24170E-02
         0.30007E-02
         0.32471E-02
         0.26523E-02
         0.27194E-02
         0.42628E-02
         0.36446E-02
         0.42628E-02
         0.32083E-02
         0.29652E-02
         0.34622E-02
         0.32627E-02
         0.37096E-02
         0.32083E-02
         0.30766E-02
         0.35205E-02
         0.26823E-02
         0.26823E-02
         0.24608E-02
         0.27605E-02
         0.42628E-02
         0.35205E-02
         0.42628E-02
         0.34737E-02
         0.27279E-02
         0.31821E-02
         0.32471E-02
         0.26991E-02
         0.27827E-02
         0.27827E-02
         0.27011E-02
         0.31900E-02
         0.31900E-02
         0.37096E-02
         0.36237E-02
         0.28231E-02
         0.31679E-02
         0.33478E-02
         0.33478E-02
         0.32038E-02
         0.29841E-02
         0.32829E-02
         0.27279E-02
         0.31043E-02
         0.31821E-02
         0.32471E-02
         0.32471E-02
         0.30007E-02
         0.27194E-02
         0.26991E-02
         0.27827E-02
         0.27827E-02
         0.27011E-02
         0.31900E-02
         0.31900E-02
         0.32627E-02
         0.34622E-02
         0.37096E-02
         0.37096E-02
         0.36237E-02
         0.28231E-02
         0.29164E-02
         0.32468E-02
         0.32468E-02
         0.32038E-02
         0.29841E-02
         0.32829E-02
         0.32829E-02
         0.42429E-02
         0.35199E-02
         0.37665E-02
         0.42429E-02
         0.37665E-02
         0.37665E-02
         0.30101E-02
         0.32085E-02
         0.42429E-02
         0.32085E-02
         0.24168E-02
         0.30017E-02
         0.32482E-02
         0.26510E-02
         0.27194E-02
         0.42619E-02
         0.36437E-02
         0.42619E-02
         0.32085E-02
         0.29640E-02
         0.34618E-02
         0.32627E-02
         0.37092E-02
         0.32085E-02
         0.30755E-02
         0.35207E-02
         0.26808E-02
         0.26808E-02
         0.24603E-02
         0.27599E-02
         0.42619E-02
         0.35207E-02
         0.42619E-02
         0.34748E-02
         0.27279E-02
         0.31824E-02
         0.32482E-02
         0.26994E-02
         0.27827E-02
         0.27827E-02
         0.27012E-02
         0.31902E-02
         0.31902E-02
         0.37092E-02
         0.36236E-02
         0.28227E-02
         0.31684E-02
         0.33477E-02
         0.33477E-02
         0.32046E-02
         0.29840E-02
         0.32827E-02
         0.27279E-02
         0.31034E-02
         0.31824E-02
         0.32482E-02
         0.32482E-02
         0.30017E-02
         0.27194E-02
         0.26994E-02
         0.27827E-02
         0.27827E-02
         0.27012E-02
         0.31902E-02
         0.31902E-02
         0.32627E-02
         0.34618E-02
         0.37092E-02
         0.37092E-02
         0.36236E-02
         0.28227E-02
         0.29173E-02
         0.32479E-02
         0.32479E-02
         0.32046E-02
         0.29840E-02
         0.32827E-02
         0.32827E-02
         0.42431E-02
         0.35199E-02
         0.37670E-02
         0.42431E-02
         0.37670E-02
         0.37670E-02
         0.30102E-02
         0.32087E-02
         0.42431E-02
         0.32087E-02
         0.24167E-02
         0.30026E-02
         0.32493E-02
         0.26498E-02
         0.27194E-02
         0.42611E-02
         0.36427E-02
         0.42611E-02
         0.32087E-02
         0.29628E-02
         0.34613E-02
         0.32628E-02
         0.37089E-02
         0.32087E-02
         0.30744E-02
         0.35209E-02
         0.26794E-02
         0.26794E-02
         0.24598E-02
         0.27592E-02
         0.42611E-02
         0.35209E-02
         0.42611E-02
         0.34759E-02
         0.27280E-02
         0.31827E-02
         0.32493E-02
         0.26998E-02
         0.27827E-02
         0.27827E-02
         0.27013E-02
         0.31905E-02
         0.31905E-02
         0.37089E-02
         0.36235E-02
         0.28224E-02
         0.31689E-02
         0.33476E-02
         0.33476E-02
         0.32055E-02
         0.29839E-02
         0.32825E-02
         0.27280E-02
         0.31024E-02
         0.31827E-02
         0.32493E-02
         0.32493E-02
         0.30026E-02
         0.27194E-02
         0.26998E-02
         0.27827E-02
         0.27827E-02
         0.27013E-02
         0.31905E-02
         0.31905E-02
         0.32628E-02
         0.34613E-02
         0.37089E-02
         0.37089E-02
         0.36235E-02
         0.28224E-02
         0.29183E-02
         0.32490E-02
         0.32490E-02
         0.32055E-02
         0.29839E-02
         0.32825E-02
         0.32825E-02
         0.42432E-02
         0.35199E-02
         0.37675E-02
         0.42432E-02
         0.37675E-02
         0.37675E-02
         0.30104E-02
         0.32089E-02
         0.42432E-02
         0.32089E-02
         0.24166E-02
         0.30035E-02
         0.32504E-02
         0.26486E-02
         0.27195E-02
         0.42603E-02
         0.36418E-02
         0.42603E-02
         0.32089E-02
         0.29615E-02
         0.34609E-02
         0.32629E-02
         0.37085E-02
         0.32089E-02
         0.30732E-02
         0.35211E-02
         0.26779E-02
         0.26779E-02
         0.24593E-02
         0.27585E-02
         0.42603E-02
         0.35211E-02
         0.42603E-02
         0.34771E-02
         0.27281E-02
         0.31830E-02
         0.32504E-02
         0.27002E-02
         0.27827E-02
         0.27827E-02
         0.27014E-02
         0.31907E-02
         0.31907E-02
         0.37085E-02
         0.36233E-02
         0.28221E-02
         0.31694E-02
         0.33475E-02
         0.33475E-02
         0.32063E-02
         0.29838E-02
         0.32823E-02
         0.27281E-02
         0.31015E-02
         0.31830E-02
         0.32504E-02
         0.32504E-02
         0.30035E-02
         0.27195E-02
         0.27002E-02
         0.27827E-02
         0.27827E-02
         0.27014E-02
         0.31907E-02
         0.31907E-02
         0.32629E-02
         0.34609E-02
         0.37085E-02
         0.37085E-02
         0.36233E-02
         0.28221E-02
         0.29193E-02
         0.32501E-02
         0.32501E-02
         0.32063E-02
         0.29838E-02
         0.32823E-02
         0.32823E-02
         0.42433E-02
         0.35199E-02
         0.37680E-02
         0.42433E-02
         0.37680E-02
         0.37680E-02
         0.30106E-02
         0.32091E-02
         0.42433E-02
         0.32091E-02
         0.24164E-02
         0.30045E-02
         0.32514E-02
         0.26474E-02
         0.27195E-02
         0.42594E-02
         0.36409E-02
         0.42594E-02
         0.32091E-02
         0.29603E-02
         0.34605E-02
         0.32630E-02
         0.37081E-02
         0.32091E-02
         0.30721E-02
         0.35213E-02
         0.26765E-02
         0.26765E-02
         0.24588E-02
         0.27579E-02
         0.42594E-02
         0.35213E-02
         0.42594E-02
         0.34782E-02
         0.27281E-02
         0.31833E-02
         0.32514E-02
         0.27006E-02
         0.27826E-02
         0.27826E-02
         0.27015E-02
         0.31910E-02
         0.31910E-02
         0.37081E-02
         0.36232E-02
         0.28218E-02
         0.31700E-02
         0.33474E-02
         0.33474E-02
         0.32072E-02
         0.29836E-02
         0.32821E-02
         0.27281E-02
         0.31005E-02
         0.31833E-02
         0.32514E-02
         0.32514E-02
         0.30045E-02
         0.27195E-02
         0.27006E-02
         0.27826E-02
         0.27826E-02
         0.27015E-02
         0.31910E-02
         0.31910E-02
         0.32630E-02
         0.34605E-02
         0.37081E-02
         0.37081E-02
         0.36232E-02
         0.28218E-02
         0.29202E-02
         0.32512E-02
         0.32512E-02
         0.32072E-02
         0.29836E-02
         0.32821E-02
         0.32821E-02
         0.42435E-02
         0.35199E-02
         0.37685E-02
         0.42435E-02
         0.37685E-02
         0.37685E-02
         0.30108E-02
         0.32093E-02
         0.42435E-02
         0.32093E-02
         0.24163E-02
         0.30054E-02
         0.32525E-02
         0.26461E-02
         0.27196E-02
         0.42586E-02
         0.36399E-02
         0.42586E-02
         0.32093E-02
         0.29591E-02
         0.34601E-02
         0.32630E-02
         0.37077E-02
         0.32093E-02
         0.30710E-02
         0.35215E-02
         0.26750E-02
         0.26750E-02
         0.24583E-02
         0.27572E-02
         0.42586E-02
         0.35215E-02
         0.42586E-02
         0.34793E-02
         0.27282E-02
         0.31836E-02
         0.32525E-02
         0.27010E-02
         0.27826E-02
         0.27826E-02
         0.27016E-02
         0.31912E-02
         0.31912E-02
         0.37077E-02
         0.36231E-02
         0.28215E-02
         0.31705E-02
         0.33473E-02
         0.33473E-02
         0.32080E-02
         0.29835E-02
         0.32819E-02
         0.27282E-02
         0.30996E-02
         0.31836E-02
         0.32525E-02
         0.32525E-02
         0.30054E-02
         0.27196E-02
         0.27010E-02
         0.27826E-02
         0.27826E-02
         0.27016E-02
         0.31912E-02
         0.31912E-02
         0.32630E-02
         0.34601E-02
         0.37077E-02
         0.37077E-02
         0.36231E-02
         0.28215E-02
         0.29212E-02
         0.32524E-02
         0.32524E-02
         0.32080E-02
         0.29835E-02
         0.32819E-02
         0.32819E-02
         0.42436E-02
         0.35198E-02
         0.37690E-02
         0.42436E-02
         0.37690E-02
         0.37690E-02
         0.30110E-02
         0.32095E-02
         0.42436E-02
         0.32095E-02
         0.24162E-02
         0.30064E-02
         0.32536E-02
         0.26449E-02
         0.27196E-02
         0.42577E-02
         0.36390E-02
         0.42577E-02
         0.32096E-02
         0.29578E-02
         0.34596E-02
         0.32631E-02
         0.37074E-02
         0.32096E-02
         0.30699E-02
         0.35217E-02
         0.26735E-02
         0.26735E-02
         0.24578E-02
         0.27566E-02
         0.42577E-02
         0.35217E-02
         0.42577E-02
         0.34804E-02
         0.27283E-02
         0.31839E-02
         0.32536E-02
         0.27013E-02
         0.27826E-02
         0.27826E-02
         0.27017E-02
         0.31915E-02
         0.31915E-02
         0.37074E-02
         0.36230E-02
         0.28211E-02
         0.31710E-02
         0.33472E-02
         0.33472E-02
         0.32089E-02
         0.29834E-02
         0.32817E-02
         0.27283E-02
         0.30986E-02
         0.31839E-02
         0.32536E-02
         0.32536E-02
         0.30064E-02
         0.27196E-02
         0.27013E-02
         0.27826E-02
         0.27826E-02
         0.27017E-02
         0.31915E-02
         0.31915E-02
         0.32631E-02
         0.34596E-02
         0.37074E-02
         0.37074E-02
         0.36230E-02
         0.28211E-02
         0.29221E-02
         0.32535E-02
         0.32535E-02
         0.32089E-02
         0.29834E-02
         0.32817E-02
         0.32817E-02
         0.42437E-02
         0.35198E-02
         0.37695E-02
         0.42437E-02
         0.37695E-02
         0.37695E-02
         0.30112E-02
         0.32097E-02
         0.42437E-02
         0.32097E-02
         0.24160E-02
         0.30073E-02
         0.32547E-02
         0.26437E-02
         0.27197E-02
         0.42569E-02
         0.36381E-02
         0.42569E-02
         0.32098E-02
         0.29566E-02
         0.34592E-02
         0.32632E-02
         0.37070E-02
         0.32098E-02
         0.30688E-02
         0.35219E-02
         0.26721E-02
         0.26721E-02
         0.24573E-02
         0.27560E-02
         0.42569E-02
         0.35219E-02
         0.42569E-02
         0.34815E-02
         0.27284E-02
         0.31843E-02
         0.32547E-02
         0.27017E-02
         0.27826E-02
         0.27826E-02
         0.27018E-02
         0.31917E-02
         0.31917E-02
         0.37070E-02
         0.36229E-02
         0.28208E-02
         0.31716E-02
         0.33471E-02
         0.33471E-02
         0.32097E-02
         0.29833E-02
         0.32815E-02
         0.27284E-02
         0.30977E-02
         0.31843E-02
         0.32547E-02
         0.32547E-02
         0.30073E-02
         0.27197E-02
         0.27017E-02
         0.27826E-02
         0.27826E-02
         0.27018E-02
         0.31917E-02
         0.31917E-02
         0.32632E-02
         0.34592E-02
         0.37070E-02
         0.37070E-02
         0.36229E-02
         0.28208E-02
         0.29231E-02
         0.32546E-02
         0.32546E-02
         0.32097E-02
         0.29833E-02
         0.32815E-02
         0.32815E-02
         0.42439E-02
         0.35198E-02
         0.37701E-02
         0.42439E-02
         0.37701E-02
         0.37701E-02
         0.30113E-02
         0.32099E-02
         0.42439E-02
         0.32099E-02
         0.24159E-02
         0.30082E-02
         0.32558E-02
         0.26425E-02
         0.27197E-02
         0.42560E-02
         0.36371E-02
         0.42560E-02
         0.32100E-02
         0.29554E-02
         0.34588E-02
         0.32633E-02
         0.37066E-02
         0.32100E-02
         0.30677E-02
         0.35221E-02
         0.26706E-02
         0.26706E-02
         0.24568E-02
         0.27553E-02
         0.42560E-02
         0.35221E-02
         0.42560E-02
         0.34827E-02
         0.27284E-02
         0.31846E-02
         0.32558E-02
         0.27021E-02
         0.27826E-02
         0.27826E-02
         0.27019E-02
         0.31920E-02
         0.31920E-02
         0.37066E-02
         0.36227E-02
         0.28205E-02
         0.31721E-02
         0.33470E-02
         0.33470E-02
         0.32106E-02
         0.29831E-02
         0.32813E-02
         0.27284E-02
         0.30968E-02
         0.31846E-02
         0.32558E-02
         0.32558E-02
         0.30082E-02
         0.27197E-02
         0.27021E-02
         0.27826E-02
         0.27826E-02
         0.27019E-02
         0.31920E-02
         0.31920E-02
         0.32633E-02
         0.34588E-02
         0.37066E-02
         0.37066E-02
         0.36227E-02
         0.28205E-02
         0.29241E-02
         0.32557E-02
         0.32557E-02
         0.32106E-02
         0.29831E-02
         0.32813E-02
         0.32813E-02
         0.42440E-02
         0.35198E-02
         0.37706E-02
         0.42440E-02
         0.37706E-02
         0.37706E-02
         0.30115E-02
         0.32101E-02
         0.42440E-02
         0.32101E-02
         0.24158E-02
         0.30091E-02
         0.32568E-02
         0.26412E-02
         0.27198E-02
         0.42552E-02
         0.36362E-02
         0.42552E-02
         0.32102E-02
         0.29541E-02
         0.34583E-02
         0.32633E-02
         0.37062E-02
         0.32102E-02
         0.30665E-02
         0.35223E-02
         0.26692E-02
         0.26692E-02
         0.24563E-02
         0.27546E-02
         0.42552E-02
         0.35223E-02
         0.42552E-02
         0.34838E-02
         0.27285E-02
         0.31849E-02
         0.32568E-02
         0.27025E-02
         0.27826E-02
         0.27826E-02
         0.27020E-02
         0.31922E-02
         0.31922E-02
         0.37062E-02
         0.36226E-02
         0.28202E-02
         0.31726E-02
         0.33469E-02
         0.33469E-02
         0.32114E-02
         0.29830E-02
         0.32811E-02
         0.27285E-02
         0.30958E-02
         0.31849E-02
         0.32568E-02
         0.32568E-02
         0.30091E-02
         0.27198E-02
         0.27025E-02
         0.27826E-02
         0.27826E-02
         0.27020E-02
         0.31922E-02
         0.31922E-02
         0.32633E-02
         0.34583E-02
         0.37062E-02
         0.37062E-02
         0.36226E-02
         0.28202E-02
         0.29250E-02
         0.32568E-02
         0.32568E-02
         0.32114E-02
         0.29830E-02
         0.32811E-02
         0.32811E-02
         0.42441E-02
         0.35198E-02
         0.37711E-02
         0.42441E-02
         0.37711E-02
         0.37711E-02
         0.30117E-02
         0.32103E-02
         0.42441E-02
         0.32103E-02
         0.24156E-02
         0.30101E-02
         0.32579E-02
         0.26400E-02
         0.27198E-02
         0.42543E-02
         0.36353E-02
         0.42543E-02
         0.32104E-02
         0.29529E-02
         0.34579E-02
         0.32634E-02
         0.37058E-02
         0.32104E-02
         0.30654E-02
         0.35225E-02
         0.26677E-02
         0.26677E-02
         0.24558E-02
         0.27540E-02
         0.42543E-02
         0.35225E-02
         0.42543E-02
         0.34849E-02
         0.27286E-02
         0.31852E-02
         0.32579E-02
         0.27029E-02
         0.27826E-02
         0.27826E-02
         0.27021E-02
         0.31924E-02
         0.31924E-02
         0.37058E-02
         0.36225E-02
         0.28198E-02
         0.31731E-02
         0.33468E-02
         0.33468E-02
         0.32123E-02
         0.29829E-02
         0.32809E-02
         0.27286E-02
         0.30949E-02
         0.31852E-02
         0.32579E-02
         0.32579E-02
         0.30101E-02
         0.27198E-02
         0.27029E-02
         0.27826E-02
         0.27826E-02
         0.27021E-02
         0.31924E-02
         0.31924E-02
         0.32634E-02
         0.34579E-02
         0.37058E-02
         0.37058E-02
         0.36225E-02
         0.28198E-02
         0.29260E-02
         0.32579E-02
         0.32579E-02
         0.32123E-02
         0.29829E-02
         0.32809E-02
         0.32809E-02
         0.42443E-02
         0.35197E-02
         0.37716E-02
         0.42443E-02
         0.37716E-02
         0.37716E-02
         0.30119E-02
         0.32105E-02
         0.42443E-02
         0.32105E-02
         0.24155E-02
         0.30110E-02
         0.32590E-02
         0.26388E-02
         0.27199E-02
         0.42535E-02
         0.36343E-02
         0.42535E-02
         0.32106E-02
         0.29517E-02
         0.34575E-02
         0.32635E-02
         0.37055E-02
         0.32106E-02
         0.30643E-02
         0.35227E-02
         0.26663E-02
         0.26663E-02
         0.24553E-02
         0.27533E-02
         0.42535E-02
         0.35227E-02
         0.42535E-02
         0.34860E-02
         0.27286E-02
         0.31855E-02
         0.32590E-02
         0.27032E-02
         0.27826E-02
         0.27826E-02
         0.27022E-02
         0.31927E-02
         0.31927E-02
         0.37055E-02
         0.36224E-02
         0.28195E-02
         0.31737E-02
         0.33467E-02
         0.33467E-02
         0.32132E-02
         0.29828E-02
         0.32807E-02
         0.27286E-02
         0.30939E-02
         0.31855E-02
         0.32590E-02
         0.32590E-02
         0.30110E-02
         0.27199E-02
         0.27032E-02
         0.27826E-02
         0.27826E-02
         0.27022E-02
         0.31927E-02
         0.31927E-02
         0.32635E-02
         0.34575E-02
         0.37055E-02
         0.37055E-02
         0.36224E-02
         0.28195E-02
         0.29269E-02
         0.32591E-02
         0.32591E-02
         0.32132E-02
         0.29828E-02
         0.32807E-02
         0.32807E-02
         0.42444E-02
         0.35197E-02
         0.37721E-02
         0.42444E-02
         0.37721E-02
         0.37721E-02
         0.30121E-02
         0.32107E-02
         0.42444E-02
         0.32107E-02
         0.24154E-02
         0.30119E-02
         0.32601E-02
         0.26376E-02
         0.27199E-02
         0.42527E-02
         0.36334E-02
         0.42527E-02
         0.32108E-02
         0.29504E-02
         0.34571E-02
         0.32636E-02
         0.37051E-02
         0.32108E-02
         0.30632E-02
         0.35229E-02
         0.26648E-02
         0.26648E-02
         0.24552E-02
         0.27527E-02
         0.42527E-02
         0.35229E-02
         0.42527E-02
         0.34871E-02
         0.27287E-02
         0.31858E-02
         0.32601E-02
         0.27036E-02
         0.27825E-02
         0.27825E-02
         0.27023E-02
         0.31929E-02
         0.31929E-02
         0.37051E-02
         0.36223E-02
         0.28192E-02
         0.31742E-02
         0.33466E-02
         0.33466E-02
         0.32140E-02
         0.29827E-02
         0.32805E-02
         0.27287E-02
         0.30930E-02
         0.31858E-02
         0.32601E-02
         0.32601E-02
         0.30119E-02
         0.27199E-02
         0.27036E-02
         0.27825E-02
         0.27825E-02
         0.27023E-02
         0.31929E-02
         0.31929E-02
         0.32636E-02
         0.34571E-02
         0.37051E-02
         0.37051E-02
         0.36223E-02
         0.28192E-02
         0.29279E-02
         0.32602E-02
         0.32602E-02
         0.32140E-02
         0.29827E-02
         0.32805E-02
         0.32805E-02
         0.42445E-02
         0.35197E-02
         0.37726E-02
         0.42445E-02
         0.37726E-02
         0.37726E-02
         0.30123E-02
         0.32108E-02
         0.42445E-02
         0.32108E-02
         0.24152E-02
         0.30129E-02
         0.32611E-02
         0.26363E-02
         0.27200E-02
         0.42518E-02
         0.36325E-02
         0.42518E-02
         0.32110E-02
         0.29492E-02
         0.34566E-02
         0.32636E-02
         0.37047E-02
         0.32110E-02
         0.30621E-02
         0.35231E-02
         0.26633E-02
         0.26633E-02
         0.24554E-02
         0.27520E-02
         0.42518E-02
         0.35231E-02
         0.42518E-02
         0.34882E-02
         0.27288E-02
         0.31861E-02
         0.32611E-02
         0.27040E-02
         0.27825E-02
         0.27825E-02
         0.27024E-02
         0.31932E-02
         0.31932E-02
         0.37047E-02
         0.36222E-02
         0.28189E-02
         0.31747E-02
         0.33465E-02
         0.33465E-02
         0.32149E-02
         0.29826E-02
         0.32803E-02
         0.27288E-02
         0.30921E-02
         0.31861E-02
         0.32611E-02
         0.32611E-02
         0.30129E-02
         0.27200E-02
         0.27040E-02
         0.27825E-02
         0.27825E-02
         0.27024E-02
         0.31932E-02
         0.31932E-02
         0.32636E-02
         0.34566E-02
         0.37047E-02
         0.37047E-02
         0.36222E-02
         0.28189E-02
         0.29289E-02
         0.32613E-02
         0.32613E-02
         0.32149E-02
         0.29826E-02
         0.32803E-02
         0.32803E-02
         0.42447E-02
         0.35196E-02
         0.37732E-02
         0.42447E-02
         0.37732E-02
         0.37732E-02
         0.30125E-02
         0.32111E-02
         0.42447E-02
         0.32111E-02
         0.24151E-02
         0.30138E-02
         0.32622E-02
         0.26351E-02
         0.27200E-02
         0.42510E-02
         0.36315E-02
         0.42510E-02
         0.32112E-02
         0.29480E-02
         0.34562E-02
         0.32637E-02
         0.37043E-02
         0.32112E-02
         0.30610E-02
         0.35233E-02
         0.26619E-02
         0.26619E-02
         0.24557E-02
         0.27514E-02
         0.42510E-02
         0.35233E-02
         0.42510E-02
         0.34894E-02
         0.27289E-02
         0.31864E-02
         0.32622E-02
         0.27044E-02
         0.27825E-02
         0.27825E-02
         0.27025E-02
         0.31934E-02
         0.31934E-02
         0.37043E-02
         0.36220E-02
         0.28186E-02
         0.31753E-02
         0.33464E-02
         0.33464E-02
         0.32157E-02
         0.29824E-02
         0.32801E-02
         0.27289E-02
         0.30911E-02
         0.31864E-02
         0.32622E-02
         0.32622E-02
         0.30138E-02
         0.27200E-02
         0.27044E-02
         0.27825E-02
         0.27825E-02
         0.27025E-02
         0.31934E-02
         0.31934E-02
         0.32637E-02
         0.34562E-02
         0.37043E-02
         0.37043E-02
         0.36220E-02
         0.28186E-02
         0.29298E-02
         0.32624E-02
         0.32624E-02
         0.32157E-02
         0.29824E-02
         0.32801E-02
         0.32801E-02
         0.42448E-02
         0.35196E-02
         0.37737E-02
         0.42448E-02
         0.37737E-02
         0.37737E-02
         0.30126E-02
         0.32112E-02
         0.42448E-02
         0.32112E-02
         0.24150E-02
         0.30147E-02
         0.32633E-02
         0.26339E-02
         0.27200E-02
         0.42501E-02
         0.36306E-02
         0.42501E-02
         0.32114E-02
         0.29467E-02
         0.34558E-02
         0.32638E-02
         0.37039E-02
         0.32114E-02
         0.30598E-02
         0.35235E-02
         0.26604E-02
         0.26604E-02
         0.24559E-02
         0.27507E-02
         0.42501E-02
         0.35235E-02
         0.42501E-02
         0.34905E-02
         0.27289E-02
         0.31867E-02
         0.32633E-02
         0.27048E-02
         0.27825E-02
         0.27825E-02
         0.27026E-02
         0.31937E-02
         0.31937E-02
         0.37039E-02
         0.36219E-02
         0.28183E-02
         0.31758E-02
         0.33463E-02
         0.33463E-02
         0.32166E-02
         0.29823E-02
         0.32799E-02
         0.27289E-02
         0.30902E-02
         0.31867E-02
         0.32633E-02
         0.32633E-02
         0.30147E-02
         0.27200E-02
         0.27048E-02
         0.27825E-02
         0.27825E-02
         0.27026E-02
         0.31937E-02
         0.31937E-02
         0.32638E-02
         0.34558E-02
         0.37039E-02
         0.37039E-02
         0.36219E-02
         0.28183E-02
         0.29308E-02
         0.32635E-02
         0.32635E-02
         0.32166E-02
         0.29823E-02
         0.32799E-02
         0.32799E-02
         0.42448E-02
         0.35196E-02
         0.37737E-02
         0.42448E-02
         0.37737E-02
         0.37737E-02
         0.30126E-02
         0.32112E-02
         0.42448E-02
         0.32112E-02
         0.24148E-02
         0.30147E-02
         0.32633E-02
         0.26327E-02
         0.27200E-02
         0.42493E-02
         0.36297E-02
         0.42493E-02
         0.32114E-02
         0.29455E-02
         0.34553E-02
         0.32638E-02
         0.37036E-02
         0.32114E-02
         0.30587E-02
         0.35235E-02
         0.26590E-02
         0.26590E-02
         0.24559E-02
         0.27501E-02
         0.42493E-02
         0.35235E-02
         0.42493E-02
         0.34905E-02
         0.27289E-02
         0.31867E-02
         0.32633E-02
         0.27048E-02
         0.27825E-02
         0.27825E-02
         0.27026E-02
         0.31937E-02
         0.31937E-02
         0.37036E-02
         0.36218E-02
         0.28180E-02
         0.31758E-02
         0.33462E-02
         0.33462E-02
         0.32166E-02
         0.29822E-02
         0.32797E-02
         0.27289E-02
         0.30892E-02
         0.31867E-02
         0.32633E-02
         0.32633E-02
         0.30147E-02
         0.27200E-02
         0.27048E-02
         0.27825E-02
         0.27825E-02
         0.27026E-02
         0.31937E-02
         0.31937E-02
         0.32638E-02
         0.34553E-02
         0.37036E-02
         0.37036E-02
         0.36218E-02
         0.28180E-02
         0.29308E-02
         0.32635E-02
         0.32635E-02
         0.32166E-02
         0.29822E-02
         0.32797E-02
         0.32797E-02
  
SCALARS              physical_window_y  double 1
LOOKUP_TABLE default
         0.43155E-02
         0.43155E-02
         0.43155E-02
         0.43155E-02
         0.43155E-02
         0.43155E-02
         0.43155E-02
         0.43155E-02
         0.34883E-02
         0.34883E-02
         0.34882E-02
         0.34882E-02
         0.32826E-02
         0.32142E-02
         0.32826E-02
         0.32142E-02
         0.37863E-02
         0.31884E-02
         0.37863E-02
         0.31884E-02
         0.27172E-02
         0.33887E-02
         0.37164E-02
         0.27172E-02
         0.33887E-02
         0.37164E-02
         0.27582E-02
         0.28966E-02
         0.27582E-02
         0.28954E-02
         0.37007E-02
         0.35859E-02
         0.37863E-02
         0.37007E-02
         0.35824E-02
         0.37863E-02
         0.29875E-02
         0.29875E-02
         0.29867E-02
         0.29867E-02
         0.28561E-02
         0.26860E-02
         0.28556E-02
         0.26852E-02
         0.29518E-02
         0.28068E-02
         0.29517E-02
         0.28066E-02
         0.29975E-02
         0.29949E-02
         0.37007E-02
         0.37007E-02
         0.28693E-02
         0.28693E-02
         0.28693E-02
         0.28693E-02
         0.27602E-02
         0.26193E-02
         0.27602E-02
         0.26193E-02
         0.37007E-02
         0.37007E-02
         0.37007E-02
         0.37007E-02
         0.37685E-02
         0.37665E-02
         0.37685E-02
         0.37665E-02
         0.30230E-02
         0.37003E-02
         0.30229E-02
         0.37003E-02
         0.37164E-02
         0.37164E-02
         0.31934E-02
         0.31921E-02
         0.32777E-02
         0.32771E-02
         0.32777E-02
         0.32771E-02
         0.27006E-02
         0.25920E-02
         0.27006E-02
         0.25920E-02
         0.25916E-02
         0.25916E-02
         0.29715E-02
         0.29715E-02
         0.29715E-02
         0.29715E-02
         0.26477E-02
         0.29102E-02
         0.26477E-02
         0.29102E-02
         0.34085E-02
         0.34085E-02
         0.35350E-02
         0.35350E-02
         0.35350E-02
         0.35350E-02
         0.29766E-02
         0.32272E-02
         0.29763E-02
         0.32254E-02
         0.29087E-02
         0.29835E-02
         0.29087E-02
         0.29825E-02
         0.37003E-02
         0.37003E-02
         0.37164E-02
         0.37164E-02
         0.37164E-02
         0.37164E-02
         0.33887E-02
         0.33887E-02
         0.28966E-02
         0.28954E-02
         0.31934E-02
         0.31921E-02
         0.32777E-02
         0.32771E-02
         0.32777E-02
         0.32771E-02
         0.27006E-02
         0.27006E-02
         0.25920E-02
         0.25920E-02
         0.25916E-02
         0.25916E-02
         0.26860E-02
         0.26852E-02
         0.28561E-02
         0.28556E-02
         0.29518E-02
         0.29517E-02
         0.29715E-02
         0.29715E-02
         0.29715E-02
         0.29715E-02
         0.26477E-02
         0.26477E-02
         0.27685E-02
         0.27685E-02
         0.34085E-02
         0.34085E-02
         0.35350E-02
         0.35350E-02
         0.35350E-02
         0.35350E-02
         0.29766E-02
         0.29763E-02
         0.31381E-02
         0.31368E-02
         0.31381E-02
         0.31368E-02
         0.43153E-02
         0.43153E-02
         0.43153E-02
         0.43153E-02
         0.34883E-02
         0.34883E-02
         0.32812E-02
         0.32132E-02
         0.37858E-02
         0.31880E-02
         0.27155E-02
         0.33883E-02
         0.37163E-02
         0.27535E-02
         0.28978E-02
         0.37004E-02
         0.35894E-02
         0.37858E-02
         0.29882E-02
         0.29882E-02
         0.28566E-02
         0.26867E-02
         0.29519E-02
         0.28071E-02
         0.30001E-02
         0.37004E-02
         0.28667E-02
         0.28667E-02
         0.27589E-02
         0.26183E-02
         0.37004E-02
         0.37004E-02
         0.37706E-02
         0.37706E-02
         0.30232E-02
         0.36991E-02
         0.37163E-02
         0.31947E-02
         0.32784E-02
         0.32784E-02
         0.27006E-02
         0.25920E-02
         0.25909E-02
         0.29715E-02
         0.29715E-02
         0.26476E-02
         0.29101E-02
         0.34078E-02
         0.35344E-02
         0.35344E-02
         0.29769E-02
         0.32290E-02
         0.29059E-02
         0.29845E-02
         0.36991E-02
         0.37163E-02
         0.37163E-02
         0.33883E-02
         0.28978E-02
         0.31947E-02
         0.32784E-02
         0.32784E-02
         0.27006E-02
         0.25920E-02
         0.25909E-02
         0.26867E-02
         0.28566E-02
         0.29519E-02
         0.29715E-02
         0.29715E-02
         0.26476E-02
         0.27685E-02
         0.34078E-02
         0.35344E-02
         0.35344E-02
         0.29769E-02
         0.31395E-02
         0.31395E-02
         0.43150E-02
         0.43150E-02
         0.43150E-02
         0.43150E-02
         0.34884E-02
         0.34884E-02
         0.32798E-02
         0.32122E-02
         0.37853E-02
         0.31876E-02
         0.27137E-02
         0.33879E-02
         0.37162E-02
         0.27488E-02
         0.28990E-02
         0.37001E-02
         0.35930E-02
         0.37853E-02
         0.29889E-02
         0.29889E-02
         0.28571E-02
         0.26875E-02
         0.29521E-02
         0.28074E-02
         0.30027E-02
         0.37001E-02
         0.28641E-02
         0.28641E-02
         0.27576E-02
         0.26173E-02
         0.37001E-02
         0.37001E-02
         0.37727E-02
         0.37727E-02
         0.30234E-02
         0.36979E-02
         0.37162E-02
         0.31960E-02
         0.32790E-02
         0.32790E-02
         0.27006E-02
         0.25920E-02
         0.25902E-02
         0.29715E-02
         0.29715E-02
         0.26476E-02
         0.29100E-02
         0.34071E-02
         0.35339E-02
         0.35339E-02
         0.29772E-02
         0.32307E-02
         0.29032E-02
         0.29855E-02
         0.36979E-02
         0.37162E-02
         0.37162E-02
         0.33879E-02
         0.28990E-02
         0.31960E-02
         0.32790E-02
         0.32790E-02
         0.27006E-02
         0.25920E-02
         0.25902E-02
         0.26875E-02
         0.28571E-02
         0.29521E-02
         0.29715E-02
         0.29715E-02
         0.26476E-02
         0.27684E-02
         0.34071E-02
         0.35339E-02
         0.35339E-02
         0.29772E-02
         0.31408E-02
         0.31408E-02
         0.43148E-02
         0.43148E-02
         0.43148E-02
         0.43148E-02
         0.34885E-02
         0.34885E-02
         0.32783E-02
         0.32112E-02
         0.37849E-02
         0.31872E-02
         0.27120E-02
         0.33875E-02
         0.37161E-02
         0.27441E-02
         0.29003E-02
         0.36998E-02
         0.35965E-02
         0.37849E-02
         0.29896E-02
         0.29896E-02
         0.28575E-02
         0.26882E-02
         0.29522E-02
         0.28077E-02
         0.30053E-02
         0.36998E-02
         0.28615E-02
         0.28615E-02
         0.27563E-02
         0.26163E-02
         0.36998E-02
         0.36998E-02
         0.37747E-02
         0.37747E-02
         0.30236E-02
         0.36967E-02
         0.37161E-02
         0.31973E-02
         0.32796E-02
         0.32796E-02
         0.27006E-02
         0.25920E-02
         0.25895E-02
         0.29714E-02
         0.29714E-02
         0.26475E-02
         0.29099E-02
         0.34063E-02
         0.35333E-02
         0.35333E-02
         0.29775E-02
         0.32325E-02
         0.29004E-02
         0.29865E-02
         0.36967E-02
         0.37161E-02
         0.37161E-02
         0.33875E-02
         0.29003E-02
         0.31973E-02
         0.32796E-02
         0.32796E-02
         0.27006E-02
         0.25920E-02
         0.25895E-02
         0.26882E-02
         0.28575E-02
         0.29522E-02
         0.29714E-02
         0.29714E-02
         0.26475E-02
         0.27684E-02
         0.34063E-02
         0.35333E-02
         0.35333E-02
         0.29775E-02
         0.31422E-02
         0.31422E-02
         0.43145E-02
         0.43145E-02
         0.43145E-02
         0.43145E-02
         0.34886E-02
         0.34886E-02
         0.32769E-02
         0.32102E-02
         0.37844E-02
         0.31868E-02
         0.27103E-02
         0.33871E-02
         0.37160E-02
         0.27394E-02
         0.29015E-02
         0.36995E-02
         0.36000E-02
         0.37844E-02
         0.29903E-02
         0.29903E-02
         0.28580E-02
         0.26890E-02
         0.29523E-02
         0.28079E-02
         0.30079E-02
         0.36995E-02
         0.28589E-02
         0.28589E-02
         0.27550E-02
         0.26152E-02
         0.36995E-02
         0.36995E-02
         0.37768E-02
         0.37768E-02
         0.30238E-02
         0.36956E-02
         0.37160E-02
         0.31986E-02
         0.32802E-02
         0.32802E-02
         0.27006E-02
         0.25920E-02
         0.25887E-02
         0.29714E-02
         0.29714E-02
         0.26475E-02
         0.29098E-02
         0.34056E-02
         0.35327E-02
         0.35327E-02
         0.29778E-02
         0.32342E-02
         0.28977E-02
         0.29875E-02
         0.36956E-02
         0.37160E-02
         0.37160E-02
         0.33871E-02
         0.29015E-02
         0.31986E-02
         0.32802E-02
         0.32802E-02
         0.27006E-02
         0.25920E-02
         0.25887E-02
         0.26890E-02
         0.28580E-02
         0.29523E-02
         0.29714E-02
         0.29714E-02
         0.26475E-02
         0.27683E-02
         0.34056E-02
         0.35327E-02
         0.35327E-02
         0.29778E-02
         0.31435E-02
         0.31435E-02
         0.43143E-02
         0.43143E-02
         0.43143E-02
         0.43143E-02
         0.34887E-02
         0.34887E-02
         0.32755E-02
         0.32091E-02
         0.37839E-02
         0.31864E-02
         0.27086E-02
         0.33867E-02
         0.37159E-02
         0.27347E-02
         0.29027E-02
         0.36991E-02
         0.36036E-02
         0.37839E-02
         0.29920E-02
         0.29920E-02
         0.28585E-02
         0.26897E-02
         0.29525E-02
         0.28082E-02
         0.30105E-02
         0.36991E-02
         0.28563E-02
         0.28563E-02
         0.27537E-02
         0.26142E-02
         0.36991E-02
         0.36991E-02
         0.37789E-02
         0.37789E-02
         0.30240E-02
         0.36944E-02
         0.37159E-02
         0.31999E-02
         0.32808E-02
         0.32808E-02
         0.27006E-02
         0.25920E-02
         0.25880E-02
         0.29714E-02
         0.29714E-02
         0.26474E-02
         0.29097E-02
         0.34049E-02
         0.35322E-02
         0.35322E-02
         0.29781E-02
         0.32360E-02
         0.28949E-02
         0.29885E-02
         0.36944E-02
         0.37159E-02
         0.37159E-02
         0.33867E-02
         0.29027E-02
         0.31999E-02
         0.32808E-02
         0.32808E-02
         0.27006E-02
         0.25920E-02
         0.25880E-02
         0.26897E-02
         0.28585E-02
         0.29525E-02
         0.29714E-02
         0.29714E-02
         0.26474E-02
         0.27683E-02
         0.34049E-02
         0.35322E-02
         0.35322E-02
         0.29781E-02
         0.31449E-02
         0.31449E-02
         0.43140E-02
         0.43140E-02
         0.43140E-02
         0.43140E-02
         0.34888E-02
         0.34888E-02
         0.32740E-02
         0.32081E-02
         0.37834E-02
         0.31860E-02
         0.27069E-02
         0.33863E-02
         0.37158E-02
         0.27299E-02
         0.29039E-02
         0.36988E-02
         0.36071E-02
         0.37834E-02
         0.29946E-02
         0.29946E-02
         0.28589E-02
         0.26905E-02
         0.29526E-02
         0.28085E-02
         0.30131E-02
         0.36988E-02
         0.28538E-02
         0.28538E-02
         0.27524E-02
         0.26132E-02
         0.36988E-02
         0.36988E-02
         0.37809E-02
         0.37809E-02
         0.30241E-02
         0.36932E-02
         0.37158E-02
         0.32012E-02
         0.32814E-02
         0.32814E-02
         0.27006E-02
         0.25920E-02
         0.25873E-02
         0.29714E-02
         0.29714E-02
         0.26473E-02
         0.29097E-02
         0.34041E-02
         0.35316E-02
         0.35316E-02
         0.29784E-02
         0.32378E-02
         0.28921E-02
         0.29895E-02
         0.36932E-02
         0.37158E-02
         0.37158E-02
         0.33863E-02
         0.29039E-02
         0.32012E-02
         0.32814E-02
         0.32814E-02
         0.27006E-02
         0.25920E-02
         0.25873E-02
         0.26905E-02
         0.28589E-02
         0.29526E-02
         0.29714E-02
         0.29714E-02
         0.26473E-02
         0.27683E-02
         0.34041E-02
         0.35316E-02
         0.35316E-02
         0.29784E-02
         0.31463E-02
         0.31463E-02
         0.43138E-02
         0.43138E-02
         0.43138E-02
         0.43138E-02
         0.34888E-02
         0.34888E-02
         0.32726E-02
         0.32071E-02
         0.37830E-02
         0.31856E-02
         0.27051E-02
         0.33859E-02
         0.37157E-02
         0.27252E-02
         0.29051E-02
         0.36985E-02
         0.36106E-02
         0.37830E-02
         0.29972E-02
         0.29972E-02
         0.28594E-02
         0.26912E-02
         0.29528E-02
         0.28087E-02
         0.30156E-02
         0.36985E-02
         0.28512E-02
         0.28512E-02
         0.27512E-02
         0.26122E-02
         0.36985E-02
         0.36985E-02
         0.37830E-02
         0.37830E-02
         0.30243E-02
         0.36920E-02
         0.37157E-02
         0.32025E-02
         0.32821E-02
         0.32821E-02
         0.27006E-02
         0.25920E-02
         0.25866E-02
         0.29714E-02
         0.29714E-02
         0.26473E-02
         0.29096E-02
         0.34034E-02
         0.35310E-02
         0.35310E-02
         0.29787E-02
         0.32396E-02
         0.28894E-02
         0.29905E-02
         0.36920E-02
         0.37157E-02
         0.37157E-02
         0.33859E-02
         0.29051E-02
         0.32025E-02
         0.32821E-02
         0.32821E-02
         0.27006E-02
         0.25920E-02
         0.25866E-02
         0.26912E-02
         0.28594E-02
         0.29528E-02
         0.29714E-02
         0.29714E-02
         0.26473E-02
         0.27682E-02
         0.34034E-02
         0.35310E-02
         0.35310E-02
         0.29787E-02
         0.31476E-02
         0.31476E-02
         0.43135E-02
         0.43135E-02
         0.43135E-02
         0.43135E-02
         0.34889E-02
         0.34889E-02
         0.32712E-02
         0.32061E-02
         0.37825E-02
         0.31852E-02
         0.27034E-02
         0.33856E-02
         0.37156E-02
         0.27205E-02
         0.29063E-02
         0.36982E-02
         0.36142E-02
         0.37851E-02
         0.29998E-02
         0.29998E-02
         0.28599E-02
         0.26920E-02
         0.29529E-02
         0.28090E-02
         0.30182E-02
         0.36982E-02
         0.28486E-02
         0.28486E-02
         0.27499E-02
         0.26112E-02
         0.36982E-02
         0.36982E-02
         0.37851E-02
         0.37851E-02
         0.30245E-02
         0.36908E-02
         0.37156E-02
         0.32038E-02
         0.32827E-02
         0.32827E-02
         0.27006E-02
         0.25920E-02
         0.25859E-02
         0.29714E-02
         0.29714E-02
         0.26472E-02
         0.29095E-02
         0.34027E-02
         0.35304E-02
         0.35304E-02
         0.29790E-02
         0.32413E-02
         0.28866E-02
         0.29915E-02
         0.36908E-02
         0.37156E-02
         0.37156E-02
         0.33856E-02
         0.29063E-02
         0.32038E-02
         0.32827E-02
         0.32827E-02
         0.27006E-02
         0.25920E-02
         0.25859E-02
         0.26920E-02
         0.28599E-02
         0.29529E-02
         0.29714E-02
         0.29714E-02
         0.26472E-02
         0.27682E-02
         0.34027E-02
         0.35304E-02
         0.35304E-02
         0.29790E-02
         0.31490E-02
         0.31490E-02
         0.43133E-02
         0.43133E-02
         0.43133E-02
         0.43133E-02
         0.34890E-02
         0.34890E-02
         0.32698E-02
         0.32051E-02
         0.37820E-02
         0.31848E-02
         0.27017E-02
         0.33851E-02
         0.37155E-02
         0.27158E-02
         0.29075E-02
         0.36979E-02
         0.36177E-02
         0.37871E-02
         0.30024E-02
         0.30024E-02
         0.28603E-02
         0.26927E-02
         0.29530E-02
         0.28093E-02
         0.30208E-02
         0.36979E-02
         0.28460E-02
         0.28460E-02
         0.27486E-02
         0.26101E-02
         0.36979E-02
         0.36979E-02
         0.37871E-02
         0.37871E-02
         0.30247E-02
         0.36896E-02
         0.37155E-02
         0.32051E-02
         0.32833E-02
         0.32833E-02
         0.27006E-02
         0.25920E-02
         0.25851E-02
         0.29714E-02
         0.29714E-02
         0.26472E-02
         0.29094E-02
         0.34019E-02
         0.35299E-02
         0.35299E-02
         0.29793E-02
         0.32431E-02
         0.28838E-02
         0.29925E-02
         0.36896E-02
         0.37155E-02
         0.37155E-02
         0.33851E-02
         0.29075E-02
         0.32051E-02
         0.32833E-02
         0.32833E-02
         0.27006E-02
         0.25920E-02
         0.25851E-02
         0.26927E-02
         0.28603E-02
         0.29530E-02
         0.29714E-02
         0.29714E-02
         0.26472E-02
         0.27681E-02
         0.34019E-02
         0.35299E-02
         0.35299E-02
         0.29793E-02
         0.31503E-02
         0.31503E-02
         0.43130E-02
         0.43130E-02
         0.43130E-02
         0.43130E-02
         0.34891E-02
         0.34891E-02
         0.32683E-02
         0.32041E-02
         0.37816E-02
         0.31844E-02
         0.27000E-02
         0.33848E-02
         0.37154E-02
         0.27111E-02
         0.29087E-02
         0.36976E-02
         0.36213E-02
         0.37892E-02
         0.30050E-02
         0.30050E-02
         0.28608E-02
         0.26935E-02
         0.29532E-02
         0.28096E-02
         0.30234E-02
         0.36976E-02
         0.28434E-02
         0.28434E-02
         0.27472E-02
         0.26091E-02
         0.36976E-02
         0.36976E-02
         0.37892E-02
         0.37892E-02
         0.30249E-02
         0.36885E-02
         0.37154E-02
         0.32064E-02
         0.32839E-02
         0.32839E-02
         0.27006E-02
         0.25920E-02
         0.25844E-02
         0.29714E-02
         0.29714E-02
         0.26471E-02
         0.29094E-02
         0.34012E-02
         0.35293E-02
         0.35293E-02
         0.29797E-02
         0.32449E-02
         0.28811E-02
         0.29935E-02
         0.36885E-02
         0.37154E-02
         0.37154E-02
         0.33848E-02
         0.29087E-02
         0.32064E-02
         0.32839E-02
         0.32839E-02
         0.27006E-02
         0.25920E-02
         0.25844E-02
         0.26935E-02
         0.28608E-02
         0.29532E-02
         0.29714E-02
         0.29714E-02
         0.26471E-02
         0.27681E-02
         0.34012E-02
         0.35293E-02
         0.35293E-02
         0.29797E-02
         0.31517E-02
         0.31517E-02
         0.43128E-02
         0.43128E-02
         0.43128E-02
         0.43128E-02
         0.34892E-02
         0.34892E-02
         0.32669E-02
         0.32031E-02
         0.37811E-02
         0.31840E-02
         0.26982E-02
         0.33844E-02
         0.37152E-02
         0.27063E-02
         0.29099E-02
         0.36973E-02
         0.36248E-02
         0.37913E-02
         0.30076E-02
         0.30076E-02
         0.28613E-02
         0.26942E-02
         0.29533E-02
         0.28099E-02
         0.30260E-02
         0.36973E-02
         0.28408E-02
         0.28408E-02
         0.27460E-02
         0.26081E-02
         0.36973E-02
         0.36973E-02
         0.37913E-02
         0.37913E-02
         0.30250E-02
         0.36873E-02
         0.37152E-02
         0.32077E-02
         0.32845E-02
         0.32845E-02
         0.27006E-02
         0.25920E-02
         0.25837E-02
         0.29714E-02
         0.29714E-02
         0.26471E-02
         0.29093E-02
         0.34005E-02
         0.35287E-02
         0.35287E-02
         0.29800E-02
         0.32467E-02
         0.28783E-02
         0.29945E-02
         0.36873E-02
         0.37152E-02
         0.37152E-02
         0.33844E-02
         0.29099E-02
         0.32077E-02
         0.32845E-02
         0.32845E-02
         0.27006E-02
         0.25920E-02
         0.25837E-02
         0.26942E-02
         0.28613E-02
         0.29533E-02
         0.29714E-02
         0.29714E-02
         0.26471E-02
         0.27681E-02
         0.34005E-02
         0.35287E-02
         0.35287E-02
         0.29800E-02
         0.31530E-02
         0.31530E-02
         0.43125E-02
         0.43125E-02
         0.43125E-02
         0.43125E-02
         0.34893E-02
         0.34893E-02
         0.32655E-02
         0.32021E-02
         0.37806E-02
         0.31836E-02
         0.26965E-02
         0.33840E-02
         0.37151E-02
         0.27016E-02
         0.29111E-02
         0.36969E-02
         0.36283E-02
         0.37933E-02
         0.30102E-02
         0.30102E-02
         0.28617E-02
         0.26950E-02
         0.29535E-02
         0.28101E-02
         0.30286E-02
         0.36969E-02
         0.28382E-02
         0.28382E-02
         0.27447E-02
         0.26071E-02
         0.36969E-02
         0.36969E-02
         0.37933E-02
         0.37933E-02
         0.30252E-02
         0.36861E-02
         0.37151E-02
         0.32090E-02
         0.32852E-02
         0.32852E-02
         0.27006E-02
         0.25920E-02
         0.25830E-02
         0.29714E-02
         0.29714E-02
         0.26470E-02
         0.29092E-02
         0.33997E-02
         0.35282E-02
         0.35282E-02
         0.29803E-02
         0.32484E-02
         0.28755E-02
         0.29955E-02
         0.36861E-02
         0.37151E-02
         0.37151E-02
         0.33840E-02
         0.29111E-02
         0.32090E-02
         0.32852E-02
         0.32852E-02
         0.27006E-02
         0.25920E-02
         0.25830E-02
         0.26950E-02
         0.28617E-02
         0.29535E-02
         0.29714E-02
         0.29714E-02
         0.26470E-02
         0.27680E-02
         0.33997E-02
         0.35282E-02
         0.35282E-02
         0.29803E-02
         0.31544E-02
         0.31544E-02
         0.43123E-02
         0.43123E-02
         0.43123E-02
         0.43123E-02
         0.34893E-02
         0.34893E-02
         0.32640E-02
         0.32011E-02
         0.37801E-02
         0.31832E-02
         0.26948E-02
         0.33836E-02
         0.37150E-02
         0.26969E-02
         0.29123E-02
         0.36966E-02
         0.36319E-02
         0.37954E-02
         0.30128E-02
         0.30128E-02
         0.28622E-02
         0.26957E-02
         0.29536E-02
         0.28104E-02
         0.30312E-02
         0.36966E-02
         0.28357E-02
         0.28357E-02
         0.27434E-02
         0.26061E-02
         0.36966E-02
         0.36966E-02
         0.37954E-02
         0.37954E-02
         0.30254E-02
         0.36849E-02
         0.37150E-02
         0.32103E-02
         0.32858E-02
         0.32858E-02
         0.27006E-02
         0.25920E-02
         0.25823E-02
         0.29714E-02
         0.29714E-02
         0.26470E-02
         0.29091E-02
         0.33990E-02
         0.35276E-02
         0.35276E-02
         0.29806E-02
         0.32502E-02
         0.28728E-02
         0.29965E-02
         0.36849E-02
         0.37150E-02
         0.37150E-02
         0.33836E-02
         0.29123E-02
         0.32103E-02
         0.32858E-02
         0.32858E-02
         0.27006E-02
         0.25920E-02
         0.25823E-02
         0.26957E-02
         0.28622E-02
         0.29536E-02
         0.29714E-02
         0.29714E-02
         0.26470E-02
         0.27680E-02
         0.33990E-02
         0.35276E-02
         0.35276E-02
         0.29806E-02
         0.31557E-02
         0.31557E-02
         0.43120E-02
         0.43120E-02
         0.43120E-02
         0.43120E-02
         0.34894E-02
         0.34894E-02
         0.32626E-02
         0.32001E-02
         0.37797E-02
         0.31828E-02
         0.26931E-02
         0.33832E-02
         0.37149E-02
         0.26922E-02
         0.29135E-02
         0.36963E-02
         0.36354E-02
         0.37975E-02
         0.30154E-02
         0.30154E-02
         0.28627E-02
         0.26965E-02
         0.29537E-02
         0.28107E-02
         0.30338E-02
         0.36963E-02
         0.28331E-02
         0.28331E-02
         0.27421E-02
         0.26051E-02
         0.36963E-02
         0.36963E-02
         0.37975E-02
         0.37975E-02
         0.30256E-02
         0.36838E-02
         0.37149E-02
         0.32116E-02
         0.32864E-02
         0.32864E-02
         0.27006E-02
         0.25920E-02
         0.25815E-02
         0.29714E-02
         0.29714E-02
         0.26469E-02
         0.29090E-02
         0.33983E-02
         0.35270E-02
         0.35270E-02
         0.29809E-02
         0.32519E-02
         0.28700E-02
         0.29975E-02
         0.36838E-02
         0.37149E-02
         0.37149E-02
         0.33832E-02
         0.29135E-02
         0.32116E-02
         0.32864E-02
         0.32864E-02
         0.27006E-02
         0.25920E-02
         0.25815E-02
         0.26965E-02
         0.28627E-02
         0.29537E-02
         0.29714E-02
         0.29714E-02
         0.26469E-02
         0.27680E-02
         0.33983E-02
         0.35270E-02
         0.35270E-02
         0.29809E-02
         0.31571E-02
         0.31571E-02
         0.43118E-02
         0.43118E-02
         0.43118E-02
         0.43118E-02
         0.34895E-02
         0.34895E-02
         0.32612E-02
         0.31990E-02
         0.37792E-02
         0.31824E-02
         0.26913E-02
         0.33828E-02
         0.37148E-02
         0.26875E-02
         0.29148E-02
         0.36960E-02
         0.36390E-02
         0.37995E-02
         0.30180E-02
         0.30180E-02
         0.28631E-02
         0.26972E-02
         0.29539E-02
         0.28110E-02
         0.30364E-02
         0.36960E-02
         0.28305E-02
         0.28305E-02
         0.27408E-02
         0.26040E-02
         0.36960E-02
         0.36960E-02
         0.37995E-02
         0.37995E-02
         0.30258E-02
         0.36826E-02
         0.37148E-02
         0.32129E-02
         0.32870E-02
         0.32870E-02
         0.27006E-02
         0.25920E-02
         0.25808E-02
         0.29713E-02
         0.29713E-02
         0.26468E-02
         0.29089E-02
         0.33975E-02
         0.35264E-02
         0.35264E-02
         0.29812E-02
         0.32537E-02
         0.28672E-02
         0.29985E-02
         0.36826E-02
         0.37148E-02
         0.37148E-02
         0.33828E-02
         0.29148E-02
         0.32129E-02
         0.32870E-02
         0.32870E-02
         0.27006E-02
         0.25920E-02
         0.25808E-02
         0.26972E-02
         0.28631E-02
         0.29539E-02
         0.29713E-02
         0.29713E-02
         0.26468E-02
         0.27679E-02
         0.33975E-02
         0.35264E-02
         0.35264E-02
         0.29812E-02
         0.31585E-02
         0.31585E-02
         0.43115E-02
         0.43115E-02
         0.43115E-02
         0.43115E-02
         0.34896E-02
         0.34896E-02
         0.32597E-02
         0.31980E-02
         0.37787E-02
         0.31820E-02
         0.26896E-02
         0.33824E-02
         0.37147E-02
         0.26827E-02
         0.29160E-02
         0.36957E-02
         0.36425E-02
         0.38016E-02
         0.30206E-02
         0.30206E-02
         0.28636E-02
         0.26980E-02
         0.29540E-02
         0.28112E-02
         0.30390E-02
         0.36957E-02
         0.28279E-02
         0.28279E-02
         0.27395E-02
         0.26030E-02
         0.36957E-02
         0.36957E-02
         0.38016E-02
         0.38016E-02
         0.30260E-02
         0.36814E-02
         0.37147E-02
         0.32141E-02
         0.32876E-02
         0.32876E-02
         0.27006E-02
         0.25920E-02
         0.25801E-02
         0.29713E-02
         0.29713E-02
         0.26468E-02
         0.29089E-02
         0.33968E-02
         0.35259E-02
         0.35259E-02
         0.29815E-02
         0.32555E-02
         0.28645E-02
         0.29995E-02
         0.36814E-02
         0.37147E-02
         0.37147E-02
         0.33824E-02
         0.29160E-02
         0.32141E-02
         0.32876E-02
         0.32876E-02
         0.27006E-02
         0.25920E-02
         0.25801E-02
         0.26980E-02
         0.28636E-02
         0.29540E-02
         0.29713E-02
         0.29713E-02
         0.26468E-02
         0.27679E-02
         0.33968E-02
         0.35259E-02
         0.35259E-02
         0.29815E-02
         0.31598E-02
         0.31598E-02
         0.43113E-02
         0.43113E-02
         0.43113E-02
         0.43113E-02
         0.34897E-02
         0.34897E-02
         0.32583E-02
         0.31970E-02
         0.37783E-02
         0.31816E-02
         0.26879E-02
         0.33820E-02
         0.37146E-02
         0.26780E-02
         0.29172E-02
         0.36954E-02
         0.36460E-02
         0.38037E-02
         0.30232E-02
         0.30232E-02
         0.28641E-02
         0.26987E-02
         0.29542E-02
         0.28115E-02
         0.30416E-02
         0.36954E-02
         0.28253E-02
         0.28253E-02
         0.27382E-02
         0.26020E-02
         0.36954E-02
         0.36954E-02
         0.38037E-02
         0.38037E-02
         0.30261E-02
         0.36802E-02
         0.37146E-02
         0.32154E-02
         0.32882E-02
         0.32882E-02
         0.27006E-02
         0.25921E-02
         0.25794E-02
         0.29713E-02
         0.29713E-02
         0.26467E-02
         0.29088E-02
         0.33961E-02
         0.35253E-02
         0.35253E-02
         0.29818E-02
         0.32573E-02
         0.28617E-02
         0.30005E-02
         0.36802E-02
         0.37146E-02
         0.37146E-02
         0.33820E-02
         0.29172E-02
         0.32154E-02
         0.32882E-02
         0.32882E-02
         0.27006E-02
         0.25921E-02
         0.25794E-02
         0.26987E-02
         0.28641E-02
         0.29542E-02
         0.29713E-02
         0.29713E-02
         0.26467E-02
         0.27678E-02
         0.33961E-02
         0.35253E-02
         0.35253E-02
         0.29818E-02
         0.31612E-02
         0.31612E-02
         0.43110E-02
         0.43110E-02
         0.43110E-02
         0.43110E-02
         0.34898E-02
         0.34898E-02
         0.32569E-02
         0.31960E-02
         0.37778E-02
         0.31812E-02
         0.26862E-02
         0.33816E-02
         0.37145E-02
         0.26733E-02
         0.29184E-02
         0.36950E-02
         0.36495E-02
         0.38057E-02
         0.30258E-02
         0.30258E-02
         0.28645E-02
         0.26995E-02
         0.29543E-02
         0.28118E-02
         0.30442E-02
         0.36950E-02
         0.28227E-02
         0.28227E-02
         0.27369E-02
         0.26010E-02
         0.36950E-02
         0.36950E-02
         0.38057E-02
         0.38057E-02
         0.30263E-02
         0.36790E-02
         0.37145E-02
         0.32167E-02
         0.32889E-02
         0.32889E-02
         0.27006E-02
         0.25921E-02
         0.25787E-02
         0.29713E-02
         0.29713E-02
         0.26467E-02
         0.29087E-02
         0.33953E-02
         0.35247E-02
         0.35247E-02
         0.29821E-02
         0.32590E-02
         0.28589E-02
         0.30015E-02
         0.36790E-02
         0.37145E-02
         0.37145E-02
         0.33816E-02
         0.29184E-02
         0.32167E-02
         0.32889E-02
         0.32889E-02
         0.27006E-02
         0.25921E-02
         0.25787E-02
         0.26995E-02
         0.28645E-02
         0.29543E-02
         0.29713E-02
         0.29713E-02
         0.26467E-02
         0.27678E-02
         0.33953E-02
         0.35247E-02
         0.35247E-02
         0.29821E-02
         0.31625E-02
         0.31625E-02
         0.43108E-02
         0.43108E-02
         0.43108E-02
         0.43108E-02
         0.34898E-02
         0.34898E-02
         0.32555E-02
         0.31950E-02
         0.37773E-02
         0.31808E-02
         0.26845E-02
         0.33812E-02
         0.37144E-02
         0.26686E-02
         0.29196E-02
         0.36948E-02
         0.36531E-02
         0.38078E-02
         0.30285E-02
         0.30285E-02
         0.28650E-02
         0.27002E-02
         0.29544E-02
         0.28120E-02
         0.30467E-02
         0.36948E-02
         0.28201E-02
         0.28201E-02
         0.27356E-02
         0.26000E-02
         0.36948E-02
         0.36948E-02
         0.38078E-02
         0.38078E-02
         0.30265E-02
         0.36779E-02
         0.37144E-02
         0.32181E-02
         0.32895E-02
         0.32895E-02
         0.27006E-02
         0.25921E-02
         0.25779E-02
         0.29713E-02
         0.29713E-02
         0.26466E-02
         0.29086E-02
         0.33946E-02
         0.35242E-02
         0.35242E-02
         0.29824E-02
         0.32608E-02
         0.28562E-02
         0.30025E-02
         0.36779E-02
         0.37144E-02
         0.37144E-02
         0.33812E-02
         0.29196E-02
         0.32181E-02
         0.32895E-02
         0.32895E-02
         0.27006E-02
         0.25921E-02
         0.25779E-02
         0.27002E-02
         0.28650E-02
         0.29544E-02
         0.29713E-02
         0.29713E-02
         0.26466E-02
         0.27678E-02
         0.33946E-02
         0.35242E-02
         0.35242E-02
         0.29824E-02
         0.31639E-02
         0.31639E-02
         0.43105E-02
         0.43105E-02
         0.43105E-02
         0.43105E-02
         0.34899E-02
         0.34899E-02
         0.32540E-02
         0.31940E-02
         0.37768E-02
         0.31804E-02
         0.26827E-02
         0.33808E-02
         0.37143E-02
         0.26639E-02
         0.29208E-02
         0.36944E-02
         0.36566E-02
         0.38099E-02
         0.30311E-02
         0.30311E-02
         0.28655E-02
         0.27010E-02
         0.29546E-02
         0.28123E-02
         0.30493E-02
         0.36944E-02
         0.28175E-02
         0.28175E-02
         0.27343E-02
         0.25990E-02
         0.36944E-02
         0.36944E-02
         0.38099E-02
         0.38099E-02
         0.30267E-02
         0.36767E-02
         0.37143E-02
         0.32193E-02
         0.32901E-02
         0.32901E-02
         0.27006E-02
         0.25921E-02
         0.25772E-02
         0.29713E-02
         0.29713E-02
         0.26466E-02
         0.29085E-02
         0.33939E-02
         0.35236E-02
         0.35236E-02
         0.29827E-02
         0.32626E-02
         0.28534E-02
         0.30035E-02
         0.36767E-02
         0.37143E-02
         0.37143E-02
         0.33808E-02
         0.29208E-02
         0.32193E-02
         0.32901E-02
         0.32901E-02
         0.27006E-02
         0.25921E-02
         0.25772E-02
         0.27010E-02
         0.28655E-02
         0.29546E-02
         0.29713E-02
         0.29713E-02
         0.26466E-02
         0.27677E-02
         0.33939E-02
         0.35236E-02
         0.35236E-02
         0.29827E-02
         0.31652E-02
         0.31652E-02
         0.43103E-02
         0.43103E-02
         0.43103E-02
         0.43103E-02
         0.34900E-02
         0.34900E-02
         0.32526E-02
         0.31930E-02
         0.37764E-02
         0.31800E-02
         0.26810E-02
         0.33804E-02
         0.37142E-02
         0.26591E-02
         0.29220E-02
         0.36941E-02
         0.36602E-02
         0.38119E-02
         0.30337E-02
         0.30337E-02
         0.28660E-02
         0.27017E-02
         0.29547E-02
         0.28126E-02
         0.30519E-02
         0.36941E-02
         0.28150E-02
         0.28150E-02
         0.27330E-02
         0.25979E-02
         0.36941E-02
         0.36941E-02
         0.38119E-02
         0.38119E-02
         0.30269E-02
         0.36755E-02
         0.37142E-02
         0.32206E-02
         0.32907E-02
         0.32907E-02
         0.27006E-02
         0.25921E-02
         0.25765E-02
         0.29713E-02
         0.29713E-02
         0.26465E-02
         0.29085E-02
         0.33931E-02
         0.35230E-02
         0.35230E-02
         0.29830E-02
         0.32643E-02
         0.28507E-02
         0.30045E-02
         0.36755E-02
         0.37142E-02
         0.37142E-02
         0.33804E-02
         0.29220E-02
         0.32206E-02
         0.32907E-02
         0.32907E-02
         0.27006E-02
         0.25921E-02
         0.25765E-02
         0.27017E-02
         0.28660E-02
         0.29547E-02
         0.29713E-02
         0.29713E-02
         0.26465E-02
         0.27677E-02
         0.33931E-02
         0.35230E-02
         0.35230E-02
         0.29830E-02
         0.31666E-02
         0.31666E-02
         0.43100E-02
         0.43100E-02
         0.43100E-02
         0.43100E-02
         0.34901E-02
         0.34901E-02
         0.32512E-02
         0.31920E-02
         0.37759E-02
         0.31796E-02
         0.26793E-02
         0.33800E-02
         0.37141E-02
         0.26544E-02
         0.29232E-02
         0.36938E-02
         0.36637E-02
         0.38140E-02
         0.30363E-02
         0.30363E-02
         0.28664E-02
         0.27025E-02
         0.29548E-02
         0.28129E-02
         0.30545E-02
         0.36938E-02
         0.28124E-02
         0.28124E-02
         0.27317E-02
         0.25969E-02
         0.36938E-02
         0.36938E-02
         0.38140E-02
         0.38140E-02
         0.30271E-02
         0.36743E-02
         0.37141E-02
         0.32219E-02
         0.32913E-02
         0.32913E-02
         0.27006E-02
         0.25921E-02
         0.25758E-02
         0.29713E-02
         0.29713E-02
         0.26465E-02
         0.29084E-02
         0.33924E-02
         0.35224E-02
         0.35224E-02
         0.29833E-02
         0.32661E-02
         0.28479E-02
         0.30055E-02
         0.36743E-02
         0.37141E-02
         0.37141E-02
         0.33800E-02
         0.29232E-02
         0.32219E-02
         0.32913E-02
         0.32913E-02
         0.27006E-02
         0.25921E-02
         0.25758E-02
         0.27025E-02
         0.28664E-02
         0.29548E-02
         0.29713E-02
         0.29713E-02
         0.26465E-02
         0.27677E-02
         0.33924E-02
         0.35224E-02
         0.35224E-02
         0.29833E-02
         0.31680E-02
         0.31680E-02
         0.43098E-02
         0.43098E-02
         0.43098E-02
         0.43098E-02
         0.34901E-02
         0.34901E-02
         0.32498E-02
         0.31910E-02
         0.37754E-02
         0.31792E-02
         0.26776E-02
         0.33796E-02
         0.37140E-02
         0.26497E-02
         0.29232E-02
         0.36935E-02
         0.36637E-02
         0.38140E-02
         0.30363E-02
         0.30363E-02
         0.28664E-02
         0.27025E-02
         0.29548E-02
         0.28129E-02
         0.30545E-02
         0.36935E-02
         0.28098E-02
         0.28098E-02
         0.27304E-02
         0.25959E-02
         0.36935E-02
         0.36935E-02
         0.38140E-02
         0.38140E-02
         0.30271E-02
         0.36731E-02
         0.37140E-02
         0.32219E-02
         0.32913E-02
         0.32913E-02
         0.27006E-02
         0.25921E-02
         0.25751E-02
         0.29713E-02
         0.29713E-02
         0.26464E-02
         0.29083E-02
         0.33916E-02
         0.35219E-02
         0.35219E-02
         0.29833E-02
         0.32661E-02
         0.28451E-02
         0.30055E-02
         0.36731E-02
         0.37140E-02
         0.37140E-02
         0.33796E-02
         0.29232E-02
         0.32219E-02
         0.32913E-02
         0.32913E-02
         0.27006E-02
         0.25921E-02
         0.25751E-02
         0.27025E-02
         0.28664E-02
         0.29548E-02
         0.29713E-02
         0.29713E-02
         0.26464E-02
         0.27676E-02
         0.33916E-02
         0.35219E-02
         0.35219E-02
         0.29833E-02
         0.31680E-02
         0.31680E-02
  
SCALARS              physical_window_z  double 1
LOOKUP_TABLE default
         0.26928E-02
         0.26928E-02
         0.26928E-02
         0.26928E-02
         0.26928E-02
         0.26928E-02
         0.26928E-02
         0.26928E-02
         0.26928E-02
         0.26928E-02
         0.26928E-02
         0.26928E-02
         0.26928E-02
         0.26928E-02
         0.26928E-02
         0.26928E-02
         0.26928E-02
         0.26928E-02
         0.26928E-02
         0.26928E-02
         0.26928E-02
         0.26928E-02
         0.26928E-02
         0.26928E-02
         0.26928E-02
         0.26928E-02
         0.26928E-02
         0.26928E-02
         0.26928E-02
         0.26928E-02
         0.26928E-02
         0.26928E-02
         0.26928E-02
         0.26928E-02
         0.26928E-02
         0.26928E-02
         0.26928E-02
         0.26928E-02
         0.26928E-02
         0.26928E-02
         0.26928E-02
         0.26928E-02
         0.26928E-02
         0.26928E-02
         0.26928E-02
         0.26928E-02
         0.26928E-02
         0.26928E-02
         0.26928E-02
         0.26928E-02
         0.26928E-02
         0.26928E-02
         0.26928E-02
         0.26928E-02
         0.26928E-02
         0.26928E-02
         0.26928E-02
         0.26928E-02
         0.26928E-02
         0.26928E-02
         0.26928E-02
         0.26928E-02
         0.26928E-02
         0.26928E-02
         0.26928E-02
         0.26928E-02
         0.26928E-02
         0.26928E-02
         0.26928E-02
         0.26928E-02
         0.26928E-02
         0.26928E-02
         0.26928E-02
         0.26928E-02
         0.26928E-02
         0.26928E-02
         0.26928E-02
         0.26928E-02
         0.26928E-02
         0.26928E-02
         0.26928E-02
         0.26928E-02
         0.26928E-02
         0.26928E-02
         0.26928E-02
         0.26928E-02
         0.26928E-02
         0.26928E-02
         0.26928E-02
         0.26928E-02
         0.26928E-02
         0.26928E-02
         0.26928E-02
         0.26928E-02
         0.26928E-02
         0.26928E-02
         0.26928E-02
         0.26928E-02
         0.26928E-02
         0.26928E-02
         0.26928E-02
         0.26928E-02
         0.26928E-02
         0.26928E-02
         0.26928E-02
         0.26928E-02
         0.26928E-02
         0.26928E-02
         0.26928E-02
         0.26928E-02
         0.26928E-02
         0.26928E-02
         0.26928E-02
         0.26928E-02
         0.26928E-02
         0.26928E-02
         0.26928E-02
         0.26928E-02
         0.26928E-02
         0.26928E-02
         0.26928E-02
         0.26928E-02
         0.26928E-02
         0.26928E-02
         0.26928E-02
         0.26928E-02
         0.26928E-02
         0.26928E-02
         0.26928E-02
         0.26928E-02
         0.26928E-02
         0.26928E-02
         0.26928E-02
         0.26928E-02
         0.26928E-02
         0.26928E-02
         0.26928E-02
         0.26928E-02
         0.26928E-02
         0.26928E-02
         0.26928E-02
         0.26928E-02
         0.26928E-02
         0.26928E-02
         0.26928E-02
         0.26928E-02
         0.26928E-02
         0.26928E-02
         0.26928E-02
         0.26928E-02
         0.26928E-02
         0.26928E-02
         0.26928E-02
         0.26928E-02
         0.26928E-02
         0.26928E-02
         0.26927E-02
         0.26927E-02
         0.26927E-02
         0.26927E-02
         0.26927E-02
         0.26927E-02
         0.26927E-02
         0.26927E-02
         0.26927E-02
         0.26927E-02
         0.26927E-02
         0.26927E-02
         0.26927E-02
         0.26927E-02
         0.26927E-02
         0.26927E-02
         0.26927E-02
         0.26927E-02
         0.26927E-02
         0.26927E-02
         0.26927E-02
         0.26927E-02
         0.26927E-02
         0.26927E-02
         0.26927E-02
         0.26927E-02
         0.26927E-02
         0.26927E-02
         0.26927E-02
         0.26927E-02
         0.26927E-02
         0.26927E-02
         0.26927E-02
         0.26927E-02
         0.26927E-02
         0.26927E-02
         0.26927E-02
         0.26927E-02
         0.26927E-02
         0.26927E-02
         0.26927E-02
         0.26927E-02
         0.26927E-02
         0.26927E-02
         0.26927E-02
         0.26927E-02
         0.26927E-02
         0.26927E-02
         0.26927E-02
         0.26927E-02
         0.26927E-02
         0.26927E-02
         0.26927E-02
         0.26927E-02
         0.26927E-02
         0.26927E-02
         0.26927E-02
         0.26927E-02
         0.26927E-02
         0.26927E-02
         0.26927E-02
         0.26927E-02
         0.26927E-02
         0.26927E-02
         0.26927E-02
         0.26927E-02
         0.26927E-02
         0.26927E-02
         0.26927E-02
         0.26927E-02
         0.26927E-02
         0.26927E-02
         0.26927E-02
         0.26927E-02
         0.26927E-02
         0.26927E-02
         0.26927E-02
         0.26927E-02
         0.26927E-02
         0.26927E-02
         0.26927E-02
         0.26927E-02
         0.26927E-02
         0.26927E-02
         0.26927E-02
         0.26927E-02
         0.26927E-02
         0.26927E-02
         0.26927E-02
         0.26927E-02
         0.26927E-02
         0.26927E-02
         0.26927E-02
         0.26927E-02
         0.26927E-02
         0.26927E-02
         0.26927E-02
         0.26927E-02
         0.26927E-02
         0.26927E-02
         0.26927E-02
         0.26927E-02
         0.26927E-02
         0.26927E-02
         0.26927E-02
         0.26927E-02
         0.26927E-02
         0.26927E-02
         0.26927E-02
         0.26927E-02
         0.26927E-02
         0.26927E-02
         0.26927E-02
         0.26927E-02
         0.26927E-02
         0.26927E-02
         0.26927E-02
         0.26927E-02
         0.26927E-02
         0.26927E-02
         0.26927E-02
         0.26927E-02
         0.26927E-02
         0.26927E-02
         0.26927E-02
         0.26927E-02
         0.26927E-02
         0.26927E-02
         0.26927E-02
         0.26927E-02
         0.26927E-02
         0.26927E-02
         0.26927E-02
         0.26927E-02
         0.26927E-02
         0.26927E-02
         0.26927E-02
         0.26927E-02
         0.26927E-02
         0.26927E-02
         0.26927E-02
         0.26927E-02
         0.26927E-02
         0.26927E-02
         0.26927E-02
         0.26927E-02
         0.26927E-02
         0.26927E-02
         0.26927E-02
         0.26927E-02
         0.26927E-02
         0.26927E-02
         0.26927E-02
         0.26927E-02
         0.26927E-02
         0.26927E-02
         0.26927E-02
         0.26927E-02
         0.26927E-02
         0.26927E-02
         0.26927E-02
         0.26927E-02
         0.26927E-02
         0.26927E-02
         0.26927E-02
         0.26927E-02
         0.26927E-02
         0.26927E-02
         0.26927E-02
         0.26927E-02
         0.26927E-02
         0.26927E-02
         0.26927E-02
         0.26927E-02
         0.26927E-02
         0.26927E-02
         0.26927E-02
         0.26927E-02
         0.26927E-02
         0.26927E-02
         0.26927E-02
         0.26927E-02
         0.26927E-02
         0.26927E-02
         0.26927E-02
         0.26927E-02
         0.26927E-02
         0.26927E-02
         0.26927E-02
         0.26927E-02
         0.26927E-02
         0.26927E-02
         0.26927E-02
         0.26927E-02
         0.26927E-02
         0.26927E-02
         0.26927E-02
         0.26927E-02
         0.26927E-02
         0.26927E-02
         0.26927E-02
         0.26927E-02
         0.26927E-02
         0.26927E-02
         0.26927E-02
         0.26927E-02
         0.26927E-02
         0.26927E-02
         0.26927E-02
         0.26927E-02
         0.26927E-02
         0.26927E-02
         0.26927E-02
         0.26927E-02
         0.26927E-02
         0.26927E-02
         0.26927E-02
         0.26927E-02
         0.26927E-02
         0.26927E-02
         0.26927E-02
         0.26927E-02
         0.26927E-02
         0.26927E-02
         0.26927E-02
         0.26927E-02
         0.26927E-02
         0.26927E-02
         0.26927E-02
         0.26927E-02
         0.26927E-02
         0.26927E-02
         0.26927E-02
         0.26927E-02
         0.26927E-02
         0.26927E-02
         0.26927E-02
         0.26927E-02
         0.26927E-02
         0.26927E-02
         0.26927E-02
         0.26927E-02
         0.26927E-02
         0.26927E-02
         0.26927E-02
         0.26927E-02
         0.26927E-02
         0.26927E-02
         0.26927E-02
         0.26927E-02
         0.26927E-02
         0.26927E-02
         0.26927E-02
         0.26927E-02
         0.26927E-02
         0.26927E-02
         0.26927E-02
         0.26927E-02
         0.26927E-02
         0.26927E-02
         0.26927E-02
         0.26927E-02
         0.26927E-02
         0.26927E-02
         0.26927E-02
         0.26927E-02
         0.26927E-02
         0.26927E-02
         0.26927E-02
         0.26927E-02
         0.26927E-02
         0.26927E-02
         0.26927E-02
         0.26927E-02
         0.26927E-02
         0.26927E-02
         0.26927E-02
         0.26927E-02
         0.26927E-02
         0.26927E-02
         0.26927E-02
         0.26927E-02
         0.26927E-02
         0.26927E-02
         0.26927E-02
         0.26927E-02
         0.26927E-02
         0.26927E-02
         0.26927E-02
         0.26927E-02
         0.26927E-02
         0.26927E-02
         0.26927E-02
         0.26927E-02
         0.26927E-02
         0.26927E-02
         0.26927E-02
         0.26927E-02
         0.26927E-02
         0.26927E-02
         0.26927E-02
         0.26927E-02
         0.26927E-02
         0.26927E-02
         0.26927E-02
         0.26927E-02
         0.26927E-02
         0.26927E-02
         0.26927E-02
         0.26927E-02
         0.26927E-02
         0.26927E-02
         0.26927E-02
         0.26927E-02
         0.26927E-02
         0.26927E-02
         0.26927E-02
         0.26927E-02
         0.26927E-02
         0.26927E-02
         0.26927E-02
         0.26927E-02
         0.26927E-02
         0.26927E-02
         0.26927E-02
         0.26927E-02
         0.26927E-02
         0.26927E-02
         0.26927E-02
         0.26927E-02
         0.26927E-02
         0.26927E-02
         0.26927E-02
         0.26927E-02
         0.26927E-02
         0.26927E-02
         0.26927E-02
         0.26927E-02
         0.26927E-02
         0.26927E-02
         0.26927E-02
         0.26927E-02
         0.26927E-02
         0.26927E-02
         0.26927E-02
         0.26927E-02
         0.26927E-02
         0.26927E-02
         0.26927E-02
         0.26927E-02
         0.26927E-02
         0.26927E-02
         0.26927E-02
         0.26927E-02
         0.26927E-02
         0.26927E-02
         0.26927E-02
         0.26927E-02
         0.26927E-02
         0.26927E-02
         0.26927E-02
         0.26927E-02
         0.26927E-02
         0.26927E-02
         0.26927E-02
         0.26927E-02
         0.26927E-02
         0.26927E-02
         0.26927E-02
         0.26927E-02
         0.26927E-02
         0.26927E-02
         0.26927E-02
         0.26927E-02
         0.26927E-02
         0.26927E-02
         0.26927E-02
         0.26927E-02
         0.26927E-02
         0.26927E-02
         0.26927E-02
         0.26927E-02
         0.26927E-02
         0.26927E-02
         0.26927E-02
         0.26927E-02
         0.26927E-02
         0.26927E-02
         0.26927E-02
         0.26927E-02
         0.26927E-02
         0.26927E-02
         0.26927E-02
         0.26927E-02
         0.26927E-02
         0.26927E-02
         0.26927E-02
         0.26927E-02
         0.26927E-02
         0.26927E-02
         0.26927E-02
         0.26927E-02
         0.26927E-02
         0.26927E-02
         0.26927E-02
         0.26927E-02
         0.26927E-02
         0.26927E-02
         0.26927E-02
         0.26927E-02
         0.26927E-02
         0.26927E-02
         0.26927E-02
         0.26927E-02
         0.26927E-02
         0.26927E-02
         0.26927E-02
         0.26927E-02
         0.26927E-02
         0.26927E-02
         0.26927E-02
         0.26927E-02
         0.26927E-02
         0.26927E-02
         0.26927E-02
         0.26927E-02
         0.26927E-02
         0.26927E-02
         0.26927E-02
         0.26927E-02
         0.26927E-02
         0.26927E-02
         0.26927E-02
         0.26927E-02
         0.26927E-02
         0.26927E-02
         0.26927E-02
         0.26927E-02
         0.26927E-02
         0.26927E-02
         0.26927E-02
         0.26927E-02
         0.26927E-02
         0.26927E-02
         0.26927E-02
         0.26927E-02
         0.26927E-02
         0.26927E-02
         0.26927E-02
         0.26927E-02
         0.26927E-02
         0.26927E-02
         0.26927E-02
         0.26927E-02
         0.26927E-02
         0.26927E-02
         0.26927E-02
         0.26927E-02
         0.26927E-02
         0.26927E-02
         0.26927E-02
         0.26927E-02
         0.26927E-02
         0.26927E-02
         0.26927E-02
         0.26927E-02
         0.26927E-02
         0.26927E-02
         0.26927E-02
         0.26927E-02
         0.26927E-02
         0.26927E-02
         0.26927E-02
         0.26927E-02
         0.26927E-02
         0.26927E-02
         0.26927E-02
         0.26927E-02
         0.26927E-02
         0.26927E-02
         0.26927E-02
         0.26927E-02
         0.26927E-02
         0.26927E-02
         0.26927E-02
         0.26927E-02
         0.26927E-02
         0.26927E-02
         0.26927E-02
         0.26927E-02
         0.26927E-02
         0.26927E-02
         0.26927E-02
         0.26927E-02
         0.26927E-02
         0.26927E-02
         0.26927E-02
         0.26927E-02
         0.26927E-02
         0.26927E-02
         0.26927E-02
         0.26927E-02
         0.26927E-02
         0.26927E-02
         0.26927E-02
         0.26927E-02
         0.26927E-02
         0.26927E-02
         0.26927E-02
         0.26927E-02
         0.26927E-02
         0.26927E-02
         0.26927E-02
         0.26927E-02
         0.26927E-02
         0.26927E-02
         0.26927E-02
         0.26927E-02
         0.26927E-02
         0.26927E-02
         0.26927E-02
         0.26927E-02
         0.26927E-02
         0.26927E-02
         0.26927E-02
         0.26927E-02
         0.26927E-02
         0.26927E-02
         0.26927E-02
         0.26927E-02
         0.26927E-02
         0.26927E-02
         0.26927E-02
         0.26927E-02
         0.26927E-02
         0.26927E-02
         0.26927E-02
         0.26927E-02
         0.26927E-02
         0.26927E-02
         0.26927E-02
         0.26927E-02
         0.26927E-02
         0.26927E-02
         0.26927E-02
         0.26927E-02
         0.26927E-02
         0.26927E-02
         0.26927E-02
         0.26927E-02
         0.26927E-02
         0.26927E-02
         0.26927E-02
         0.26927E-02
         0.26927E-02
         0.26927E-02
         0.26927E-02
         0.26927E-02
         0.26927E-02
         0.26927E-02
         0.26927E-02
         0.26927E-02
         0.26927E-02
         0.26927E-02
         0.26927E-02
         0.26927E-02
         0.26927E-02
         0.26927E-02
         0.26927E-02
         0.26927E-02
         0.26927E-02
         0.26927E-02
         0.26927E-02
         0.26927E-02
         0.26927E-02
         0.26927E-02
         0.26927E-02
         0.26927E-02
         0.26927E-02
         0.26927E-02
         0.26927E-02
         0.26927E-02
         0.26927E-02
         0.26927E-02
         0.26927E-02
         0.26927E-02
         0.26927E-02
         0.26927E-02
         0.26927E-02
         0.26927E-02
         0.26927E-02
         0.26927E-02
         0.26927E-02
         0.26927E-02
         0.26927E-02
         0.26927E-02
         0.26927E-02
         0.26927E-02
         0.26927E-02
         0.26927E-02
         0.26927E-02
         0.26927E-02
         0.26927E-02
         0.26927E-02
         0.26927E-02
         0.26927E-02
         0.26927E-02
         0.26927E-02
         0.26927E-02
         0.26927E-02
         0.26927E-02
         0.26927E-02
         0.26927E-02
         0.26927E-02
         0.26927E-02
         0.26927E-02
         0.26927E-02
         0.26927E-02
         0.26927E-02
         0.26927E-02
         0.26927E-02
         0.26927E-02
         0.26927E-02
         0.26927E-02
         0.26927E-02
         0.26927E-02
         0.26927E-02
         0.26927E-02
         0.26927E-02
         0.26927E-02
         0.26927E-02
         0.26927E-02
         0.26927E-02
         0.26927E-02
         0.26927E-02
         0.26927E-02
         0.26927E-02
         0.26927E-02
         0.26927E-02
         0.26927E-02
         0.26927E-02
         0.26927E-02
         0.26927E-02
         0.26927E-02
         0.26927E-02
         0.26927E-02
         0.26927E-02
         0.26927E-02
         0.26927E-02
         0.26927E-02
         0.26927E-02
         0.26927E-02
         0.26927E-02
         0.26927E-02
         0.26927E-02
         0.26927E-02
         0.26927E-02
         0.26927E-02
         0.26927E-02
         0.26927E-02
         0.26927E-02
         0.26927E-02
         0.26927E-02
         0.26927E-02
         0.26927E-02
         0.26927E-02
         0.26927E-02
         0.26927E-02
         0.26927E-02
         0.26927E-02
         0.26927E-02
         0.26927E-02
         0.26927E-02
         0.26927E-02
         0.26927E-02
         0.26927E-02
         0.26927E-02
         0.26927E-02
         0.26927E-02
         0.26927E-02
         0.26927E-02
         0.26927E-02
         0.26927E-02
         0.26927E-02
         0.26927E-02
         0.26927E-02
         0.26927E-02
         0.26927E-02
         0.26927E-02
         0.26927E-02
         0.26927E-02
         0.26927E-02
         0.26927E-02
         0.26927E-02
         0.26927E-02
         0.26927E-02
         0.26927E-02
         0.26927E-02
         0.26927E-02
         0.26927E-02
         0.26927E-02
         0.26927E-02
         0.26927E-02
         0.26927E-02
         0.26927E-02
         0.26927E-02
         0.26927E-02
         0.26927E-02
         0.26927E-02
         0.26927E-02
         0.26927E-02
         0.26927E-02
         0.26927E-02
         0.26927E-02
         0.26927E-02
         0.26927E-02
         0.26927E-02
         0.26927E-02
         0.26927E-02
         0.26927E-02
         0.26927E-02
         0.26927E-02
         0.26927E-02
         0.26927E-02
         0.26927E-02
         0.26927E-02
         0.26927E-02
         0.26927E-02
         0.26927E-02
         0.26927E-02
         0.26927E-02
         0.26927E-02
         0.26927E-02
         0.26927E-02
         0.26927E-02
         0.26927E-02
         0.26927E-02
         0.26927E-02
         0.26927E-02
         0.26927E-02
         0.26927E-02
         0.26927E-02
         0.26927E-02
         0.26927E-02
         0.26927E-02
         0.26927E-02
         0.26927E-02
         0.26927E-02
         0.26927E-02
         0.26927E-02
         0.26927E-02
         0.26927E-02
         0.26927E-02
         0.26927E-02
         0.26927E-02
         0.26927E-02
         0.26927E-02
         0.26927E-02
         0.26927E-02
         0.26927E-02
         0.26927E-02
         0.26927E-02
         0.26927E-02
         0.26927E-02
         0.26927E-02
         0.26927E-02
         0.26927E-02
         0.26927E-02
         0.26927E-02
         0.26927E-02
         0.26927E-02
         0.26927E-02
         0.26927E-02
         0.26927E-02
         0.26927E-02
         0.26927E-02
         0.26927E-02
         0.26927E-02
         0.26927E-02
         0.26927E-02
         0.26927E-02
         0.26927E-02
         0.26927E-02
         0.26927E-02
         0.26927E-02
         0.26927E-02
         0.26927E-02
         0.26927E-02
         0.26927E-02
         0.26927E-02
         0.26927E-02
         0.26927E-02
         0.26927E-02
         0.26927E-02
         0.26927E-02
         0.26927E-02
         0.26927E-02
         0.26927E-02
         0.26927E-02
         0.26927E-02
         0.26927E-02
         0.26927E-02
         0.26927E-02
         0.26927E-02
         0.26927E-02
         0.26927E-02
         0.26927E-02
         0.26927E-02
         0.26927E-02
         0.26927E-02
         0.26927E-02
         0.26927E-02
         0.26927E-02
         0.26927E-02
         0.26927E-02
         0.26927E-02
         0.26927E-02
         0.26927E-02
         0.26927E-02
         0.26927E-02
         0.26927E-02
         0.26927E-02
         0.26927E-02
         0.26927E-02
         0.26927E-02
         0.26927E-02
         0.26927E-02
         0.26927E-02
         0.26927E-02
         0.26927E-02
         0.26927E-02
         0.26927E-02
         0.26927E-02
         0.26927E-02
         0.26927E-02
         0.26927E-02
         0.26927E-02
         0.26927E-02
         0.26927E-02
         0.26927E-02
         0.26927E-02
         0.26927E-02
         0.26927E-02
         0.26927E-02
         0.26927E-02
         0.26927E-02
         0.26927E-02
         0.26927E-02
         0.26927E-02
         0.26927E-02
         0.26927E-02
         0.26927E-02
         0.26927E-02
         0.26927E-02
         0.26927E-02
         0.26927E-02
         0.26927E-02
         0.26927E-02
         0.26927E-02
         0.26927E-02
         0.26927E-02
         0.26927E-02
         0.26927E-02
         0.26927E-02
         0.26927E-02
         0.26927E-02
         0.26927E-02
         0.26927E-02
         0.26927E-02
         0.26927E-02
         0.26927E-02
         0.26927E-02
         0.26927E-02
         0.26927E-02
         0.26927E-02
         0.26927E-02
         0.26927E-02
         0.26927E-02
         0.26927E-02
         0.26927E-02
         0.26927E-02
         0.26927E-02
         0.26927E-02
         0.26927E-02
         0.26927E-02
         0.26927E-02
         0.26927E-02
         0.26927E-02
         0.26927E-02
         0.26927E-02
         0.26927E-02
         0.26927E-02
         0.26927E-02
         0.26927E-02
         0.26927E-02
         0.26927E-02
         0.26927E-02
         0.26927E-02
         0.26927E-02
         0.26927E-02
         0.26927E-02
         0.26927E-02
         0.26927E-02
         0.26927E-02
         0.26927E-02
         0.26927E-02
         0.26927E-02
         0.26927E-02
         0.26927E-02
         0.26927E-02
         0.26927E-02
         0.26927E-02
         0.26927E-02
         0.26927E-02
         0.26927E-02
         0.26927E-02
         0.26927E-02
         0.26927E-02
         0.26927E-02
         0.26927E-02
         0.26927E-02
         0.26927E-02
         0.26927E-02
         0.26927E-02
         0.26927E-02
         0.26927E-02
         0.26927E-02
         0.26927E-02
         0.26927E-02
         0.26927E-02
         0.26927E-02
         0.26927E-02
         0.26927E-02
         0.26927E-02
         0.26927E-02
         0.26927E-02
         0.26927E-02
         0.26927E-02
         0.26927E-02
         0.26927E-02
         0.26927E-02
         0.26927E-02
         0.26927E-02
         0.26927E-02
         0.26927E-02
         0.26927E-02
         0.26927E-02
         0.26927E-02
         0.26927E-02
         0.26927E-02
         0.26927E-02
         0.26927E-02
         0.26927E-02
         0.26927E-02
         0.26927E-02
         0.26927E-02
         0.26927E-02
         0.26927E-02
         0.26927E-02
         0.26927E-02
         0.26927E-02
         0.26927E-02
         0.26927E-02
         0.26927E-02
         0.26927E-02
         0.26927E-02
         0.26927E-02
         0.26927E-02
         0.26927E-02
         0.26927E-02
         0.26927E-02
         0.26927E-02
         0.26927E-02
         0.26927E-02
         0.26927E-02
         0.26927E-02
         0.26927E-02
         0.26927E-02
         0.26927E-02
         0.26927E-02
         0.26927E-02
         0.26927E-02
         0.26927E-02
         0.26927E-02
         0.26927E-02
         0.26927E-02
         0.26927E-02
         0.26927E-02
         0.26927E-02
         0.26927E-02
         0.26927E-02
         0.26927E-02
         0.26927E-02
         0.26927E-02
         0.26927E-02
         0.26927E-02
         0.26927E-02
         0.26927E-02
         0.26927E-02
         0.26927E-02
         0.26927E-02
         0.26927E-02
         0.26927E-02
         0.26927E-02
         0.26927E-02
         0.26927E-02
         0.26927E-02
         0.26927E-02
         0.26927E-02
         0.26927E-02
         0.26927E-02
         0.26927E-02
         0.26927E-02
         0.26927E-02
         0.26927E-02
         0.26927E-02
         0.26927E-02
         0.26927E-02
         0.26927E-02
         0.26927E-02
         0.26927E-02
         0.26927E-02
         0.26927E-02
         0.26927E-02
         0.26927E-02
         0.26927E-02
         0.26927E-02
         0.26927E-02
         0.26927E-02
         0.26927E-02
         0.26927E-02
         0.26927E-02
         0.26927E-02
         0.26927E-02
         0.26927E-02
         0.26927E-02
         0.26927E-02
         0.26927E-02
         0.26927E-02
         0.26927E-02
         0.26927E-02
         0.26927E-02
         0.26927E-02
         0.26927E-02
         0.26927E-02
         0.26927E-02
         0.26927E-02
         0.26927E-02
         0.26927E-02
         0.26927E-02
         0.26927E-02
         0.26927E-02
         0.26927E-02
         0.26927E-02
         0.26927E-02
         0.26927E-02
         0.26927E-02
         0.26927E-02
         0.26927E-02
         0.26927E-02
         0.26927E-02
         0.26927E-02
         0.26927E-02
         0.26927E-02
         0.26927E-02
         0.26927E-02
         0.26927E-02
         0.26927E-02
         0.26927E-02
         0.26927E-02
         0.26927E-02
         0.26927E-02
         0.26927E-02
         0.26927E-02
         0.26927E-02
         0.26927E-02
         0.26927E-02
         0.26927E-02
         0.26927E-02
         0.26927E-02
         0.26927E-02
         0.26927E-02
         0.26927E-02
         0.26927E-02
         0.26927E-02
         0.26927E-02
         0.26927E-02
         0.26927E-02
         0.26927E-02
         0.26927E-02
         0.26927E-02
         0.26927E-02
         0.26927E-02
         0.26927E-02
         0.26927E-02
         0.26927E-02
         0.26927E-02
         0.26927E-02
         0.26927E-02
         0.26927E-02
         0.26927E-02
         0.26927E-02
         0.26927E-02
         0.26927E-02
         0.26927E-02
         0.26927E-02
         0.26927E-02
         0.26927E-02
         0.26927E-02
         0.26927E-02
         0.26927E-02
         0.26927E-02
         0.26927E-02
         0.26927E-02
         0.26927E-02
         0.26927E-02
         0.26927E-02
         0.26927E-02
         0.26927E-02
         0.26927E-02
         0.26927E-02
         0.26927E-02
         0.26927E-02
         0.26927E-02
         0.26927E-02
         0.26927E-02
         0.26927E-02
         0.26927E-02
         0.26927E-02
         0.26927E-02
         0.26927E-02
         0.26927E-02
         0.26927E-02
         0.26927E-02
         0.26927E-02
         0.26927E-02
         0.26927E-02
         0.26927E-02
         0.26927E-02
         0.26927E-02
         0.26927E-02
         0.26927E-02
         0.26927E-02
         0.26927E-02
         0.26927E-02
         0.26927E-02
         0.26927E-02
         0.26927E-02
         0.26927E-02
         0.26927E-02
         0.26927E-02
         0.26927E-02
         0.26927E-02
         0.26927E-02
         0.26927E-02
         0.26927E-02
         0.26927E-02
         0.26927E-02
         0.26927E-02
         0.26927E-02
         0.26927E-02
         0.26927E-02
         0.26927E-02
         0.26927E-02
         0.26927E-02
         0.26927E-02
         0.26927E-02
         0.26927E-02
         0.26927E-02
         0.26927E-02
         0.26927E-02
         0.26927E-02
         0.26927E-02
         0.26927E-02
         0.26927E-02
         0.26927E-02
         0.26927E-02
         0.26927E-02
         0.26927E-02
         0.26927E-02
         0.26927E-02
         0.26927E-02
         0.26927E-02
         0.26927E-02
         0.26927E-02
         0.26927E-02
         0.26927E-02
         0.26927E-02
         0.26927E-02
         0.26927E-02
         0.26927E-02
         0.26927E-02
         0.26927E-02
         0.26927E-02
         0.26927E-02
         0.26927E-02
         0.26927E-02
         0.26927E-02
         0.26927E-02
         0.26927E-02
         0.26927E-02
         0.26927E-02
         0.26927E-02
         0.26927E-02
         0.26927E-02
         0.26927E-02
         0.26927E-02
         0.26927E-02
         0.26927E-02
         0.26927E-02
         0.26927E-02
         0.26927E-02
         0.26927E-02
         0.26927E-02
         0.26927E-02
         0.26927E-02
         0.26927E-02
         0.26927E-02
         0.26927E-02
         0.26927E-02
         0.26927E-02
         0.26927E-02
         0.26927E-02
         0.26927E-02
         0.26927E-02
         0.26927E-02
         0.26927E-02
         0.26927E-02
         0.26927E-02
         0.26927E-02
         0.26927E-02
         0.26927E-02
         0.26927E-02
         0.26927E-02
         0.26927E-02
         0.26927E-02
         0.26927E-02
         0.26927E-02
         0.26927E-02
         0.26927E-02
         0.26927E-02
         0.26927E-02
         0.26927E-02
         0.26927E-02
         0.26927E-02
         0.26927E-02
         0.26927E-02
         0.26927E-02
         0.26927E-02
         0.26927E-02
         0.26927E-02
         0.26927E-02
         0.26927E-02
         0.26927E-02
         0.26927E-02
         0.26927E-02
         0.26927E-02
         0.26927E-02
         0.26927E-02
         0.26927E-02
         0.26927E-02
         0.26927E-02
         0.26927E-02
         0.26927E-02
         0.26927E-02
         0.26927E-02
         0.26927E-02
         0.26927E-02
         0.26927E-02
         0.26927E-02
         0.26927E-02
         0.26927E-02
         0.26927E-02
         0.26927E-02
         0.26927E-02
         0.26927E-02
         0.26927E-02
         0.26927E-02
         0.26927E-02
         0.26927E-02
         0.26927E-02
         0.26927E-02
         0.26927E-02
         0.26927E-02
         0.26927E-02
         0.26927E-02
         0.26927E-02
         0.26927E-02
         0.26927E-02
         0.26927E-02
         0.26927E-02
         0.26927E-02
         0.26927E-02
         0.26927E-02
         0.26927E-02
         0.26927E-02
         0.26927E-02
         0.26927E-02
         0.26927E-02
         0.26927E-02
         0.26927E-02
         0.26927E-02
         0.26927E-02
         0.26927E-02
         0.26927E-02
         0.26927E-02
         0.26927E-02
         0.26927E-02
         0.26927E-02
         0.26927E-02
         0.26927E-02
         0.26927E-02
         0.26927E-02
         0.26927E-02
         0.26927E-02
         0.26927E-02
         0.26927E-02
         0.26927E-02
         0.26927E-02
         0.26927E-02
         0.26927E-02
         0.26927E-02
         0.26927E-02
         0.26927E-02
         0.26927E-02
         0.26927E-02
         0.26927E-02
         0.26927E-02
         0.26927E-02
         0.26927E-02
         0.26927E-02
         0.26927E-02
         0.26927E-02
         0.26927E-02
         0.26927E-02
         0.26927E-02
         0.26927E-02
         0.26927E-02
         0.26927E-02
         0.26927E-02
         0.26927E-02
         0.26927E-02
         0.26927E-02
         0.26927E-02
         0.26927E-02
         0.26927E-02
         0.26927E-02
         0.26927E-02
         0.26927E-02
         0.26927E-02
         0.26927E-02
         0.26927E-02
         0.26927E-02
         0.26927E-02
         0.26927E-02
         0.26927E-02
         0.26927E-02
         0.26927E-02
         0.26927E-02
         0.26927E-02
         0.26927E-02
         0.26927E-02
         0.26927E-02
         0.26927E-02
         0.26927E-02
         0.26927E-02
         0.26927E-02
         0.26927E-02
         0.26927E-02
         0.26927E-02
         0.26927E-02
         0.26927E-02
         0.26927E-02
         0.26927E-02
         0.26927E-02
         0.26927E-02
         0.26927E-02
         0.26927E-02
         0.26927E-02
         0.26927E-02
         0.26927E-02
         0.26927E-02
         0.26927E-02
         0.26927E-02
         0.26927E-02
         0.26927E-02
         0.26927E-02
         0.26927E-02
         0.26927E-02
         0.26927E-02
         0.26927E-02
         0.26927E-02
         0.26927E-02
         0.26927E-02
         0.26927E-02
         0.26927E-02
         0.26927E-02
         0.26927E-02
         0.26927E-02
         0.26927E-02
         0.26927E-02
         0.26927E-02
         0.26927E-02
         0.26927E-02
         0.26927E-02
         0.26927E-02
         0.26927E-02
         0.26927E-02
         0.26927E-02
         0.26927E-02
         0.26927E-02
         0.26927E-02
         0.26927E-02
         0.26927E-02
         0.26927E-02
         0.26927E-02
         0.26927E-02
         0.26927E-02
         0.26927E-02
         0.26927E-02
         0.26927E-02
         0.26927E-02
         0.26927E-02
         0.26927E-02
         0.26927E-02
         0.26927E-02
         0.26927E-02
         0.26927E-02
         0.26927E-02
         0.26927E-02
         0.26927E-02
         0.26927E-02
         0.26927E-02
         0.26927E-02
         0.26927E-02
         0.26927E-02
         0.26927E-02
         0.26927E-02
         0.26927E-02
         0.26927E-02
         0.26927E-02
         0.26927E-02
         0.26927E-02
         0.26927E-02
         0.26927E-02
         0.26927E-02
         0.26927E-02
         0.26927E-02
         0.26927E-02
         0.26927E-02
         0.26927E-02
         0.26927E-02
         0.26927E-02
         0.26927E-02
         0.26927E-02
         0.26927E-02
         0.26927E-02
         0.26927E-02
         0.26927E-02
         0.26927E-02
         0.26927E-02
         0.26927E-02
         0.26927E-02
         0.26927E-02
         0.26927E-02
         0.26927E-02
         0.26927E-02
         0.26927E-02
         0.26927E-02
         0.26927E-02
         0.26927E-02
         0.26927E-02
         0.26927E-02
         0.26927E-02
         0.26927E-02
         0.26927E-02
         0.26927E-02
         0.26927E-02
         0.26927E-02
         0.26927E-02
         0.26927E-02
         0.26927E-02
         0.26927E-02
         0.26927E-02
         0.26927E-02
         0.26927E-02
         0.26927E-02
         0.26927E-02
         0.26927E-02
         0.26927E-02
         0.26927E-02
         0.26927E-02
         0.26927E-02
         0.26927E-02
         0.26927E-02
         0.26927E-02
         0.26927E-02
         0.26927E-02
         0.26927E-02
         0.26927E-02
         0.26927E-02
         0.26927E-02
         0.26927E-02
         0.26927E-02
         0.26927E-02
         0.26927E-02
         0.26927E-02
         0.26927E-02
         0.26927E-02
         0.26927E-02
         0.26927E-02
         0.26927E-02
         0.26927E-02
         0.26927E-02
         0.26927E-02
         0.26927E-02
         0.26927E-02
         0.26927E-02
         0.26927E-02
         0.26927E-02
         0.26927E-02
         0.26927E-02
         0.26927E-02
         0.26927E-02
         0.26927E-02
         0.26927E-02
         0.26927E-02
         0.26927E-02
         0.26927E-02
         0.26927E-02
         0.26927E-02
         0.26927E-02
         0.26927E-02
         0.26927E-02
         0.26927E-02
         0.26927E-02
         0.26927E-02
         0.26927E-02
         0.26927E-02
         0.26927E-02
         0.26927E-02
         0.26927E-02
         0.26927E-02
         0.26927E-02
         0.26927E-02
         0.26927E-02
         0.26927E-02
         0.26927E-02
         0.26927E-02
         0.26927E-02
         0.26927E-02
         0.26927E-02
         0.26927E-02
         0.26927E-02
         0.26927E-02
         0.26927E-02
         0.26927E-02
         0.26927E-02
         0.26927E-02
         0.26927E-02
         0.26927E-02
         0.26927E-02
         0.26927E-02
         0.26927E-02
         0.26927E-02
         0.26927E-02
         0.26927E-02
         0.26927E-02
         0.26927E-02
         0.26927E-02
         0.26927E-02
         0.26927E-02
         0.26927E-02
         0.26927E-02
         0.26927E-02
         0.26927E-02
         0.26927E-02
         0.26927E-02
         0.26927E-02
         0.26927E-02
         0.26927E-02
         0.26927E-02
         0.26927E-02
         0.26927E-02
         0.26927E-02
         0.26927E-02
         0.26927E-02
         0.26927E-02
         0.26927E-02
         0.26927E-02
         0.26927E-02
         0.26927E-02
         0.26927E-02
         0.26927E-02
         0.26927E-02
         0.26927E-02
         0.26927E-02
         0.26927E-02
         0.26927E-02
         0.26927E-02
         0.26927E-02
         0.26927E-02
         0.26927E-02
         0.26927E-02
         0.26927E-02
         0.26927E-02
         0.26927E-02
         0.26927E-02
         0.26927E-02
         0.26927E-02
         0.26927E-02
         0.26927E-02
         0.26927E-02
         0.26927E-02
         0.26927E-02
         0.26927E-02
         0.26927E-02
         0.26927E-02
         0.26927E-02
         0.26927E-02
         0.26927E-02
         0.26927E-02
         0.26927E-02
         0.26927E-02
         0.26927E-02
         0.26927E-02
         0.26927E-02
         0.26927E-02
         0.26927E-02
         0.26927E-02
         0.26927E-02
         0.26927E-02
         0.26927E-02
         0.26927E-02
         0.26927E-02
         0.26927E-02
         0.26927E-02
         0.26927E-02
         0.26928E-02
         0.26928E-02
         0.26928E-02
         0.26928E-02
         0.26928E-02
         0.26928E-02
         0.26928E-02
         0.26928E-02
         0.26928E-02
         0.26928E-02
         0.26928E-02
         0.26928E-02
         0.26928E-02
         0.26928E-02
         0.26928E-02
         0.26928E-02
         0.26928E-02
         0.26928E-02
         0.26928E-02
         0.26928E-02
         0.26928E-02
         0.26928E-02
         0.26928E-02
         0.26928E-02
         0.26928E-02
         0.26928E-02
         0.26928E-02
         0.26928E-02
         0.26928E-02
         0.26928E-02
         0.26928E-02
         0.26928E-02
         0.26928E-02
         0.26928E-02
         0.26928E-02
         0.26928E-02
         0.26928E-02
         0.26928E-02
         0.26928E-02
         0.26928E-02
         0.26928E-02
         0.26928E-02
         0.26928E-02
         0.26928E-02
         0.26928E-02
         0.26928E-02
         0.26928E-02
         0.26928E-02
         0.26928E-02
         0.26928E-02
         0.26928E-02
         0.26928E-02
         0.26928E-02
         0.26928E-02
         0.26928E-02
         0.26928E-02
         0.26928E-02
         0.26928E-02
         0.26928E-02
         0.26928E-02
         0.26928E-02
         0.26928E-02
         0.26928E-02
         0.26928E-02
         0.26928E-02
         0.26928E-02
         0.26928E-02
         0.26928E-02
         0.26928E-02
         0.26928E-02
         0.26928E-02
         0.26928E-02
         0.26928E-02
         0.26928E-02
         0.26928E-02
         0.26928E-02
         0.26928E-02
         0.26928E-02
         0.26928E-02
         0.26928E-02
         0.26928E-02
         0.26928E-02
         0.26928E-02
         0.26928E-02
         0.26928E-02
         0.26928E-02
         0.26928E-02
         0.26928E-02
         0.26928E-02
         0.26928E-02
         0.26928E-02
         0.26928E-02
         0.26928E-02
         0.26928E-02
         0.26928E-02
         0.26928E-02
         0.26928E-02
         0.26928E-02
         0.26928E-02
         0.26928E-02
         0.26928E-02
         0.26928E-02
         0.26928E-02
         0.26928E-02
         0.26928E-02
         0.26928E-02
         0.26928E-02
         0.26928E-02
         0.26928E-02
         0.26928E-02
         0.26928E-02
         0.26928E-02
         0.26928E-02
         0.26928E-02
         0.26928E-02
         0.26928E-02
         0.26928E-02
         0.26928E-02
         0.26928E-02
         0.26928E-02
         0.26928E-02
         0.26928E-02
         0.26928E-02
         0.26928E-02
         0.26928E-02
         0.26928E-02
         0.26928E-02
         0.26928E-02
         0.26928E-02
         0.26928E-02
         0.26928E-02
         0.26928E-02
         0.26928E-02
         0.26928E-02
         0.26928E-02
         0.26928E-02
         0.26928E-02
         0.26928E-02
         0.26928E-02
         0.26928E-02
         0.26928E-02
         0.26928E-02
         0.26928E-02
         0.26928E-02
         0.26928E-02
         0.26928E-02
         0.26928E-02
         0.26928E-02
         0.26928E-02
         0.26928E-02
         0.26928E-02
         0.26928E-02
         0.26928E-02
         0.26928E-02
         0.26928E-02
         0.26928E-02
  
SCALARS                   nodal_volume  double 1
LOOKUP_TABLE default
         0.91140E-09
         0.72412E-09
         0.77574E-09
         0.13316E-08
         0.45570E-09
         0.36211E-09
         0.38787E-09
         0.66566E-09
         0.71537E-09
         0.91211E-09
         0.35767E-09
         0.45600E-09
         0.51195E-09
         0.61532E-09
         0.25605E-09
         0.30776E-09
         0.10101E-08
         0.74536E-09
         0.50500E-09
         0.37281E-09
         0.30273E-09
         0.57012E-09
         0.62699E-09
         0.15144E-09
         0.28509E-09
         0.31352E-09
         0.51329E-09
         0.64933E-09
         0.25683E-09
         0.32471E-09
         0.12026E-08
         0.93909E-09
         0.11935E-08
         0.60122E-09
         0.46945E-09
         0.59663E-09
         0.70296E-09
         0.80270E-09
         0.35149E-09
         0.40134E-09
         0.75859E-09
         0.84013E-09
         0.37932E-09
         0.42007E-09
         0.64542E-09
         0.40086E-09
         0.32274E-09
         0.20045E-09
         0.76288E-09
         0.38153E-09
         0.63346E-09
         0.31675E-09
         0.66583E-09
         0.33318E-09
         0.68008E-09
         0.34022E-09
         0.58930E-09
         0.71738E-09
         0.29472E-09
         0.35874E-09
         0.90938E-09
         0.64302E-09
         0.45469E-09
         0.32154E-09
         0.10152E-08
         0.50747E-09
         0.88120E-09
         0.44042E-09
         0.40077E-09
         0.61872E-09
         0.20039E-09
         0.30940E-09
         0.70206E-09
         0.35106E-09
         0.74172E-09
         0.37089E-09
         0.71539E-09
         0.35770E-09
         0.56226E-09
         0.28113E-09
         0.35349E-09
         0.58452E-09
         0.17675E-09
         0.29229E-09
         0.77354E-09
         0.38679E-09
         0.62469E-09
         0.31238E-09
         0.54957E-09
         0.27483E-09
         0.36009E-09
         0.61365E-09
         0.18007E-09
         0.30685E-09
         0.83268E-09
         0.41635E-09
         0.87287E-09
         0.43642E-09
         0.70438E-09
         0.35217E-09
         0.43365E-09
         0.74413E-09
         0.21683E-09
         0.37198E-09
         0.27660E-09
         0.35144E-09
         0.13833E-09
         0.17573E-09
         0.32921E-09
         0.16465E-09
         0.38764E-09
         0.19382E-09
         0.37797E-09
         0.18897E-09
         0.36707E-09
         0.18352E-09
         0.39112E-09
         0.19552E-09
         0.41268E-09
         0.20627E-09
         0.38876E-09
         0.19433E-09
         0.30402E-09
         0.15200E-09
         0.24796E-09
         0.12398E-09
         0.31999E-09
         0.16000E-09
         0.42608E-09
         0.21303E-09
         0.46805E-09
         0.23401E-09
         0.44933E-09
         0.22466E-09
         0.40550E-09
         0.20276E-09
         0.36826E-09
         0.18414E-09
         0.29911E-09
         0.14956E-09
         0.25178E-09
         0.12591E-09
         0.32888E-09
         0.16445E-09
         0.43529E-09
         0.21765E-09
         0.44963E-09
         0.22482E-09
         0.36384E-09
         0.18194E-09
         0.29543E-09
         0.14774E-09
         0.36126E-09
         0.18063E-09
         0.42771E-09
         0.21386E-09
         0.91143E-09
         0.72396E-09
         0.77579E-09
         0.13322E-08
         0.71547E-09
         0.91237E-09
         0.51167E-09
         0.61494E-09
         0.10105E-08
         0.74486E-09
         0.30244E-09
         0.57001E-09
         0.62694E-09
         0.51257E-09
         0.64918E-09
         0.12029E-08
         0.93950E-09
         0.11941E-08
         0.70298E-09
         0.80279E-09
         0.75855E-09
         0.84015E-09
         0.64535E-09
         0.40081E-09
         0.76254E-09
         0.63339E-09
         0.66483E-09
         0.67941E-09
         0.58904E-09
         0.71721E-09
         0.90946E-09
         0.64293E-09
         0.10157E-08
         0.88199E-09
         0.40076E-09
         0.61859E-09
         0.70195E-09
         0.74166E-09
         0.71543E-09
         0.56228E-09
         0.35349E-09
         0.58443E-09
         0.77349E-09
         0.62459E-09
         0.54943E-09
         0.35999E-09
         0.61359E-09
         0.83268E-09
         0.87299E-09
         0.70451E-09
         0.43366E-09
         0.74449E-09
         0.27651E-09
         0.35143E-09
         0.32904E-09
         0.38765E-09
         0.37805E-09
         0.36714E-09
         0.39129E-09
         0.41297E-09
         0.38899E-09
         0.30408E-09
         0.24798E-09
         0.31999E-09
         0.42613E-09
         0.46815E-09
         0.44938E-09
         0.40548E-09
         0.36823E-09
         0.29908E-09
         0.25174E-09
         0.32885E-09
         0.43527E-09
         0.44962E-09
         0.36376E-09
         0.29536E-09
         0.36130E-09
         0.42769E-09
         0.91151E-09
         0.72383E-09
         0.77587E-09
         0.13329E-08
         0.71560E-09
         0.91267E-09
         0.51142E-09
         0.61459E-09
         0.10109E-08
         0.74439E-09
         0.30216E-09
         0.56992E-09
         0.62691E-09
         0.51187E-09
         0.64906E-09
         0.12033E-08
         0.93995E-09
         0.11947E-08
         0.70302E-09
         0.80291E-09
         0.75853E-09
         0.84020E-09
         0.64530E-09
         0.40078E-09
         0.76223E-09
         0.63335E-09
         0.66385E-09
         0.67875E-09
         0.58880E-09
         0.71706E-09
         0.90957E-09
         0.64286E-09
         0.10162E-08
         0.88281E-09
         0.40076E-09
         0.61849E-09
         0.70188E-09
         0.74162E-09
         0.71550E-09
         0.56232E-09
         0.35350E-09
         0.58436E-09
         0.77347E-09
         0.62452E-09
         0.54931E-09
         0.35990E-09
         0.61355E-09
         0.83270E-09
         0.87315E-09
         0.70467E-09
         0.43368E-09
         0.74487E-09
         0.27643E-09
         0.35143E-09
         0.32889E-09
         0.38767E-09
         0.37814E-09
         0.36723E-09
         0.39147E-09
         0.41328E-09
         0.38923E-09
         0.30416E-09
         0.24800E-09
         0.32001E-09
         0.42620E-09
         0.46826E-09
         0.44944E-09
         0.40548E-09
         0.36821E-09
         0.29906E-09
         0.25171E-09
         0.32883E-09
         0.43527E-09
         0.44963E-09
         0.36369E-09
         0.29530E-09
         0.36135E-09
         0.42769E-09
         0.91156E-09
         0.72368E-09
         0.77594E-09
         0.13335E-08
         0.71571E-09
         0.91295E-09
         0.51115E-09
         0.61422E-09
         0.10112E-08
         0.74389E-09
         0.30187E-09
         0.56982E-09
         0.62686E-09
         0.51116E-09
         0.64892E-09
         0.12036E-08
         0.94038E-09
         0.11953E-08
         0.70304E-09
         0.80300E-09
         0.75850E-09
         0.84023E-09
         0.64523E-09
         0.40073E-09
         0.76190E-09
         0.63330E-09
         0.66285E-09
         0.67809E-09
         0.58855E-09
         0.71689E-09
         0.90966E-09
         0.64278E-09
         0.10168E-08
         0.88361E-09
         0.40076E-09
         0.61837E-09
         0.70178E-09
         0.74156E-09
         0.71554E-09
         0.56234E-09
         0.35350E-09
         0.58428E-09
         0.77343E-09
         0.62442E-09
         0.54918E-09
         0.35981E-09
         0.61349E-09
         0.83271E-09
         0.87328E-09
         0.70481E-09
         0.43369E-09
         0.74524E-09
         0.27634E-09
         0.35142E-09
         0.32873E-09
         0.38768E-09
         0.37823E-09
         0.36731E-09
         0.39163E-09
         0.41358E-09
         0.38945E-09
         0.30422E-09
         0.24802E-09
         0.32001E-09
         0.42625E-09
         0.46837E-09
         0.44949E-09
         0.40546E-09
         0.36819E-09
         0.29904E-09
         0.25167E-09
         0.32881E-09
         0.43526E-09
         0.44963E-09
         0.36362E-09
         0.29523E-09
         0.36139E-09
         0.42768E-09
         0.91161E-09
         0.72353E-09
         0.77600E-09
         0.13341E-08
         0.71583E-09
         0.91323E-09
         0.51088E-09
         0.61386E-09
         0.10116E-08
         0.74341E-09
         0.30158E-09
         0.56972E-09
         0.62682E-09
         0.51045E-09
         0.64879E-09
         0.12040E-08
         0.94081E-09
         0.11959E-08
         0.70307E-09
         0.80310E-09
         0.75847E-09
         0.84027E-09
         0.64517E-09
         0.40069E-09
         0.76158E-09
         0.63325E-09
         0.66186E-09
         0.67742E-09
         0.58831E-09
         0.71673E-09
         0.90975E-09
         0.64270E-09
         0.10173E-08
         0.88441E-09
         0.40075E-09
         0.61825E-09
         0.70169E-09
         0.74151E-09
         0.71559E-09
         0.56237E-09
         0.35350E-09
         0.58420E-09
         0.77339E-09
         0.62433E-09
         0.54905E-09
         0.35972E-09
         0.61344E-09
         0.83272E-09
         0.87341E-09
         0.70496E-09
         0.43370E-09
         0.74562E-09
         0.27626E-09
         0.35142E-09
         0.32857E-09
         0.38770E-09
         0.37832E-09
         0.36739E-09
         0.39181E-09
         0.41387E-09
         0.38968E-09
         0.30429E-09
         0.24804E-09
         0.32002E-09
         0.42631E-09
         0.46847E-09
         0.44954E-09
         0.40545E-09
         0.36816E-09
         0.29901E-09
         0.25163E-09
         0.32878E-09
         0.43525E-09
         0.44963E-09
         0.36354E-09
         0.29517E-09
         0.36144E-09
         0.42766E-09
         0.91167E-09
         0.72338E-09
         0.77607E-09
         0.13348E-08
         0.71594E-09
         0.91351E-09
         0.51062E-09
         0.61349E-09
         0.10119E-08
         0.74292E-09
         0.30129E-09
         0.56962E-09
         0.62678E-09
         0.50974E-09
         0.64865E-09
         0.12044E-08
         0.94125E-09
         0.11965E-08
         0.70310E-09
         0.80321E-09
         0.75844E-09
         0.84031E-09
         0.64511E-09
         0.40065E-09
         0.76125E-09
         0.63320E-09
         0.66087E-09
         0.67676E-09
         0.58806E-09
         0.71657E-09
         0.90984E-09
         0.64263E-09
         0.10179E-08
         0.88522E-09
         0.40075E-09
         0.61813E-09
         0.70160E-09
         0.74146E-09
         0.71564E-09
         0.56240E-09
         0.35350E-09
         0.58412E-09
         0.77336E-09
         0.62425E-09
         0.54892E-09
         0.35963E-09
         0.61339E-09
         0.83274E-09
         0.87355E-09
         0.70511E-09
         0.43371E-09
         0.74599E-09
         0.27618E-09
         0.35141E-09
         0.32841E-09
         0.38771E-09
         0.37841E-09
         0.36747E-09
         0.39198E-09
         0.41417E-09
         0.38992E-09
         0.30436E-09
         0.24806E-09
         0.32003E-09
         0.42637E-09
         0.46858E-09
         0.44960E-09
         0.40544E-09
         0.36814E-09
         0.29899E-09
         0.25159E-09
         0.32876E-09
         0.43525E-09
         0.44963E-09
         0.36347E-09
         0.29511E-09
         0.36148E-09
         0.42766E-09
         0.91171E-09
         0.72323E-09
         0.77613E-09
         0.13354E-08
         0.71606E-09
         0.91379E-09
         0.51035E-09
         0.61313E-09
         0.10123E-08
         0.74243E-09
         0.30101E-09
         0.56952E-09
         0.62674E-09
         0.50903E-09
         0.64851E-09
         0.12047E-08
         0.94167E-09
         0.11971E-08
         0.70312E-09
         0.80331E-09
         0.75840E-09
         0.84034E-09
         0.64504E-09
         0.40061E-09
         0.76092E-09
         0.63314E-09
         0.65988E-09
         0.67609E-09
         0.58781E-09
         0.71641E-09
         0.90993E-09
         0.64255E-09
         0.10184E-08
         0.88601E-09
         0.40075E-09
         0.61801E-09
         0.70151E-09
         0.74140E-09
         0.71569E-09
         0.56243E-09
         0.35350E-09
         0.58404E-09
         0.77332E-09
         0.62416E-09
         0.54879E-09
         0.35953E-09
         0.61334E-09
         0.83274E-09
         0.87368E-09
         0.70525E-09
         0.43372E-09
         0.74636E-09
         0.27609E-09
         0.35141E-09
         0.32825E-09
         0.38772E-09
         0.37849E-09
         0.36754E-09
         0.39215E-09
         0.41447E-09
         0.39014E-09
         0.30443E-09
         0.24808E-09
         0.32004E-09
         0.42642E-09
         0.46868E-09
         0.44965E-09
         0.40543E-09
         0.36812E-09
         0.29897E-09
         0.25155E-09
         0.32874E-09
         0.43524E-09
         0.44963E-09
         0.36340E-09
         0.29504E-09
         0.36153E-09
         0.42764E-09
         0.91176E-09
         0.72308E-09
         0.77620E-09
         0.13360E-08
         0.71617E-09
         0.91407E-09
         0.51008E-09
         0.61276E-09
         0.10126E-08
         0.74195E-09
         0.30072E-09
         0.56942E-09
         0.62670E-09
         0.50832E-09
         0.64838E-09
         0.12051E-08
         0.94210E-09
         0.11977E-08
         0.70314E-09
         0.80341E-09
         0.75837E-09
         0.84038E-09
         0.64498E-09
         0.40056E-09
         0.76060E-09
         0.63309E-09
         0.65888E-09
         0.67542E-09
         0.58756E-09
         0.71624E-09
         0.91002E-09
         0.64247E-09
         0.10189E-08
         0.88682E-09
         0.40074E-09
         0.61790E-09
         0.70142E-09
         0.74135E-09
         0.71574E-09
         0.56245E-09
         0.35351E-09
         0.58396E-09
         0.77328E-09
         0.62407E-09
         0.54866E-09
         0.35944E-09
         0.61329E-09
         0.83275E-09
         0.87382E-09
         0.70539E-09
         0.43373E-09
         0.74673E-09
         0.27601E-09
         0.35140E-09
         0.32809E-09
         0.38774E-09
         0.37858E-09
         0.36762E-09
         0.39232E-09
         0.41477E-09
         0.39037E-09
         0.30450E-09
         0.24810E-09
         0.32005E-09
         0.42648E-09
         0.46879E-09
         0.44970E-09
         0.40541E-09
         0.36809E-09
         0.29894E-09
         0.25151E-09
         0.32871E-09
         0.43523E-09
         0.44963E-09
         0.36333E-09
         0.29497E-09
         0.36157E-09
         0.42763E-09
         0.91182E-09
         0.72293E-09
         0.77627E-09
         0.13367E-08
         0.71629E-09
         0.91436E-09
         0.50982E-09
         0.61240E-09
         0.10130E-08
         0.74146E-09
         0.30043E-09
         0.56932E-09
         0.62666E-09
         0.50762E-09
         0.64825E-09
         0.12054E-08
         0.94253E-09
         0.11983E-08
         0.70317E-09
         0.80351E-09
         0.75834E-09
         0.84041E-09
         0.64491E-09
         0.40053E-09
         0.76028E-09
         0.63304E-09
         0.65790E-09
         0.67476E-09
         0.58731E-09
         0.71609E-09
         0.91012E-09
         0.64239E-09
         0.10195E-08
         0.88762E-09
         0.40074E-09
         0.61778E-09
         0.70133E-09
         0.74130E-09
         0.71579E-09
         0.56249E-09
         0.35351E-09
         0.58388E-09
         0.77324E-09
         0.62398E-09
         0.54853E-09
         0.35935E-09
         0.61324E-09
         0.83277E-09
         0.87396E-09
         0.70554E-09
         0.43375E-09
         0.74711E-09
         0.27592E-09
         0.35140E-09
         0.32793E-09
         0.38775E-09
         0.37867E-09
         0.36770E-09
         0.39249E-09
         0.41507E-09
         0.39061E-09
         0.30457E-09
         0.24812E-09
         0.32006E-09
         0.42654E-09
         0.46890E-09
         0.44975E-09
         0.40540E-09
         0.36807E-09
         0.29892E-09
         0.25148E-09
         0.32869E-09
         0.43522E-09
         0.44963E-09
         0.36325E-09
         0.29491E-09
         0.36162E-09
         0.42762E-09
         0.91187E-09
         0.72278E-09
         0.77633E-09
         0.13373E-08
         0.71640E-09
         0.91463E-09
         0.50955E-09
         0.61204E-09
         0.10134E-08
         0.74098E-09
         0.30015E-09
         0.56922E-09
         0.62662E-09
         0.50691E-09
         0.64811E-09
         0.12058E-08
         0.94296E-09
         0.11989E-08
         0.70320E-09
         0.80361E-09
         0.75831E-09
         0.84045E-09
         0.64485E-09
         0.40048E-09
         0.75995E-09
         0.63298E-09
         0.65690E-09
         0.67409E-09
         0.58706E-09
         0.71592E-09
         0.91020E-09
         0.64231E-09
         0.10200E-08
         0.88843E-09
         0.40074E-09
         0.61766E-09
         0.70124E-09
         0.74124E-09
         0.71584E-09
         0.56251E-09
         0.35351E-09
         0.58380E-09
         0.77320E-09
         0.62389E-09
         0.54840E-09
         0.35926E-09
         0.61318E-09
         0.83277E-09
         0.87409E-09
         0.70568E-09
         0.43376E-09
         0.74748E-09
         0.27584E-09
         0.35139E-09
         0.32777E-09
         0.38777E-09
         0.37876E-09
         0.36778E-09
         0.39266E-09
         0.41536E-09
         0.39084E-09
         0.30464E-09
         0.24814E-09
         0.32006E-09
         0.42659E-09
         0.46900E-09
         0.44980E-09
         0.40539E-09
         0.36805E-09
         0.29890E-09
         0.25144E-09
         0.32867E-09
         0.43521E-09
         0.44963E-09
         0.36318E-09
         0.29485E-09
         0.36166E-09
         0.42761E-09
         0.91192E-09
         0.72263E-09
         0.77640E-09
         0.13380E-08
         0.71652E-09
         0.91491E-09
         0.50928E-09
         0.61167E-09
         0.10137E-08
         0.74049E-09
         0.29986E-09
         0.56912E-09
         0.62657E-09
         0.50620E-09
         0.64797E-09
         0.12061E-08
         0.94339E-09
         0.11995E-08
         0.70322E-09
         0.80371E-09
         0.75827E-09
         0.84048E-09
         0.64478E-09
         0.40044E-09
         0.75962E-09
         0.63293E-09
         0.65591E-09
         0.67343E-09
         0.58681E-09
         0.71576E-09
         0.91029E-09
         0.64223E-09
         0.10205E-08
         0.88923E-09
         0.40073E-09
         0.61754E-09
         0.70114E-09
         0.74119E-09
         0.71588E-09
         0.56254E-09
         0.35351E-09
         0.58372E-09
         0.77316E-09
         0.62380E-09
         0.54827E-09
         0.35917E-09
         0.61313E-09
         0.83278E-09
         0.87422E-09
         0.70582E-09
         0.43377E-09
         0.74785E-09
         0.27575E-09
         0.35138E-09
         0.32761E-09
         0.38778E-09
         0.37885E-09
         0.36786E-09
         0.39283E-09
         0.41566E-09
         0.39107E-09
         0.30470E-09
         0.24816E-09
         0.32007E-09
         0.42665E-09
         0.46911E-09
         0.44985E-09
         0.40538E-09
         0.36802E-09
         0.29887E-09
         0.25140E-09
         0.32864E-09
         0.43520E-09
         0.44963E-09
         0.36310E-09
         0.29478E-09
         0.36170E-09
         0.42760E-09
         0.91198E-09
         0.72248E-09
         0.77646E-09
         0.13386E-08
         0.71663E-09
         0.91520E-09
         0.50901E-09
         0.61131E-09
         0.10141E-08
         0.74000E-09
         0.29957E-09
         0.56902E-09
         0.62653E-09
         0.50549E-09
         0.64784E-09
         0.12065E-08
         0.94382E-09
         0.12002E-08
         0.70325E-09
         0.80381E-09
         0.75824E-09
         0.84052E-09
         0.64472E-09
         0.40040E-09
         0.75929E-09
         0.63288E-09
         0.65492E-09
         0.67276E-09
         0.58657E-09
         0.71560E-09
         0.91038E-09
         0.64216E-09
         0.10211E-08
         0.89003E-09
         0.40073E-09
         0.61742E-09
         0.70105E-09
         0.74114E-09
         0.71593E-09
         0.56257E-09
         0.35351E-09
         0.58364E-09
         0.77313E-09
         0.62371E-09
         0.54814E-09
         0.35908E-09
         0.61308E-09
         0.83280E-09
         0.87436E-09
         0.70597E-09
         0.43378E-09
         0.74823E-09
         0.27567E-09
         0.35138E-09
         0.32745E-09
         0.38779E-09
         0.37893E-09
         0.36794E-09
         0.39300E-09
         0.41596E-09
         0.39130E-09
         0.30477E-09
         0.24818E-09
         0.32008E-09
         0.42671E-09
         0.46921E-09
         0.44991E-09
         0.40537E-09
         0.36800E-09
         0.29885E-09
         0.25136E-09
         0.32862E-09
         0.43520E-09
         0.44963E-09
         0.36303E-09
         0.29472E-09
         0.36175E-09
         0.42759E-09
         0.91203E-09
         0.72233E-09
         0.77653E-09
         0.13392E-08
         0.71675E-09
         0.91547E-09
         0.50875E-09
         0.61094E-09
         0.10144E-08
         0.73952E-09
         0.29928E-09
         0.56892E-09
         0.62649E-09
         0.50478E-09
         0.64770E-09
         0.12068E-08
         0.94424E-09
         0.12008E-08
         0.70327E-09
         0.80391E-09
         0.75821E-09
         0.84055E-09
         0.64465E-09
         0.40035E-09
         0.75896E-09
         0.63282E-09
         0.65393E-09
         0.67210E-09
         0.58632E-09
         0.71543E-09
         0.91047E-09
         0.64208E-09
         0.10216E-08
         0.89084E-09
         0.40073E-09
         0.61730E-09
         0.70096E-09
         0.74108E-09
         0.71598E-09
         0.56259E-09
         0.35351E-09
         0.58356E-09
         0.77309E-09
         0.62362E-09
         0.54801E-09
         0.35898E-09
         0.61303E-09
         0.83281E-09
         0.87449E-09
         0.70611E-09
         0.43379E-09
         0.74860E-09
         0.27558E-09
         0.35137E-09
         0.32729E-09
         0.38781E-09
         0.37902E-09
         0.36802E-09
         0.39317E-09
         0.41625E-09
         0.39153E-09
         0.30484E-09
         0.24820E-09
         0.32009E-09
         0.42677E-09
         0.46932E-09
         0.44996E-09
         0.40536E-09
         0.36798E-09
         0.29883E-09
         0.25132E-09
         0.32859E-09
         0.43519E-09
         0.44963E-09
         0.36296E-09
         0.29465E-09
         0.36179E-09
         0.42758E-09
         0.91208E-09
         0.72218E-09
         0.77659E-09
         0.13399E-08
         0.71686E-09
         0.91576E-09
         0.50848E-09
         0.61058E-09
         0.10148E-08
         0.73903E-09
         0.29900E-09
         0.56882E-09
         0.62645E-09
         0.50408E-09
         0.64757E-09
         0.12072E-08
         0.94467E-09
         0.12014E-08
         0.70330E-09
         0.80401E-09
         0.75818E-09
         0.84059E-09
         0.64459E-09
         0.40031E-09
         0.75864E-09
         0.63277E-09
         0.65294E-09
         0.67143E-09
         0.58607E-09
         0.71527E-09
         0.91057E-09
         0.64200E-09
         0.10221E-08
         0.89164E-09
         0.40072E-09
         0.61719E-09
         0.70087E-09
         0.74103E-09
         0.71603E-09
         0.56262E-09
         0.35352E-09
         0.58348E-09
         0.77305E-09
         0.62354E-09
         0.54788E-09
         0.35889E-09
         0.61298E-09
         0.83282E-09
         0.87463E-09
         0.70626E-09
         0.43380E-09
         0.74897E-09
         0.27550E-09
         0.35137E-09
         0.32713E-09
         0.38782E-09
         0.37911E-09
         0.36810E-09
         0.39334E-09
         0.41655E-09
         0.39176E-09
         0.30491E-09
         0.24822E-09
         0.32010E-09
         0.42682E-09
         0.46942E-09
         0.45001E-09
         0.40534E-09
         0.36796E-09
         0.29881E-09
         0.25128E-09
         0.32857E-09
         0.43518E-09
         0.44963E-09
         0.36288E-09
         0.29459E-09
         0.36184E-09
         0.42757E-09
         0.91214E-09
         0.72204E-09
         0.77666E-09
         0.13405E-08
         0.71698E-09
         0.91604E-09
         0.50822E-09
         0.61022E-09
         0.10151E-08
         0.73855E-09
         0.29871E-09
         0.56872E-09
         0.62641E-09
         0.50337E-09
         0.64743E-09
         0.12075E-08
         0.94510E-09
         0.12020E-08
         0.70333E-09
         0.80411E-09
         0.75815E-09
         0.84063E-09
         0.64453E-09
         0.40027E-09
         0.75831E-09
         0.63272E-09
         0.65196E-09
         0.67077E-09
         0.58582E-09
         0.71511E-09
         0.91066E-09
         0.64192E-09
         0.10227E-08
         0.89245E-09
         0.40072E-09
         0.61707E-09
         0.70078E-09
         0.74098E-09
         0.71608E-09
         0.56265E-09
         0.35352E-09
         0.58340E-09
         0.77301E-09
         0.62345E-09
         0.54775E-09
         0.35880E-09
         0.61293E-09
         0.83283E-09
         0.87476E-09
         0.70641E-09
         0.43382E-09
         0.74935E-09
         0.27541E-09
         0.35136E-09
         0.32697E-09
         0.38784E-09
         0.37920E-09
         0.36818E-09
         0.39352E-09
         0.41685E-09
         0.39199E-09
         0.30498E-09
         0.24824E-09
         0.32011E-09
         0.42688E-09
         0.46953E-09
         0.45007E-09
         0.40533E-09
         0.36793E-09
         0.29878E-09
         0.25124E-09
         0.32855E-09
         0.43517E-09
         0.44963E-09
         0.36281E-09
         0.29452E-09
         0.36188E-09
         0.42756E-09
         0.91219E-09
         0.72188E-09
         0.77672E-09
         0.13412E-08
         0.71709E-09
         0.91632E-09
         0.50795E-09
         0.60986E-09
         0.10155E-08
         0.73806E-09
         0.29842E-09
         0.56862E-09
         0.62636E-09
         0.50266E-09
         0.64730E-09
         0.12079E-08
         0.94552E-09
         0.12026E-08
         0.70335E-09
         0.80421E-09
         0.75811E-09
         0.84066E-09
         0.64446E-09
         0.40023E-09
         0.75798E-09
         0.63267E-09
         0.65096E-09
         0.67010E-09
         0.58557E-09
         0.71494E-09
         0.91074E-09
         0.64184E-09
         0.10232E-08
         0.89325E-09
         0.40072E-09
         0.61695E-09
         0.70069E-09
         0.74092E-09
         0.71612E-09
         0.56268E-09
         0.35352E-09
         0.58332E-09
         0.77297E-09
         0.62336E-09
         0.54762E-09
         0.35871E-09
         0.61287E-09
         0.83284E-09
         0.87489E-09
         0.70655E-09
         0.43383E-09
         0.74972E-09
         0.27533E-09
         0.35136E-09
         0.32681E-09
         0.38785E-09
         0.37929E-09
         0.36825E-09
         0.39369E-09
         0.41715E-09
         0.39222E-09
         0.30505E-09
         0.24826E-09
         0.32011E-09
         0.42694E-09
         0.46963E-09
         0.45011E-09
         0.40532E-09
         0.36791E-09
         0.29876E-09
         0.25120E-09
         0.32853E-09
         0.43516E-09
         0.44962E-09
         0.36274E-09
         0.29445E-09
         0.36192E-09
         0.42755E-09
         0.91224E-09
         0.72173E-09
         0.77679E-09
         0.13418E-08
         0.71720E-09
         0.91660E-09
         0.50768E-09
         0.60949E-09
         0.10158E-08
         0.73758E-09
         0.29814E-09
         0.56852E-09
         0.62632E-09
         0.50195E-09
         0.64716E-09
         0.12082E-08
         0.94595E-09
         0.12032E-08
         0.70337E-09
         0.80431E-09
         0.75808E-09
         0.84069E-09
         0.64440E-09
         0.40018E-09
         0.75766E-09
         0.63262E-09
         0.64998E-09
         0.66943E-09
         0.58532E-09
         0.71478E-09
         0.91083E-09
         0.64176E-09
         0.10238E-08
         0.89406E-09
         0.40071E-09
         0.61683E-09
         0.70059E-09
         0.74087E-09
         0.71617E-09
         0.56270E-09
         0.35352E-09
         0.58324E-09
         0.77294E-09
         0.62327E-09
         0.54749E-09
         0.35861E-09
         0.61282E-09
         0.83284E-09
         0.87503E-09
         0.70669E-09
         0.43384E-09
         0.75009E-09
         0.27524E-09
         0.35135E-09
         0.32665E-09
         0.38786E-09
         0.37937E-09
         0.36833E-09
         0.39386E-09
         0.41745E-09
         0.39245E-09
         0.30512E-09
         0.24828E-09
         0.32012E-09
         0.42699E-09
         0.46974E-09
         0.45017E-09
         0.40531E-09
         0.36788E-09
         0.29873E-09
         0.25117E-09
         0.32850E-09
         0.43515E-09
         0.44962E-09
         0.36266E-09
         0.29439E-09
         0.36197E-09
         0.42754E-09
         0.91230E-09
         0.72159E-09
         0.77686E-09
         0.13425E-08
         0.71732E-09
         0.91688E-09
         0.50742E-09
         0.60913E-09
         0.10162E-08
         0.73710E-09
         0.29785E-09
         0.56842E-09
         0.62628E-09
         0.50125E-09
         0.64703E-09
         0.12086E-08
         0.94638E-09
         0.12038E-08
         0.70340E-09
         0.80441E-09
         0.75805E-09
         0.84073E-09
         0.64433E-09
         0.40014E-09
         0.75733E-09
         0.63257E-09
         0.64899E-09
         0.66877E-09
         0.58508E-09
         0.71462E-09
         0.91093E-09
         0.64169E-09
         0.10243E-08
         0.89487E-09
         0.40071E-09
         0.61671E-09
         0.70051E-09
         0.74082E-09
         0.71622E-09
         0.56273E-09
         0.35352E-09
         0.58316E-09
         0.77290E-09
         0.62318E-09
         0.54737E-09
         0.35852E-09
         0.61277E-09
         0.83286E-09
         0.87517E-09
         0.70684E-09
         0.43385E-09
         0.75047E-09
         0.27516E-09
         0.35135E-09
         0.32649E-09
         0.38788E-09
         0.37946E-09
         0.36841E-09
         0.39403E-09
         0.41775E-09
         0.39268E-09
         0.30519E-09
         0.24830E-09
         0.32013E-09
         0.42705E-09
         0.46985E-09
         0.45022E-09
         0.40530E-09
         0.36786E-09
         0.29871E-09
         0.25113E-09
         0.32848E-09
         0.43515E-09
         0.44962E-09
         0.36259E-09
         0.29433E-09
         0.36201E-09
         0.42753E-09
         0.91235E-09
         0.72143E-09
         0.77692E-09
         0.13431E-08
         0.71743E-09
         0.91716E-09
         0.50715E-09
         0.60877E-09
         0.10165E-08
         0.73661E-09
         0.29757E-09
         0.56832E-09
         0.62624E-09
         0.50054E-09
         0.64689E-09
         0.12089E-08
         0.94680E-09
         0.12044E-08
         0.70342E-09
         0.80450E-09
         0.75802E-09
         0.84076E-09
         0.64427E-09
         0.40010E-09
         0.75700E-09
         0.63251E-09
         0.64800E-09
         0.66810E-09
         0.58482E-09
         0.71445E-09
         0.91101E-09
         0.64161E-09
         0.10248E-08
         0.89567E-09
         0.40071E-09
         0.61659E-09
         0.70041E-09
         0.74077E-09
         0.71627E-09
         0.56276E-09
         0.35352E-09
         0.58308E-09
         0.77286E-09
         0.62309E-09
         0.54723E-09
         0.35843E-09
         0.61272E-09
         0.83287E-09
         0.87530E-09
         0.70698E-09
         0.43386E-09
         0.75084E-09
         0.27507E-09
         0.35134E-09
         0.32633E-09
         0.38789E-09
         0.37955E-09
         0.36849E-09
         0.39420E-09
         0.41804E-09
         0.39291E-09
         0.30525E-09
         0.24832E-09
         0.32014E-09
         0.42711E-09
         0.46995E-09
         0.45027E-09
         0.40528E-09
         0.36784E-09
         0.29869E-09
         0.25109E-09
         0.32845E-09
         0.43514E-09
         0.44962E-09
         0.36252E-09
         0.29426E-09
         0.36206E-09
         0.42751E-09
         0.91240E-09
         0.72128E-09
         0.77698E-09
         0.13437E-08
         0.71755E-09
         0.91744E-09
         0.50688E-09
         0.60841E-09
         0.10169E-08
         0.73612E-09
         0.29728E-09
         0.56822E-09
         0.62619E-09
         0.49984E-09
         0.64676E-09
         0.12093E-08
         0.94723E-09
         0.12050E-08
         0.70345E-09
         0.80460E-09
         0.75798E-09
         0.84080E-09
         0.64420E-09
         0.40006E-09
         0.75667E-09
         0.63246E-09
         0.64701E-09
         0.66744E-09
         0.58457E-09
         0.71429E-09
         0.91110E-09
         0.64153E-09
         0.10254E-08
         0.89648E-09
         0.40070E-09
         0.61647E-09
         0.70032E-09
         0.74071E-09
         0.71632E-09
         0.56279E-09
         0.35353E-09
         0.58300E-09
         0.77282E-09
         0.62300E-09
         0.54710E-09
         0.35834E-09
         0.61266E-09
         0.83288E-09
         0.87543E-09
         0.70713E-09
         0.43387E-09
         0.75122E-09
         0.27499E-09
         0.35133E-09
         0.32617E-09
         0.38790E-09
         0.37964E-09
         0.36857E-09
         0.39437E-09
         0.41834E-09
         0.39314E-09
         0.30532E-09
         0.24834E-09
         0.32014E-09
         0.42716E-09
         0.47005E-09
         0.45032E-09
         0.40527E-09
         0.36781E-09
         0.29866E-09
         0.25105E-09
         0.32843E-09
         0.43513E-09
         0.44962E-09
         0.36244E-09
         0.29419E-09
         0.36210E-09
         0.42750E-09
         0.91246E-09
         0.72114E-09
         0.77705E-09
         0.13444E-08
         0.71767E-09
         0.91773E-09
         0.50662E-09
         0.60805E-09
         0.10173E-08
         0.73564E-09
         0.29700E-09
         0.56812E-09
         0.62616E-09
         0.49914E-09
         0.64663E-09
         0.12097E-08
         0.94766E-09
         0.12056E-08
         0.70348E-09
         0.80471E-09
         0.75796E-09
         0.84084E-09
         0.64414E-09
         0.40002E-09
         0.75635E-09
         0.63241E-09
         0.64603E-09
         0.66678E-09
         0.58433E-09
         0.71413E-09
         0.91120E-09
         0.64146E-09
         0.10259E-08
         0.89729E-09
         0.40070E-09
         0.61636E-09
         0.70023E-09
         0.74067E-09
         0.71637E-09
         0.56282E-09
         0.35353E-09
         0.58293E-09
         0.77279E-09
         0.62291E-09
         0.54698E-09
         0.35825E-09
         0.61261E-09
         0.83289E-09
         0.87557E-09
         0.70728E-09
         0.43389E-09
         0.75160E-09
         0.27491E-09
         0.35133E-09
         0.32601E-09
         0.38792E-09
         0.37972E-09
         0.36865E-09
         0.39454E-09
         0.41864E-09
         0.39337E-09
         0.30539E-09
         0.24836E-09
         0.32015E-09
         0.42722E-09
         0.47016E-09
         0.45038E-09
         0.40526E-09
         0.36779E-09
         0.29864E-09
         0.25101E-09
         0.32841E-09
         0.43512E-09
         0.44962E-09
         0.36237E-09
         0.29413E-09
         0.36215E-09
         0.42750E-09
         0.91249E-09
         0.72097E-09
         0.77710E-09
         0.13450E-08
         0.71777E-09
         0.91799E-09
         0.50634E-09
         0.60767E-09
         0.10176E-08
         0.73514E-09
         0.29670E-09
         0.56801E-09
         0.62610E-09
         0.49842E-09
         0.64648E-09
         0.12100E-08
         0.94806E-09
         0.12062E-08
         0.70349E-09
         0.80479E-09
         0.75791E-09
         0.84086E-09
         0.64406E-09
         0.39997E-09
         0.75600E-09
         0.63234E-09
         0.64503E-09
         0.66610E-09
         0.58407E-09
         0.71395E-09
         0.91127E-09
         0.64136E-09
         0.10264E-08
         0.89808E-09
         0.40069E-09
         0.61622E-09
         0.70012E-09
         0.74060E-09
         0.71641E-09
         0.56283E-09
         0.35352E-09
         0.58283E-09
         0.77273E-09
         0.62281E-09
         0.54684E-09
         0.35815E-09
         0.61255E-09
         0.83288E-09
         0.87569E-09
         0.70741E-09
         0.43389E-09
         0.75195E-09
         0.27482E-09
         0.35132E-09
         0.32584E-09
         0.38793E-09
         0.37980E-09
         0.36872E-09
         0.39470E-09
         0.41893E-09
         0.39360E-09
         0.30545E-09
         0.24837E-09
         0.32016E-09
         0.42727E-09
         0.47026E-09
         0.45042E-09
         0.40524E-09
         0.36776E-09
         0.29861E-09
         0.25097E-09
         0.32838E-09
         0.43510E-09
         0.44961E-09
         0.36229E-09
         0.29406E-09
         0.36218E-09
         0.42748E-09
         0.91256E-09
         0.72083E-09
         0.77718E-09
         0.13457E-08
         0.71789E-09
         0.91829E-09
         0.50608E-09
         0.60732E-09
         0.10180E-08
         0.73467E-09
         0.29642E-09
         0.56792E-09
         0.62607E-09
         0.49772E-09
         0.64636E-09
         0.12103E-08
         0.94850E-09
         0.12068E-08
         0.70352E-09
         0.80490E-09
         0.75789E-09
         0.84091E-09
         0.64401E-09
         0.39993E-09
         0.75569E-09
         0.63230E-09
         0.64405E-09
         0.66544E-09
         0.58382E-09
         0.71379E-09
         0.91137E-09
         0.64129E-09
         0.10270E-08
         0.89890E-09
         0.40069E-09
         0.61611E-09
         0.70004E-09
         0.74056E-09
         0.71646E-09
         0.56287E-09
         0.35353E-09
         0.58276E-09
         0.77271E-09
         0.62273E-09
         0.54672E-09
         0.35806E-09
         0.61251E-09
         0.83291E-09
         0.87583E-09
         0.70756E-09
         0.43391E-09
         0.75234E-09
         0.27474E-09
         0.35132E-09
         0.32569E-09
         0.38794E-09
         0.37990E-09
         0.36881E-09
         0.39488E-09
         0.41923E-09
         0.39383E-09
         0.30553E-09
         0.24840E-09
         0.32017E-09
         0.42734E-09
         0.47037E-09
         0.45048E-09
         0.40524E-09
         0.36774E-09
         0.29859E-09
         0.25093E-09
         0.32836E-09
         0.43510E-09
         0.44962E-09
         0.36222E-09
         0.29400E-09
         0.36223E-09
         0.42747E-09
         0.45631E-09
         0.36039E-09
         0.38862E-09
         0.67302E-09
         0.35899E-09
         0.45923E-09
         0.25298E-09
         0.30358E-09
         0.50909E-09
         0.36723E-09
         0.14815E-09
         0.28394E-09
         0.31303E-09
         0.24869E-09
         0.32316E-09
         0.60528E-09
         0.47437E-09
         0.60357E-09
         0.35178E-09
         0.40249E-09
         0.37895E-09
         0.42048E-09
         0.32200E-09
         0.19996E-09
         0.37777E-09
         0.31615E-09
         0.32179E-09
         0.33257E-09
         0.29186E-09
         0.35687E-09
         0.45572E-09
         0.32064E-09
         0.51365E-09
         0.44967E-09
         0.20035E-09
         0.30804E-09
         0.35001E-09
         0.37028E-09
         0.35826E-09
         0.28145E-09
         0.17677E-09
         0.29137E-09
         0.38636E-09
         0.31135E-09
         0.27333E-09
         0.17901E-09
         0.30625E-09
         0.41647E-09
         0.43797E-09
         0.35383E-09
         0.21697E-09
         0.37628E-09
         0.13735E-09
         0.17566E-09
         0.16281E-09
         0.19398E-09
         0.18998E-09
         0.18443E-09
         0.19749E-09
         0.20970E-09
         0.19698E-09
         0.15279E-09
         0.12421E-09
         0.16009E-09
         0.21369E-09
         0.23522E-09
         0.22526E-09
         0.20262E-09
         0.18387E-09
         0.14930E-09
         0.12546E-09
         0.16418E-09
         0.21756E-09
         0.22482E-09
         0.18110E-09
         0.14699E-09
         0.18113E-09
         0.21374E-09
  
SCALARS               pre_disp_force_x  double 1
LOOKUP_TABLE default
         0.00000E+00
         0.00000E+00
         0.00000E+00
         0.00000E+00
         0.00000E+00
         0.00000E+00
         0.00000E+00
         0.00000E+00
         0.00000E+00
         0.00000E+00
         0.00000E+00
         0.00000E+00
         0.00000E+00
         0.00000E+00
         0.00000E+00
         0.00000E+00
         0.00000E+00
         0.00000E+00
         0.00000E+00
         0.00000E+00
         0.00000E+00
         0.00000E+00
         0.00000E+00
         0.00000E+00
         0.00000E+00
         0.00000E+00
         0.00000E+00
         0.00000E+00
         0.00000E+00
         0.00000E+00
         0.00000E+00
         0.00000E+00
         0.00000E+00
         0.00000E+00
         0.00000E+00
         0.00000E+00
         0.00000E+00
         0.00000E+00
         0.00000E+00
         0.00000E+00
         0.00000E+00
         0.00000E+00
         0.00000E+00
         0.00000E+00
         0.00000E+00
         0.00000E+00
         0.00000E+00
         0.00000E+00
         0.00000E+00
         0.00000E+00
         0.00000E+00
         0.00000E+00
         0.00000E+00
         0.00000E+00
         0.00000E+00
         0.00000E+00
         0.00000E+00
         0.00000E+00
         0.00000E+00
         0.00000E+00
         0.00000E+00
         0.00000E+00
         0.00000E+00
         0.00000E+00
         0.00000E+00
         0.00000E+00
         0.00000E+00
         0.00000E+00
         0.00000E+00
         0.00000E+00
         0.00000E+00
         0.00000E+00
         0.00000E+00
         0.00000E+00
         0.00000E+00
         0.00000E+00
         0.00000E+00
         0.00000E+00
         0.00000E+00
         0.00000E+00
         0.00000E+00
         0.00000E+00
         0.00000E+00
         0.00000E+00
         0.00000E+00
         0.00000E+00
         0.00000E+00
         0.00000E+00
         0.00000E+00
         0.00000E+00
         0.00000E+00
         0.00000E+00
         0.00000E+00
         0.00000E+00
         0.00000E+00
         0.00000E+00
         0.00000E+00
         0.00000E+00
         0.00000E+00
         0.00000E+00
         0.00000E+00
         0.00000E+00
         0.00000E+00
         0.00000E+00
         0.00000E+00
         0.00000E+00
         0.00000E+00
         0.00000E+00
         0.00000E+00
         0.00000E+00
         0.00000E+00
         0.00000E+00
         0.00000E+00
         0.00000E+00
         0.00000E+00
         0.00000E+00
         0.00000E+00
         0.00000E+00
         0.00000E+00
         0.00000E+00
         0.00000E+00
         0.00000E+00
         0.00000E+00
         0.00000E+00
         0.00000E+00
         0.00000E+00
         0.00000E+00
         0.00000E+00
         0.00000E+00
         0.00000E+00
         0.00000E+00
         0.00000E+00
         0.00000E+00
         0.00000E+00
         0.00000E+00
         0.00000E+00
         0.00000E+00
         0.00000E+00
         0.00000E+00
         0.00000E+00
         0.00000E+00
         0.00000E+00
         0.00000E+00
         0.00000E+00
         0.00000E+00
         0.00000E+00
         0.00000E+00
         0.00000E+00
         0.00000E+00
         0.00000E+00
         0.00000E+00
         0.00000E+00
         0.00000E+00
         0.00000E+00
         0.00000E+00
         0.00000E+00
         0.00000E+00
         0.00000E+00
         0.00000E+00
         0.00000E+00
         0.00000E+00
         0.00000E+00
         0.00000E+00
         0.00000E+00
         0.00000E+00
         0.00000E+00
         0.00000E+00
         0.00000E+00
         0.00000E+00
         0.00000E+00
         0.00000E+00
         0.00000E+00
         0.00000E+00
         0.00000E+00
         0.00000E+00
         0.00000E+00
         0.00000E+00
         0.00000E+00
         0.00000E+00
         0.00000E+00
         0.00000E+00
         0.00000E+00
         0.00000E+00
         0.00000E+00
         0.00000E+00
         0.00000E+00
         0.00000E+00
         0.00000E+00
         0.00000E+00
         0.00000E+00
         0.00000E+00
         0.00000E+00
         0.00000E+00
         0.00000E+00
         0.00000E+00
         0.00000E+00
         0.00000E+00
         0.00000E+00
         0.00000E+00
         0.00000E+00
         0.00000E+00
         0.00000E+00
         0.00000E+00
         0.00000E+00
         0.00000E+00
         0.00000E+00
         0.00000E+00
         0.00000E+00
         0.00000E+00
         0.00000E+00
         0.00000E+00
         0.00000E+00
         0.00000E+00
         0.00000E+00
         0.00000E+00
         0.00000E+00
         0.00000E+00
         0.00000E+00
         0.00000E+00
         0.00000E+00
         0.00000E+00
         0.00000E+00
         0.00000E+00
         0.00000E+00
         0.00000E+00
         0.00000E+00
         0.00000E+00
         0.00000E+00
         0.00000E+00
         0.00000E+00
         0.00000E+00
         0.00000E+00
         0.00000E+00
         0.00000E+00
         0.00000E+00
         0.00000E+00
         0.00000E+00
         0.00000E+00
         0.00000E+00
         0.00000E+00
         0.00000E+00
         0.00000E+00
         0.00000E+00
         0.00000E+00
         0.00000E+00
         0.00000E+00
         0.00000E+00
         0.00000E+00
         0.00000E+00
         0.00000E+00
         0.00000E+00
         0.00000E+00
         0.00000E+00
         0.00000E+00
         0.00000E+00
         0.00000E+00
         0.00000E+00
         0.00000E+00
         0.00000E+00
         0.00000E+00
         0.00000E+00
         0.00000E+00
         0.00000E+00
         0.00000E+00
         0.00000E+00
         0.00000E+00
         0.00000E+00
         0.00000E+00
         0.00000E+00
         0.00000E+00
         0.00000E+00
         0.00000E+00
         0.00000E+00
         0.00000E+00
         0.00000E+00
         0.00000E+00
         0.00000E+00
         0.00000E+00
         0.00000E+00
         0.00000E+00
         0.00000E+00
         0.00000E+00
         0.00000E+00
         0.00000E+00
         0.00000E+00
         0.00000E+00
         0.00000E+00
         0.00000E+00
         0.00000E+00
         0.00000E+00
         0.00000E+00
         0.00000E+00
         0.00000E+00
         0.00000E+00
         0.00000E+00
         0.00000E+00
         0.00000E+00
         0.00000E+00
         0.00000E+00
         0.00000E+00
         0.00000E+00
         0.00000E+00
         0.00000E+00
         0.00000E+00
         0.00000E+00
         0.00000E+00
         0.00000E+00
         0.00000E+00
         0.00000E+00
         0.00000E+00
         0.00000E+00
         0.00000E+00
         0.00000E+00
         0.00000E+00
         0.00000E+00
         0.00000E+00
         0.00000E+00
         0.00000E+00
         0.00000E+00
         0.00000E+00
         0.00000E+00
         0.00000E+00
         0.00000E+00
         0.00000E+00
         0.00000E+00
         0.00000E+00
         0.00000E+00
         0.00000E+00
         0.00000E+00
         0.00000E+00
         0.00000E+00
         0.00000E+00
         0.00000E+00
         0.00000E+00
         0.00000E+00
         0.00000E+00
         0.00000E+00
         0.00000E+00
         0.00000E+00
         0.00000E+00
         0.00000E+00
         0.00000E+00
         0.00000E+00
         0.00000E+00
         0.00000E+00
         0.00000E+00
         0.00000E+00
         0.00000E+00
         0.00000E+00
         0.00000E+00
         0.00000E+00
         0.00000E+00
         0.00000E+00
         0.00000E+00
         0.00000E+00
         0.00000E+00
         0.00000E+00
         0.00000E+00
         0.00000E+00
         0.00000E+00
         0.00000E+00
         0.00000E+00
         0.00000E+00
         0.00000E+00
         0.00000E+00
         0.00000E+00
         0.00000E+00
         0.00000E+00
         0.00000E+00
         0.00000E+00
         0.00000E+00
         0.00000E+00
         0.00000E+00
         0.00000E+00
         0.00000E+00
         0.00000E+00
         0.00000E+00
         0.00000E+00
         0.00000E+00
         0.00000E+00
         0.00000E+00
         0.00000E+00
         0.00000E+00
         0.00000E+00
         0.00000E+00
         0.00000E+00
         0.00000E+00
         0.00000E+00
         0.00000E+00
         0.00000E+00
         0.00000E+00
         0.00000E+00
         0.00000E+00
         0.00000E+00
         0.00000E+00
         0.00000E+00
         0.00000E+00
         0.00000E+00
         0.00000E+00
         0.00000E+00
         0.00000E+00
         0.00000E+00
         0.00000E+00
         0.00000E+00
         0.00000E+00
         0.00000E+00
         0.00000E+00
         0.00000E+00
         0.00000E+00
         0.00000E+00
         0.00000E+00
         0.00000E+00
         0.00000E+00
         0.00000E+00
         0.00000E+00
         0.00000E+00
         0.00000E+00
         0.00000E+00
         0.00000E+00
         0.00000E+00
         0.00000E+00
         0.00000E+00
         0.00000E+00
         0.00000E+00
         0.00000E+00
         0.00000E+00
         0.00000E+00
         0.00000E+00
         0.00000E+00
         0.00000E+00
         0.00000E+00
         0.00000E+00
         0.00000E+00
         0.00000E+00
         0.00000E+00
         0.00000E+00
         0.00000E+00
         0.00000E+00
         0.00000E+00
         0.00000E+00
         0.00000E+00
         0.00000E+00
         0.00000E+00
         0.00000E+00
         0.00000E+00
         0.00000E+00
         0.00000E+00
         0.00000E+00
         0.00000E+00
         0.00000E+00
         0.00000E+00
         0.00000E+00
         0.00000E+00
         0.00000E+00
         0.00000E+00
         0.00000E+00
         0.00000E+00
         0.00000E+00
         0.00000E+00
         0.00000E+00
         0.00000E+00
         0.00000E+00
         0.00000E+00
         0.00000E+00
         0.00000E+00
         0.00000E+00
         0.00000E+00
         0.00000E+00
         0.00000E+00
         0.00000E+00
         0.00000E+00
         0.00000E+00
         0.00000E+00
         0.00000E+00
         0.00000E+00
         0.00000E+00
         0.00000E+00
         0.00000E+00
         0.00000E+00
         0.00000E+00
         0.00000E+00
         0.00000E+00
         0.00000E+00
         0.00000E+00
         0.00000E+00
         0.00000E+00
         0.00000E+00
         0.00000E+00
         0.00000E+00
         0.00000E+00
         0.00000E+00
         0.00000E+00
         0.00000E+00
         0.00000E+00
         0.00000E+00
         0.00000E+00
         0.00000E+00
         0.00000E+00
         0.00000E+00
         0.00000E+00
         0.00000E+00
         0.00000E+00
         0.00000E+00
         0.00000E+00
         0.00000E+00
         0.00000E+00
         0.00000E+00
         0.00000E+00
         0.00000E+00
         0.00000E+00
         0.00000E+00
         0.00000E+00
         0.00000E+00
         0.00000E+00
         0.00000E+00
         0.00000E+00
         0.00000E+00
         0.00000E+00
         0.00000E+00
         0.00000E+00
         0.00000E+00
         0.00000E+00
         0.00000E+00
         0.00000E+00
         0.00000E+00
         0.00000E+00
         0.00000E+00
         0.00000E+00
         0.00000E+00
         0.00000E+00
         0.00000E+00
         0.00000E+00
         0.00000E+00
         0.00000E+00
         0.00000E+00
         0.00000E+00
         0.00000E+00
         0.00000E+00
         0.00000E+00
         0.00000E+00
         0.00000E+00
         0.00000E+00
         0.00000E+00
         0.00000E+00
         0.00000E+00
         0.00000E+00
         0.00000E+00
         0.00000E+00
         0.00000E+00
         0.00000E+00
         0.00000E+00
         0.00000E+00
         0.00000E+00
         0.00000E+00
         0.00000E+00
         0.00000E+00
         0.00000E+00
         0.00000E+00
         0.00000E+00
         0.00000E+00
         0.00000E+00
         0.00000E+00
         0.00000E+00
         0.00000E+00
         0.00000E+00
         0.00000E+00
         0.00000E+00
         0.00000E+00
         0.00000E+00
         0.00000E+00
         0.00000E+00
         0.00000E+00
         0.00000E+00
         0.00000E+00
         0.00000E+00
         0.00000E+00
         0.00000E+00
         0.00000E+00
         0.00000E+00
         0.00000E+00
         0.00000E+00
         0.00000E+00
         0.00000E+00
         0.00000E+00
         0.00000E+00
         0.00000E+00
         0.00000E+00
         0.00000E+00
         0.00000E+00
         0.00000E+00
         0.00000E+00
         0.00000E+00
         0.00000E+00
         0.00000E+00
         0.00000E+00
         0.00000E+00
         0.00000E+00
         0.00000E+00
         0.00000E+00
         0.00000E+00
         0.00000E+00
         0.00000E+00
         0.00000E+00
         0.00000E+00
         0.00000E+00
         0.00000E+00
         0.00000E+00
         0.00000E+00
         0.00000E+00
         0.00000E+00
         0.00000E+00
         0.00000E+00
         0.00000E+00
         0.00000E+00
         0.00000E+00
         0.00000E+00
         0.00000E+00
         0.00000E+00
         0.00000E+00
         0.00000E+00
         0.00000E+00
         0.00000E+00
         0.00000E+00
         0.00000E+00
         0.00000E+00
         0.00000E+00
         0.00000E+00
         0.00000E+00
         0.00000E+00
         0.00000E+00
         0.00000E+00
         0.00000E+00
         0.00000E+00
         0.00000E+00
         0.00000E+00
         0.00000E+00
         0.00000E+00
         0.00000E+00
         0.00000E+00
         0.00000E+00
         0.00000E+00
         0.00000E+00
         0.00000E+00
         0.00000E+00
         0.00000E+00
         0.00000E+00
         0.00000E+00
         0.00000E+00
         0.00000E+00
         0.00000E+00
         0.00000E+00
         0.00000E+00
         0.00000E+00
         0.00000E+00
         0.00000E+00
         0.00000E+00
         0.00000E+00
         0.00000E+00
         0.00000E+00
         0.00000E+00
         0.00000E+00
         0.00000E+00
         0.00000E+00
         0.00000E+00
         0.00000E+00
         0.00000E+00
         0.00000E+00
         0.00000E+00
         0.00000E+00
         0.00000E+00
         0.00000E+00
         0.00000E+00
         0.00000E+00
         0.00000E+00
         0.00000E+00
         0.00000E+00
         0.00000E+00
         0.00000E+00
         0.00000E+00
         0.00000E+00
         0.00000E+00
         0.00000E+00
         0.00000E+00
         0.00000E+00
         0.00000E+00
         0.00000E+00
         0.00000E+00
         0.00000E+00
         0.00000E+00
         0.00000E+00
         0.00000E+00
         0.00000E+00
         0.00000E+00
         0.00000E+00
         0.00000E+00
         0.00000E+00
         0.00000E+00
         0.00000E+00
         0.00000E+00
         0.00000E+00
         0.00000E+00
         0.00000E+00
         0.00000E+00
         0.00000E+00
         0.00000E+00
         0.00000E+00
         0.00000E+00
         0.00000E+00
         0.00000E+00
         0.00000E+00
         0.00000E+00
         0.00000E+00
         0.00000E+00
         0.00000E+00
         0.00000E+00
         0.00000E+00
         0.00000E+00
         0.00000E+00
         0.00000E+00
         0.00000E+00
         0.00000E+00
         0.00000E+00
         0.00000E+00
         0.00000E+00
         0.00000E+00
         0.00000E+00
         0.00000E+00
         0.00000E+00
         0.00000E+00
         0.00000E+00
         0.00000E+00
         0.00000E+00
         0.00000E+00
         0.00000E+00
         0.00000E+00
         0.00000E+00
         0.00000E+00
         0.00000E+00
         0.00000E+00
         0.00000E+00
         0.00000E+00
         0.00000E+00
         0.00000E+00
         0.00000E+00
         0.00000E+00
         0.00000E+00
         0.00000E+00
         0.00000E+00
         0.00000E+00
         0.00000E+00
         0.00000E+00
         0.00000E+00
         0.00000E+00
         0.00000E+00
         0.00000E+00
         0.00000E+00
         0.00000E+00
         0.00000E+00
         0.00000E+00
         0.00000E+00
         0.00000E+00
         0.00000E+00
         0.00000E+00
         0.00000E+00
         0.00000E+00
         0.00000E+00
         0.00000E+00
         0.00000E+00
         0.00000E+00
         0.00000E+00
         0.00000E+00
         0.00000E+00
         0.00000E+00
         0.00000E+00
         0.00000E+00
         0.00000E+00
         0.00000E+00
         0.00000E+00
         0.00000E+00
         0.00000E+00
         0.00000E+00
         0.00000E+00
         0.00000E+00
         0.00000E+00
         0.00000E+00
         0.00000E+00
         0.00000E+00
         0.00000E+00
         0.00000E+00
         0.00000E+00
         0.00000E+00
         0.00000E+00
         0.00000E+00
         0.00000E+00
         0.00000E+00
         0.00000E+00
         0.00000E+00
         0.00000E+00
         0.00000E+00
         0.00000E+00
         0.00000E+00
         0.00000E+00
         0.00000E+00
         0.00000E+00
         0.00000E+00
         0.00000E+00
         0.00000E+00
         0.00000E+00
         0.00000E+00
         0.00000E+00
         0.00000E+00
         0.00000E+00
         0.00000E+00
         0.00000E+00
         0.00000E+00
         0.00000E+00
         0.00000E+00
         0.00000E+00
         0.00000E+00
         0.00000E+00
         0.00000E+00
         0.00000E+00
         0.00000E+00
         0.00000E+00
         0.00000E+00
         0.00000E+00
         0.00000E+00
         0.00000E+00
         0.00000E+00
         0.00000E+00
         0.00000E+00
         0.00000E+00
         0.00000E+00
         0.00000E+00
         0.00000E+00
         0.00000E+00
         0.00000E+00
         0.00000E+00
         0.00000E+00
         0.00000E+00
         0.00000E+00
         0.00000E+00
         0.00000E+00
         0.00000E+00
         0.00000E+00
         0.00000E+00
         0.00000E+00
         0.00000E+00
         0.00000E+00
         0.00000E+00
         0.00000E+00
         0.00000E+00
         0.00000E+00
         0.00000E+00
         0.00000E+00
         0.00000E+00
         0.00000E+00
         0.00000E+00
         0.00000E+00
         0.00000E+00
         0.00000E+00
         0.00000E+00
         0.00000E+00
         0.00000E+00
         0.00000E+00
         0.00000E+00
         0.00000E+00
         0.00000E+00
         0.00000E+00
         0.00000E+00
         0.00000E+00
         0.00000E+00
         0.00000E+00
         0.00000E+00
         0.00000E+00
         0.00000E+00
         0.00000E+00
         0.00000E+00
         0.00000E+00
         0.00000E+00
         0.00000E+00
         0.00000E+00
         0.00000E+00
         0.00000E+00
         0.00000E+00
         0.00000E+00
         0.00000E+00
         0.00000E+00
         0.00000E+00
         0.00000E+00
         0.00000E+00
         0.00000E+00
         0.00000E+00
         0.00000E+00
         0.00000E+00
         0.00000E+00
         0.00000E+00
         0.00000E+00
         0.00000E+00
         0.00000E+00
         0.00000E+00
         0.00000E+00
         0.00000E+00
         0.00000E+00
         0.00000E+00
         0.00000E+00
         0.00000E+00
         0.00000E+00
         0.00000E+00
         0.00000E+00
         0.00000E+00
         0.00000E+00
         0.00000E+00
         0.00000E+00
         0.00000E+00
         0.00000E+00
         0.00000E+00
         0.00000E+00
         0.00000E+00
         0.00000E+00
         0.00000E+00
         0.00000E+00
         0.00000E+00
         0.00000E+00
         0.00000E+00
         0.00000E+00
         0.00000E+00
         0.00000E+00
         0.00000E+00
         0.00000E+00
         0.00000E+00
         0.00000E+00
         0.00000E+00
         0.00000E+00
         0.00000E+00
         0.00000E+00
         0.00000E+00
         0.00000E+00
         0.00000E+00
         0.00000E+00
         0.00000E+00
         0.00000E+00
         0.00000E+00
         0.00000E+00
         0.00000E+00
         0.00000E+00
         0.00000E+00
         0.00000E+00
         0.00000E+00
         0.00000E+00
         0.00000E+00
         0.00000E+00
         0.00000E+00
         0.00000E+00
         0.00000E+00
         0.00000E+00
         0.00000E+00
         0.00000E+00
         0.00000E+00
         0.00000E+00
         0.00000E+00
         0.00000E+00
         0.00000E+00
         0.00000E+00
         0.00000E+00
         0.00000E+00
         0.00000E+00
         0.00000E+00
         0.00000E+00
         0.00000E+00
         0.00000E+00
         0.00000E+00
         0.00000E+00
         0.00000E+00
         0.00000E+00
         0.00000E+00
         0.00000E+00
         0.00000E+00
         0.00000E+00
         0.00000E+00
         0.00000E+00
         0.00000E+00
         0.00000E+00
         0.00000E+00
         0.00000E+00
         0.00000E+00
         0.00000E+00
         0.00000E+00
         0.00000E+00
         0.00000E+00
         0.00000E+00
         0.00000E+00
         0.00000E+00
         0.00000E+00
         0.00000E+00
         0.00000E+00
         0.00000E+00
         0.00000E+00
         0.00000E+00
         0.00000E+00
         0.00000E+00
         0.00000E+00
         0.00000E+00
         0.00000E+00
         0.00000E+00
         0.00000E+00
         0.00000E+00
         0.00000E+00
         0.00000E+00
         0.00000E+00
         0.00000E+00
         0.00000E+00
         0.00000E+00
         0.00000E+00
         0.00000E+00
         0.00000E+00
         0.00000E+00
         0.00000E+00
         0.00000E+00
         0.00000E+00
         0.00000E+00
         0.00000E+00
         0.00000E+00
         0.00000E+00
         0.00000E+00
         0.00000E+00
         0.00000E+00
         0.00000E+00
         0.00000E+00
         0.00000E+00
         0.00000E+00
         0.00000E+00
         0.00000E+00
         0.00000E+00
         0.00000E+00
         0.00000E+00
         0.00000E+00
         0.00000E+00
         0.00000E+00
         0.00000E+00
         0.00000E+00
         0.00000E+00
         0.00000E+00
         0.00000E+00
         0.00000E+00
         0.00000E+00
         0.00000E+00
         0.00000E+00
         0.00000E+00
         0.00000E+00
         0.00000E+00
         0.00000E+00
         0.00000E+00
         0.00000E+00
         0.00000E+00
         0.00000E+00
         0.00000E+00
         0.00000E+00
         0.00000E+00
         0.00000E+00
         0.00000E+00
         0.00000E+00
         0.00000E+00
         0.00000E+00
         0.00000E+00
         0.00000E+00
         0.00000E+00
         0.00000E+00
         0.00000E+00
         0.00000E+00
         0.00000E+00
         0.00000E+00
         0.00000E+00
         0.00000E+00
         0.00000E+00
         0.00000E+00
         0.00000E+00
         0.00000E+00
         0.00000E+00
         0.00000E+00
         0.00000E+00
         0.00000E+00
         0.00000E+00
         0.00000E+00
         0.00000E+00
         0.00000E+00
         0.00000E+00
         0.00000E+00
         0.00000E+00
         0.00000E+00
         0.00000E+00
         0.00000E+00
         0.00000E+00
         0.00000E+00
         0.00000E+00
         0.00000E+00
         0.00000E+00
         0.00000E+00
         0.00000E+00
         0.00000E+00
         0.00000E+00
         0.00000E+00
         0.00000E+00
         0.00000E+00
         0.00000E+00
         0.00000E+00
         0.00000E+00
         0.00000E+00
         0.00000E+00
         0.00000E+00
         0.00000E+00
         0.00000E+00
         0.00000E+00
         0.00000E+00
         0.00000E+00
         0.00000E+00
         0.00000E+00
         0.00000E+00
         0.00000E+00
         0.00000E+00
         0.00000E+00
         0.00000E+00
         0.00000E+00
         0.00000E+00
         0.00000E+00
         0.00000E+00
         0.00000E+00
         0.00000E+00
         0.00000E+00
         0.00000E+00
         0.00000E+00
         0.00000E+00
         0.00000E+00
         0.00000E+00
         0.00000E+00
         0.00000E+00
         0.00000E+00
         0.00000E+00
         0.00000E+00
         0.00000E+00
         0.00000E+00
         0.00000E+00
         0.00000E+00
         0.00000E+00
         0.00000E+00
         0.00000E+00
         0.00000E+00
         0.00000E+00
         0.00000E+00
         0.00000E+00
         0.00000E+00
         0.00000E+00
         0.00000E+00
         0.00000E+00
         0.00000E+00
         0.00000E+00
         0.00000E+00
         0.00000E+00
         0.00000E+00
         0.00000E+00
         0.00000E+00
         0.00000E+00
         0.00000E+00
         0.00000E+00
         0.00000E+00
         0.00000E+00
         0.00000E+00
         0.00000E+00
         0.00000E+00
         0.00000E+00
         0.00000E+00
         0.00000E+00
         0.00000E+00
         0.00000E+00
         0.00000E+00
         0.00000E+00
         0.00000E+00
         0.00000E+00
         0.00000E+00
         0.00000E+00
         0.00000E+00
         0.00000E+00
         0.00000E+00
         0.00000E+00
         0.00000E+00
         0.00000E+00
         0.00000E+00
         0.00000E+00
         0.00000E+00
         0.00000E+00
         0.00000E+00
         0.00000E+00
         0.00000E+00
         0.00000E+00
         0.00000E+00
         0.00000E+00
         0.00000E+00
         0.00000E+00
         0.00000E+00
         0.00000E+00
         0.00000E+00
         0.00000E+00
         0.00000E+00
         0.00000E+00
         0.00000E+00
         0.00000E+00
         0.00000E+00
         0.00000E+00
         0.00000E+00
         0.00000E+00
         0.00000E+00
         0.00000E+00
         0.00000E+00
         0.00000E+00
         0.00000E+00
         0.00000E+00
         0.00000E+00
         0.00000E+00
         0.00000E+00
         0.00000E+00
         0.00000E+00
         0.00000E+00
         0.00000E+00
         0.00000E+00
         0.00000E+00
         0.00000E+00
         0.00000E+00
         0.00000E+00
         0.00000E+00
         0.00000E+00
         0.00000E+00
         0.00000E+00
         0.00000E+00
         0.00000E+00
         0.00000E+00
         0.00000E+00
         0.00000E+00
         0.00000E+00
         0.00000E+00
         0.00000E+00
         0.00000E+00
         0.00000E+00
         0.00000E+00
         0.00000E+00
         0.00000E+00
         0.00000E+00
         0.00000E+00
         0.00000E+00
         0.00000E+00
         0.00000E+00
         0.00000E+00
         0.00000E+00
         0.00000E+00
         0.00000E+00
         0.00000E+00
         0.00000E+00
         0.00000E+00
         0.00000E+00
         0.00000E+00
         0.00000E+00
         0.00000E+00
         0.00000E+00
         0.00000E+00
         0.00000E+00
         0.00000E+00
         0.00000E+00
         0.00000E+00
         0.00000E+00
         0.00000E+00
         0.00000E+00
         0.00000E+00
         0.00000E+00
         0.00000E+00
         0.00000E+00
         0.00000E+00
         0.00000E+00
         0.00000E+00
         0.00000E+00
         0.00000E+00
         0.00000E+00
         0.00000E+00
         0.00000E+00
         0.00000E+00
         0.00000E+00
         0.00000E+00
         0.00000E+00
         0.00000E+00
         0.00000E+00
         0.00000E+00
         0.00000E+00
         0.00000E+00
         0.00000E+00
         0.00000E+00
         0.00000E+00
         0.00000E+00
         0.00000E+00
         0.00000E+00
         0.00000E+00
         0.00000E+00
         0.00000E+00
         0.00000E+00
         0.00000E+00
         0.00000E+00
         0.00000E+00
         0.00000E+00
         0.00000E+00
         0.00000E+00
         0.00000E+00
         0.00000E+00
         0.00000E+00
         0.00000E+00
         0.00000E+00
         0.00000E+00
         0.00000E+00
         0.00000E+00
         0.00000E+00
         0.00000E+00
         0.00000E+00
         0.00000E+00
         0.00000E+00
         0.00000E+00
         0.00000E+00
         0.00000E+00
         0.00000E+00
         0.00000E+00
         0.00000E+00
         0.00000E+00
         0.00000E+00
         0.00000E+00
         0.00000E+00
         0.00000E+00
         0.00000E+00
         0.00000E+00
         0.00000E+00
         0.00000E+00
         0.00000E+00
         0.00000E+00
         0.00000E+00
         0.00000E+00
         0.00000E+00
         0.00000E+00
         0.00000E+00
         0.00000E+00
         0.00000E+00
         0.00000E+00
         0.00000E+00
         0.00000E+00
         0.00000E+00
         0.00000E+00
         0.00000E+00
         0.00000E+00
         0.00000E+00
         0.00000E+00
         0.00000E+00
         0.00000E+00
         0.00000E+00
         0.00000E+00
         0.00000E+00
         0.00000E+00
         0.00000E+00
         0.00000E+00
         0.00000E+00
         0.00000E+00
         0.00000E+00
         0.00000E+00
         0.00000E+00
         0.00000E+00
         0.00000E+00
         0.00000E+00
         0.00000E+00
         0.00000E+00
         0.00000E+00
         0.00000E+00
         0.00000E+00
         0.00000E+00
         0.00000E+00
         0.00000E+00
         0.00000E+00
         0.00000E+00
         0.00000E+00
         0.00000E+00
         0.00000E+00
         0.00000E+00
         0.00000E+00
         0.00000E+00
         0.00000E+00
         0.00000E+00
         0.00000E+00
         0.00000E+00
         0.00000E+00
         0.00000E+00
         0.00000E+00
         0.00000E+00
         0.00000E+00
         0.00000E+00
         0.00000E+00
         0.00000E+00
         0.00000E+00
         0.00000E+00
         0.00000E+00
         0.00000E+00
         0.00000E+00
         0.00000E+00
         0.00000E+00
         0.00000E+00
         0.00000E+00
         0.00000E+00
         0.00000E+00
         0.00000E+00
         0.00000E+00
         0.00000E+00
         0.00000E+00
         0.00000E+00
         0.00000E+00
         0.00000E+00
         0.00000E+00
         0.00000E+00
         0.00000E+00
         0.00000E+00
         0.00000E+00
         0.00000E+00
         0.00000E+00
         0.00000E+00
         0.00000E+00
         0.00000E+00
         0.00000E+00
         0.00000E+00
         0.00000E+00
         0.00000E+00
         0.00000E+00
         0.00000E+00
         0.00000E+00
         0.00000E+00
         0.00000E+00
         0.00000E+00
         0.00000E+00
         0.00000E+00
         0.00000E+00
         0.00000E+00
         0.00000E+00
         0.00000E+00
         0.00000E+00
         0.00000E+00
         0.00000E+00
         0.00000E+00
         0.00000E+00
         0.00000E+00
         0.00000E+00
         0.00000E+00
         0.00000E+00
         0.00000E+00
         0.00000E+00
         0.00000E+00
         0.00000E+00
         0.00000E+00
         0.00000E+00
         0.00000E+00
         0.00000E+00
         0.00000E+00
         0.00000E+00
         0.00000E+00
         0.00000E+00
         0.00000E+00
         0.00000E+00
         0.00000E+00
         0.00000E+00
         0.00000E+00
         0.00000E+00
         0.00000E+00
         0.00000E+00
         0.00000E+00
         0.00000E+00
         0.00000E+00
         0.00000E+00
         0.00000E+00
         0.00000E+00
         0.00000E+00
         0.00000E+00
         0.00000E+00
         0.00000E+00
         0.00000E+00
         0.00000E+00
         0.00000E+00
         0.00000E+00
         0.00000E+00
         0.00000E+00
         0.00000E+00
         0.00000E+00
         0.00000E+00
         0.00000E+00
         0.00000E+00
         0.00000E+00
         0.00000E+00
         0.00000E+00
         0.00000E+00
         0.00000E+00
         0.00000E+00
         0.00000E+00
         0.00000E+00
         0.00000E+00
         0.00000E+00
         0.00000E+00
         0.00000E+00
         0.00000E+00
         0.00000E+00
         0.00000E+00
         0.00000E+00
         0.00000E+00
         0.00000E+00
         0.00000E+00
         0.00000E+00
         0.00000E+00
         0.00000E+00
         0.00000E+00
         0.00000E+00
         0.00000E+00
         0.00000E+00
         0.00000E+00
         0.00000E+00
         0.00000E+00
         0.00000E+00
         0.00000E+00
         0.00000E+00
         0.00000E+00
         0.00000E+00
         0.00000E+00
         0.00000E+00
         0.00000E+00
         0.00000E+00
         0.00000E+00
         0.00000E+00
         0.00000E+00
         0.00000E+00
         0.00000E+00
         0.00000E+00
         0.00000E+00
         0.00000E+00
         0.00000E+00
         0.00000E+00
         0.00000E+00
         0.00000E+00
         0.00000E+00
         0.00000E+00
         0.00000E+00
         0.00000E+00
         0.00000E+00
         0.00000E+00
         0.00000E+00
         0.00000E+00
         0.00000E+00
         0.00000E+00
         0.00000E+00
         0.00000E+00
         0.00000E+00
         0.00000E+00
         0.00000E+00
         0.00000E+00
         0.00000E+00
         0.00000E+00
         0.00000E+00
         0.00000E+00
         0.00000E+00
         0.00000E+00
         0.00000E+00
         0.00000E+00
         0.00000E+00
         0.00000E+00
         0.00000E+00
         0.00000E+00
         0.00000E+00
         0.00000E+00
         0.00000E+00
         0.00000E+00
         0.00000E+00
         0.00000E+00
         0.00000E+00
         0.00000E+00
         0.00000E+00
         0.00000E+00
         0.00000E+00
         0.00000E+00
         0.00000E+00
         0.00000E+00
         0.00000E+00
         0.00000E+00
         0.00000E+00
         0.00000E+00
         0.00000E+00
         0.00000E+00
         0.00000E+00
         0.00000E+00
         0.00000E+00
         0.00000E+00
         0.00000E+00
         0.00000E+00
         0.00000E+00
         0.00000E+00
         0.00000E+00
         0.00000E+00
         0.00000E+00
         0.00000E+00
         0.00000E+00
         0.00000E+00
         0.00000E+00
         0.00000E+00
         0.00000E+00
         0.00000E+00
         0.00000E+00
         0.00000E+00
         0.00000E+00
         0.00000E+00
         0.00000E+00
         0.00000E+00
         0.00000E+00
         0.00000E+00
         0.00000E+00
         0.00000E+00
         0.00000E+00
         0.00000E+00
         0.00000E+00
         0.00000E+00
         0.00000E+00
         0.00000E+00
         0.00000E+00
         0.00000E+00
         0.00000E+00
         0.00000E+00
         0.00000E+00
         0.00000E+00
         0.00000E+00
         0.00000E+00
         0.00000E+00
         0.00000E+00
         0.00000E+00
         0.00000E+00
         0.00000E+00
         0.00000E+00
         0.00000E+00
         0.00000E+00
         0.00000E+00
         0.00000E+00
         0.00000E+00
         0.00000E+00
         0.00000E+00
         0.00000E+00
         0.00000E+00
         0.00000E+00
         0.00000E+00
         0.00000E+00
         0.00000E+00
         0.00000E+00
         0.00000E+00
         0.00000E+00
         0.00000E+00
         0.00000E+00
         0.00000E+00
         0.00000E+00
         0.00000E+00
         0.00000E+00
         0.00000E+00
         0.00000E+00
         0.00000E+00
         0.00000E+00
         0.00000E+00
         0.00000E+00
         0.00000E+00
         0.00000E+00
         0.00000E+00
         0.00000E+00
         0.00000E+00
         0.00000E+00
         0.00000E+00
         0.00000E+00
         0.00000E+00
         0.00000E+00
         0.00000E+00
         0.00000E+00
         0.00000E+00
         0.00000E+00
         0.00000E+00
         0.00000E+00
         0.00000E+00
         0.00000E+00
         0.00000E+00
         0.00000E+00
         0.00000E+00
         0.00000E+00
         0.00000E+00
         0.00000E+00
         0.00000E+00
         0.00000E+00
         0.00000E+00
         0.00000E+00
         0.00000E+00
         0.00000E+00
         0.00000E+00
         0.00000E+00
         0.00000E+00
         0.00000E+00
         0.00000E+00
         0.00000E+00
         0.00000E+00
         0.00000E+00
         0.00000E+00
         0.00000E+00
         0.00000E+00
         0.00000E+00
         0.00000E+00
         0.00000E+00
         0.00000E+00
         0.00000E+00
         0.00000E+00
         0.00000E+00
         0.00000E+00
         0.00000E+00
         0.00000E+00
         0.00000E+00
         0.00000E+00
         0.00000E+00
         0.00000E+00
         0.00000E+00
         0.00000E+00
         0.00000E+00
         0.00000E+00
         0.00000E+00
         0.00000E+00
         0.00000E+00
         0.00000E+00
         0.00000E+00
         0.00000E+00
         0.00000E+00
         0.00000E+00
         0.00000E+00
         0.00000E+00
         0.00000E+00
         0.00000E+00
         0.00000E+00
         0.00000E+00
         0.00000E+00
         0.00000E+00
         0.00000E+00
         0.00000E+00
         0.00000E+00
         0.00000E+00
         0.00000E+00
         0.00000E+00
         0.00000E+00
         0.00000E+00
         0.00000E+00
         0.00000E+00
         0.00000E+00
         0.00000E+00
         0.00000E+00
         0.00000E+00
         0.00000E+00
         0.00000E+00
         0.00000E+00
         0.00000E+00
         0.00000E+00
         0.00000E+00
         0.00000E+00
         0.00000E+00
         0.00000E+00
         0.00000E+00
         0.00000E+00
         0.00000E+00
         0.00000E+00
         0.00000E+00
         0.00000E+00
         0.00000E+00
         0.00000E+00
         0.00000E+00
         0.00000E+00
         0.00000E+00
         0.00000E+00
         0.00000E+00
         0.00000E+00
         0.00000E+00
         0.00000E+00
         0.00000E+00
         0.00000E+00
         0.00000E+00
         0.00000E+00
         0.00000E+00
         0.00000E+00
         0.00000E+00
         0.00000E+00
         0.00000E+00
         0.00000E+00
         0.00000E+00
         0.00000E+00
         0.00000E+00
         0.00000E+00
         0.00000E+00
         0.00000E+00
         0.00000E+00
         0.00000E+00
         0.00000E+00
         0.00000E+00
         0.00000E+00
         0.00000E+00
         0.00000E+00
         0.00000E+00
         0.00000E+00
         0.00000E+00
         0.00000E+00
         0.00000E+00
         0.00000E+00
         0.00000E+00
         0.00000E+00
         0.00000E+00
         0.00000E+00
         0.00000E+00
         0.00000E+00
         0.00000E+00
         0.00000E+00
         0.00000E+00
         0.00000E+00
         0.00000E+00
         0.00000E+00
         0.00000E+00
         0.00000E+00
         0.00000E+00
         0.00000E+00
         0.00000E+00
         0.00000E+00
         0.00000E+00
         0.00000E+00
         0.00000E+00
         0.00000E+00
         0.00000E+00
         0.00000E+00
         0.00000E+00
         0.00000E+00
         0.00000E+00
         0.00000E+00
         0.00000E+00
         0.00000E+00
         0.00000E+00
         0.00000E+00
         0.00000E+00
         0.00000E+00
         0.00000E+00
         0.00000E+00
         0.00000E+00
         0.00000E+00
         0.00000E+00
         0.00000E+00
         0.00000E+00
         0.00000E+00
         0.00000E+00
         0.00000E+00
         0.00000E+00
         0.00000E+00
         0.00000E+00
         0.00000E+00
         0.00000E+00
         0.00000E+00
         0.00000E+00
         0.00000E+00
         0.00000E+00
         0.00000E+00
         0.00000E+00
         0.00000E+00
         0.00000E+00
         0.00000E+00
         0.00000E+00
         0.00000E+00
         0.00000E+00
         0.00000E+00
         0.00000E+00
         0.00000E+00
         0.00000E+00
         0.00000E+00
         0.00000E+00
         0.00000E+00
         0.00000E+00
         0.00000E+00
         0.00000E+00
         0.00000E+00
         0.00000E+00
         0.00000E+00
         0.00000E+00
         0.00000E+00
         0.00000E+00
         0.00000E+00
         0.00000E+00
         0.00000E+00
         0.00000E+00
         0.00000E+00
         0.00000E+00
         0.00000E+00
         0.00000E+00
         0.00000E+00
         0.00000E+00
         0.00000E+00
         0.00000E+00
         0.00000E+00
         0.00000E+00
         0.00000E+00
         0.00000E+00
         0.00000E+00
         0.00000E+00
         0.00000E+00
         0.00000E+00
         0.00000E+00
         0.00000E+00
         0.00000E+00
         0.00000E+00
         0.00000E+00
         0.00000E+00
         0.00000E+00
         0.00000E+00
         0.00000E+00
         0.00000E+00
         0.00000E+00
         0.00000E+00
         0.00000E+00
         0.00000E+00
         0.00000E+00
         0.00000E+00
         0.00000E+00
         0.00000E+00
         0.00000E+00
         0.00000E+00
         0.00000E+00
         0.00000E+00
         0.00000E+00
         0.00000E+00
         0.00000E+00
         0.00000E+00
         0.00000E+00
         0.00000E+00
         0.00000E+00
         0.00000E+00
         0.00000E+00
         0.00000E+00
         0.00000E+00
         0.00000E+00
         0.00000E+00
         0.00000E+00
         0.00000E+00
         0.00000E+00
         0.00000E+00
         0.00000E+00
         0.00000E+00
         0.00000E+00
         0.00000E+00
         0.00000E+00
         0.00000E+00
  
SCALARS               pre_disp_force_y  double 1
LOOKUP_TABLE default
         0.00000E+00
         0.00000E+00
         0.00000E+00
         0.00000E+00
         0.00000E+00
         0.00000E+00
         0.00000E+00
         0.00000E+00
         0.00000E+00
         0.00000E+00
         0.00000E+00
         0.00000E+00
         0.00000E+00
         0.00000E+00
         0.00000E+00
         0.00000E+00
         0.00000E+00
         0.00000E+00
         0.00000E+00
         0.00000E+00
         0.00000E+00
         0.00000E+00
         0.00000E+00
         0.00000E+00
         0.00000E+00
         0.00000E+00
         0.00000E+00
         0.00000E+00
         0.00000E+00
         0.00000E+00
         0.00000E+00
         0.00000E+00
         0.00000E+00
         0.00000E+00
         0.00000E+00
         0.00000E+00
         0.00000E+00
         0.00000E+00
         0.00000E+00
         0.00000E+00
         0.00000E+00
         0.00000E+00
         0.00000E+00
         0.00000E+00
         0.00000E+00
         0.00000E+00
         0.00000E+00
         0.00000E+00
         0.00000E+00
         0.00000E+00
         0.00000E+00
         0.00000E+00
         0.00000E+00
         0.00000E+00
         0.00000E+00
         0.00000E+00
         0.00000E+00
         0.00000E+00
         0.00000E+00
         0.00000E+00
         0.00000E+00
         0.00000E+00
         0.00000E+00
         0.00000E+00
         0.00000E+00
         0.00000E+00
         0.00000E+00
         0.00000E+00
         0.00000E+00
         0.00000E+00
         0.00000E+00
         0.00000E+00
         0.00000E+00
         0.00000E+00
         0.00000E+00
         0.00000E+00
         0.00000E+00
         0.00000E+00
         0.00000E+00
         0.00000E+00
         0.00000E+00
         0.00000E+00
         0.00000E+00
         0.00000E+00
         0.00000E+00
         0.00000E+00
         0.00000E+00
         0.00000E+00
         0.00000E+00
         0.00000E+00
         0.00000E+00
         0.00000E+00
         0.00000E+00
         0.00000E+00
         0.00000E+00
         0.00000E+00
         0.00000E+00
         0.00000E+00
         0.00000E+00
         0.00000E+00
         0.00000E+00
         0.00000E+00
         0.00000E+00
         0.00000E+00
         0.00000E+00
         0.00000E+00
         0.00000E+00
         0.00000E+00
         0.00000E+00
         0.00000E+00
         0.00000E+00
         0.00000E+00
         0.00000E+00
         0.00000E+00
         0.00000E+00
         0.00000E+00
         0.00000E+00
         0.00000E+00
         0.00000E+00
         0.00000E+00
         0.00000E+00
         0.00000E+00
         0.00000E+00
         0.00000E+00
         0.00000E+00
         0.00000E+00
         0.00000E+00
         0.00000E+00
         0.00000E+00
         0.00000E+00
         0.00000E+00
         0.00000E+00
         0.00000E+00
         0.00000E+00
         0.00000E+00
         0.00000E+00
         0.00000E+00
         0.00000E+00
         0.00000E+00
         0.00000E+00
         0.00000E+00
         0.00000E+00
         0.00000E+00
         0.00000E+00
         0.00000E+00
         0.00000E+00
         0.00000E+00
         0.00000E+00
         0.00000E+00
         0.00000E+00
         0.00000E+00
         0.00000E+00
         0.00000E+00
         0.00000E+00
         0.00000E+00
         0.00000E+00
         0.00000E+00
         0.00000E+00
         0.00000E+00
         0.00000E+00
         0.00000E+00
         0.00000E+00
         0.00000E+00
         0.00000E+00
         0.00000E+00
         0.00000E+00
         0.00000E+00
         0.00000E+00
         0.00000E+00
         0.00000E+00
         0.00000E+00
         0.00000E+00
         0.00000E+00
         0.00000E+00
         0.00000E+00
         0.00000E+00
         0.00000E+00
         0.00000E+00
         0.00000E+00
         0.00000E+00
         0.00000E+00
         0.00000E+00
         0.00000E+00
         0.00000E+00
         0.00000E+00
         0.00000E+00
         0.00000E+00
         0.00000E+00
         0.00000E+00
         0.00000E+00
         0.00000E+00
         0.00000E+00
         0.00000E+00
         0.00000E+00
         0.00000E+00
         0.00000E+00
         0.00000E+00
         0.00000E+00
         0.00000E+00
         0.00000E+00
         0.00000E+00
         0.00000E+00
         0.00000E+00
         0.00000E+00
         0.00000E+00
         0.00000E+00
         0.00000E+00
         0.00000E+00
         0.00000E+00
         0.00000E+00
         0.00000E+00
         0.00000E+00
         0.00000E+00
         0.00000E+00
         0.00000E+00
         0.00000E+00
         0.00000E+00
         0.00000E+00
         0.00000E+00
         0.00000E+00
         0.00000E+00
         0.00000E+00
         0.00000E+00
         0.00000E+00
         0.00000E+00
         0.00000E+00
         0.00000E+00
         0.00000E+00
         0.00000E+00
         0.00000E+00
         0.00000E+00
         0.00000E+00
         0.00000E+00
         0.00000E+00
         0.00000E+00
         0.00000E+00
         0.00000E+00
         0.00000E+00
         0.00000E+00
         0.00000E+00
         0.00000E+00
         0.00000E+00
         0.00000E+00
         0.00000E+00
         0.00000E+00
         0.00000E+00
         0.00000E+00
         0.00000E+00
         0.00000E+00
         0.00000E+00
         0.00000E+00
         0.00000E+00
         0.00000E+00
         0.00000E+00
         0.00000E+00
         0.00000E+00
         0.00000E+00
         0.00000E+00
         0.00000E+00
         0.00000E+00
         0.00000E+00
         0.00000E+00
         0.00000E+00
         0.00000E+00
         0.00000E+00
         0.00000E+00
         0.00000E+00
         0.00000E+00
         0.00000E+00
         0.00000E+00
         0.00000E+00
         0.00000E+00
         0.00000E+00
         0.00000E+00
         0.00000E+00
         0.00000E+00
         0.00000E+00
         0.00000E+00
         0.00000E+00
         0.00000E+00
         0.00000E+00
         0.00000E+00
         0.00000E+00
         0.00000E+00
         0.00000E+00
         0.00000E+00
         0.00000E+00
         0.00000E+00
         0.00000E+00
         0.00000E+00
         0.00000E+00
         0.00000E+00
         0.00000E+00
         0.00000E+00
         0.00000E+00
         0.00000E+00
         0.00000E+00
         0.00000E+00
         0.00000E+00
         0.00000E+00
         0.00000E+00
         0.00000E+00
         0.00000E+00
         0.00000E+00
         0.00000E+00
         0.00000E+00
         0.00000E+00
         0.00000E+00
         0.00000E+00
         0.00000E+00
         0.00000E+00
         0.00000E+00
         0.00000E+00
         0.00000E+00
         0.00000E+00
         0.00000E+00
         0.00000E+00
         0.00000E+00
         0.00000E+00
         0.00000E+00
         0.00000E+00
         0.00000E+00
         0.00000E+00
         0.00000E+00
         0.00000E+00
         0.00000E+00
         0.00000E+00
         0.00000E+00
         0.00000E+00
         0.00000E+00
         0.00000E+00
         0.00000E+00
         0.00000E+00
         0.00000E+00
         0.00000E+00
         0.00000E+00
         0.00000E+00
         0.00000E+00
         0.00000E+00
         0.00000E+00
         0.00000E+00
         0.00000E+00
         0.00000E+00
         0.00000E+00
         0.00000E+00
         0.00000E+00
         0.00000E+00
         0.00000E+00
         0.00000E+00
         0.00000E+00
         0.00000E+00
         0.00000E+00
         0.00000E+00
         0.00000E+00
         0.00000E+00
         0.00000E+00
         0.00000E+00
         0.00000E+00
         0.00000E+00
         0.00000E+00
         0.00000E+00
         0.00000E+00
         0.00000E+00
         0.00000E+00
         0.00000E+00
         0.00000E+00
         0.00000E+00
         0.00000E+00
         0.00000E+00
         0.00000E+00
         0.00000E+00
         0.00000E+00
         0.00000E+00
         0.00000E+00
         0.00000E+00
         0.00000E+00
         0.00000E+00
         0.00000E+00
         0.00000E+00
         0.00000E+00
         0.00000E+00
         0.00000E+00
         0.00000E+00
         0.00000E+00
         0.00000E+00
         0.00000E+00
         0.00000E+00
         0.00000E+00
         0.00000E+00
         0.00000E+00
         0.00000E+00
         0.00000E+00
         0.00000E+00
         0.00000E+00
         0.00000E+00
         0.00000E+00
         0.00000E+00
         0.00000E+00
         0.00000E+00
         0.00000E+00
         0.00000E+00
         0.00000E+00
         0.00000E+00
         0.00000E+00
         0.00000E+00
         0.00000E+00
         0.00000E+00
         0.00000E+00
         0.00000E+00
         0.00000E+00
         0.00000E+00
         0.00000E+00
         0.00000E+00
         0.00000E+00
         0.00000E+00
         0.00000E+00
         0.00000E+00
         0.00000E+00
         0.00000E+00
         0.00000E+00
         0.00000E+00
         0.00000E+00
         0.00000E+00
         0.00000E+00
         0.00000E+00
         0.00000E+00
         0.00000E+00
         0.00000E+00
         0.00000E+00
         0.00000E+00
         0.00000E+00
         0.00000E+00
         0.00000E+00
         0.00000E+00
         0.00000E+00
         0.00000E+00
         0.00000E+00
         0.00000E+00
         0.00000E+00
         0.00000E+00
         0.00000E+00
         0.00000E+00
         0.00000E+00
         0.00000E+00
         0.00000E+00
         0.00000E+00
         0.00000E+00
         0.00000E+00
         0.00000E+00
         0.00000E+00
         0.00000E+00
         0.00000E+00
         0.00000E+00
         0.00000E+00
         0.00000E+00
         0.00000E+00
         0.00000E+00
         0.00000E+00
         0.00000E+00
         0.00000E+00
         0.00000E+00
         0.00000E+00
         0.00000E+00
         0.00000E+00
         0.00000E+00
         0.00000E+00
         0.00000E+00
         0.00000E+00
         0.00000E+00
         0.00000E+00
         0.00000E+00
         0.00000E+00
         0.00000E+00
         0.00000E+00
         0.00000E+00
         0.00000E+00
         0.00000E+00
         0.00000E+00
         0.00000E+00
         0.00000E+00
         0.00000E+00
         0.00000E+00
         0.00000E+00
         0.00000E+00
         0.00000E+00
         0.00000E+00
         0.00000E+00
         0.00000E+00
         0.00000E+00
         0.00000E+00
         0.00000E+00
         0.00000E+00
         0.00000E+00
         0.00000E+00
         0.00000E+00
         0.00000E+00
         0.00000E+00
         0.00000E+00
         0.00000E+00
         0.00000E+00
         0.00000E+00
         0.00000E+00
         0.00000E+00
         0.00000E+00
         0.00000E+00
         0.00000E+00
         0.00000E+00
         0.00000E+00
         0.00000E+00
         0.00000E+00
         0.00000E+00
         0.00000E+00
         0.00000E+00
         0.00000E+00
         0.00000E+00
         0.00000E+00
         0.00000E+00
         0.00000E+00
         0.00000E+00
         0.00000E+00
         0.00000E+00
         0.00000E+00
         0.00000E+00
         0.00000E+00
         0.00000E+00
         0.00000E+00
         0.00000E+00
         0.00000E+00
         0.00000E+00
         0.00000E+00
         0.00000E+00
         0.00000E+00
         0.00000E+00
         0.00000E+00
         0.00000E+00
         0.00000E+00
         0.00000E+00
         0.00000E+00
         0.00000E+00
         0.00000E+00
         0.00000E+00
         0.00000E+00
         0.00000E+00
         0.00000E+00
         0.00000E+00
         0.00000E+00
         0.00000E+00
         0.00000E+00
         0.00000E+00
         0.00000E+00
         0.00000E+00
         0.00000E+00
         0.00000E+00
         0.00000E+00
         0.00000E+00
         0.00000E+00
         0.00000E+00
         0.00000E+00
         0.00000E+00
         0.00000E+00
         0.00000E+00
         0.00000E+00
         0.00000E+00
         0.00000E+00
         0.00000E+00
         0.00000E+00
         0.00000E+00
         0.00000E+00
         0.00000E+00
         0.00000E+00
         0.00000E+00
         0.00000E+00
         0.00000E+00
         0.00000E+00
         0.00000E+00
         0.00000E+00
         0.00000E+00
         0.00000E+00
         0.00000E+00
         0.00000E+00
         0.00000E+00
         0.00000E+00
         0.00000E+00
         0.00000E+00
         0.00000E+00
         0.00000E+00
         0.00000E+00
         0.00000E+00
         0.00000E+00
         0.00000E+00
         0.00000E+00
         0.00000E+00
         0.00000E+00
         0.00000E+00
         0.00000E+00
         0.00000E+00
         0.00000E+00
         0.00000E+00
         0.00000E+00
         0.00000E+00
         0.00000E+00
         0.00000E+00
         0.00000E+00
         0.00000E+00
         0.00000E+00
         0.00000E+00
         0.00000E+00
         0.00000E+00
         0.00000E+00
         0.00000E+00
         0.00000E+00
         0.00000E+00
         0.00000E+00
         0.00000E+00
         0.00000E+00
         0.00000E+00
         0.00000E+00
         0.00000E+00
         0.00000E+00
         0.00000E+00
         0.00000E+00
         0.00000E+00
         0.00000E+00
         0.00000E+00
         0.00000E+00
         0.00000E+00
         0.00000E+00
         0.00000E+00
         0.00000E+00
         0.00000E+00
         0.00000E+00
         0.00000E+00
         0.00000E+00
         0.00000E+00
         0.00000E+00
         0.00000E+00
         0.00000E+00
         0.00000E+00
         0.00000E+00
         0.00000E+00
         0.00000E+00
         0.00000E+00
         0.00000E+00
         0.00000E+00
         0.00000E+00
         0.00000E+00
         0.00000E+00
         0.00000E+00
         0.00000E+00
         0.00000E+00
         0.00000E+00
         0.00000E+00
         0.00000E+00
         0.00000E+00
         0.00000E+00
         0.00000E+00
         0.00000E+00
         0.00000E+00
         0.00000E+00
         0.00000E+00
         0.00000E+00
         0.00000E+00
         0.00000E+00
         0.00000E+00
         0.00000E+00
         0.00000E+00
         0.00000E+00
         0.00000E+00
         0.00000E+00
         0.00000E+00
         0.00000E+00
         0.00000E+00
         0.00000E+00
         0.00000E+00
         0.00000E+00
         0.00000E+00
         0.00000E+00
         0.00000E+00
         0.00000E+00
         0.00000E+00
         0.00000E+00
         0.00000E+00
         0.00000E+00
         0.00000E+00
         0.00000E+00
         0.00000E+00
         0.00000E+00
         0.00000E+00
         0.00000E+00
         0.00000E+00
         0.00000E+00
         0.00000E+00
         0.00000E+00
         0.00000E+00
         0.00000E+00
         0.00000E+00
         0.00000E+00
         0.00000E+00
         0.00000E+00
         0.00000E+00
         0.00000E+00
         0.00000E+00
         0.00000E+00
         0.00000E+00
         0.00000E+00
         0.00000E+00
         0.00000E+00
         0.00000E+00
         0.00000E+00
         0.00000E+00
         0.00000E+00
         0.00000E+00
         0.00000E+00
         0.00000E+00
         0.00000E+00
         0.00000E+00
         0.00000E+00
         0.00000E+00
         0.00000E+00
         0.00000E+00
         0.00000E+00
         0.00000E+00
         0.00000E+00
         0.00000E+00
         0.00000E+00
         0.00000E+00
         0.00000E+00
         0.00000E+00
         0.00000E+00
         0.00000E+00
         0.00000E+00
         0.00000E+00
         0.00000E+00
         0.00000E+00
         0.00000E+00
         0.00000E+00
         0.00000E+00
         0.00000E+00
         0.00000E+00
         0.00000E+00
         0.00000E+00
         0.00000E+00
         0.00000E+00
         0.00000E+00
         0.00000E+00
         0.00000E+00
         0.00000E+00
         0.00000E+00
         0.00000E+00
         0.00000E+00
         0.00000E+00
         0.00000E+00
         0.00000E+00
         0.00000E+00
         0.00000E+00
         0.00000E+00
         0.00000E+00
         0.00000E+00
         0.00000E+00
         0.00000E+00
         0.00000E+00
         0.00000E+00
         0.00000E+00
         0.00000E+00
         0.00000E+00
         0.00000E+00
         0.00000E+00
         0.00000E+00
         0.00000E+00
         0.00000E+00
         0.00000E+00
         0.00000E+00
         0.00000E+00
         0.00000E+00
         0.00000E+00
         0.00000E+00
         0.00000E+00
         0.00000E+00
         0.00000E+00
         0.00000E+00
         0.00000E+00
         0.00000E+00
         0.00000E+00
         0.00000E+00
         0.00000E+00
         0.00000E+00
         0.00000E+00
         0.00000E+00
         0.00000E+00
         0.00000E+00
         0.00000E+00
         0.00000E+00
         0.00000E+00
         0.00000E+00
         0.00000E+00
         0.00000E+00
         0.00000E+00
         0.00000E+00
         0.00000E+00
         0.00000E+00
         0.00000E+00
         0.00000E+00
         0.00000E+00
         0.00000E+00
         0.00000E+00
         0.00000E+00
         0.00000E+00
         0.00000E+00
         0.00000E+00
         0.00000E+00
         0.00000E+00
         0.00000E+00
         0.00000E+00
         0.00000E+00
         0.00000E+00
         0.00000E+00
         0.00000E+00
         0.00000E+00
         0.00000E+00
         0.00000E+00
         0.00000E+00
         0.00000E+00
         0.00000E+00
         0.00000E+00
         0.00000E+00
         0.00000E+00
         0.00000E+00
         0.00000E+00
         0.00000E+00
         0.00000E+00
         0.00000E+00
         0.00000E+00
         0.00000E+00
         0.00000E+00
         0.00000E+00
         0.00000E+00
         0.00000E+00
         0.00000E+00
         0.00000E+00
         0.00000E+00
         0.00000E+00
         0.00000E+00
         0.00000E+00
         0.00000E+00
         0.00000E+00
         0.00000E+00
         0.00000E+00
         0.00000E+00
         0.00000E+00
         0.00000E+00
         0.00000E+00
         0.00000E+00
         0.00000E+00
         0.00000E+00
         0.00000E+00
         0.00000E+00
         0.00000E+00
         0.00000E+00
         0.00000E+00
         0.00000E+00
         0.00000E+00
         0.00000E+00
         0.00000E+00
         0.00000E+00
         0.00000E+00
         0.00000E+00
         0.00000E+00
         0.00000E+00
         0.00000E+00
         0.00000E+00
         0.00000E+00
         0.00000E+00
         0.00000E+00
         0.00000E+00
         0.00000E+00
         0.00000E+00
         0.00000E+00
         0.00000E+00
         0.00000E+00
         0.00000E+00
         0.00000E+00
         0.00000E+00
         0.00000E+00
         0.00000E+00
         0.00000E+00
         0.00000E+00
         0.00000E+00
         0.00000E+00
         0.00000E+00
         0.00000E+00
         0.00000E+00
         0.00000E+00
         0.00000E+00
         0.00000E+00
         0.00000E+00
         0.00000E+00
         0.00000E+00
         0.00000E+00
         0.00000E+00
         0.00000E+00
         0.00000E+00
         0.00000E+00
         0.00000E+00
         0.00000E+00
         0.00000E+00
         0.00000E+00
         0.00000E+00
         0.00000E+00
         0.00000E+00
         0.00000E+00
         0.00000E+00
         0.00000E+00
         0.00000E+00
         0.00000E+00
         0.00000E+00
         0.00000E+00
         0.00000E+00
         0.00000E+00
         0.00000E+00
         0.00000E+00
         0.00000E+00
         0.00000E+00
         0.00000E+00
         0.00000E+00
         0.00000E+00
         0.00000E+00
         0.00000E+00
         0.00000E+00
         0.00000E+00
         0.00000E+00
         0.00000E+00
         0.00000E+00
         0.00000E+00
         0.00000E+00
         0.00000E+00
         0.00000E+00
         0.00000E+00
         0.00000E+00
         0.00000E+00
         0.00000E+00
         0.00000E+00
         0.00000E+00
         0.00000E+00
         0.00000E+00
         0.00000E+00
         0.00000E+00
         0.00000E+00
         0.00000E+00
         0.00000E+00
         0.00000E+00
         0.00000E+00
         0.00000E+00
         0.00000E+00
         0.00000E+00
         0.00000E+00
         0.00000E+00
         0.00000E+00
         0.00000E+00
         0.00000E+00
         0.00000E+00
         0.00000E+00
         0.00000E+00
         0.00000E+00
         0.00000E+00
         0.00000E+00
         0.00000E+00
         0.00000E+00
         0.00000E+00
         0.00000E+00
         0.00000E+00
         0.00000E+00
         0.00000E+00
         0.00000E+00
         0.00000E+00
         0.00000E+00
         0.00000E+00
         0.00000E+00
         0.00000E+00
         0.00000E+00
         0.00000E+00
         0.00000E+00
         0.00000E+00
         0.00000E+00
         0.00000E+00
         0.00000E+00
         0.00000E+00
         0.00000E+00
         0.00000E+00
         0.00000E+00
         0.00000E+00
         0.00000E+00
         0.00000E+00
         0.00000E+00
         0.00000E+00
         0.00000E+00
         0.00000E+00
         0.00000E+00
         0.00000E+00
         0.00000E+00
         0.00000E+00
         0.00000E+00
         0.00000E+00
         0.00000E+00
         0.00000E+00
         0.00000E+00
         0.00000E+00
         0.00000E+00
         0.00000E+00
         0.00000E+00
         0.00000E+00
         0.00000E+00
         0.00000E+00
         0.00000E+00
         0.00000E+00
         0.00000E+00
         0.00000E+00
         0.00000E+00
         0.00000E+00
         0.00000E+00
         0.00000E+00
         0.00000E+00
         0.00000E+00
         0.00000E+00
         0.00000E+00
         0.00000E+00
         0.00000E+00
         0.00000E+00
         0.00000E+00
         0.00000E+00
         0.00000E+00
         0.00000E+00
         0.00000E+00
         0.00000E+00
         0.00000E+00
         0.00000E+00
         0.00000E+00
         0.00000E+00
         0.00000E+00
         0.00000E+00
         0.00000E+00
         0.00000E+00
         0.00000E+00
         0.00000E+00
         0.00000E+00
         0.00000E+00
         0.00000E+00
         0.00000E+00
         0.00000E+00
         0.00000E+00
         0.00000E+00
         0.00000E+00
         0.00000E+00
         0.00000E+00
         0.00000E+00
         0.00000E+00
         0.00000E+00
         0.00000E+00
         0.00000E+00
         0.00000E+00
         0.00000E+00
         0.00000E+00
         0.00000E+00
         0.00000E+00
         0.00000E+00
         0.00000E+00
         0.00000E+00
         0.00000E+00
         0.00000E+00
         0.00000E+00
         0.00000E+00
         0.00000E+00
         0.00000E+00
         0.00000E+00
         0.00000E+00
         0.00000E+00
         0.00000E+00
         0.00000E+00
         0.00000E+00
         0.00000E+00
         0.00000E+00
         0.00000E+00
         0.00000E+00
         0.00000E+00
         0.00000E+00
         0.00000E+00
         0.00000E+00
         0.00000E+00
         0.00000E+00
         0.00000E+00
         0.00000E+00
         0.00000E+00
         0.00000E+00
         0.00000E+00
         0.00000E+00
         0.00000E+00
         0.00000E+00
         0.00000E+00
         0.00000E+00
         0.00000E+00
         0.00000E+00
         0.00000E+00
         0.00000E+00
         0.00000E+00
         0.00000E+00
         0.00000E+00
         0.00000E+00
         0.00000E+00
         0.00000E+00
         0.00000E+00
         0.00000E+00
         0.00000E+00
         0.00000E+00
         0.00000E+00
         0.00000E+00
         0.00000E+00
         0.00000E+00
         0.00000E+00
         0.00000E+00
         0.00000E+00
         0.00000E+00
         0.00000E+00
         0.00000E+00
         0.00000E+00
         0.00000E+00
         0.00000E+00
         0.00000E+00
         0.00000E+00
         0.00000E+00
         0.00000E+00
         0.00000E+00
         0.00000E+00
         0.00000E+00
         0.00000E+00
         0.00000E+00
         0.00000E+00
         0.00000E+00
         0.00000E+00
         0.00000E+00
         0.00000E+00
         0.00000E+00
         0.00000E+00
         0.00000E+00
         0.00000E+00
         0.00000E+00
         0.00000E+00
         0.00000E+00
         0.00000E+00
         0.00000E+00
         0.00000E+00
         0.00000E+00
         0.00000E+00
         0.00000E+00
         0.00000E+00
         0.00000E+00
         0.00000E+00
         0.00000E+00
         0.00000E+00
         0.00000E+00
         0.00000E+00
         0.00000E+00
         0.00000E+00
         0.00000E+00
         0.00000E+00
         0.00000E+00
         0.00000E+00
         0.00000E+00
         0.00000E+00
         0.00000E+00
         0.00000E+00
         0.00000E+00
         0.00000E+00
         0.00000E+00
         0.00000E+00
         0.00000E+00
         0.00000E+00
         0.00000E+00
         0.00000E+00
         0.00000E+00
         0.00000E+00
         0.00000E+00
         0.00000E+00
         0.00000E+00
         0.00000E+00
         0.00000E+00
         0.00000E+00
         0.00000E+00
         0.00000E+00
         0.00000E+00
         0.00000E+00
         0.00000E+00
         0.00000E+00
         0.00000E+00
         0.00000E+00
         0.00000E+00
         0.00000E+00
         0.00000E+00
         0.00000E+00
         0.00000E+00
         0.00000E+00
         0.00000E+00
         0.00000E+00
         0.00000E+00
         0.00000E+00
         0.00000E+00
         0.00000E+00
         0.00000E+00
         0.00000E+00
         0.00000E+00
         0.00000E+00
         0.00000E+00
         0.00000E+00
         0.00000E+00
         0.00000E+00
         0.00000E+00
         0.00000E+00
         0.00000E+00
         0.00000E+00
         0.00000E+00
         0.00000E+00
         0.00000E+00
         0.00000E+00
         0.00000E+00
         0.00000E+00
         0.00000E+00
         0.00000E+00
         0.00000E+00
         0.00000E+00
         0.00000E+00
         0.00000E+00
         0.00000E+00
         0.00000E+00
         0.00000E+00
         0.00000E+00
         0.00000E+00
         0.00000E+00
         0.00000E+00
         0.00000E+00
         0.00000E+00
         0.00000E+00
         0.00000E+00
         0.00000E+00
         0.00000E+00
         0.00000E+00
         0.00000E+00
         0.00000E+00
         0.00000E+00
         0.00000E+00
         0.00000E+00
         0.00000E+00
         0.00000E+00
         0.00000E+00
         0.00000E+00
         0.00000E+00
         0.00000E+00
         0.00000E+00
         0.00000E+00
         0.00000E+00
         0.00000E+00
         0.00000E+00
         0.00000E+00
         0.00000E+00
         0.00000E+00
         0.00000E+00
         0.00000E+00
         0.00000E+00
         0.00000E+00
         0.00000E+00
         0.00000E+00
         0.00000E+00
         0.00000E+00
         0.00000E+00
         0.00000E+00
         0.00000E+00
         0.00000E+00
         0.00000E+00
         0.00000E+00
         0.00000E+00
         0.00000E+00
         0.00000E+00
         0.00000E+00
         0.00000E+00
         0.00000E+00
         0.00000E+00
         0.00000E+00
         0.00000E+00
         0.00000E+00
         0.00000E+00
         0.00000E+00
         0.00000E+00
         0.00000E+00
         0.00000E+00
         0.00000E+00
         0.00000E+00
         0.00000E+00
         0.00000E+00
         0.00000E+00
         0.00000E+00
         0.00000E+00
         0.00000E+00
         0.00000E+00
         0.00000E+00
         0.00000E+00
         0.00000E+00
         0.00000E+00
         0.00000E+00
         0.00000E+00
         0.00000E+00
         0.00000E+00
         0.00000E+00
         0.00000E+00
         0.00000E+00
         0.00000E+00
         0.00000E+00
         0.00000E+00
         0.00000E+00
         0.00000E+00
         0.00000E+00
         0.00000E+00
         0.00000E+00
         0.00000E+00
         0.00000E+00
         0.00000E+00
         0.00000E+00
         0.00000E+00
         0.00000E+00
         0.00000E+00
         0.00000E+00
         0.00000E+00
         0.00000E+00
         0.00000E+00
         0.00000E+00
         0.00000E+00
         0.00000E+00
         0.00000E+00
         0.00000E+00
         0.00000E+00
         0.00000E+00
         0.00000E+00
         0.00000E+00
         0.00000E+00
         0.00000E+00
         0.00000E+00
         0.00000E+00
         0.00000E+00
         0.00000E+00
         0.00000E+00
         0.00000E+00
         0.00000E+00
         0.00000E+00
         0.00000E+00
         0.00000E+00
         0.00000E+00
         0.00000E+00
         0.00000E+00
         0.00000E+00
         0.00000E+00
         0.00000E+00
         0.00000E+00
         0.00000E+00
         0.00000E+00
         0.00000E+00
         0.00000E+00
         0.00000E+00
         0.00000E+00
         0.00000E+00
         0.00000E+00
         0.00000E+00
         0.00000E+00
         0.00000E+00
         0.00000E+00
         0.00000E+00
         0.00000E+00
         0.00000E+00
         0.00000E+00
         0.00000E+00
         0.00000E+00
         0.00000E+00
         0.00000E+00
         0.00000E+00
         0.00000E+00
         0.00000E+00
         0.00000E+00
         0.00000E+00
         0.00000E+00
         0.00000E+00
         0.00000E+00
         0.00000E+00
         0.00000E+00
         0.00000E+00
         0.00000E+00
         0.00000E+00
         0.00000E+00
         0.00000E+00
         0.00000E+00
         0.00000E+00
         0.00000E+00
         0.00000E+00
         0.00000E+00
         0.00000E+00
         0.00000E+00
         0.00000E+00
         0.00000E+00
         0.00000E+00
         0.00000E+00
         0.00000E+00
         0.00000E+00
         0.00000E+00
         0.00000E+00
         0.00000E+00
         0.00000E+00
         0.00000E+00
         0.00000E+00
         0.00000E+00
         0.00000E+00
         0.00000E+00
         0.00000E+00
         0.00000E+00
         0.00000E+00
         0.00000E+00
         0.00000E+00
         0.00000E+00
         0.00000E+00
         0.00000E+00
         0.00000E+00
         0.00000E+00
         0.00000E+00
         0.00000E+00
         0.00000E+00
         0.00000E+00
         0.00000E+00
         0.00000E+00
         0.00000E+00
         0.00000E+00
         0.00000E+00
         0.00000E+00
         0.00000E+00
         0.00000E+00
         0.00000E+00
         0.00000E+00
         0.00000E+00
         0.00000E+00
         0.00000E+00
         0.00000E+00
         0.00000E+00
         0.00000E+00
         0.00000E+00
         0.00000E+00
         0.00000E+00
         0.00000E+00
         0.00000E+00
         0.00000E+00
         0.00000E+00
         0.00000E+00
         0.00000E+00
         0.00000E+00
         0.00000E+00
         0.00000E+00
         0.00000E+00
         0.00000E+00
         0.00000E+00
         0.00000E+00
         0.00000E+00
         0.00000E+00
         0.00000E+00
         0.00000E+00
         0.00000E+00
         0.00000E+00
         0.00000E+00
         0.00000E+00
         0.00000E+00
         0.00000E+00
         0.00000E+00
         0.00000E+00
         0.00000E+00
         0.00000E+00
         0.00000E+00
         0.00000E+00
         0.00000E+00
         0.00000E+00
         0.00000E+00
         0.00000E+00
         0.00000E+00
         0.00000E+00
         0.00000E+00
         0.00000E+00
         0.00000E+00
         0.00000E+00
         0.00000E+00
         0.00000E+00
         0.00000E+00
         0.00000E+00
         0.00000E+00
         0.00000E+00
         0.00000E+00
         0.00000E+00
         0.00000E+00
         0.00000E+00
         0.00000E+00
         0.00000E+00
         0.00000E+00
         0.00000E+00
         0.00000E+00
         0.00000E+00
         0.00000E+00
         0.00000E+00
         0.00000E+00
         0.00000E+00
         0.00000E+00
         0.00000E+00
         0.00000E+00
         0.00000E+00
         0.00000E+00
         0.00000E+00
         0.00000E+00
         0.00000E+00
         0.00000E+00
         0.00000E+00
         0.00000E+00
         0.00000E+00
         0.00000E+00
         0.00000E+00
         0.00000E+00
         0.00000E+00
         0.00000E+00
         0.00000E+00
         0.00000E+00
         0.00000E+00
         0.00000E+00
         0.00000E+00
         0.00000E+00
         0.00000E+00
         0.00000E+00
         0.00000E+00
         0.00000E+00
         0.00000E+00
         0.00000E+00
         0.00000E+00
         0.00000E+00
         0.00000E+00
         0.00000E+00
         0.00000E+00
         0.00000E+00
         0.00000E+00
         0.00000E+00
         0.00000E+00
         0.00000E+00
         0.00000E+00
         0.00000E+00
         0.00000E+00
         0.00000E+00
         0.00000E+00
         0.00000E+00
         0.00000E+00
         0.00000E+00
         0.00000E+00
         0.00000E+00
         0.00000E+00
         0.00000E+00
         0.00000E+00
         0.00000E+00
         0.00000E+00
         0.00000E+00
         0.00000E+00
         0.00000E+00
         0.00000E+00
         0.00000E+00
         0.00000E+00
         0.00000E+00
         0.00000E+00
         0.00000E+00
         0.00000E+00
         0.00000E+00
         0.00000E+00
         0.00000E+00
         0.00000E+00
         0.00000E+00
         0.00000E+00
         0.00000E+00
         0.00000E+00
         0.00000E+00
         0.00000E+00
         0.00000E+00
         0.00000E+00
         0.00000E+00
         0.00000E+00
         0.00000E+00
         0.00000E+00
         0.00000E+00
         0.00000E+00
         0.00000E+00
         0.00000E+00
         0.00000E+00
         0.00000E+00
         0.00000E+00
         0.00000E+00
         0.00000E+00
         0.00000E+00
         0.00000E+00
         0.00000E+00
         0.00000E+00
         0.00000E+00
         0.00000E+00
         0.00000E+00
         0.00000E+00
         0.00000E+00
         0.00000E+00
         0.00000E+00
         0.00000E+00
         0.00000E+00
         0.00000E+00
         0.00000E+00
         0.00000E+00
         0.00000E+00
         0.00000E+00
         0.00000E+00
         0.00000E+00
         0.00000E+00
         0.00000E+00
         0.00000E+00
         0.00000E+00
         0.00000E+00
         0.00000E+00
         0.00000E+00
         0.00000E+00
         0.00000E+00
         0.00000E+00
         0.00000E+00
         0.00000E+00
         0.00000E+00
         0.00000E+00
         0.00000E+00
         0.00000E+00
         0.00000E+00
         0.00000E+00
         0.00000E+00
         0.00000E+00
         0.00000E+00
         0.00000E+00
         0.00000E+00
         0.00000E+00
         0.00000E+00
         0.00000E+00
         0.00000E+00
         0.00000E+00
         0.00000E+00
         0.00000E+00
         0.00000E+00
         0.00000E+00
         0.00000E+00
         0.00000E+00
         0.00000E+00
         0.00000E+00
         0.00000E+00
         0.00000E+00
         0.00000E+00
         0.00000E+00
         0.00000E+00
         0.00000E+00
         0.00000E+00
         0.00000E+00
         0.00000E+00
         0.00000E+00
         0.00000E+00
         0.00000E+00
         0.00000E+00
         0.00000E+00
         0.00000E+00
         0.00000E+00
         0.00000E+00
         0.00000E+00
         0.00000E+00
         0.00000E+00
         0.00000E+00
         0.00000E+00
         0.00000E+00
         0.00000E+00
         0.00000E+00
         0.00000E+00
         0.00000E+00
         0.00000E+00
         0.00000E+00
         0.00000E+00
         0.00000E+00
         0.00000E+00
         0.00000E+00
         0.00000E+00
         0.00000E+00
         0.00000E+00
         0.00000E+00
         0.00000E+00
         0.00000E+00
         0.00000E+00
         0.00000E+00
         0.00000E+00
         0.00000E+00
         0.00000E+00
         0.00000E+00
         0.00000E+00
         0.00000E+00
         0.00000E+00
         0.00000E+00
         0.00000E+00
         0.00000E+00
         0.00000E+00
         0.00000E+00
         0.00000E+00
         0.00000E+00
         0.00000E+00
         0.00000E+00
         0.00000E+00
         0.00000E+00
         0.00000E+00
         0.00000E+00
         0.00000E+00
         0.00000E+00
         0.00000E+00
         0.00000E+00
         0.00000E+00
         0.00000E+00
         0.00000E+00
         0.00000E+00
         0.00000E+00
         0.00000E+00
         0.00000E+00
         0.00000E+00
         0.00000E+00
         0.00000E+00
         0.00000E+00
         0.00000E+00
         0.00000E+00
         0.00000E+00
         0.00000E+00
         0.00000E+00
         0.00000E+00
         0.00000E+00
         0.00000E+00
         0.00000E+00
         0.00000E+00
         0.00000E+00
         0.00000E+00
         0.00000E+00
         0.00000E+00
         0.00000E+00
         0.00000E+00
         0.00000E+00
         0.00000E+00
         0.00000E+00
         0.00000E+00
         0.00000E+00
         0.00000E+00
         0.00000E+00
         0.00000E+00
         0.00000E+00
         0.00000E+00
         0.00000E+00
         0.00000E+00
         0.00000E+00
         0.00000E+00
         0.00000E+00
         0.00000E+00
         0.00000E+00
         0.00000E+00
         0.00000E+00
         0.00000E+00
         0.00000E+00
         0.00000E+00
         0.00000E+00
         0.00000E+00
         0.00000E+00
         0.00000E+00
         0.00000E+00
         0.00000E+00
         0.00000E+00
         0.00000E+00
         0.00000E+00
         0.00000E+00
         0.00000E+00
         0.00000E+00
         0.00000E+00
         0.00000E+00
         0.00000E+00
         0.00000E+00
         0.00000E+00
         0.00000E+00
         0.00000E+00
         0.00000E+00
         0.00000E+00
         0.00000E+00
         0.00000E+00
         0.00000E+00
         0.00000E+00
         0.00000E+00
         0.00000E+00
         0.00000E+00
         0.00000E+00
         0.00000E+00
         0.00000E+00
         0.00000E+00
         0.00000E+00
         0.00000E+00
         0.00000E+00
         0.00000E+00
         0.00000E+00
         0.00000E+00
         0.00000E+00
         0.00000E+00
         0.00000E+00
         0.00000E+00
         0.00000E+00
         0.00000E+00
         0.00000E+00
         0.00000E+00
         0.00000E+00
         0.00000E+00
         0.00000E+00
         0.00000E+00
         0.00000E+00
         0.00000E+00
         0.00000E+00
         0.00000E+00
         0.00000E+00
         0.00000E+00
         0.00000E+00
         0.00000E+00
         0.00000E+00
         0.00000E+00
         0.00000E+00
         0.00000E+00
         0.00000E+00
         0.00000E+00
         0.00000E+00
         0.00000E+00
         0.00000E+00
         0.00000E+00
         0.00000E+00
         0.00000E+00
         0.00000E+00
         0.00000E+00
         0.00000E+00
         0.00000E+00
         0.00000E+00
         0.00000E+00
         0.00000E+00
         0.00000E+00
         0.00000E+00
         0.00000E+00
         0.00000E+00
         0.00000E+00
         0.00000E+00
         0.00000E+00
         0.00000E+00
         0.00000E+00
         0.00000E+00
         0.00000E+00
         0.00000E+00
         0.00000E+00
         0.00000E+00
         0.00000E+00
         0.00000E+00
         0.00000E+00
         0.00000E+00
         0.00000E+00
         0.00000E+00
         0.00000E+00
         0.00000E+00
         0.00000E+00
         0.00000E+00
         0.00000E+00
         0.00000E+00
         0.00000E+00
         0.00000E+00
         0.00000E+00
         0.00000E+00
         0.00000E+00
         0.00000E+00
         0.00000E+00
         0.00000E+00
         0.00000E+00
         0.00000E+00
         0.00000E+00
         0.00000E+00
         0.00000E+00
         0.00000E+00
         0.00000E+00
         0.00000E+00
         0.00000E+00
         0.00000E+00
         0.00000E+00
         0.00000E+00
         0.00000E+00
         0.00000E+00
         0.00000E+00
         0.00000E+00
         0.00000E+00
         0.00000E+00
         0.00000E+00
         0.00000E+00
         0.00000E+00
         0.00000E+00
         0.00000E+00
         0.00000E+00
         0.00000E+00
         0.00000E+00
         0.00000E+00
         0.00000E+00
         0.00000E+00
         0.00000E+00
         0.00000E+00
         0.00000E+00
         0.00000E+00
         0.00000E+00
         0.00000E+00
         0.00000E+00
         0.00000E+00
         0.00000E+00
         0.00000E+00
         0.00000E+00
         0.00000E+00
         0.00000E+00
         0.00000E+00
         0.00000E+00
         0.00000E+00
         0.00000E+00
         0.00000E+00
         0.00000E+00
         0.00000E+00
         0.00000E+00
         0.00000E+00
         0.00000E+00
         0.00000E+00
         0.00000E+00
         0.00000E+00
         0.00000E+00
         0.00000E+00
         0.00000E+00
         0.00000E+00
         0.00000E+00
         0.00000E+00
         0.00000E+00
         0.00000E+00
         0.00000E+00
         0.00000E+00
         0.00000E+00
         0.00000E+00
         0.00000E+00
         0.00000E+00
         0.00000E+00
         0.00000E+00
         0.00000E+00
         0.00000E+00
  
SCALARS               pre_disp_force_z  double 1
LOOKUP_TABLE default
         0.00000E+00
         0.00000E+00
         0.00000E+00
         0.00000E+00
        -0.00000E+00
        -0.00000E+00
        -0.00000E+00
        -0.00000E+00
         0.00000E+00
         0.00000E+00
        -0.00000E+00
        -0.00000E+00
         0.00000E+00
         0.00000E+00
        -0.00000E+00
        -0.00000E+00
         0.00000E+00
         0.00000E+00
        -0.00000E+00
        -0.00000E+00
         0.00000E+00
         0.00000E+00
         0.00000E+00
        -0.00000E+00
        -0.00000E+00
        -0.00000E+00
         0.00000E+00
         0.00000E+00
        -0.00000E+00
        -0.00000E+00
         0.00000E+00
         0.00000E+00
         0.00000E+00
        -0.00000E+00
        -0.00000E+00
        -0.00000E+00
         0.00000E+00
         0.00000E+00
        -0.00000E+00
        -0.00000E+00
         0.00000E+00
         0.00000E+00
        -0.00000E+00
        -0.00000E+00
         0.00000E+00
         0.00000E+00
        -0.00000E+00
        -0.00000E+00
         0.00000E+00
        -0.00000E+00
         0.00000E+00
        -0.00000E+00
         0.00000E+00
        -0.00000E+00
         0.00000E+00
        -0.00000E+00
         0.00000E+00
         0.00000E+00
        -0.00000E+00
        -0.00000E+00
         0.00000E+00
         0.00000E+00
        -0.00000E+00
        -0.00000E+00
         0.00000E+00
        -0.00000E+00
         0.00000E+00
        -0.00000E+00
         0.00000E+00
         0.00000E+00
        -0.00000E+00
        -0.00000E+00
         0.00000E+00
        -0.00000E+00
         0.00000E+00
        -0.00000E+00
         0.00000E+00
        -0.00000E+00
         0.00000E+00
        -0.00000E+00
         0.00000E+00
         0.00000E+00
        -0.00000E+00
        -0.00000E+00
         0.00000E+00
        -0.00000E+00
         0.00000E+00
        -0.00000E+00
         0.00000E+00
        -0.00000E+00
         0.00000E+00
         0.00000E+00
        -0.00000E+00
        -0.00000E+00
         0.00000E+00
        -0.00000E+00
         0.00000E+00
        -0.00000E+00
         0.00000E+00
        -0.00000E+00
         0.00000E+00
         0.00000E+00
        -0.00000E+00
        -0.00000E+00
         0.00000E+00
         0.00000E+00
        -0.00000E+00
        -0.00000E+00
         0.00000E+00
        -0.00000E+00
         0.00000E+00
        -0.00000E+00
         0.00000E+00
        -0.00000E+00
         0.00000E+00
        -0.00000E+00
         0.00000E+00
        -0.00000E+00
         0.00000E+00
        -0.00000E+00
         0.00000E+00
        -0.00000E+00
         0.00000E+00
        -0.00000E+00
         0.00000E+00
        -0.00000E+00
         0.00000E+00
        -0.00000E+00
         0.00000E+00
        -0.00000E+00
         0.00000E+00
        -0.00000E+00
         0.00000E+00
        -0.00000E+00
         0.00000E+00
        -0.00000E+00
         0.00000E+00
        -0.00000E+00
         0.00000E+00
        -0.00000E+00
         0.00000E+00
        -0.00000E+00
         0.00000E+00
        -0.00000E+00
         0.00000E+00
        -0.00000E+00
         0.00000E+00
        -0.00000E+00
         0.00000E+00
        -0.00000E+00
         0.00000E+00
        -0.00000E+00
         0.00000E+00
        -0.00000E+00
         0.00000E+00
        -0.00000E+00
         0.00000E+00
         0.00000E+00
         0.00000E+00
         0.00000E+00
         0.00000E+00
         0.00000E+00
         0.00000E+00
         0.00000E+00
         0.00000E+00
         0.00000E+00
         0.00000E+00
         0.00000E+00
         0.00000E+00
         0.00000E+00
         0.00000E+00
         0.00000E+00
         0.00000E+00
         0.00000E+00
         0.00000E+00
         0.00000E+00
         0.00000E+00
         0.00000E+00
         0.00000E+00
         0.00000E+00
         0.00000E+00
         0.00000E+00
         0.00000E+00
         0.00000E+00
         0.00000E+00
         0.00000E+00
         0.00000E+00
         0.00000E+00
         0.00000E+00
         0.00000E+00
         0.00000E+00
         0.00000E+00
         0.00000E+00
         0.00000E+00
         0.00000E+00
         0.00000E+00
         0.00000E+00
         0.00000E+00
         0.00000E+00
         0.00000E+00
         0.00000E+00
         0.00000E+00
         0.00000E+00
         0.00000E+00
         0.00000E+00
         0.00000E+00
         0.00000E+00
         0.00000E+00
         0.00000E+00
         0.00000E+00
         0.00000E+00
         0.00000E+00
         0.00000E+00
         0.00000E+00
         0.00000E+00
         0.00000E+00
         0.00000E+00
         0.00000E+00
         0.00000E+00
         0.00000E+00
         0.00000E+00
         0.00000E+00
         0.00000E+00
         0.00000E+00
         0.00000E+00
         0.00000E+00
         0.00000E+00
         0.00000E+00
         0.00000E+00
         0.00000E+00
         0.00000E+00
         0.00000E+00
         0.00000E+00
         0.00000E+00
         0.00000E+00
         0.00000E+00
         0.00000E+00
         0.00000E+00
         0.00000E+00
         0.00000E+00
         0.00000E+00
         0.00000E+00
         0.00000E+00
         0.00000E+00
         0.00000E+00
         0.00000E+00
         0.00000E+00
         0.00000E+00
         0.00000E+00
         0.00000E+00
         0.00000E+00
         0.00000E+00
         0.00000E+00
         0.00000E+00
         0.00000E+00
         0.00000E+00
         0.00000E+00
         0.00000E+00
         0.00000E+00
         0.00000E+00
         0.00000E+00
         0.00000E+00
         0.00000E+00
         0.00000E+00
         0.00000E+00
         0.00000E+00
         0.00000E+00
         0.00000E+00
         0.00000E+00
         0.00000E+00
         0.00000E+00
         0.00000E+00
         0.00000E+00
         0.00000E+00
         0.00000E+00
         0.00000E+00
         0.00000E+00
         0.00000E+00
         0.00000E+00
         0.00000E+00
         0.00000E+00
         0.00000E+00
         0.00000E+00
         0.00000E+00
         0.00000E+00
         0.00000E+00
         0.00000E+00
         0.00000E+00
         0.00000E+00
         0.00000E+00
         0.00000E+00
         0.00000E+00
         0.00000E+00
         0.00000E+00
         0.00000E+00
         0.00000E+00
         0.00000E+00
         0.00000E+00
         0.00000E+00
         0.00000E+00
         0.00000E+00
         0.00000E+00
         0.00000E+00
         0.00000E+00
         0.00000E+00
         0.00000E+00
         0.00000E+00
         0.00000E+00
         0.00000E+00
         0.00000E+00
         0.00000E+00
         0.00000E+00
         0.00000E+00
         0.00000E+00
         0.00000E+00
         0.00000E+00
         0.00000E+00
         0.00000E+00
         0.00000E+00
         0.00000E+00
         0.00000E+00
         0.00000E+00
         0.00000E+00
         0.00000E+00
         0.00000E+00
         0.00000E+00
         0.00000E+00
         0.00000E+00
         0.00000E+00
         0.00000E+00
         0.00000E+00
         0.00000E+00
         0.00000E+00
         0.00000E+00
         0.00000E+00
         0.00000E+00
         0.00000E+00
         0.00000E+00
         0.00000E+00
         0.00000E+00
         0.00000E+00
         0.00000E+00
         0.00000E+00
         0.00000E+00
         0.00000E+00
         0.00000E+00
         0.00000E+00
         0.00000E+00
         0.00000E+00
         0.00000E+00
         0.00000E+00
         0.00000E+00
         0.00000E+00
         0.00000E+00
         0.00000E+00
         0.00000E+00
         0.00000E+00
         0.00000E+00
         0.00000E+00
         0.00000E+00
         0.00000E+00
         0.00000E+00
         0.00000E+00
         0.00000E+00
         0.00000E+00
         0.00000E+00
         0.00000E+00
         0.00000E+00
         0.00000E+00
         0.00000E+00
         0.00000E+00
         0.00000E+00
         0.00000E+00
         0.00000E+00
         0.00000E+00
         0.00000E+00
         0.00000E+00
         0.00000E+00
         0.00000E+00
         0.00000E+00
         0.00000E+00
         0.00000E+00
         0.00000E+00
         0.00000E+00
         0.00000E+00
         0.00000E+00
         0.00000E+00
         0.00000E+00
         0.00000E+00
         0.00000E+00
         0.00000E+00
         0.00000E+00
         0.00000E+00
         0.00000E+00
         0.00000E+00
         0.00000E+00
         0.00000E+00
         0.00000E+00
         0.00000E+00
         0.00000E+00
         0.00000E+00
         0.00000E+00
         0.00000E+00
         0.00000E+00
         0.00000E+00
         0.00000E+00
         0.00000E+00
         0.00000E+00
         0.00000E+00
         0.00000E+00
         0.00000E+00
         0.00000E+00
         0.00000E+00
         0.00000E+00
         0.00000E+00
         0.00000E+00
         0.00000E+00
         0.00000E+00
         0.00000E+00
         0.00000E+00
         0.00000E+00
         0.00000E+00
         0.00000E+00
         0.00000E+00
         0.00000E+00
         0.00000E+00
         0.00000E+00
         0.00000E+00
         0.00000E+00
         0.00000E+00
         0.00000E+00
         0.00000E+00
         0.00000E+00
         0.00000E+00
         0.00000E+00
         0.00000E+00
         0.00000E+00
         0.00000E+00
         0.00000E+00
         0.00000E+00
         0.00000E+00
         0.00000E+00
         0.00000E+00
         0.00000E+00
         0.00000E+00
         0.00000E+00
         0.00000E+00
         0.00000E+00
         0.00000E+00
         0.00000E+00
         0.00000E+00
         0.00000E+00
         0.00000E+00
         0.00000E+00
         0.00000E+00
         0.00000E+00
         0.00000E+00
         0.00000E+00
         0.00000E+00
         0.00000E+00
         0.00000E+00
         0.00000E+00
         0.00000E+00
         0.00000E+00
         0.00000E+00
         0.00000E+00
         0.00000E+00
         0.00000E+00
         0.00000E+00
         0.00000E+00
         0.00000E+00
         0.00000E+00
         0.00000E+00
         0.00000E+00
         0.00000E+00
         0.00000E+00
         0.00000E+00
         0.00000E+00
         0.00000E+00
         0.00000E+00
         0.00000E+00
         0.00000E+00
         0.00000E+00
         0.00000E+00
         0.00000E+00
         0.00000E+00
         0.00000E+00
         0.00000E+00
         0.00000E+00
         0.00000E+00
         0.00000E+00
         0.00000E+00
         0.00000E+00
         0.00000E+00
         0.00000E+00
         0.00000E+00
         0.00000E+00
         0.00000E+00
         0.00000E+00
         0.00000E+00
         0.00000E+00
         0.00000E+00
         0.00000E+00
         0.00000E+00
         0.00000E+00
         0.00000E+00
         0.00000E+00
         0.00000E+00
         0.00000E+00
         0.00000E+00
         0.00000E+00
         0.00000E+00
         0.00000E+00
         0.00000E+00
         0.00000E+00
         0.00000E+00
         0.00000E+00
         0.00000E+00
         0.00000E+00
         0.00000E+00
         0.00000E+00
         0.00000E+00
         0.00000E+00
         0.00000E+00
         0.00000E+00
         0.00000E+00
         0.00000E+00
         0.00000E+00
         0.00000E+00
         0.00000E+00
         0.00000E+00
         0.00000E+00
         0.00000E+00
         0.00000E+00
         0.00000E+00
         0.00000E+00
         0.00000E+00
         0.00000E+00
         0.00000E+00
         0.00000E+00
         0.00000E+00
         0.00000E+00
         0.00000E+00
         0.00000E+00
         0.00000E+00
         0.00000E+00
         0.00000E+00
         0.00000E+00
         0.00000E+00
         0.00000E+00
         0.00000E+00
         0.00000E+00
         0.00000E+00
         0.00000E+00
         0.00000E+00
         0.00000E+00
         0.00000E+00
         0.00000E+00
         0.00000E+00
         0.00000E+00
         0.00000E+00
         0.00000E+00
         0.00000E+00
         0.00000E+00
         0.00000E+00
         0.00000E+00
         0.00000E+00
         0.00000E+00
         0.00000E+00
         0.00000E+00
         0.00000E+00
         0.00000E+00
         0.00000E+00
         0.00000E+00
         0.00000E+00
         0.00000E+00
         0.00000E+00
         0.00000E+00
         0.00000E+00
         0.00000E+00
         0.00000E+00
         0.00000E+00
         0.00000E+00
         0.00000E+00
         0.00000E+00
         0.00000E+00
         0.00000E+00
         0.00000E+00
         0.00000E+00
         0.00000E+00
         0.00000E+00
         0.00000E+00
         0.00000E+00
         0.00000E+00
         0.00000E+00
         0.00000E+00
         0.00000E+00
         0.00000E+00
         0.00000E+00
         0.00000E+00
         0.00000E+00
         0.00000E+00
         0.00000E+00
         0.00000E+00
         0.00000E+00
         0.00000E+00
         0.00000E+00
         0.00000E+00
         0.00000E+00
         0.00000E+00
         0.00000E+00
         0.00000E+00
         0.00000E+00
         0.00000E+00
         0.00000E+00
         0.00000E+00
         0.00000E+00
         0.00000E+00
         0.00000E+00
         0.00000E+00
         0.00000E+00
         0.00000E+00
         0.00000E+00
         0.00000E+00
         0.00000E+00
         0.00000E+00
         0.00000E+00
         0.00000E+00
         0.00000E+00
         0.00000E+00
         0.00000E+00
         0.00000E+00
         0.00000E+00
         0.00000E+00
         0.00000E+00
         0.00000E+00
         0.00000E+00
         0.00000E+00
         0.00000E+00
         0.00000E+00
         0.00000E+00
         0.00000E+00
         0.00000E+00
         0.00000E+00
         0.00000E+00
         0.00000E+00
         0.00000E+00
         0.00000E+00
         0.00000E+00
         0.00000E+00
         0.00000E+00
         0.00000E+00
         0.00000E+00
         0.00000E+00
         0.00000E+00
         0.00000E+00
         0.00000E+00
         0.00000E+00
         0.00000E+00
         0.00000E+00
         0.00000E+00
         0.00000E+00
         0.00000E+00
         0.00000E+00
         0.00000E+00
         0.00000E+00
         0.00000E+00
         0.00000E+00
         0.00000E+00
         0.00000E+00
         0.00000E+00
         0.00000E+00
         0.00000E+00
         0.00000E+00
         0.00000E+00
         0.00000E+00
         0.00000E+00
         0.00000E+00
         0.00000E+00
         0.00000E+00
         0.00000E+00
         0.00000E+00
         0.00000E+00
         0.00000E+00
         0.00000E+00
         0.00000E+00
         0.00000E+00
         0.00000E+00
         0.00000E+00
         0.00000E+00
         0.00000E+00
         0.00000E+00
         0.00000E+00
         0.00000E+00
         0.00000E+00
         0.00000E+00
         0.00000E+00
         0.00000E+00
         0.00000E+00
         0.00000E+00
         0.00000E+00
         0.00000E+00
         0.00000E+00
         0.00000E+00
         0.00000E+00
         0.00000E+00
         0.00000E+00
         0.00000E+00
         0.00000E+00
         0.00000E+00
         0.00000E+00
         0.00000E+00
         0.00000E+00
         0.00000E+00
         0.00000E+00
         0.00000E+00
         0.00000E+00
         0.00000E+00
         0.00000E+00
         0.00000E+00
         0.00000E+00
         0.00000E+00
         0.00000E+00
         0.00000E+00
         0.00000E+00
         0.00000E+00
         0.00000E+00
         0.00000E+00
         0.00000E+00
         0.00000E+00
         0.00000E+00
         0.00000E+00
         0.00000E+00
         0.00000E+00
         0.00000E+00
         0.00000E+00
         0.00000E+00
         0.00000E+00
         0.00000E+00
         0.00000E+00
         0.00000E+00
         0.00000E+00
         0.00000E+00
         0.00000E+00
         0.00000E+00
         0.00000E+00
         0.00000E+00
         0.00000E+00
         0.00000E+00
         0.00000E+00
         0.00000E+00
         0.00000E+00
         0.00000E+00
         0.00000E+00
         0.00000E+00
         0.00000E+00
         0.00000E+00
         0.00000E+00
         0.00000E+00
         0.00000E+00
         0.00000E+00
         0.00000E+00
         0.00000E+00
         0.00000E+00
         0.00000E+00
         0.00000E+00
         0.00000E+00
         0.00000E+00
         0.00000E+00
         0.00000E+00
         0.00000E+00
         0.00000E+00
         0.00000E+00
         0.00000E+00
         0.00000E+00
         0.00000E+00
         0.00000E+00
         0.00000E+00
         0.00000E+00
         0.00000E+00
         0.00000E+00
         0.00000E+00
         0.00000E+00
         0.00000E+00
         0.00000E+00
         0.00000E+00
         0.00000E+00
         0.00000E+00
         0.00000E+00
         0.00000E+00
         0.00000E+00
         0.00000E+00
         0.00000E+00
         0.00000E+00
         0.00000E+00
         0.00000E+00
         0.00000E+00
         0.00000E+00
         0.00000E+00
         0.00000E+00
         0.00000E+00
         0.00000E+00
         0.00000E+00
         0.00000E+00
         0.00000E+00
         0.00000E+00
         0.00000E+00
         0.00000E+00
         0.00000E+00
         0.00000E+00
         0.00000E+00
         0.00000E+00
         0.00000E+00
         0.00000E+00
         0.00000E+00
         0.00000E+00
         0.00000E+00
         0.00000E+00
         0.00000E+00
         0.00000E+00
         0.00000E+00
         0.00000E+00
         0.00000E+00
         0.00000E+00
         0.00000E+00
         0.00000E+00
         0.00000E+00
         0.00000E+00
         0.00000E+00
         0.00000E+00
         0.00000E+00
         0.00000E+00
         0.00000E+00
         0.00000E+00
         0.00000E+00
         0.00000E+00
         0.00000E+00
         0.00000E+00
         0.00000E+00
         0.00000E+00
         0.00000E+00
         0.00000E+00
         0.00000E+00
         0.00000E+00
         0.00000E+00
         0.00000E+00
         0.00000E+00
         0.00000E+00
         0.00000E+00
         0.00000E+00
         0.00000E+00
         0.00000E+00
         0.00000E+00
         0.00000E+00
         0.00000E+00
         0.00000E+00
         0.00000E+00
         0.00000E+00
         0.00000E+00
         0.00000E+00
         0.00000E+00
         0.00000E+00
         0.00000E+00
         0.00000E+00
         0.00000E+00
         0.00000E+00
         0.00000E+00
         0.00000E+00
         0.00000E+00
         0.00000E+00
         0.00000E+00
         0.00000E+00
         0.00000E+00
         0.00000E+00
         0.00000E+00
         0.00000E+00
         0.00000E+00
         0.00000E+00
         0.00000E+00
         0.00000E+00
         0.00000E+00
         0.00000E+00
         0.00000E+00
         0.00000E+00
         0.00000E+00
         0.00000E+00
         0.00000E+00
         0.00000E+00
         0.00000E+00
         0.00000E+00
         0.00000E+00
         0.00000E+00
         0.00000E+00
         0.00000E+00
         0.00000E+00
         0.00000E+00
         0.00000E+00
         0.00000E+00
         0.00000E+00
         0.00000E+00
         0.00000E+00
         0.00000E+00
         0.00000E+00
         0.00000E+00
         0.00000E+00
         0.00000E+00
         0.00000E+00
         0.00000E+00
         0.00000E+00
         0.00000E+00
         0.00000E+00
         0.00000E+00
         0.00000E+00
         0.00000E+00
         0.00000E+00
         0.00000E+00
         0.00000E+00
         0.00000E+00
         0.00000E+00
         0.00000E+00
         0.00000E+00
         0.00000E+00
         0.00000E+00
         0.00000E+00
         0.00000E+00
         0.00000E+00
         0.00000E+00
         0.00000E+00
         0.00000E+00
         0.00000E+00
         0.00000E+00
         0.00000E+00
         0.00000E+00
         0.00000E+00
         0.00000E+00
         0.00000E+00
         0.00000E+00
         0.00000E+00
         0.00000E+00
         0.00000E+00
         0.00000E+00
         0.00000E+00
         0.00000E+00
         0.00000E+00
         0.00000E+00
         0.00000E+00
         0.00000E+00
         0.00000E+00
         0.00000E+00
         0.00000E+00
         0.00000E+00
         0.00000E+00
         0.00000E+00
         0.00000E+00
         0.00000E+00
         0.00000E+00
         0.00000E+00
         0.00000E+00
         0.00000E+00
         0.00000E+00
         0.00000E+00
         0.00000E+00
         0.00000E+00
         0.00000E+00
         0.00000E+00
         0.00000E+00
         0.00000E+00
         0.00000E+00
         0.00000E+00
         0.00000E+00
         0.00000E+00
         0.00000E+00
         0.00000E+00
         0.00000E+00
         0.00000E+00
         0.00000E+00
         0.00000E+00
         0.00000E+00
         0.00000E+00
         0.00000E+00
         0.00000E+00
         0.00000E+00
         0.00000E+00
         0.00000E+00
         0.00000E+00
         0.00000E+00
         0.00000E+00
         0.00000E+00
         0.00000E+00
         0.00000E+00
         0.00000E+00
         0.00000E+00
         0.00000E+00
         0.00000E+00
         0.00000E+00
         0.00000E+00
         0.00000E+00
         0.00000E+00
         0.00000E+00
         0.00000E+00
         0.00000E+00
         0.00000E+00
         0.00000E+00
         0.00000E+00
         0.00000E+00
         0.00000E+00
         0.00000E+00
         0.00000E+00
         0.00000E+00
         0.00000E+00
         0.00000E+00
         0.00000E+00
         0.00000E+00
         0.00000E+00
         0.00000E+00
         0.00000E+00
         0.00000E+00
         0.00000E+00
         0.00000E+00
         0.00000E+00
         0.00000E+00
         0.00000E+00
         0.00000E+00
         0.00000E+00
         0.00000E+00
         0.00000E+00
         0.00000E+00
         0.00000E+00
         0.00000E+00
         0.00000E+00
         0.00000E+00
         0.00000E+00
         0.00000E+00
         0.00000E+00
         0.00000E+00
         0.00000E+00
         0.00000E+00
         0.00000E+00
         0.00000E+00
         0.00000E+00
         0.00000E+00
         0.00000E+00
         0.00000E+00
         0.00000E+00
         0.00000E+00
         0.00000E+00
         0.00000E+00
         0.00000E+00
         0.00000E+00
         0.00000E+00
         0.00000E+00
         0.00000E+00
         0.00000E+00
         0.00000E+00
         0.00000E+00
         0.00000E+00
         0.00000E+00
         0.00000E+00
         0.00000E+00
         0.00000E+00
         0.00000E+00
         0.00000E+00
         0.00000E+00
         0.00000E+00
         0.00000E+00
         0.00000E+00
         0.00000E+00
         0.00000E+00
         0.00000E+00
         0.00000E+00
         0.00000E+00
         0.00000E+00
         0.00000E+00
         0.00000E+00
         0.00000E+00
         0.00000E+00
         0.00000E+00
         0.00000E+00
         0.00000E+00
         0.00000E+00
         0.00000E+00
         0.00000E+00
         0.00000E+00
         0.00000E+00
         0.00000E+00
         0.00000E+00
         0.00000E+00
         0.00000E+00
         0.00000E+00
         0.00000E+00
         0.00000E+00
         0.00000E+00
         0.00000E+00
         0.00000E+00
         0.00000E+00
         0.00000E+00
         0.00000E+00
         0.00000E+00
         0.00000E+00
         0.00000E+00
         0.00000E+00
         0.00000E+00
         0.00000E+00
         0.00000E+00
         0.00000E+00
         0.00000E+00
         0.00000E+00
         0.00000E+00
         0.00000E+00
         0.00000E+00
         0.00000E+00
         0.00000E+00
         0.00000E+00
         0.00000E+00
         0.00000E+00
         0.00000E+00
         0.00000E+00
         0.00000E+00
         0.00000E+00
         0.00000E+00
         0.00000E+00
         0.00000E+00
         0.00000E+00
         0.00000E+00
         0.00000E+00
         0.00000E+00
         0.00000E+00
         0.00000E+00
         0.00000E+00
         0.00000E+00
         0.00000E+00
         0.00000E+00
         0.00000E+00
         0.00000E+00
         0.00000E+00
         0.00000E+00
         0.00000E+00
         0.00000E+00
         0.00000E+00
         0.00000E+00
         0.00000E+00
         0.00000E+00
         0.00000E+00
         0.00000E+00
         0.00000E+00
         0.00000E+00
         0.00000E+00
         0.00000E+00
         0.00000E+00
         0.00000E+00
         0.00000E+00
         0.00000E+00
         0.00000E+00
         0.00000E+00
         0.00000E+00
         0.00000E+00
         0.00000E+00
         0.00000E+00
         0.00000E+00
         0.00000E+00
         0.00000E+00
         0.00000E+00
         0.00000E+00
         0.00000E+00
         0.00000E+00
         0.00000E+00
         0.00000E+00
         0.00000E+00
         0.00000E+00
         0.00000E+00
         0.00000E+00
         0.00000E+00
         0.00000E+00
         0.00000E+00
         0.00000E+00
         0.00000E+00
         0.00000E+00
         0.00000E+00
         0.00000E+00
         0.00000E+00
         0.00000E+00
         0.00000E+00
         0.00000E+00
         0.00000E+00
         0.00000E+00
         0.00000E+00
         0.00000E+00
         0.00000E+00
         0.00000E+00
         0.00000E+00
         0.00000E+00
         0.00000E+00
         0.00000E+00
         0.00000E+00
         0.00000E+00
         0.00000E+00
         0.00000E+00
         0.00000E+00
         0.00000E+00
         0.00000E+00
         0.00000E+00
         0.00000E+00
         0.00000E+00
         0.00000E+00
         0.00000E+00
         0.00000E+00
         0.00000E+00
         0.00000E+00
         0.00000E+00
         0.00000E+00
         0.00000E+00
         0.00000E+00
         0.00000E+00
         0.00000E+00
         0.00000E+00
         0.00000E+00
         0.00000E+00
         0.00000E+00
         0.00000E+00
         0.00000E+00
         0.00000E+00
         0.00000E+00
         0.00000E+00
         0.00000E+00
         0.00000E+00
         0.00000E+00
         0.00000E+00
         0.00000E+00
         0.00000E+00
         0.00000E+00
         0.00000E+00
         0.00000E+00
         0.00000E+00
         0.00000E+00
         0.00000E+00
         0.00000E+00
         0.00000E+00
         0.00000E+00
         0.00000E+00
         0.00000E+00
         0.00000E+00
         0.00000E+00
         0.00000E+00
         0.00000E+00
         0.00000E+00
         0.00000E+00
         0.00000E+00
         0.00000E+00
         0.00000E+00
         0.00000E+00
         0.00000E+00
         0.00000E+00
         0.00000E+00
         0.00000E+00
         0.00000E+00
         0.00000E+00
         0.00000E+00
         0.00000E+00
         0.00000E+00
         0.00000E+00
         0.00000E+00
         0.00000E+00
         0.00000E+00
         0.00000E+00
         0.00000E+00
         0.00000E+00
         0.00000E+00
         0.00000E+00
         0.00000E+00
         0.00000E+00
         0.00000E+00
         0.00000E+00
         0.00000E+00
         0.00000E+00
         0.00000E+00
         0.00000E+00
         0.00000E+00
         0.00000E+00
         0.00000E+00
         0.00000E+00
         0.00000E+00
         0.00000E+00
         0.00000E+00
         0.00000E+00
         0.00000E+00
         0.00000E+00
         0.00000E+00
         0.00000E+00
         0.00000E+00
         0.00000E+00
         0.00000E+00
         0.00000E+00
         0.00000E+00
         0.00000E+00
         0.00000E+00
         0.00000E+00
         0.00000E+00
         0.00000E+00
         0.00000E+00
         0.00000E+00
         0.00000E+00
         0.00000E+00
         0.00000E+00
         0.00000E+00
         0.00000E+00
         0.00000E+00
         0.00000E+00
         0.00000E+00
         0.00000E+00
         0.00000E+00
         0.00000E+00
         0.00000E+00
         0.00000E+00
         0.00000E+00
         0.00000E+00
         0.00000E+00
         0.00000E+00
         0.00000E+00
         0.00000E+00
         0.00000E+00
         0.00000E+00
         0.00000E+00
         0.00000E+00
         0.00000E+00
         0.00000E+00
         0.00000E+00
         0.00000E+00
         0.00000E+00
         0.00000E+00
         0.00000E+00
         0.00000E+00
         0.00000E+00
         0.00000E+00
         0.00000E+00
         0.00000E+00
         0.00000E+00
         0.00000E+00
         0.00000E+00
         0.00000E+00
         0.00000E+00
         0.00000E+00
         0.00000E+00
         0.00000E+00
         0.00000E+00
         0.00000E+00
         0.00000E+00
         0.00000E+00
         0.00000E+00
         0.00000E+00
         0.00000E+00
         0.00000E+00
         0.00000E+00
         0.00000E+00
         0.00000E+00
         0.00000E+00
         0.00000E+00
         0.00000E+00
         0.00000E+00
         0.00000E+00
         0.00000E+00
         0.00000E+00
         0.00000E+00
         0.00000E+00
         0.00000E+00
         0.00000E+00
         0.00000E+00
         0.00000E+00
         0.00000E+00
         0.00000E+00
         0.00000E+00
         0.00000E+00
         0.00000E+00
         0.00000E+00
         0.00000E+00
         0.00000E+00
         0.00000E+00
         0.00000E+00
         0.00000E+00
         0.00000E+00
         0.00000E+00
         0.00000E+00
         0.00000E+00
         0.00000E+00
         0.00000E+00
         0.00000E+00
         0.00000E+00
         0.00000E+00
         0.00000E+00
         0.00000E+00
         0.00000E+00
         0.00000E+00
         0.00000E+00
         0.00000E+00
         0.00000E+00
         0.00000E+00
         0.00000E+00
         0.00000E+00
         0.00000E+00
         0.00000E+00
         0.00000E+00
         0.00000E+00
         0.00000E+00
         0.00000E+00
         0.00000E+00
         0.00000E+00
         0.00000E+00
         0.00000E+00
         0.00000E+00
         0.00000E+00
         0.00000E+00
         0.00000E+00
         0.00000E+00
         0.00000E+00
         0.00000E+00
         0.00000E+00
         0.00000E+00
         0.00000E+00
         0.00000E+00
         0.00000E+00
         0.00000E+00
         0.00000E+00
         0.00000E+00
         0.00000E+00
         0.00000E+00
         0.00000E+00
         0.00000E+00
         0.00000E+00
         0.00000E+00
         0.00000E+00
         0.00000E+00
         0.00000E+00
         0.00000E+00
         0.00000E+00
         0.00000E+00
         0.00000E+00
         0.00000E+00
         0.00000E+00
         0.00000E+00
         0.00000E+00
         0.00000E+00
         0.00000E+00
         0.00000E+00
         0.00000E+00
         0.00000E+00
         0.00000E+00
         0.00000E+00
         0.00000E+00
         0.00000E+00
         0.00000E+00
         0.00000E+00
         0.00000E+00
         0.00000E+00
         0.00000E+00
         0.00000E+00
         0.00000E+00
         0.00000E+00
         0.00000E+00
         0.00000E+00
         0.00000E+00
         0.00000E+00
         0.00000E+00
         0.00000E+00
         0.00000E+00
         0.00000E+00
         0.00000E+00
         0.00000E+00
         0.00000E+00
         0.00000E+00
         0.00000E+00
         0.00000E+00
         0.00000E+00
         0.00000E+00
         0.00000E+00
         0.00000E+00
         0.00000E+00
         0.00000E+00
         0.00000E+00
         0.00000E+00
         0.00000E+00
         0.00000E+00
         0.00000E+00
         0.00000E+00
         0.00000E+00
         0.00000E+00
         0.00000E+00
         0.00000E+00
         0.00000E+00
         0.00000E+00
         0.00000E+00
         0.00000E+00
         0.00000E+00
         0.00000E+00
         0.00000E+00
         0.00000E+00
         0.00000E+00
         0.00000E+00
         0.00000E+00
         0.00000E+00
         0.00000E+00
         0.00000E+00
         0.00000E+00
         0.00000E+00
         0.00000E+00
         0.00000E+00
         0.00000E+00
         0.00000E+00
         0.00000E+00
         0.00000E+00
         0.00000E+00
         0.00000E+00
         0.00000E+00
         0.00000E+00
         0.00000E+00
         0.00000E+00
         0.00000E+00
         0.00000E+00
         0.00000E+00
         0.00000E+00
         0.00000E+00
         0.00000E+00
         0.00000E+00
         0.00000E+00
         0.00000E+00
         0.00000E+00
         0.00000E+00
         0.00000E+00
         0.00000E+00
         0.00000E+00
         0.00000E+00
         0.00000E+00
         0.00000E+00
         0.00000E+00
         0.00000E+00
         0.00000E+00
         0.00000E+00
         0.00000E+00
         0.00000E+00
         0.00000E+00
         0.00000E+00
         0.00000E+00
         0.00000E+00
         0.00000E+00
         0.00000E+00
         0.00000E+00
         0.00000E+00
         0.00000E+00
         0.00000E+00
         0.00000E+00
         0.00000E+00
         0.00000E+00
         0.00000E+00
         0.00000E+00
         0.00000E+00
         0.00000E+00
         0.00000E+00
         0.00000E+00
         0.00000E+00
         0.00000E+00
         0.00000E+00
         0.00000E+00
         0.00000E+00
         0.00000E+00
         0.00000E+00
         0.00000E+00
         0.00000E+00
         0.00000E+00
         0.00000E+00
         0.00000E+00
         0.00000E+00
         0.00000E+00
         0.00000E+00
         0.00000E+00
         0.00000E+00
         0.00000E+00
         0.00000E+00
         0.00000E+00
         0.00000E+00
         0.00000E+00
         0.00000E+00
         0.00000E+00
         0.00000E+00
         0.00000E+00
         0.00000E+00
         0.00000E+00
         0.00000E+00
         0.00000E+00
         0.00000E+00
         0.00000E+00
         0.00000E+00
         0.00000E+00
         0.00000E+00
         0.00000E+00
         0.00000E+00
         0.00000E+00
         0.00000E+00
         0.00000E+00
         0.00000E+00
         0.00000E+00
         0.00000E+00
         0.00000E+00
         0.00000E+00
         0.00000E+00
         0.00000E+00
         0.00000E+00
         0.00000E+00
         0.00000E+00
         0.00000E+00
         0.00000E+00
         0.00000E+00
         0.00000E+00
         0.00000E+00
         0.00000E+00
         0.00000E+00
         0.00000E+00
         0.00000E+00
         0.00000E+00
         0.00000E+00
         0.00000E+00
         0.00000E+00
         0.00000E+00
         0.00000E+00
         0.00000E+00
         0.00000E+00
         0.00000E+00
         0.00000E+00
         0.00000E+00
         0.00000E+00
         0.00000E+00
         0.00000E+00
         0.00000E+00
         0.00000E+00
         0.00000E+00
         0.00000E+00
         0.00000E+00
         0.00000E+00
         0.00000E+00
         0.00000E+00
         0.00000E+00
         0.00000E+00
         0.00000E+00
         0.00000E+00
         0.00000E+00
         0.00000E+00
         0.00000E+00
         0.00000E+00
         0.00000E+00
         0.00000E+00
         0.00000E+00
         0.00000E+00
         0.00000E+00
         0.00000E+00
         0.00000E+00
         0.00000E+00
         0.00000E+00
         0.00000E+00
         0.00000E+00
         0.00000E+00
         0.00000E+00
         0.00000E+00
         0.00000E+00
         0.00000E+00
         0.00000E+00
         0.00000E+00
         0.00000E+00
         0.00000E+00
         0.00000E+00
         0.00000E+00
         0.00000E+00
         0.00000E+00
         0.00000E+00
         0.00000E+00
         0.00000E+00
         0.00000E+00
         0.00000E+00
         0.00000E+00
         0.00000E+00
         0.00000E+00
         0.00000E+00
         0.00000E+00
         0.00000E+00
         0.00000E+00
         0.00000E+00
         0.00000E+00
         0.00000E+00
         0.00000E+00
         0.00000E+00
         0.00000E+00
         0.00000E+00
         0.00000E+00
         0.00000E+00
         0.00000E+00
         0.00000E+00
         0.00000E+00
         0.00000E+00
         0.00000E+00
         0.00000E+00
         0.00000E+00
         0.00000E+00
         0.00000E+00
         0.00000E+00
         0.00000E+00
         0.00000E+00
         0.00000E+00
         0.00000E+00
         0.00000E+00
         0.00000E+00
         0.00000E+00
         0.00000E+00
         0.00000E+00
         0.00000E+00
         0.00000E+00
         0.00000E+00
         0.00000E+00
         0.00000E+00
         0.00000E+00
         0.00000E+00
         0.00000E+00
         0.00000E+00
         0.00000E+00
         0.00000E+00
         0.00000E+00
         0.00000E+00
         0.00000E+00
         0.00000E+00
         0.00000E+00
         0.00000E+00
         0.00000E+00
         0.00000E+00
         0.00000E+00
         0.00000E+00
         0.00000E+00
         0.00000E+00
         0.00000E+00
         0.00000E+00
         0.00000E+00
         0.00000E+00
         0.00000E+00
         0.00000E+00
         0.00000E+00
         0.00000E+00
         0.00000E+00
         0.00000E+00
         0.00000E+00
         0.00000E+00
         0.00000E+00
         0.00000E+00
         0.00000E+00
         0.00000E+00
         0.00000E+00
         0.00000E+00
         0.00000E+00
         0.00000E+00
         0.00000E+00
         0.00000E+00
         0.00000E+00
         0.00000E+00
         0.00000E+00
         0.00000E+00
         0.00000E+00
         0.00000E+00
         0.00000E+00
         0.00000E+00
         0.00000E+00
         0.00000E+00
         0.00000E+00
         0.00000E+00
         0.00000E+00
         0.00000E+00
         0.00000E+00
         0.00000E+00
         0.00000E+00
         0.00000E+00
         0.00000E+00
         0.00000E+00
         0.00000E+00
         0.00000E+00
         0.00000E+00
         0.00000E+00
         0.00000E+00
         0.00000E+00
         0.00000E+00
         0.00000E+00
         0.00000E+00
         0.00000E+00
         0.00000E+00
         0.00000E+00
         0.00000E+00
         0.00000E+00
         0.00000E+00
         0.00000E+00
         0.00000E+00
         0.00000E+00
         0.00000E+00
         0.00000E+00
         0.00000E+00
         0.00000E+00
         0.00000E+00
         0.00000E+00
         0.00000E+00
         0.00000E+00
         0.00000E+00
         0.00000E+00
         0.00000E+00
         0.00000E+00
         0.00000E+00
         0.00000E+00
         0.00000E+00
         0.00000E+00
         0.00000E+00
         0.00000E+00
         0.00000E+00
         0.00000E+00
         0.00000E+00
         0.00000E+00
         0.00000E+00
         0.00000E+00
         0.00000E+00
         0.00000E+00
         0.00000E+00
         0.00000E+00
         0.00000E+00
         0.00000E+00
         0.00000E+00
         0.00000E+00
         0.00000E+00
         0.00000E+00
         0.00000E+00
         0.00000E+00
         0.00000E+00
         0.00000E+00
         0.00000E+00
         0.00000E+00
         0.00000E+00
         0.00000E+00
         0.00000E+00
         0.00000E+00
         0.00000E+00
         0.00000E+00
         0.00000E+00
         0.00000E+00
         0.00000E+00
         0.00000E+00
         0.00000E+00
         0.00000E+00
         0.00000E+00
         0.00000E+00
         0.00000E+00
         0.00000E+00
         0.00000E+00
         0.00000E+00
         0.00000E+00
         0.00000E+00
         0.00000E+00
         0.00000E+00
         0.00000E+00
         0.00000E+00
         0.00000E+00
         0.00000E+00
         0.00000E+00
         0.00000E+00
         0.00000E+00
         0.00000E+00
         0.00000E+00
         0.00000E+00
         0.00000E+00
         0.00000E+00
         0.00000E+00
         0.00000E+00
         0.00000E+00
         0.00000E+00
         0.00000E+00
         0.00000E+00
         0.00000E+00
         0.00000E+00
         0.00000E+00
         0.00000E+00
         0.00000E+00
         0.00000E+00
         0.00000E+00
         0.00000E+00
         0.00000E+00
         0.00000E+00
         0.00000E+00
         0.00000E+00
         0.00000E+00
         0.00000E+00
         0.00000E+00
         0.00000E+00
         0.00000E+00
         0.00000E+00
         0.00000E+00
         0.00000E+00
         0.00000E+00
         0.00000E+00
         0.00000E+00
         0.00000E+00
         0.00000E+00
         0.00000E+00
         0.00000E+00
         0.00000E+00
         0.00000E+00
         0.00000E+00
         0.00000E+00
         0.00000E+00
         0.00000E+00
         0.00000E+00
         0.00000E+00
         0.00000E+00
         0.00000E+00
         0.00000E+00
         0.00000E+00
         0.00000E+00
         0.00000E+00
         0.00000E+00
         0.00000E+00
         0.00000E+00
         0.00000E+00
         0.00000E+00
         0.00000E+00
         0.00000E+00
         0.00000E+00
         0.00000E+00
         0.00000E+00
         0.00000E+00
         0.00000E+00
         0.00000E+00
         0.00000E+00
         0.00000E+00
         0.00000E+00
         0.00000E+00
         0.00000E+00
         0.00000E+00
         0.00000E+00
         0.00000E+00
         0.00000E+00
         0.00000E+00
         0.00000E+00
         0.00000E+00
         0.00000E+00
         0.00000E+00
         0.00000E+00
         0.00000E+00
         0.00000E+00
         0.00000E+00
         0.00000E+00
         0.00000E+00
         0.00000E+00
         0.00000E+00
         0.00000E+00
         0.00000E+00
  
SCALARS                      stress_xx  double 1
LOOKUP_TABLE default
         0.00000E+00
         0.00000E+00
         0.00000E+00
         0.00000E+00
         0.00000E+00
         0.00000E+00
         0.00000E+00
         0.00000E+00
         0.00000E+00
         0.00000E+00
         0.00000E+00
         0.00000E+00
         0.00000E+00
         0.00000E+00
         0.00000E+00
         0.00000E+00
         0.00000E+00
         0.00000E+00
         0.00000E+00
         0.00000E+00
         0.00000E+00
         0.00000E+00
         0.00000E+00
         0.00000E+00
         0.00000E+00
         0.00000E+00
         0.00000E+00
         0.00000E+00
         0.00000E+00
         0.00000E+00
         0.00000E+00
         0.00000E+00
         0.00000E+00
         0.00000E+00
         0.00000E+00
         0.00000E+00
         0.00000E+00
         0.00000E+00
         0.00000E+00
         0.00000E+00
         0.00000E+00
         0.00000E+00
         0.00000E+00
         0.00000E+00
         0.00000E+00
         0.00000E+00
         0.00000E+00
         0.00000E+00
         0.00000E+00
         0.00000E+00
         0.00000E+00
         0.00000E+00
         0.00000E+00
         0.00000E+00
         0.00000E+00
         0.00000E+00
         0.00000E+00
         0.00000E+00
         0.00000E+00
         0.00000E+00
         0.00000E+00
         0.00000E+00
         0.00000E+00
         0.00000E+00
         0.00000E+00
         0.00000E+00
         0.00000E+00
         0.00000E+00
         0.00000E+00
         0.00000E+00
         0.00000E+00
         0.00000E+00
         0.00000E+00
         0.00000E+00
         0.00000E+00
         0.00000E+00
         0.00000E+00
         0.00000E+00
         0.00000E+00
         0.00000E+00
         0.00000E+00
         0.00000E+00
         0.00000E+00
         0.00000E+00
         0.00000E+00
         0.00000E+00
         0.00000E+00
         0.00000E+00
         0.00000E+00
         0.00000E+00
         0.00000E+00
         0.00000E+00
         0.00000E+00
         0.00000E+00
         0.00000E+00
         0.00000E+00
         0.00000E+00
         0.00000E+00
         0.00000E+00
         0.00000E+00
         0.00000E+00
         0.00000E+00
         0.00000E+00
         0.00000E+00
         0.00000E+00
         0.00000E+00
         0.00000E+00
         0.00000E+00
         0.00000E+00
         0.00000E+00
         0.00000E+00
         0.00000E+00
         0.00000E+00
         0.00000E+00
         0.00000E+00
         0.00000E+00
         0.00000E+00
         0.00000E+00
         0.00000E+00
         0.00000E+00
         0.00000E+00
         0.00000E+00
         0.00000E+00
         0.00000E+00
         0.00000E+00
         0.00000E+00
         0.00000E+00
         0.00000E+00
         0.00000E+00
         0.00000E+00
         0.00000E+00
         0.00000E+00
         0.00000E+00
         0.00000E+00
         0.00000E+00
         0.00000E+00
         0.00000E+00
         0.00000E+00
         0.00000E+00
         0.00000E+00
         0.00000E+00
         0.00000E+00
         0.00000E+00
         0.00000E+00
         0.00000E+00
         0.00000E+00
         0.00000E+00
         0.00000E+00
         0.00000E+00
         0.00000E+00
         0.00000E+00
         0.00000E+00
         0.00000E+00
         0.00000E+00
         0.00000E+00
         0.00000E+00
         0.00000E+00
         0.00000E+00
         0.00000E+00
         0.00000E+00
         0.00000E+00
         0.00000E+00
         0.00000E+00
         0.00000E+00
         0.00000E+00
         0.00000E+00
         0.00000E+00
         0.00000E+00
         0.00000E+00
         0.00000E+00
         0.00000E+00
         0.00000E+00
         0.00000E+00
         0.00000E+00
         0.00000E+00
         0.00000E+00
         0.00000E+00
         0.00000E+00
         0.00000E+00
         0.00000E+00
         0.00000E+00
         0.00000E+00
         0.00000E+00
         0.00000E+00
         0.00000E+00
         0.00000E+00
         0.00000E+00
         0.00000E+00
         0.00000E+00
         0.00000E+00
         0.00000E+00
         0.00000E+00
         0.00000E+00
         0.00000E+00
         0.00000E+00
         0.00000E+00
         0.00000E+00
         0.00000E+00
         0.00000E+00
         0.00000E+00
         0.00000E+00
         0.00000E+00
         0.00000E+00
         0.00000E+00
         0.00000E+00
         0.00000E+00
         0.00000E+00
         0.00000E+00
         0.00000E+00
         0.00000E+00
         0.00000E+00
         0.00000E+00
         0.00000E+00
         0.00000E+00
         0.00000E+00
         0.00000E+00
         0.00000E+00
         0.00000E+00
         0.00000E+00
         0.00000E+00
         0.00000E+00
         0.00000E+00
         0.00000E+00
         0.00000E+00
         0.00000E+00
         0.00000E+00
         0.00000E+00
         0.00000E+00
         0.00000E+00
         0.00000E+00
         0.00000E+00
         0.00000E+00
         0.00000E+00
         0.00000E+00
         0.00000E+00
         0.00000E+00
         0.00000E+00
         0.00000E+00
         0.00000E+00
         0.00000E+00
         0.00000E+00
         0.00000E+00
         0.00000E+00
         0.00000E+00
         0.00000E+00
         0.00000E+00
         0.00000E+00
         0.00000E+00
         0.00000E+00
         0.00000E+00
         0.00000E+00
         0.00000E+00
         0.00000E+00
         0.00000E+00
         0.00000E+00
         0.00000E+00
         0.00000E+00
         0.00000E+00
         0.00000E+00
         0.00000E+00
         0.00000E+00
         0.00000E+00
         0.00000E+00
         0.00000E+00
         0.00000E+00
         0.00000E+00
         0.00000E+00
         0.00000E+00
         0.00000E+00
         0.00000E+00
         0.00000E+00
         0.00000E+00
         0.00000E+00
         0.00000E+00
         0.00000E+00
         0.00000E+00
         0.00000E+00
         0.00000E+00
         0.00000E+00
         0.00000E+00
         0.00000E+00
         0.00000E+00
         0.00000E+00
         0.00000E+00
         0.00000E+00
         0.00000E+00
         0.00000E+00
         0.00000E+00
         0.00000E+00
         0.00000E+00
         0.00000E+00
         0.00000E+00
         0.00000E+00
         0.00000E+00
         0.00000E+00
         0.00000E+00
         0.00000E+00
         0.00000E+00
         0.00000E+00
         0.00000E+00
         0.00000E+00
         0.00000E+00
         0.00000E+00
         0.00000E+00
         0.00000E+00
         0.00000E+00
         0.00000E+00
         0.00000E+00
         0.00000E+00
         0.00000E+00
         0.00000E+00
         0.00000E+00
         0.00000E+00
         0.00000E+00
         0.00000E+00
         0.00000E+00
         0.00000E+00
         0.00000E+00
         0.00000E+00
         0.00000E+00
         0.00000E+00
         0.00000E+00
         0.00000E+00
         0.00000E+00
         0.00000E+00
         0.00000E+00
         0.00000E+00
         0.00000E+00
         0.00000E+00
         0.00000E+00
         0.00000E+00
         0.00000E+00
         0.00000E+00
         0.00000E+00
         0.00000E+00
         0.00000E+00
         0.00000E+00
         0.00000E+00
         0.00000E+00
         0.00000E+00
         0.00000E+00
         0.00000E+00
         0.00000E+00
         0.00000E+00
         0.00000E+00
         0.00000E+00
         0.00000E+00
         0.00000E+00
         0.00000E+00
         0.00000E+00
         0.00000E+00
         0.00000E+00
         0.00000E+00
         0.00000E+00
         0.00000E+00
         0.00000E+00
         0.00000E+00
         0.00000E+00
         0.00000E+00
         0.00000E+00
         0.00000E+00
         0.00000E+00
         0.00000E+00
         0.00000E+00
         0.00000E+00
         0.00000E+00
         0.00000E+00
         0.00000E+00
         0.00000E+00
         0.00000E+00
         0.00000E+00
         0.00000E+00
         0.00000E+00
         0.00000E+00
         0.00000E+00
         0.00000E+00
         0.00000E+00
         0.00000E+00
         0.00000E+00
         0.00000E+00
         0.00000E+00
         0.00000E+00
         0.00000E+00
         0.00000E+00
         0.00000E+00
         0.00000E+00
         0.00000E+00
         0.00000E+00
         0.00000E+00
         0.00000E+00
         0.00000E+00
         0.00000E+00
         0.00000E+00
         0.00000E+00
         0.00000E+00
         0.00000E+00
         0.00000E+00
         0.00000E+00
         0.00000E+00
         0.00000E+00
         0.00000E+00
         0.00000E+00
         0.00000E+00
         0.00000E+00
         0.00000E+00
         0.00000E+00
         0.00000E+00
         0.00000E+00
         0.00000E+00
         0.00000E+00
         0.00000E+00
         0.00000E+00
         0.00000E+00
         0.00000E+00
         0.00000E+00
         0.00000E+00
         0.00000E+00
         0.00000E+00
         0.00000E+00
         0.00000E+00
         0.00000E+00
         0.00000E+00
         0.00000E+00
         0.00000E+00
         0.00000E+00
         0.00000E+00
         0.00000E+00
         0.00000E+00
         0.00000E+00
         0.00000E+00
         0.00000E+00
         0.00000E+00
         0.00000E+00
         0.00000E+00
         0.00000E+00
         0.00000E+00
         0.00000E+00
         0.00000E+00
         0.00000E+00
         0.00000E+00
         0.00000E+00
         0.00000E+00
         0.00000E+00
         0.00000E+00
         0.00000E+00
         0.00000E+00
         0.00000E+00
         0.00000E+00
         0.00000E+00
         0.00000E+00
         0.00000E+00
         0.00000E+00
         0.00000E+00
         0.00000E+00
         0.00000E+00
         0.00000E+00
         0.00000E+00
         0.00000E+00
         0.00000E+00
         0.00000E+00
         0.00000E+00
         0.00000E+00
         0.00000E+00
         0.00000E+00
         0.00000E+00
         0.00000E+00
         0.00000E+00
         0.00000E+00
         0.00000E+00
         0.00000E+00
         0.00000E+00
         0.00000E+00
         0.00000E+00
         0.00000E+00
         0.00000E+00
         0.00000E+00
         0.00000E+00
         0.00000E+00
         0.00000E+00
         0.00000E+00
         0.00000E+00
         0.00000E+00
         0.00000E+00
         0.00000E+00
         0.00000E+00
         0.00000E+00
         0.00000E+00
         0.00000E+00
         0.00000E+00
         0.00000E+00
         0.00000E+00
         0.00000E+00
         0.00000E+00
         0.00000E+00
         0.00000E+00
         0.00000E+00
         0.00000E+00
         0.00000E+00
         0.00000E+00
         0.00000E+00
         0.00000E+00
         0.00000E+00
         0.00000E+00
         0.00000E+00
         0.00000E+00
         0.00000E+00
         0.00000E+00
         0.00000E+00
         0.00000E+00
         0.00000E+00
         0.00000E+00
         0.00000E+00
         0.00000E+00
         0.00000E+00
         0.00000E+00
         0.00000E+00
         0.00000E+00
         0.00000E+00
         0.00000E+00
         0.00000E+00
         0.00000E+00
         0.00000E+00
         0.00000E+00
         0.00000E+00
         0.00000E+00
         0.00000E+00
         0.00000E+00
         0.00000E+00
         0.00000E+00
         0.00000E+00
         0.00000E+00
         0.00000E+00
         0.00000E+00
         0.00000E+00
         0.00000E+00
         0.00000E+00
         0.00000E+00
         0.00000E+00
         0.00000E+00
         0.00000E+00
         0.00000E+00
         0.00000E+00
         0.00000E+00
         0.00000E+00
         0.00000E+00
         0.00000E+00
         0.00000E+00
         0.00000E+00
         0.00000E+00
         0.00000E+00
         0.00000E+00
         0.00000E+00
         0.00000E+00
         0.00000E+00
         0.00000E+00
         0.00000E+00
         0.00000E+00
         0.00000E+00
         0.00000E+00
         0.00000E+00
         0.00000E+00
         0.00000E+00
         0.00000E+00
         0.00000E+00
         0.00000E+00
         0.00000E+00
         0.00000E+00
         0.00000E+00
         0.00000E+00
         0.00000E+00
         0.00000E+00
         0.00000E+00
         0.00000E+00
         0.00000E+00
         0.00000E+00
         0.00000E+00
         0.00000E+00
         0.00000E+00
         0.00000E+00
         0.00000E+00
         0.00000E+00
         0.00000E+00
         0.00000E+00
         0.00000E+00
         0.00000E+00
         0.00000E+00
         0.00000E+00
         0.00000E+00
         0.00000E+00
         0.00000E+00
         0.00000E+00
         0.00000E+00
         0.00000E+00
         0.00000E+00
         0.00000E+00
         0.00000E+00
         0.00000E+00
         0.00000E+00
         0.00000E+00
         0.00000E+00
         0.00000E+00
         0.00000E+00
         0.00000E+00
         0.00000E+00
         0.00000E+00
         0.00000E+00
         0.00000E+00
         0.00000E+00
         0.00000E+00
         0.00000E+00
         0.00000E+00
         0.00000E+00
         0.00000E+00
         0.00000E+00
         0.00000E+00
         0.00000E+00
         0.00000E+00
         0.00000E+00
         0.00000E+00
         0.00000E+00
         0.00000E+00
         0.00000E+00
         0.00000E+00
         0.00000E+00
         0.00000E+00
         0.00000E+00
         0.00000E+00
         0.00000E+00
         0.00000E+00
         0.00000E+00
         0.00000E+00
         0.00000E+00
         0.00000E+00
         0.00000E+00
         0.00000E+00
         0.00000E+00
         0.00000E+00
         0.00000E+00
         0.00000E+00
         0.00000E+00
         0.00000E+00
         0.00000E+00
         0.00000E+00
         0.00000E+00
         0.00000E+00
         0.00000E+00
         0.00000E+00
         0.00000E+00
         0.00000E+00
         0.00000E+00
         0.00000E+00
         0.00000E+00
         0.00000E+00
         0.00000E+00
         0.00000E+00
         0.00000E+00
         0.00000E+00
         0.00000E+00
         0.00000E+00
         0.00000E+00
         0.00000E+00
         0.00000E+00
         0.00000E+00
         0.00000E+00
         0.00000E+00
         0.00000E+00
         0.00000E+00
         0.00000E+00
         0.00000E+00
         0.00000E+00
         0.00000E+00
         0.00000E+00
         0.00000E+00
         0.00000E+00
         0.00000E+00
         0.00000E+00
         0.00000E+00
         0.00000E+00
         0.00000E+00
         0.00000E+00
         0.00000E+00
         0.00000E+00
         0.00000E+00
         0.00000E+00
         0.00000E+00
         0.00000E+00
         0.00000E+00
         0.00000E+00
         0.00000E+00
         0.00000E+00
         0.00000E+00
         0.00000E+00
         0.00000E+00
         0.00000E+00
         0.00000E+00
         0.00000E+00
         0.00000E+00
         0.00000E+00
         0.00000E+00
         0.00000E+00
         0.00000E+00
         0.00000E+00
         0.00000E+00
         0.00000E+00
         0.00000E+00
         0.00000E+00
         0.00000E+00
         0.00000E+00
         0.00000E+00
         0.00000E+00
         0.00000E+00
         0.00000E+00
         0.00000E+00
         0.00000E+00
         0.00000E+00
         0.00000E+00
         0.00000E+00
         0.00000E+00
         0.00000E+00
         0.00000E+00
         0.00000E+00
         0.00000E+00
         0.00000E+00
         0.00000E+00
         0.00000E+00
         0.00000E+00
         0.00000E+00
         0.00000E+00
         0.00000E+00
         0.00000E+00
         0.00000E+00
         0.00000E+00
         0.00000E+00
         0.00000E+00
         0.00000E+00
         0.00000E+00
         0.00000E+00
         0.00000E+00
         0.00000E+00
         0.00000E+00
         0.00000E+00
         0.00000E+00
         0.00000E+00
         0.00000E+00
         0.00000E+00
         0.00000E+00
         0.00000E+00
         0.00000E+00
         0.00000E+00
         0.00000E+00
         0.00000E+00
         0.00000E+00
         0.00000E+00
         0.00000E+00
         0.00000E+00
         0.00000E+00
         0.00000E+00
         0.00000E+00
         0.00000E+00
         0.00000E+00
         0.00000E+00
         0.00000E+00
         0.00000E+00
         0.00000E+00
         0.00000E+00
         0.00000E+00
         0.00000E+00
         0.00000E+00
         0.00000E+00
         0.00000E+00
         0.00000E+00
         0.00000E+00
         0.00000E+00
         0.00000E+00
         0.00000E+00
         0.00000E+00
         0.00000E+00
         0.00000E+00
         0.00000E+00
         0.00000E+00
         0.00000E+00
         0.00000E+00
         0.00000E+00
         0.00000E+00
         0.00000E+00
         0.00000E+00
         0.00000E+00
         0.00000E+00
         0.00000E+00
         0.00000E+00
         0.00000E+00
         0.00000E+00
         0.00000E+00
         0.00000E+00
         0.00000E+00
         0.00000E+00
         0.00000E+00
         0.00000E+00
         0.00000E+00
         0.00000E+00
         0.00000E+00
         0.00000E+00
         0.00000E+00
         0.00000E+00
         0.00000E+00
         0.00000E+00
         0.00000E+00
         0.00000E+00
         0.00000E+00
         0.00000E+00
         0.00000E+00
         0.00000E+00
         0.00000E+00
         0.00000E+00
         0.00000E+00
         0.00000E+00
         0.00000E+00
         0.00000E+00
         0.00000E+00
         0.00000E+00
         0.00000E+00
         0.00000E+00
         0.00000E+00
         0.00000E+00
         0.00000E+00
         0.00000E+00
         0.00000E+00
         0.00000E+00
         0.00000E+00
         0.00000E+00
         0.00000E+00
         0.00000E+00
         0.00000E+00
         0.00000E+00
         0.00000E+00
         0.00000E+00
         0.00000E+00
         0.00000E+00
         0.00000E+00
         0.00000E+00
         0.00000E+00
         0.00000E+00
         0.00000E+00
         0.00000E+00
         0.00000E+00
         0.00000E+00
         0.00000E+00
         0.00000E+00
         0.00000E+00
         0.00000E+00
         0.00000E+00
         0.00000E+00
         0.00000E+00
         0.00000E+00
         0.00000E+00
         0.00000E+00
         0.00000E+00
         0.00000E+00
         0.00000E+00
         0.00000E+00
         0.00000E+00
         0.00000E+00
         0.00000E+00
         0.00000E+00
         0.00000E+00
         0.00000E+00
         0.00000E+00
         0.00000E+00
         0.00000E+00
         0.00000E+00
         0.00000E+00
         0.00000E+00
         0.00000E+00
         0.00000E+00
         0.00000E+00
         0.00000E+00
         0.00000E+00
         0.00000E+00
         0.00000E+00
         0.00000E+00
         0.00000E+00
         0.00000E+00
         0.00000E+00
         0.00000E+00
         0.00000E+00
         0.00000E+00
         0.00000E+00
         0.00000E+00
         0.00000E+00
         0.00000E+00
         0.00000E+00
         0.00000E+00
         0.00000E+00
         0.00000E+00
         0.00000E+00
         0.00000E+00
         0.00000E+00
         0.00000E+00
         0.00000E+00
         0.00000E+00
         0.00000E+00
         0.00000E+00
         0.00000E+00
         0.00000E+00
         0.00000E+00
         0.00000E+00
         0.00000E+00
         0.00000E+00
         0.00000E+00
         0.00000E+00
         0.00000E+00
         0.00000E+00
         0.00000E+00
         0.00000E+00
         0.00000E+00
         0.00000E+00
         0.00000E+00
         0.00000E+00
         0.00000E+00
         0.00000E+00
         0.00000E+00
         0.00000E+00
         0.00000E+00
         0.00000E+00
         0.00000E+00
         0.00000E+00
         0.00000E+00
         0.00000E+00
         0.00000E+00
         0.00000E+00
         0.00000E+00
         0.00000E+00
         0.00000E+00
         0.00000E+00
         0.00000E+00
         0.00000E+00
         0.00000E+00
         0.00000E+00
         0.00000E+00
         0.00000E+00
         0.00000E+00
         0.00000E+00
         0.00000E+00
         0.00000E+00
         0.00000E+00
         0.00000E+00
         0.00000E+00
         0.00000E+00
         0.00000E+00
         0.00000E+00
         0.00000E+00
         0.00000E+00
         0.00000E+00
         0.00000E+00
         0.00000E+00
         0.00000E+00
         0.00000E+00
         0.00000E+00
         0.00000E+00
         0.00000E+00
         0.00000E+00
         0.00000E+00
         0.00000E+00
         0.00000E+00
         0.00000E+00
         0.00000E+00
         0.00000E+00
         0.00000E+00
         0.00000E+00
         0.00000E+00
         0.00000E+00
         0.00000E+00
         0.00000E+00
         0.00000E+00
         0.00000E+00
         0.00000E+00
         0.00000E+00
         0.00000E+00
         0.00000E+00
         0.00000E+00
         0.00000E+00
         0.00000E+00
         0.00000E+00
         0.00000E+00
         0.00000E+00
         0.00000E+00
         0.00000E+00
         0.00000E+00
         0.00000E+00
         0.00000E+00
         0.00000E+00
         0.00000E+00
         0.00000E+00
         0.00000E+00
         0.00000E+00
         0.00000E+00
         0.00000E+00
         0.00000E+00
         0.00000E+00
         0.00000E+00
         0.00000E+00
         0.00000E+00
         0.00000E+00
         0.00000E+00
         0.00000E+00
         0.00000E+00
         0.00000E+00
         0.00000E+00
         0.00000E+00
         0.00000E+00
         0.00000E+00
         0.00000E+00
         0.00000E+00
         0.00000E+00
         0.00000E+00
         0.00000E+00
         0.00000E+00
         0.00000E+00
         0.00000E+00
         0.00000E+00
         0.00000E+00
         0.00000E+00
         0.00000E+00
         0.00000E+00
         0.00000E+00
         0.00000E+00
         0.00000E+00
         0.00000E+00
         0.00000E+00
         0.00000E+00
         0.00000E+00
         0.00000E+00
         0.00000E+00
         0.00000E+00
         0.00000E+00
         0.00000E+00
         0.00000E+00
         0.00000E+00
         0.00000E+00
         0.00000E+00
         0.00000E+00
         0.00000E+00
         0.00000E+00
         0.00000E+00
         0.00000E+00
         0.00000E+00
         0.00000E+00
         0.00000E+00
         0.00000E+00
         0.00000E+00
         0.00000E+00
         0.00000E+00
         0.00000E+00
         0.00000E+00
         0.00000E+00
         0.00000E+00
         0.00000E+00
         0.00000E+00
         0.00000E+00
         0.00000E+00
         0.00000E+00
         0.00000E+00
         0.00000E+00
         0.00000E+00
         0.00000E+00
         0.00000E+00
         0.00000E+00
         0.00000E+00
         0.00000E+00
         0.00000E+00
         0.00000E+00
         0.00000E+00
         0.00000E+00
         0.00000E+00
         0.00000E+00
         0.00000E+00
         0.00000E+00
         0.00000E+00
         0.00000E+00
         0.00000E+00
         0.00000E+00
         0.00000E+00
         0.00000E+00
         0.00000E+00
         0.00000E+00
         0.00000E+00
         0.00000E+00
         0.00000E+00
         0.00000E+00
         0.00000E+00
         0.00000E+00
         0.00000E+00
         0.00000E+00
         0.00000E+00
         0.00000E+00
         0.00000E+00
         0.00000E+00
         0.00000E+00
         0.00000E+00
         0.00000E+00
         0.00000E+00
         0.00000E+00
         0.00000E+00
         0.00000E+00
         0.00000E+00
         0.00000E+00
         0.00000E+00
         0.00000E+00
         0.00000E+00
         0.00000E+00
         0.00000E+00
         0.00000E+00
         0.00000E+00
         0.00000E+00
         0.00000E+00
         0.00000E+00
         0.00000E+00
         0.00000E+00
         0.00000E+00
         0.00000E+00
         0.00000E+00
         0.00000E+00
         0.00000E+00
         0.00000E+00
         0.00000E+00
         0.00000E+00
         0.00000E+00
         0.00000E+00
         0.00000E+00
         0.00000E+00
         0.00000E+00
         0.00000E+00
         0.00000E+00
         0.00000E+00
         0.00000E+00
         0.00000E+00
         0.00000E+00
         0.00000E+00
         0.00000E+00
         0.00000E+00
         0.00000E+00
         0.00000E+00
         0.00000E+00
         0.00000E+00
         0.00000E+00
         0.00000E+00
         0.00000E+00
         0.00000E+00
         0.00000E+00
         0.00000E+00
         0.00000E+00
         0.00000E+00
         0.00000E+00
         0.00000E+00
         0.00000E+00
         0.00000E+00
         0.00000E+00
         0.00000E+00
         0.00000E+00
         0.00000E+00
         0.00000E+00
         0.00000E+00
         0.00000E+00
         0.00000E+00
         0.00000E+00
         0.00000E+00
         0.00000E+00
         0.00000E+00
         0.00000E+00
         0.00000E+00
         0.00000E+00
         0.00000E+00
         0.00000E+00
         0.00000E+00
         0.00000E+00
         0.00000E+00
         0.00000E+00
         0.00000E+00
         0.00000E+00
         0.00000E+00
         0.00000E+00
         0.00000E+00
         0.00000E+00
         0.00000E+00
         0.00000E+00
         0.00000E+00
         0.00000E+00
         0.00000E+00
         0.00000E+00
         0.00000E+00
         0.00000E+00
         0.00000E+00
         0.00000E+00
         0.00000E+00
         0.00000E+00
         0.00000E+00
         0.00000E+00
         0.00000E+00
         0.00000E+00
         0.00000E+00
         0.00000E+00
         0.00000E+00
         0.00000E+00
         0.00000E+00
         0.00000E+00
         0.00000E+00
         0.00000E+00
         0.00000E+00
         0.00000E+00
         0.00000E+00
         0.00000E+00
         0.00000E+00
         0.00000E+00
         0.00000E+00
         0.00000E+00
         0.00000E+00
         0.00000E+00
         0.00000E+00
         0.00000E+00
         0.00000E+00
         0.00000E+00
         0.00000E+00
         0.00000E+00
         0.00000E+00
         0.00000E+00
         0.00000E+00
         0.00000E+00
         0.00000E+00
         0.00000E+00
         0.00000E+00
         0.00000E+00
         0.00000E+00
         0.00000E+00
         0.00000E+00
         0.00000E+00
         0.00000E+00
         0.00000E+00
         0.00000E+00
         0.00000E+00
         0.00000E+00
         0.00000E+00
         0.00000E+00
         0.00000E+00
         0.00000E+00
         0.00000E+00
         0.00000E+00
         0.00000E+00
         0.00000E+00
         0.00000E+00
         0.00000E+00
         0.00000E+00
         0.00000E+00
         0.00000E+00
         0.00000E+00
         0.00000E+00
         0.00000E+00
         0.00000E+00
         0.00000E+00
         0.00000E+00
         0.00000E+00
         0.00000E+00
         0.00000E+00
         0.00000E+00
         0.00000E+00
         0.00000E+00
         0.00000E+00
         0.00000E+00
         0.00000E+00
         0.00000E+00
         0.00000E+00
         0.00000E+00
         0.00000E+00
         0.00000E+00
         0.00000E+00
         0.00000E+00
         0.00000E+00
         0.00000E+00
         0.00000E+00
         0.00000E+00
         0.00000E+00
         0.00000E+00
         0.00000E+00
         0.00000E+00
         0.00000E+00
         0.00000E+00
         0.00000E+00
         0.00000E+00
         0.00000E+00
         0.00000E+00
         0.00000E+00
         0.00000E+00
         0.00000E+00
         0.00000E+00
         0.00000E+00
         0.00000E+00
         0.00000E+00
         0.00000E+00
         0.00000E+00
         0.00000E+00
         0.00000E+00
         0.00000E+00
         0.00000E+00
         0.00000E+00
         0.00000E+00
         0.00000E+00
         0.00000E+00
         0.00000E+00
         0.00000E+00
         0.00000E+00
         0.00000E+00
         0.00000E+00
         0.00000E+00
         0.00000E+00
         0.00000E+00
         0.00000E+00
         0.00000E+00
         0.00000E+00
         0.00000E+00
         0.00000E+00
         0.00000E+00
         0.00000E+00
         0.00000E+00
         0.00000E+00
         0.00000E+00
         0.00000E+00
         0.00000E+00
         0.00000E+00
         0.00000E+00
         0.00000E+00
         0.00000E+00
         0.00000E+00
         0.00000E+00
         0.00000E+00
         0.00000E+00
         0.00000E+00
         0.00000E+00
         0.00000E+00
         0.00000E+00
         0.00000E+00
         0.00000E+00
         0.00000E+00
         0.00000E+00
         0.00000E+00
         0.00000E+00
         0.00000E+00
         0.00000E+00
         0.00000E+00
         0.00000E+00
         0.00000E+00
         0.00000E+00
         0.00000E+00
         0.00000E+00
         0.00000E+00
         0.00000E+00
         0.00000E+00
         0.00000E+00
         0.00000E+00
         0.00000E+00
         0.00000E+00
         0.00000E+00
         0.00000E+00
         0.00000E+00
         0.00000E+00
         0.00000E+00
         0.00000E+00
         0.00000E+00
         0.00000E+00
         0.00000E+00
         0.00000E+00
         0.00000E+00
         0.00000E+00
         0.00000E+00
         0.00000E+00
         0.00000E+00
         0.00000E+00
         0.00000E+00
         0.00000E+00
         0.00000E+00
         0.00000E+00
         0.00000E+00
         0.00000E+00
         0.00000E+00
         0.00000E+00
         0.00000E+00
         0.00000E+00
         0.00000E+00
         0.00000E+00
         0.00000E+00
         0.00000E+00
         0.00000E+00
         0.00000E+00
         0.00000E+00
         0.00000E+00
         0.00000E+00
         0.00000E+00
         0.00000E+00
         0.00000E+00
         0.00000E+00
         0.00000E+00
         0.00000E+00
         0.00000E+00
         0.00000E+00
         0.00000E+00
         0.00000E+00
         0.00000E+00
         0.00000E+00
         0.00000E+00
         0.00000E+00
         0.00000E+00
         0.00000E+00
         0.00000E+00
         0.00000E+00
         0.00000E+00
         0.00000E+00
         0.00000E+00
         0.00000E+00
         0.00000E+00
         0.00000E+00
         0.00000E+00
         0.00000E+00
         0.00000E+00
         0.00000E+00
         0.00000E+00
         0.00000E+00
         0.00000E+00
         0.00000E+00
         0.00000E+00
         0.00000E+00
         0.00000E+00
         0.00000E+00
         0.00000E+00
         0.00000E+00
         0.00000E+00
         0.00000E+00
         0.00000E+00
         0.00000E+00
         0.00000E+00
         0.00000E+00
         0.00000E+00
         0.00000E+00
         0.00000E+00
         0.00000E+00
         0.00000E+00
         0.00000E+00
         0.00000E+00
         0.00000E+00
         0.00000E+00
         0.00000E+00
         0.00000E+00
         0.00000E+00
         0.00000E+00
         0.00000E+00
         0.00000E+00
         0.00000E+00
         0.00000E+00
         0.00000E+00
         0.00000E+00
         0.00000E+00
         0.00000E+00
         0.00000E+00
         0.00000E+00
         0.00000E+00
         0.00000E+00
         0.00000E+00
         0.00000E+00
         0.00000E+00
         0.00000E+00
         0.00000E+00
         0.00000E+00
         0.00000E+00
         0.00000E+00
         0.00000E+00
         0.00000E+00
         0.00000E+00
         0.00000E+00
         0.00000E+00
         0.00000E+00
         0.00000E+00
         0.00000E+00
         0.00000E+00
         0.00000E+00
         0.00000E+00
         0.00000E+00
         0.00000E+00
         0.00000E+00
         0.00000E+00
         0.00000E+00
         0.00000E+00
         0.00000E+00
         0.00000E+00
         0.00000E+00
         0.00000E+00
         0.00000E+00
         0.00000E+00
         0.00000E+00
         0.00000E+00
         0.00000E+00
         0.00000E+00
         0.00000E+00
         0.00000E+00
         0.00000E+00
         0.00000E+00
         0.00000E+00
         0.00000E+00
         0.00000E+00
         0.00000E+00
         0.00000E+00
         0.00000E+00
         0.00000E+00
         0.00000E+00
         0.00000E+00
         0.00000E+00
         0.00000E+00
         0.00000E+00
         0.00000E+00
         0.00000E+00
         0.00000E+00
         0.00000E+00
         0.00000E+00
         0.00000E+00
         0.00000E+00
         0.00000E+00
         0.00000E+00
         0.00000E+00
         0.00000E+00
         0.00000E+00
         0.00000E+00
         0.00000E+00
         0.00000E+00
         0.00000E+00
         0.00000E+00
         0.00000E+00
         0.00000E+00
         0.00000E+00
         0.00000E+00
         0.00000E+00
         0.00000E+00
         0.00000E+00
         0.00000E+00
         0.00000E+00
         0.00000E+00
         0.00000E+00
         0.00000E+00
         0.00000E+00
         0.00000E+00
         0.00000E+00
         0.00000E+00
         0.00000E+00
         0.00000E+00
         0.00000E+00
         0.00000E+00
         0.00000E+00
         0.00000E+00
         0.00000E+00
         0.00000E+00
         0.00000E+00
         0.00000E+00
         0.00000E+00
         0.00000E+00
         0.00000E+00
         0.00000E+00
         0.00000E+00
         0.00000E+00
         0.00000E+00
         0.00000E+00
         0.00000E+00
         0.00000E+00
         0.00000E+00
         0.00000E+00
         0.00000E+00
         0.00000E+00
         0.00000E+00
         0.00000E+00
         0.00000E+00
         0.00000E+00
         0.00000E+00
         0.00000E+00
         0.00000E+00
         0.00000E+00
         0.00000E+00
         0.00000E+00
         0.00000E+00
         0.00000E+00
         0.00000E+00
         0.00000E+00
         0.00000E+00
         0.00000E+00
         0.00000E+00
         0.00000E+00
         0.00000E+00
         0.00000E+00
         0.00000E+00
         0.00000E+00
         0.00000E+00
         0.00000E+00
         0.00000E+00
         0.00000E+00
         0.00000E+00
         0.00000E+00
         0.00000E+00
         0.00000E+00
         0.00000E+00
         0.00000E+00
         0.00000E+00
         0.00000E+00
         0.00000E+00
         0.00000E+00
         0.00000E+00
         0.00000E+00
         0.00000E+00
         0.00000E+00
         0.00000E+00
         0.00000E+00
         0.00000E+00
         0.00000E+00
         0.00000E+00
         0.00000E+00
         0.00000E+00
         0.00000E+00
         0.00000E+00
         0.00000E+00
         0.00000E+00
         0.00000E+00
         0.00000E+00
         0.00000E+00
         0.00000E+00
         0.00000E+00
         0.00000E+00
         0.00000E+00
         0.00000E+00
         0.00000E+00
         0.00000E+00
         0.00000E+00
         0.00000E+00
         0.00000E+00
         0.00000E+00
         0.00000E+00
         0.00000E+00
         0.00000E+00
         0.00000E+00
         0.00000E+00
         0.00000E+00
         0.00000E+00
         0.00000E+00
         0.00000E+00
         0.00000E+00
         0.00000E+00
         0.00000E+00
         0.00000E+00
         0.00000E+00
         0.00000E+00
         0.00000E+00
         0.00000E+00
         0.00000E+00
         0.00000E+00
         0.00000E+00
         0.00000E+00
         0.00000E+00
         0.00000E+00
         0.00000E+00
         0.00000E+00
         0.00000E+00
         0.00000E+00
         0.00000E+00
         0.00000E+00
         0.00000E+00
         0.00000E+00
         0.00000E+00
         0.00000E+00
         0.00000E+00
         0.00000E+00
         0.00000E+00
         0.00000E+00
         0.00000E+00
         0.00000E+00
         0.00000E+00
         0.00000E+00
         0.00000E+00
         0.00000E+00
         0.00000E+00
         0.00000E+00
         0.00000E+00
         0.00000E+00
         0.00000E+00
         0.00000E+00
         0.00000E+00
         0.00000E+00
         0.00000E+00
         0.00000E+00
         0.00000E+00
         0.00000E+00
         0.00000E+00
         0.00000E+00
         0.00000E+00
         0.00000E+00
         0.00000E+00
         0.00000E+00
         0.00000E+00
         0.00000E+00
         0.00000E+00
         0.00000E+00
         0.00000E+00
         0.00000E+00
         0.00000E+00
         0.00000E+00
         0.00000E+00
         0.00000E+00
         0.00000E+00
         0.00000E+00
         0.00000E+00
         0.00000E+00
         0.00000E+00
         0.00000E+00
         0.00000E+00
         0.00000E+00
         0.00000E+00
         0.00000E+00
         0.00000E+00
         0.00000E+00
         0.00000E+00
         0.00000E+00
         0.00000E+00
         0.00000E+00
         0.00000E+00
         0.00000E+00
         0.00000E+00
         0.00000E+00
         0.00000E+00
         0.00000E+00
         0.00000E+00
         0.00000E+00
         0.00000E+00
         0.00000E+00
         0.00000E+00
         0.00000E+00
         0.00000E+00
         0.00000E+00
         0.00000E+00
         0.00000E+00
         0.00000E+00
         0.00000E+00
         0.00000E+00
         0.00000E+00
         0.00000E+00
         0.00000E+00
         0.00000E+00
         0.00000E+00
         0.00000E+00
         0.00000E+00
         0.00000E+00
         0.00000E+00
         0.00000E+00
         0.00000E+00
         0.00000E+00
         0.00000E+00
         0.00000E+00
         0.00000E+00
         0.00000E+00
         0.00000E+00
         0.00000E+00
         0.00000E+00
         0.00000E+00
         0.00000E+00
         0.00000E+00
         0.00000E+00
         0.00000E+00
         0.00000E+00
         0.00000E+00
         0.00000E+00
         0.00000E+00
         0.00000E+00
         0.00000E+00
         0.00000E+00
         0.00000E+00
         0.00000E+00
         0.00000E+00
         0.00000E+00
         0.00000E+00
         0.00000E+00
         0.00000E+00
         0.00000E+00
         0.00000E+00
         0.00000E+00
         0.00000E+00
         0.00000E+00
         0.00000E+00
         0.00000E+00
         0.00000E+00
         0.00000E+00
         0.00000E+00
         0.00000E+00
         0.00000E+00
         0.00000E+00
         0.00000E+00
         0.00000E+00
         0.00000E+00
         0.00000E+00
         0.00000E+00
         0.00000E+00
         0.00000E+00
         0.00000E+00
         0.00000E+00
         0.00000E+00
         0.00000E+00
         0.00000E+00
         0.00000E+00
         0.00000E+00
         0.00000E+00
         0.00000E+00
         0.00000E+00
         0.00000E+00
         0.00000E+00
         0.00000E+00
         0.00000E+00
         0.00000E+00
         0.00000E+00
         0.00000E+00
         0.00000E+00
         0.00000E+00
         0.00000E+00
         0.00000E+00
         0.00000E+00
         0.00000E+00
         0.00000E+00
         0.00000E+00
         0.00000E+00
         0.00000E+00
         0.00000E+00
         0.00000E+00
         0.00000E+00
         0.00000E+00
         0.00000E+00
         0.00000E+00
         0.00000E+00
         0.00000E+00
         0.00000E+00
         0.00000E+00
         0.00000E+00
         0.00000E+00
         0.00000E+00
         0.00000E+00
         0.00000E+00
         0.00000E+00
         0.00000E+00
         0.00000E+00
         0.00000E+00
         0.00000E+00
         0.00000E+00
         0.00000E+00
         0.00000E+00
         0.00000E+00
         0.00000E+00
         0.00000E+00
         0.00000E+00
         0.00000E+00
         0.00000E+00
         0.00000E+00
         0.00000E+00
         0.00000E+00
         0.00000E+00
         0.00000E+00
         0.00000E+00
         0.00000E+00
         0.00000E+00
         0.00000E+00
         0.00000E+00
         0.00000E+00
         0.00000E+00
         0.00000E+00
         0.00000E+00
         0.00000E+00
         0.00000E+00
         0.00000E+00
         0.00000E+00
         0.00000E+00
         0.00000E+00
         0.00000E+00
         0.00000E+00
         0.00000E+00
         0.00000E+00
         0.00000E+00
         0.00000E+00
         0.00000E+00
         0.00000E+00
         0.00000E+00
         0.00000E+00
         0.00000E+00
         0.00000E+00
         0.00000E+00
         0.00000E+00
         0.00000E+00
         0.00000E+00
         0.00000E+00
         0.00000E+00
         0.00000E+00
         0.00000E+00
         0.00000E+00
         0.00000E+00
         0.00000E+00
         0.00000E+00
         0.00000E+00
         0.00000E+00
         0.00000E+00
         0.00000E+00
         0.00000E+00
         0.00000E+00
         0.00000E+00
         0.00000E+00
         0.00000E+00
         0.00000E+00
         0.00000E+00
         0.00000E+00
         0.00000E+00
         0.00000E+00
         0.00000E+00
         0.00000E+00
         0.00000E+00
         0.00000E+00
         0.00000E+00
         0.00000E+00
         0.00000E+00
         0.00000E+00
         0.00000E+00
         0.00000E+00
         0.00000E+00
         0.00000E+00
         0.00000E+00
         0.00000E+00
         0.00000E+00
         0.00000E+00
         0.00000E+00
         0.00000E+00
         0.00000E+00
         0.00000E+00
         0.00000E+00
         0.00000E+00
         0.00000E+00
         0.00000E+00
         0.00000E+00
         0.00000E+00
         0.00000E+00
         0.00000E+00
         0.00000E+00
         0.00000E+00
         0.00000E+00
         0.00000E+00
         0.00000E+00
         0.00000E+00
         0.00000E+00
         0.00000E+00
  
SCALARS                      stress_yy  double 1
LOOKUP_TABLE default
         0.00000E+00
         0.00000E+00
         0.00000E+00
         0.00000E+00
         0.00000E+00
         0.00000E+00
         0.00000E+00
         0.00000E+00
         0.00000E+00
         0.00000E+00
         0.00000E+00
         0.00000E+00
         0.00000E+00
         0.00000E+00
         0.00000E+00
         0.00000E+00
         0.00000E+00
         0.00000E+00
         0.00000E+00
         0.00000E+00
         0.00000E+00
         0.00000E+00
         0.00000E+00
         0.00000E+00
         0.00000E+00
         0.00000E+00
         0.00000E+00
         0.00000E+00
         0.00000E+00
         0.00000E+00
         0.00000E+00
         0.00000E+00
         0.00000E+00
         0.00000E+00
         0.00000E+00
         0.00000E+00
         0.00000E+00
         0.00000E+00
         0.00000E+00
         0.00000E+00
         0.00000E+00
         0.00000E+00
         0.00000E+00
         0.00000E+00
         0.00000E+00
         0.00000E+00
         0.00000E+00
         0.00000E+00
         0.00000E+00
         0.00000E+00
         0.00000E+00
         0.00000E+00
         0.00000E+00
         0.00000E+00
         0.00000E+00
         0.00000E+00
         0.00000E+00
         0.00000E+00
         0.00000E+00
         0.00000E+00
         0.00000E+00
         0.00000E+00
         0.00000E+00
         0.00000E+00
         0.00000E+00
         0.00000E+00
         0.00000E+00
         0.00000E+00
         0.00000E+00
         0.00000E+00
         0.00000E+00
         0.00000E+00
         0.00000E+00
         0.00000E+00
         0.00000E+00
         0.00000E+00
         0.00000E+00
         0.00000E+00
         0.00000E+00
         0.00000E+00
         0.00000E+00
         0.00000E+00
         0.00000E+00
         0.00000E+00
         0.00000E+00
         0.00000E+00
         0.00000E+00
         0.00000E+00
         0.00000E+00
         0.00000E+00
         0.00000E+00
         0.00000E+00
         0.00000E+00
         0.00000E+00
         0.00000E+00
         0.00000E+00
         0.00000E+00
         0.00000E+00
         0.00000E+00
         0.00000E+00
         0.00000E+00
         0.00000E+00
         0.00000E+00
         0.00000E+00
         0.00000E+00
         0.00000E+00
         0.00000E+00
         0.00000E+00
         0.00000E+00
         0.00000E+00
         0.00000E+00
         0.00000E+00
         0.00000E+00
         0.00000E+00
         0.00000E+00
         0.00000E+00
         0.00000E+00
         0.00000E+00
         0.00000E+00
         0.00000E+00
         0.00000E+00
         0.00000E+00
         0.00000E+00
         0.00000E+00
         0.00000E+00
         0.00000E+00
         0.00000E+00
         0.00000E+00
         0.00000E+00
         0.00000E+00
         0.00000E+00
         0.00000E+00
         0.00000E+00
         0.00000E+00
         0.00000E+00
         0.00000E+00
         0.00000E+00
         0.00000E+00
         0.00000E+00
         0.00000E+00
         0.00000E+00
         0.00000E+00
         0.00000E+00
         0.00000E+00
         0.00000E+00
         0.00000E+00
         0.00000E+00
         0.00000E+00
         0.00000E+00
         0.00000E+00
         0.00000E+00
         0.00000E+00
         0.00000E+00
         0.00000E+00
         0.00000E+00
         0.00000E+00
         0.00000E+00
         0.00000E+00
         0.00000E+00
         0.00000E+00
         0.00000E+00
         0.00000E+00
         0.00000E+00
         0.00000E+00
         0.00000E+00
         0.00000E+00
         0.00000E+00
         0.00000E+00
         0.00000E+00
         0.00000E+00
         0.00000E+00
         0.00000E+00
         0.00000E+00
         0.00000E+00
         0.00000E+00
         0.00000E+00
         0.00000E+00
         0.00000E+00
         0.00000E+00
         0.00000E+00
         0.00000E+00
         0.00000E+00
         0.00000E+00
         0.00000E+00
         0.00000E+00
         0.00000E+00
         0.00000E+00
         0.00000E+00
         0.00000E+00
         0.00000E+00
         0.00000E+00
         0.00000E+00
         0.00000E+00
         0.00000E+00
         0.00000E+00
         0.00000E+00
         0.00000E+00
         0.00000E+00
         0.00000E+00
         0.00000E+00
         0.00000E+00
         0.00000E+00
         0.00000E+00
         0.00000E+00
         0.00000E+00
         0.00000E+00
         0.00000E+00
         0.00000E+00
         0.00000E+00
         0.00000E+00
         0.00000E+00
         0.00000E+00
         0.00000E+00
         0.00000E+00
         0.00000E+00
         0.00000E+00
         0.00000E+00
         0.00000E+00
         0.00000E+00
         0.00000E+00
         0.00000E+00
         0.00000E+00
         0.00000E+00
         0.00000E+00
         0.00000E+00
         0.00000E+00
         0.00000E+00
         0.00000E+00
         0.00000E+00
         0.00000E+00
         0.00000E+00
         0.00000E+00
         0.00000E+00
         0.00000E+00
         0.00000E+00
         0.00000E+00
         0.00000E+00
         0.00000E+00
         0.00000E+00
         0.00000E+00
         0.00000E+00
         0.00000E+00
         0.00000E+00
         0.00000E+00
         0.00000E+00
         0.00000E+00
         0.00000E+00
         0.00000E+00
         0.00000E+00
         0.00000E+00
         0.00000E+00
         0.00000E+00
         0.00000E+00
         0.00000E+00
         0.00000E+00
         0.00000E+00
         0.00000E+00
         0.00000E+00
         0.00000E+00
         0.00000E+00
         0.00000E+00
         0.00000E+00
         0.00000E+00
         0.00000E+00
         0.00000E+00
         0.00000E+00
         0.00000E+00
         0.00000E+00
         0.00000E+00
         0.00000E+00
         0.00000E+00
         0.00000E+00
         0.00000E+00
         0.00000E+00
         0.00000E+00
         0.00000E+00
         0.00000E+00
         0.00000E+00
         0.00000E+00
         0.00000E+00
         0.00000E+00
         0.00000E+00
         0.00000E+00
         0.00000E+00
         0.00000E+00
         0.00000E+00
         0.00000E+00
         0.00000E+00
         0.00000E+00
         0.00000E+00
         0.00000E+00
         0.00000E+00
         0.00000E+00
         0.00000E+00
         0.00000E+00
         0.00000E+00
         0.00000E+00
         0.00000E+00
         0.00000E+00
         0.00000E+00
         0.00000E+00
         0.00000E+00
         0.00000E+00
         0.00000E+00
         0.00000E+00
         0.00000E+00
         0.00000E+00
         0.00000E+00
         0.00000E+00
         0.00000E+00
         0.00000E+00
         0.00000E+00
         0.00000E+00
         0.00000E+00
         0.00000E+00
         0.00000E+00
         0.00000E+00
         0.00000E+00
         0.00000E+00
         0.00000E+00
         0.00000E+00
         0.00000E+00
         0.00000E+00
         0.00000E+00
         0.00000E+00
         0.00000E+00
         0.00000E+00
         0.00000E+00
         0.00000E+00
         0.00000E+00
         0.00000E+00
         0.00000E+00
         0.00000E+00
         0.00000E+00
         0.00000E+00
         0.00000E+00
         0.00000E+00
         0.00000E+00
         0.00000E+00
         0.00000E+00
         0.00000E+00
         0.00000E+00
         0.00000E+00
         0.00000E+00
         0.00000E+00
         0.00000E+00
         0.00000E+00
         0.00000E+00
         0.00000E+00
         0.00000E+00
         0.00000E+00
         0.00000E+00
         0.00000E+00
         0.00000E+00
         0.00000E+00
         0.00000E+00
         0.00000E+00
         0.00000E+00
         0.00000E+00
         0.00000E+00
         0.00000E+00
         0.00000E+00
         0.00000E+00
         0.00000E+00
         0.00000E+00
         0.00000E+00
         0.00000E+00
         0.00000E+00
         0.00000E+00
         0.00000E+00
         0.00000E+00
         0.00000E+00
         0.00000E+00
         0.00000E+00
         0.00000E+00
         0.00000E+00
         0.00000E+00
         0.00000E+00
         0.00000E+00
         0.00000E+00
         0.00000E+00
         0.00000E+00
         0.00000E+00
         0.00000E+00
         0.00000E+00
         0.00000E+00
         0.00000E+00
         0.00000E+00
         0.00000E+00
         0.00000E+00
         0.00000E+00
         0.00000E+00
         0.00000E+00
         0.00000E+00
         0.00000E+00
         0.00000E+00
         0.00000E+00
         0.00000E+00
         0.00000E+00
         0.00000E+00
         0.00000E+00
         0.00000E+00
         0.00000E+00
         0.00000E+00
         0.00000E+00
         0.00000E+00
         0.00000E+00
         0.00000E+00
         0.00000E+00
         0.00000E+00
         0.00000E+00
         0.00000E+00
         0.00000E+00
         0.00000E+00
         0.00000E+00
         0.00000E+00
         0.00000E+00
         0.00000E+00
         0.00000E+00
         0.00000E+00
         0.00000E+00
         0.00000E+00
         0.00000E+00
         0.00000E+00
         0.00000E+00
         0.00000E+00
         0.00000E+00
         0.00000E+00
         0.00000E+00
         0.00000E+00
         0.00000E+00
         0.00000E+00
         0.00000E+00
         0.00000E+00
         0.00000E+00
         0.00000E+00
         0.00000E+00
         0.00000E+00
         0.00000E+00
         0.00000E+00
         0.00000E+00
         0.00000E+00
         0.00000E+00
         0.00000E+00
         0.00000E+00
         0.00000E+00
         0.00000E+00
         0.00000E+00
         0.00000E+00
         0.00000E+00
         0.00000E+00
         0.00000E+00
         0.00000E+00
         0.00000E+00
         0.00000E+00
         0.00000E+00
         0.00000E+00
         0.00000E+00
         0.00000E+00
         0.00000E+00
         0.00000E+00
         0.00000E+00
         0.00000E+00
         0.00000E+00
         0.00000E+00
         0.00000E+00
         0.00000E+00
         0.00000E+00
         0.00000E+00
         0.00000E+00
         0.00000E+00
         0.00000E+00
         0.00000E+00
         0.00000E+00
         0.00000E+00
         0.00000E+00
         0.00000E+00
         0.00000E+00
         0.00000E+00
         0.00000E+00
         0.00000E+00
         0.00000E+00
         0.00000E+00
         0.00000E+00
         0.00000E+00
         0.00000E+00
         0.00000E+00
         0.00000E+00
         0.00000E+00
         0.00000E+00
         0.00000E+00
         0.00000E+00
         0.00000E+00
         0.00000E+00
         0.00000E+00
         0.00000E+00
         0.00000E+00
         0.00000E+00
         0.00000E+00
         0.00000E+00
         0.00000E+00
         0.00000E+00
         0.00000E+00
         0.00000E+00
         0.00000E+00
         0.00000E+00
         0.00000E+00
         0.00000E+00
         0.00000E+00
         0.00000E+00
         0.00000E+00
         0.00000E+00
         0.00000E+00
         0.00000E+00
         0.00000E+00
         0.00000E+00
         0.00000E+00
         0.00000E+00
         0.00000E+00
         0.00000E+00
         0.00000E+00
         0.00000E+00
         0.00000E+00
         0.00000E+00
         0.00000E+00
         0.00000E+00
         0.00000E+00
         0.00000E+00
         0.00000E+00
         0.00000E+00
         0.00000E+00
         0.00000E+00
         0.00000E+00
         0.00000E+00
         0.00000E+00
         0.00000E+00
         0.00000E+00
         0.00000E+00
         0.00000E+00
         0.00000E+00
         0.00000E+00
         0.00000E+00
         0.00000E+00
         0.00000E+00
         0.00000E+00
         0.00000E+00
         0.00000E+00
         0.00000E+00
         0.00000E+00
         0.00000E+00
         0.00000E+00
         0.00000E+00
         0.00000E+00
         0.00000E+00
         0.00000E+00
         0.00000E+00
         0.00000E+00
         0.00000E+00
         0.00000E+00
         0.00000E+00
         0.00000E+00
         0.00000E+00
         0.00000E+00
         0.00000E+00
         0.00000E+00
         0.00000E+00
         0.00000E+00
         0.00000E+00
         0.00000E+00
         0.00000E+00
         0.00000E+00
         0.00000E+00
         0.00000E+00
         0.00000E+00
         0.00000E+00
         0.00000E+00
         0.00000E+00
         0.00000E+00
         0.00000E+00
         0.00000E+00
         0.00000E+00
         0.00000E+00
         0.00000E+00
         0.00000E+00
         0.00000E+00
         0.00000E+00
         0.00000E+00
         0.00000E+00
         0.00000E+00
         0.00000E+00
         0.00000E+00
         0.00000E+00
         0.00000E+00
         0.00000E+00
         0.00000E+00
         0.00000E+00
         0.00000E+00
         0.00000E+00
         0.00000E+00
         0.00000E+00
         0.00000E+00
         0.00000E+00
         0.00000E+00
         0.00000E+00
         0.00000E+00
         0.00000E+00
         0.00000E+00
         0.00000E+00
         0.00000E+00
         0.00000E+00
         0.00000E+00
         0.00000E+00
         0.00000E+00
         0.00000E+00
         0.00000E+00
         0.00000E+00
         0.00000E+00
         0.00000E+00
         0.00000E+00
         0.00000E+00
         0.00000E+00
         0.00000E+00
         0.00000E+00
         0.00000E+00
         0.00000E+00
         0.00000E+00
         0.00000E+00
         0.00000E+00
         0.00000E+00
         0.00000E+00
         0.00000E+00
         0.00000E+00
         0.00000E+00
         0.00000E+00
         0.00000E+00
         0.00000E+00
         0.00000E+00
         0.00000E+00
         0.00000E+00
         0.00000E+00
         0.00000E+00
         0.00000E+00
         0.00000E+00
         0.00000E+00
         0.00000E+00
         0.00000E+00
         0.00000E+00
         0.00000E+00
         0.00000E+00
         0.00000E+00
         0.00000E+00
         0.00000E+00
         0.00000E+00
         0.00000E+00
         0.00000E+00
         0.00000E+00
         0.00000E+00
         0.00000E+00
         0.00000E+00
         0.00000E+00
         0.00000E+00
         0.00000E+00
         0.00000E+00
         0.00000E+00
         0.00000E+00
         0.00000E+00
         0.00000E+00
         0.00000E+00
         0.00000E+00
         0.00000E+00
         0.00000E+00
         0.00000E+00
         0.00000E+00
         0.00000E+00
         0.00000E+00
         0.00000E+00
         0.00000E+00
         0.00000E+00
         0.00000E+00
         0.00000E+00
         0.00000E+00
         0.00000E+00
         0.00000E+00
         0.00000E+00
         0.00000E+00
         0.00000E+00
         0.00000E+00
         0.00000E+00
         0.00000E+00
         0.00000E+00
         0.00000E+00
         0.00000E+00
         0.00000E+00
         0.00000E+00
         0.00000E+00
         0.00000E+00
         0.00000E+00
         0.00000E+00
         0.00000E+00
         0.00000E+00
         0.00000E+00
         0.00000E+00
         0.00000E+00
         0.00000E+00
         0.00000E+00
         0.00000E+00
         0.00000E+00
         0.00000E+00
         0.00000E+00
         0.00000E+00
         0.00000E+00
         0.00000E+00
         0.00000E+00
         0.00000E+00
         0.00000E+00
         0.00000E+00
         0.00000E+00
         0.00000E+00
         0.00000E+00
         0.00000E+00
         0.00000E+00
         0.00000E+00
         0.00000E+00
         0.00000E+00
         0.00000E+00
         0.00000E+00
         0.00000E+00
         0.00000E+00
         0.00000E+00
         0.00000E+00
         0.00000E+00
         0.00000E+00
         0.00000E+00
         0.00000E+00
         0.00000E+00
         0.00000E+00
         0.00000E+00
         0.00000E+00
         0.00000E+00
         0.00000E+00
         0.00000E+00
         0.00000E+00
         0.00000E+00
         0.00000E+00
         0.00000E+00
         0.00000E+00
         0.00000E+00
         0.00000E+00
         0.00000E+00
         0.00000E+00
         0.00000E+00
         0.00000E+00
         0.00000E+00
         0.00000E+00
         0.00000E+00
         0.00000E+00
         0.00000E+00
         0.00000E+00
         0.00000E+00
         0.00000E+00
         0.00000E+00
         0.00000E+00
         0.00000E+00
         0.00000E+00
         0.00000E+00
         0.00000E+00
         0.00000E+00
         0.00000E+00
         0.00000E+00
         0.00000E+00
         0.00000E+00
         0.00000E+00
         0.00000E+00
         0.00000E+00
         0.00000E+00
         0.00000E+00
         0.00000E+00
         0.00000E+00
         0.00000E+00
         0.00000E+00
         0.00000E+00
         0.00000E+00
         0.00000E+00
         0.00000E+00
         0.00000E+00
         0.00000E+00
         0.00000E+00
         0.00000E+00
         0.00000E+00
         0.00000E+00
         0.00000E+00
         0.00000E+00
         0.00000E+00
         0.00000E+00
         0.00000E+00
         0.00000E+00
         0.00000E+00
         0.00000E+00
         0.00000E+00
         0.00000E+00
         0.00000E+00
         0.00000E+00
         0.00000E+00
         0.00000E+00
         0.00000E+00
         0.00000E+00
         0.00000E+00
         0.00000E+00
         0.00000E+00
         0.00000E+00
         0.00000E+00
         0.00000E+00
         0.00000E+00
         0.00000E+00
         0.00000E+00
         0.00000E+00
         0.00000E+00
         0.00000E+00
         0.00000E+00
         0.00000E+00
         0.00000E+00
         0.00000E+00
         0.00000E+00
         0.00000E+00
         0.00000E+00
         0.00000E+00
         0.00000E+00
         0.00000E+00
         0.00000E+00
         0.00000E+00
         0.00000E+00
         0.00000E+00
         0.00000E+00
         0.00000E+00
         0.00000E+00
         0.00000E+00
         0.00000E+00
         0.00000E+00
         0.00000E+00
         0.00000E+00
         0.00000E+00
         0.00000E+00
         0.00000E+00
         0.00000E+00
         0.00000E+00
         0.00000E+00
         0.00000E+00
         0.00000E+00
         0.00000E+00
         0.00000E+00
         0.00000E+00
         0.00000E+00
         0.00000E+00
         0.00000E+00
         0.00000E+00
         0.00000E+00
         0.00000E+00
         0.00000E+00
         0.00000E+00
         0.00000E+00
         0.00000E+00
         0.00000E+00
         0.00000E+00
         0.00000E+00
         0.00000E+00
         0.00000E+00
         0.00000E+00
         0.00000E+00
         0.00000E+00
         0.00000E+00
         0.00000E+00
         0.00000E+00
         0.00000E+00
         0.00000E+00
         0.00000E+00
         0.00000E+00
         0.00000E+00
         0.00000E+00
         0.00000E+00
         0.00000E+00
         0.00000E+00
         0.00000E+00
         0.00000E+00
         0.00000E+00
         0.00000E+00
         0.00000E+00
         0.00000E+00
         0.00000E+00
         0.00000E+00
         0.00000E+00
         0.00000E+00
         0.00000E+00
         0.00000E+00
         0.00000E+00
         0.00000E+00
         0.00000E+00
         0.00000E+00
         0.00000E+00
         0.00000E+00
         0.00000E+00
         0.00000E+00
         0.00000E+00
         0.00000E+00
         0.00000E+00
         0.00000E+00
         0.00000E+00
         0.00000E+00
         0.00000E+00
         0.00000E+00
         0.00000E+00
         0.00000E+00
         0.00000E+00
         0.00000E+00
         0.00000E+00
         0.00000E+00
         0.00000E+00
         0.00000E+00
         0.00000E+00
         0.00000E+00
         0.00000E+00
         0.00000E+00
         0.00000E+00
         0.00000E+00
         0.00000E+00
         0.00000E+00
         0.00000E+00
         0.00000E+00
         0.00000E+00
         0.00000E+00
         0.00000E+00
         0.00000E+00
         0.00000E+00
         0.00000E+00
         0.00000E+00
         0.00000E+00
         0.00000E+00
         0.00000E+00
         0.00000E+00
         0.00000E+00
         0.00000E+00
         0.00000E+00
         0.00000E+00
         0.00000E+00
         0.00000E+00
         0.00000E+00
         0.00000E+00
         0.00000E+00
         0.00000E+00
         0.00000E+00
         0.00000E+00
         0.00000E+00
         0.00000E+00
         0.00000E+00
         0.00000E+00
         0.00000E+00
         0.00000E+00
         0.00000E+00
         0.00000E+00
         0.00000E+00
         0.00000E+00
         0.00000E+00
         0.00000E+00
         0.00000E+00
         0.00000E+00
         0.00000E+00
         0.00000E+00
         0.00000E+00
         0.00000E+00
         0.00000E+00
         0.00000E+00
         0.00000E+00
         0.00000E+00
         0.00000E+00
         0.00000E+00
         0.00000E+00
         0.00000E+00
         0.00000E+00
         0.00000E+00
         0.00000E+00
         0.00000E+00
         0.00000E+00
         0.00000E+00
         0.00000E+00
         0.00000E+00
         0.00000E+00
         0.00000E+00
         0.00000E+00
         0.00000E+00
         0.00000E+00
         0.00000E+00
         0.00000E+00
         0.00000E+00
         0.00000E+00
         0.00000E+00
         0.00000E+00
         0.00000E+00
         0.00000E+00
         0.00000E+00
         0.00000E+00
         0.00000E+00
         0.00000E+00
         0.00000E+00
         0.00000E+00
         0.00000E+00
         0.00000E+00
         0.00000E+00
         0.00000E+00
         0.00000E+00
         0.00000E+00
         0.00000E+00
         0.00000E+00
         0.00000E+00
         0.00000E+00
         0.00000E+00
         0.00000E+00
         0.00000E+00
         0.00000E+00
         0.00000E+00
         0.00000E+00
         0.00000E+00
         0.00000E+00
         0.00000E+00
         0.00000E+00
         0.00000E+00
         0.00000E+00
         0.00000E+00
         0.00000E+00
         0.00000E+00
         0.00000E+00
         0.00000E+00
         0.00000E+00
         0.00000E+00
         0.00000E+00
         0.00000E+00
         0.00000E+00
         0.00000E+00
         0.00000E+00
         0.00000E+00
         0.00000E+00
         0.00000E+00
         0.00000E+00
         0.00000E+00
         0.00000E+00
         0.00000E+00
         0.00000E+00
         0.00000E+00
         0.00000E+00
         0.00000E+00
         0.00000E+00
         0.00000E+00
         0.00000E+00
         0.00000E+00
         0.00000E+00
         0.00000E+00
         0.00000E+00
         0.00000E+00
         0.00000E+00
         0.00000E+00
         0.00000E+00
         0.00000E+00
         0.00000E+00
         0.00000E+00
         0.00000E+00
         0.00000E+00
         0.00000E+00
         0.00000E+00
         0.00000E+00
         0.00000E+00
         0.00000E+00
         0.00000E+00
         0.00000E+00
         0.00000E+00
         0.00000E+00
         0.00000E+00
         0.00000E+00
         0.00000E+00
         0.00000E+00
         0.00000E+00
         0.00000E+00
         0.00000E+00
         0.00000E+00
         0.00000E+00
         0.00000E+00
         0.00000E+00
         0.00000E+00
         0.00000E+00
         0.00000E+00
         0.00000E+00
         0.00000E+00
         0.00000E+00
         0.00000E+00
         0.00000E+00
         0.00000E+00
         0.00000E+00
         0.00000E+00
         0.00000E+00
         0.00000E+00
         0.00000E+00
         0.00000E+00
         0.00000E+00
         0.00000E+00
         0.00000E+00
         0.00000E+00
         0.00000E+00
         0.00000E+00
         0.00000E+00
         0.00000E+00
         0.00000E+00
         0.00000E+00
         0.00000E+00
         0.00000E+00
         0.00000E+00
         0.00000E+00
         0.00000E+00
         0.00000E+00
         0.00000E+00
         0.00000E+00
         0.00000E+00
         0.00000E+00
         0.00000E+00
         0.00000E+00
         0.00000E+00
         0.00000E+00
         0.00000E+00
         0.00000E+00
         0.00000E+00
         0.00000E+00
         0.00000E+00
         0.00000E+00
         0.00000E+00
         0.00000E+00
         0.00000E+00
         0.00000E+00
         0.00000E+00
         0.00000E+00
         0.00000E+00
         0.00000E+00
         0.00000E+00
         0.00000E+00
         0.00000E+00
         0.00000E+00
         0.00000E+00
         0.00000E+00
         0.00000E+00
         0.00000E+00
         0.00000E+00
         0.00000E+00
         0.00000E+00
         0.00000E+00
         0.00000E+00
         0.00000E+00
         0.00000E+00
         0.00000E+00
         0.00000E+00
         0.00000E+00
         0.00000E+00
         0.00000E+00
         0.00000E+00
         0.00000E+00
         0.00000E+00
         0.00000E+00
         0.00000E+00
         0.00000E+00
         0.00000E+00
         0.00000E+00
         0.00000E+00
         0.00000E+00
         0.00000E+00
         0.00000E+00
         0.00000E+00
         0.00000E+00
         0.00000E+00
         0.00000E+00
         0.00000E+00
         0.00000E+00
         0.00000E+00
         0.00000E+00
         0.00000E+00
         0.00000E+00
         0.00000E+00
         0.00000E+00
         0.00000E+00
         0.00000E+00
         0.00000E+00
         0.00000E+00
         0.00000E+00
         0.00000E+00
         0.00000E+00
         0.00000E+00
         0.00000E+00
         0.00000E+00
         0.00000E+00
         0.00000E+00
         0.00000E+00
         0.00000E+00
         0.00000E+00
         0.00000E+00
         0.00000E+00
         0.00000E+00
         0.00000E+00
         0.00000E+00
         0.00000E+00
         0.00000E+00
         0.00000E+00
         0.00000E+00
         0.00000E+00
         0.00000E+00
         0.00000E+00
         0.00000E+00
         0.00000E+00
         0.00000E+00
         0.00000E+00
         0.00000E+00
         0.00000E+00
         0.00000E+00
         0.00000E+00
         0.00000E+00
         0.00000E+00
         0.00000E+00
         0.00000E+00
         0.00000E+00
         0.00000E+00
         0.00000E+00
         0.00000E+00
         0.00000E+00
         0.00000E+00
         0.00000E+00
         0.00000E+00
         0.00000E+00
         0.00000E+00
         0.00000E+00
         0.00000E+00
         0.00000E+00
         0.00000E+00
         0.00000E+00
         0.00000E+00
         0.00000E+00
         0.00000E+00
         0.00000E+00
         0.00000E+00
         0.00000E+00
         0.00000E+00
         0.00000E+00
         0.00000E+00
         0.00000E+00
         0.00000E+00
         0.00000E+00
         0.00000E+00
         0.00000E+00
         0.00000E+00
         0.00000E+00
         0.00000E+00
         0.00000E+00
         0.00000E+00
         0.00000E+00
         0.00000E+00
         0.00000E+00
         0.00000E+00
         0.00000E+00
         0.00000E+00
         0.00000E+00
         0.00000E+00
         0.00000E+00
         0.00000E+00
         0.00000E+00
         0.00000E+00
         0.00000E+00
         0.00000E+00
         0.00000E+00
         0.00000E+00
         0.00000E+00
         0.00000E+00
         0.00000E+00
         0.00000E+00
         0.00000E+00
         0.00000E+00
         0.00000E+00
         0.00000E+00
         0.00000E+00
         0.00000E+00
         0.00000E+00
         0.00000E+00
         0.00000E+00
         0.00000E+00
         0.00000E+00
         0.00000E+00
         0.00000E+00
         0.00000E+00
         0.00000E+00
         0.00000E+00
         0.00000E+00
         0.00000E+00
         0.00000E+00
         0.00000E+00
         0.00000E+00
         0.00000E+00
         0.00000E+00
         0.00000E+00
         0.00000E+00
         0.00000E+00
         0.00000E+00
         0.00000E+00
         0.00000E+00
         0.00000E+00
         0.00000E+00
         0.00000E+00
         0.00000E+00
         0.00000E+00
         0.00000E+00
         0.00000E+00
         0.00000E+00
         0.00000E+00
         0.00000E+00
         0.00000E+00
         0.00000E+00
         0.00000E+00
         0.00000E+00
         0.00000E+00
         0.00000E+00
         0.00000E+00
         0.00000E+00
         0.00000E+00
         0.00000E+00
         0.00000E+00
         0.00000E+00
         0.00000E+00
         0.00000E+00
         0.00000E+00
         0.00000E+00
         0.00000E+00
         0.00000E+00
         0.00000E+00
         0.00000E+00
         0.00000E+00
         0.00000E+00
         0.00000E+00
         0.00000E+00
         0.00000E+00
         0.00000E+00
         0.00000E+00
         0.00000E+00
         0.00000E+00
         0.00000E+00
         0.00000E+00
         0.00000E+00
         0.00000E+00
         0.00000E+00
         0.00000E+00
         0.00000E+00
         0.00000E+00
         0.00000E+00
         0.00000E+00
         0.00000E+00
         0.00000E+00
         0.00000E+00
         0.00000E+00
         0.00000E+00
         0.00000E+00
         0.00000E+00
         0.00000E+00
         0.00000E+00
         0.00000E+00
         0.00000E+00
         0.00000E+00
         0.00000E+00
         0.00000E+00
         0.00000E+00
         0.00000E+00
         0.00000E+00
         0.00000E+00
         0.00000E+00
         0.00000E+00
         0.00000E+00
         0.00000E+00
         0.00000E+00
         0.00000E+00
         0.00000E+00
         0.00000E+00
         0.00000E+00
         0.00000E+00
         0.00000E+00
         0.00000E+00
         0.00000E+00
         0.00000E+00
         0.00000E+00
         0.00000E+00
         0.00000E+00
         0.00000E+00
         0.00000E+00
         0.00000E+00
         0.00000E+00
         0.00000E+00
         0.00000E+00
         0.00000E+00
         0.00000E+00
         0.00000E+00
         0.00000E+00
         0.00000E+00
         0.00000E+00
         0.00000E+00
         0.00000E+00
         0.00000E+00
         0.00000E+00
         0.00000E+00
         0.00000E+00
         0.00000E+00
         0.00000E+00
         0.00000E+00
         0.00000E+00
         0.00000E+00
         0.00000E+00
         0.00000E+00
         0.00000E+00
         0.00000E+00
         0.00000E+00
         0.00000E+00
         0.00000E+00
         0.00000E+00
         0.00000E+00
         0.00000E+00
         0.00000E+00
         0.00000E+00
         0.00000E+00
         0.00000E+00
         0.00000E+00
         0.00000E+00
         0.00000E+00
         0.00000E+00
         0.00000E+00
         0.00000E+00
         0.00000E+00
         0.00000E+00
         0.00000E+00
         0.00000E+00
         0.00000E+00
         0.00000E+00
         0.00000E+00
         0.00000E+00
         0.00000E+00
         0.00000E+00
         0.00000E+00
         0.00000E+00
         0.00000E+00
         0.00000E+00
         0.00000E+00
         0.00000E+00
         0.00000E+00
         0.00000E+00
         0.00000E+00
         0.00000E+00
         0.00000E+00
         0.00000E+00
         0.00000E+00
         0.00000E+00
         0.00000E+00
         0.00000E+00
         0.00000E+00
         0.00000E+00
         0.00000E+00
         0.00000E+00
         0.00000E+00
         0.00000E+00
         0.00000E+00
         0.00000E+00
         0.00000E+00
         0.00000E+00
         0.00000E+00
         0.00000E+00
         0.00000E+00
         0.00000E+00
         0.00000E+00
         0.00000E+00
         0.00000E+00
         0.00000E+00
         0.00000E+00
         0.00000E+00
         0.00000E+00
         0.00000E+00
         0.00000E+00
         0.00000E+00
         0.00000E+00
         0.00000E+00
         0.00000E+00
         0.00000E+00
         0.00000E+00
         0.00000E+00
         0.00000E+00
         0.00000E+00
         0.00000E+00
         0.00000E+00
         0.00000E+00
         0.00000E+00
         0.00000E+00
         0.00000E+00
         0.00000E+00
         0.00000E+00
         0.00000E+00
         0.00000E+00
         0.00000E+00
         0.00000E+00
         0.00000E+00
         0.00000E+00
         0.00000E+00
         0.00000E+00
         0.00000E+00
         0.00000E+00
         0.00000E+00
         0.00000E+00
         0.00000E+00
         0.00000E+00
         0.00000E+00
         0.00000E+00
         0.00000E+00
         0.00000E+00
         0.00000E+00
         0.00000E+00
         0.00000E+00
         0.00000E+00
         0.00000E+00
         0.00000E+00
         0.00000E+00
         0.00000E+00
         0.00000E+00
         0.00000E+00
         0.00000E+00
         0.00000E+00
         0.00000E+00
         0.00000E+00
         0.00000E+00
         0.00000E+00
         0.00000E+00
         0.00000E+00
         0.00000E+00
         0.00000E+00
         0.00000E+00
         0.00000E+00
         0.00000E+00
         0.00000E+00
         0.00000E+00
         0.00000E+00
         0.00000E+00
         0.00000E+00
         0.00000E+00
         0.00000E+00
         0.00000E+00
         0.00000E+00
         0.00000E+00
         0.00000E+00
         0.00000E+00
         0.00000E+00
         0.00000E+00
         0.00000E+00
         0.00000E+00
         0.00000E+00
         0.00000E+00
         0.00000E+00
         0.00000E+00
         0.00000E+00
         0.00000E+00
         0.00000E+00
         0.00000E+00
         0.00000E+00
         0.00000E+00
         0.00000E+00
         0.00000E+00
         0.00000E+00
         0.00000E+00
         0.00000E+00
         0.00000E+00
         0.00000E+00
         0.00000E+00
         0.00000E+00
         0.00000E+00
         0.00000E+00
         0.00000E+00
         0.00000E+00
         0.00000E+00
         0.00000E+00
         0.00000E+00
         0.00000E+00
         0.00000E+00
         0.00000E+00
         0.00000E+00
         0.00000E+00
         0.00000E+00
         0.00000E+00
         0.00000E+00
         0.00000E+00
         0.00000E+00
         0.00000E+00
         0.00000E+00
         0.00000E+00
         0.00000E+00
         0.00000E+00
         0.00000E+00
         0.00000E+00
         0.00000E+00
         0.00000E+00
         0.00000E+00
         0.00000E+00
         0.00000E+00
         0.00000E+00
         0.00000E+00
         0.00000E+00
         0.00000E+00
         0.00000E+00
         0.00000E+00
         0.00000E+00
         0.00000E+00
         0.00000E+00
         0.00000E+00
         0.00000E+00
         0.00000E+00
         0.00000E+00
         0.00000E+00
         0.00000E+00
         0.00000E+00
         0.00000E+00
         0.00000E+00
         0.00000E+00
         0.00000E+00
         0.00000E+00
         0.00000E+00
         0.00000E+00
         0.00000E+00
         0.00000E+00
         0.00000E+00
         0.00000E+00
         0.00000E+00
         0.00000E+00
         0.00000E+00
         0.00000E+00
         0.00000E+00
         0.00000E+00
         0.00000E+00
         0.00000E+00
         0.00000E+00
         0.00000E+00
         0.00000E+00
         0.00000E+00
         0.00000E+00
         0.00000E+00
         0.00000E+00
         0.00000E+00
         0.00000E+00
         0.00000E+00
         0.00000E+00
         0.00000E+00
         0.00000E+00
         0.00000E+00
         0.00000E+00
         0.00000E+00
         0.00000E+00
         0.00000E+00
         0.00000E+00
         0.00000E+00
         0.00000E+00
         0.00000E+00
         0.00000E+00
         0.00000E+00
         0.00000E+00
         0.00000E+00
         0.00000E+00
         0.00000E+00
         0.00000E+00
         0.00000E+00
         0.00000E+00
         0.00000E+00
         0.00000E+00
         0.00000E+00
         0.00000E+00
         0.00000E+00
         0.00000E+00
         0.00000E+00
         0.00000E+00
         0.00000E+00
         0.00000E+00
         0.00000E+00
         0.00000E+00
         0.00000E+00
         0.00000E+00
         0.00000E+00
         0.00000E+00
         0.00000E+00
         0.00000E+00
         0.00000E+00
         0.00000E+00
         0.00000E+00
         0.00000E+00
         0.00000E+00
         0.00000E+00
         0.00000E+00
         0.00000E+00
         0.00000E+00
         0.00000E+00
         0.00000E+00
         0.00000E+00
         0.00000E+00
         0.00000E+00
         0.00000E+00
         0.00000E+00
         0.00000E+00
         0.00000E+00
         0.00000E+00
         0.00000E+00
         0.00000E+00
         0.00000E+00
         0.00000E+00
         0.00000E+00
         0.00000E+00
         0.00000E+00
         0.00000E+00
         0.00000E+00
         0.00000E+00
         0.00000E+00
         0.00000E+00
         0.00000E+00
         0.00000E+00
         0.00000E+00
         0.00000E+00
         0.00000E+00
         0.00000E+00
         0.00000E+00
         0.00000E+00
         0.00000E+00
         0.00000E+00
         0.00000E+00
         0.00000E+00
         0.00000E+00
         0.00000E+00
         0.00000E+00
         0.00000E+00
         0.00000E+00
         0.00000E+00
         0.00000E+00
         0.00000E+00
         0.00000E+00
         0.00000E+00
         0.00000E+00
         0.00000E+00
         0.00000E+00
         0.00000E+00
         0.00000E+00
         0.00000E+00
         0.00000E+00
         0.00000E+00
         0.00000E+00
         0.00000E+00
         0.00000E+00
         0.00000E+00
         0.00000E+00
         0.00000E+00
         0.00000E+00
         0.00000E+00
         0.00000E+00
         0.00000E+00
         0.00000E+00
         0.00000E+00
         0.00000E+00
         0.00000E+00
         0.00000E+00
         0.00000E+00
         0.00000E+00
         0.00000E+00
         0.00000E+00
         0.00000E+00
         0.00000E+00
         0.00000E+00
         0.00000E+00
         0.00000E+00
         0.00000E+00
         0.00000E+00
         0.00000E+00
         0.00000E+00
         0.00000E+00
         0.00000E+00
         0.00000E+00
         0.00000E+00
         0.00000E+00
         0.00000E+00
         0.00000E+00
         0.00000E+00
         0.00000E+00
         0.00000E+00
         0.00000E+00
         0.00000E+00
         0.00000E+00
         0.00000E+00
         0.00000E+00
         0.00000E+00
         0.00000E+00
         0.00000E+00
         0.00000E+00
         0.00000E+00
         0.00000E+00
         0.00000E+00
         0.00000E+00
         0.00000E+00
         0.00000E+00
         0.00000E+00
         0.00000E+00
         0.00000E+00
         0.00000E+00
         0.00000E+00
         0.00000E+00
         0.00000E+00
         0.00000E+00
         0.00000E+00
         0.00000E+00
         0.00000E+00
         0.00000E+00
         0.00000E+00
         0.00000E+00
         0.00000E+00
         0.00000E+00
         0.00000E+00
         0.00000E+00
         0.00000E+00
         0.00000E+00
         0.00000E+00
         0.00000E+00
         0.00000E+00
         0.00000E+00
         0.00000E+00
         0.00000E+00
         0.00000E+00
         0.00000E+00
         0.00000E+00
         0.00000E+00
         0.00000E+00
         0.00000E+00
         0.00000E+00
         0.00000E+00
         0.00000E+00
         0.00000E+00
         0.00000E+00
         0.00000E+00
         0.00000E+00
         0.00000E+00
         0.00000E+00
         0.00000E+00
         0.00000E+00
         0.00000E+00
         0.00000E+00
         0.00000E+00
         0.00000E+00
         0.00000E+00
         0.00000E+00
         0.00000E+00
         0.00000E+00
         0.00000E+00
         0.00000E+00
         0.00000E+00
         0.00000E+00
         0.00000E+00
         0.00000E+00
         0.00000E+00
         0.00000E+00
         0.00000E+00
         0.00000E+00
         0.00000E+00
         0.00000E+00
         0.00000E+00
         0.00000E+00
         0.00000E+00
         0.00000E+00
         0.00000E+00
         0.00000E+00
         0.00000E+00
         0.00000E+00
         0.00000E+00
         0.00000E+00
         0.00000E+00
         0.00000E+00
         0.00000E+00
         0.00000E+00
         0.00000E+00
         0.00000E+00
         0.00000E+00
         0.00000E+00
         0.00000E+00
         0.00000E+00
         0.00000E+00
         0.00000E+00
         0.00000E+00
         0.00000E+00
         0.00000E+00
         0.00000E+00
         0.00000E+00
         0.00000E+00
         0.00000E+00
         0.00000E+00
         0.00000E+00
         0.00000E+00
         0.00000E+00
         0.00000E+00
         0.00000E+00
         0.00000E+00
         0.00000E+00
         0.00000E+00
         0.00000E+00
         0.00000E+00
         0.00000E+00
         0.00000E+00
         0.00000E+00
         0.00000E+00
         0.00000E+00
         0.00000E+00
         0.00000E+00
         0.00000E+00
         0.00000E+00
         0.00000E+00
         0.00000E+00
         0.00000E+00
         0.00000E+00
         0.00000E+00
         0.00000E+00
         0.00000E+00
         0.00000E+00
         0.00000E+00
         0.00000E+00
         0.00000E+00
         0.00000E+00
         0.00000E+00
         0.00000E+00
         0.00000E+00
         0.00000E+00
         0.00000E+00
         0.00000E+00
         0.00000E+00
         0.00000E+00
         0.00000E+00
         0.00000E+00
         0.00000E+00
         0.00000E+00
         0.00000E+00
         0.00000E+00
         0.00000E+00
         0.00000E+00
         0.00000E+00
         0.00000E+00
         0.00000E+00
         0.00000E+00
         0.00000E+00
         0.00000E+00
         0.00000E+00
         0.00000E+00
         0.00000E+00
         0.00000E+00
         0.00000E+00
  
SCALARS                      stress_zz  double 1
LOOKUP_TABLE default
         0.00000E+00
         0.00000E+00
         0.00000E+00
         0.00000E+00
         0.00000E+00
         0.00000E+00
         0.00000E+00
         0.00000E+00
         0.00000E+00
         0.00000E+00
         0.00000E+00
         0.00000E+00
         0.00000E+00
         0.00000E+00
         0.00000E+00
         0.00000E+00
         0.00000E+00
         0.00000E+00
         0.00000E+00
         0.00000E+00
         0.00000E+00
         0.00000E+00
         0.00000E+00
         0.00000E+00
         0.00000E+00
         0.00000E+00
         0.00000E+00
         0.00000E+00
         0.00000E+00
         0.00000E+00
         0.00000E+00
         0.00000E+00
         0.00000E+00
         0.00000E+00
         0.00000E+00
         0.00000E+00
         0.00000E+00
         0.00000E+00
         0.00000E+00
         0.00000E+00
         0.00000E+00
         0.00000E+00
         0.00000E+00
         0.00000E+00
         0.00000E+00
         0.00000E+00
         0.00000E+00
         0.00000E+00
         0.00000E+00
         0.00000E+00
         0.00000E+00
         0.00000E+00
         0.00000E+00
         0.00000E+00
         0.00000E+00
         0.00000E+00
         0.00000E+00
         0.00000E+00
         0.00000E+00
         0.00000E+00
         0.00000E+00
         0.00000E+00
         0.00000E+00
         0.00000E+00
         0.00000E+00
         0.00000E+00
         0.00000E+00
         0.00000E+00
         0.00000E+00
         0.00000E+00
         0.00000E+00
         0.00000E+00
         0.00000E+00
         0.00000E+00
         0.00000E+00
         0.00000E+00
         0.00000E+00
         0.00000E+00
         0.00000E+00
         0.00000E+00
         0.00000E+00
         0.00000E+00
         0.00000E+00
         0.00000E+00
         0.00000E+00
         0.00000E+00
         0.00000E+00
         0.00000E+00
         0.00000E+00
         0.00000E+00
         0.00000E+00
         0.00000E+00
         0.00000E+00
         0.00000E+00
         0.00000E+00
         0.00000E+00
         0.00000E+00
         0.00000E+00
         0.00000E+00
         0.00000E+00
         0.00000E+00
         0.00000E+00
         0.00000E+00
         0.00000E+00
         0.00000E+00
         0.00000E+00
         0.00000E+00
         0.00000E+00
         0.00000E+00
         0.00000E+00
         0.00000E+00
         0.00000E+00
         0.00000E+00
         0.00000E+00
         0.00000E+00
         0.00000E+00
         0.00000E+00
         0.00000E+00
         0.00000E+00
         0.00000E+00
         0.00000E+00
         0.00000E+00
         0.00000E+00
         0.00000E+00
         0.00000E+00
         0.00000E+00
         0.00000E+00
         0.00000E+00
         0.00000E+00
         0.00000E+00
         0.00000E+00
         0.00000E+00
         0.00000E+00
         0.00000E+00
         0.00000E+00
         0.00000E+00
         0.00000E+00
         0.00000E+00
         0.00000E+00
         0.00000E+00
         0.00000E+00
         0.00000E+00
         0.00000E+00
         0.00000E+00
         0.00000E+00
         0.00000E+00
         0.00000E+00
         0.00000E+00
         0.00000E+00
         0.00000E+00
         0.00000E+00
         0.00000E+00
         0.00000E+00
         0.00000E+00
         0.00000E+00
         0.00000E+00
         0.00000E+00
         0.00000E+00
         0.00000E+00
         0.00000E+00
         0.00000E+00
         0.00000E+00
         0.00000E+00
         0.00000E+00
         0.00000E+00
         0.00000E+00
         0.00000E+00
         0.00000E+00
         0.00000E+00
         0.00000E+00
         0.00000E+00
         0.00000E+00
         0.00000E+00
         0.00000E+00
         0.00000E+00
         0.00000E+00
         0.00000E+00
         0.00000E+00
         0.00000E+00
         0.00000E+00
         0.00000E+00
         0.00000E+00
         0.00000E+00
         0.00000E+00
         0.00000E+00
         0.00000E+00
         0.00000E+00
         0.00000E+00
         0.00000E+00
         0.00000E+00
         0.00000E+00
         0.00000E+00
         0.00000E+00
         0.00000E+00
         0.00000E+00
         0.00000E+00
         0.00000E+00
         0.00000E+00
         0.00000E+00
         0.00000E+00
         0.00000E+00
         0.00000E+00
         0.00000E+00
         0.00000E+00
         0.00000E+00
         0.00000E+00
         0.00000E+00
         0.00000E+00
         0.00000E+00
         0.00000E+00
         0.00000E+00
         0.00000E+00
         0.00000E+00
         0.00000E+00
         0.00000E+00
         0.00000E+00
         0.00000E+00
         0.00000E+00
         0.00000E+00
         0.00000E+00
         0.00000E+00
         0.00000E+00
         0.00000E+00
         0.00000E+00
         0.00000E+00
         0.00000E+00
         0.00000E+00
         0.00000E+00
         0.00000E+00
         0.00000E+00
         0.00000E+00
         0.00000E+00
         0.00000E+00
         0.00000E+00
         0.00000E+00
         0.00000E+00
         0.00000E+00
         0.00000E+00
         0.00000E+00
         0.00000E+00
         0.00000E+00
         0.00000E+00
         0.00000E+00
         0.00000E+00
         0.00000E+00
         0.00000E+00
         0.00000E+00
         0.00000E+00
         0.00000E+00
         0.00000E+00
         0.00000E+00
         0.00000E+00
         0.00000E+00
         0.00000E+00
         0.00000E+00
         0.00000E+00
         0.00000E+00
         0.00000E+00
         0.00000E+00
         0.00000E+00
         0.00000E+00
         0.00000E+00
         0.00000E+00
         0.00000E+00
         0.00000E+00
         0.00000E+00
         0.00000E+00
         0.00000E+00
         0.00000E+00
         0.00000E+00
         0.00000E+00
         0.00000E+00
         0.00000E+00
         0.00000E+00
         0.00000E+00
         0.00000E+00
         0.00000E+00
         0.00000E+00
         0.00000E+00
         0.00000E+00
         0.00000E+00
         0.00000E+00
         0.00000E+00
         0.00000E+00
         0.00000E+00
         0.00000E+00
         0.00000E+00
         0.00000E+00
         0.00000E+00
         0.00000E+00
         0.00000E+00
         0.00000E+00
         0.00000E+00
         0.00000E+00
         0.00000E+00
         0.00000E+00
         0.00000E+00
         0.00000E+00
         0.00000E+00
         0.00000E+00
         0.00000E+00
         0.00000E+00
         0.00000E+00
         0.00000E+00
         0.00000E+00
         0.00000E+00
         0.00000E+00
         0.00000E+00
         0.00000E+00
         0.00000E+00
         0.00000E+00
         0.00000E+00
         0.00000E+00
         0.00000E+00
         0.00000E+00
         0.00000E+00
         0.00000E+00
         0.00000E+00
         0.00000E+00
         0.00000E+00
         0.00000E+00
         0.00000E+00
         0.00000E+00
         0.00000E+00
         0.00000E+00
         0.00000E+00
         0.00000E+00
         0.00000E+00
         0.00000E+00
         0.00000E+00
         0.00000E+00
         0.00000E+00
         0.00000E+00
         0.00000E+00
         0.00000E+00
         0.00000E+00
         0.00000E+00
         0.00000E+00
         0.00000E+00
         0.00000E+00
         0.00000E+00
         0.00000E+00
         0.00000E+00
         0.00000E+00
         0.00000E+00
         0.00000E+00
         0.00000E+00
         0.00000E+00
         0.00000E+00
         0.00000E+00
         0.00000E+00
         0.00000E+00
         0.00000E+00
         0.00000E+00
         0.00000E+00
         0.00000E+00
         0.00000E+00
         0.00000E+00
         0.00000E+00
         0.00000E+00
         0.00000E+00
         0.00000E+00
         0.00000E+00
         0.00000E+00
         0.00000E+00
         0.00000E+00
         0.00000E+00
         0.00000E+00
         0.00000E+00
         0.00000E+00
         0.00000E+00
         0.00000E+00
         0.00000E+00
         0.00000E+00
         0.00000E+00
         0.00000E+00
         0.00000E+00
         0.00000E+00
         0.00000E+00
         0.00000E+00
         0.00000E+00
         0.00000E+00
         0.00000E+00
         0.00000E+00
         0.00000E+00
         0.00000E+00
         0.00000E+00
         0.00000E+00
         0.00000E+00
         0.00000E+00
         0.00000E+00
         0.00000E+00
         0.00000E+00
         0.00000E+00
         0.00000E+00
         0.00000E+00
         0.00000E+00
         0.00000E+00
         0.00000E+00
         0.00000E+00
         0.00000E+00
         0.00000E+00
         0.00000E+00
         0.00000E+00
         0.00000E+00
         0.00000E+00
         0.00000E+00
         0.00000E+00
         0.00000E+00
         0.00000E+00
         0.00000E+00
         0.00000E+00
         0.00000E+00
         0.00000E+00
         0.00000E+00
         0.00000E+00
         0.00000E+00
         0.00000E+00
         0.00000E+00
         0.00000E+00
         0.00000E+00
         0.00000E+00
         0.00000E+00
         0.00000E+00
         0.00000E+00
         0.00000E+00
         0.00000E+00
         0.00000E+00
         0.00000E+00
         0.00000E+00
         0.00000E+00
         0.00000E+00
         0.00000E+00
         0.00000E+00
         0.00000E+00
         0.00000E+00
         0.00000E+00
         0.00000E+00
         0.00000E+00
         0.00000E+00
         0.00000E+00
         0.00000E+00
         0.00000E+00
         0.00000E+00
         0.00000E+00
         0.00000E+00
         0.00000E+00
         0.00000E+00
         0.00000E+00
         0.00000E+00
         0.00000E+00
         0.00000E+00
         0.00000E+00
         0.00000E+00
         0.00000E+00
         0.00000E+00
         0.00000E+00
         0.00000E+00
         0.00000E+00
         0.00000E+00
         0.00000E+00
         0.00000E+00
         0.00000E+00
         0.00000E+00
         0.00000E+00
         0.00000E+00
         0.00000E+00
         0.00000E+00
         0.00000E+00
         0.00000E+00
         0.00000E+00
         0.00000E+00
         0.00000E+00
         0.00000E+00
         0.00000E+00
         0.00000E+00
         0.00000E+00
         0.00000E+00
         0.00000E+00
         0.00000E+00
         0.00000E+00
         0.00000E+00
         0.00000E+00
         0.00000E+00
         0.00000E+00
         0.00000E+00
         0.00000E+00
         0.00000E+00
         0.00000E+00
         0.00000E+00
         0.00000E+00
         0.00000E+00
         0.00000E+00
         0.00000E+00
         0.00000E+00
         0.00000E+00
         0.00000E+00
         0.00000E+00
         0.00000E+00
         0.00000E+00
         0.00000E+00
         0.00000E+00
         0.00000E+00
         0.00000E+00
         0.00000E+00
         0.00000E+00
         0.00000E+00
         0.00000E+00
         0.00000E+00
         0.00000E+00
         0.00000E+00
         0.00000E+00
         0.00000E+00
         0.00000E+00
         0.00000E+00
         0.00000E+00
         0.00000E+00
         0.00000E+00
         0.00000E+00
         0.00000E+00
         0.00000E+00
         0.00000E+00
         0.00000E+00
         0.00000E+00
         0.00000E+00
         0.00000E+00
         0.00000E+00
         0.00000E+00
         0.00000E+00
         0.00000E+00
         0.00000E+00
         0.00000E+00
         0.00000E+00
         0.00000E+00
         0.00000E+00
         0.00000E+00
         0.00000E+00
         0.00000E+00
         0.00000E+00
         0.00000E+00
         0.00000E+00
         0.00000E+00
         0.00000E+00
         0.00000E+00
         0.00000E+00
         0.00000E+00
         0.00000E+00
         0.00000E+00
         0.00000E+00
         0.00000E+00
         0.00000E+00
         0.00000E+00
         0.00000E+00
         0.00000E+00
         0.00000E+00
         0.00000E+00
         0.00000E+00
         0.00000E+00
         0.00000E+00
         0.00000E+00
         0.00000E+00
         0.00000E+00
         0.00000E+00
         0.00000E+00
         0.00000E+00
         0.00000E+00
         0.00000E+00
         0.00000E+00
         0.00000E+00
         0.00000E+00
         0.00000E+00
         0.00000E+00
         0.00000E+00
         0.00000E+00
         0.00000E+00
         0.00000E+00
         0.00000E+00
         0.00000E+00
         0.00000E+00
         0.00000E+00
         0.00000E+00
         0.00000E+00
         0.00000E+00
         0.00000E+00
         0.00000E+00
         0.00000E+00
         0.00000E+00
         0.00000E+00
         0.00000E+00
         0.00000E+00
         0.00000E+00
         0.00000E+00
         0.00000E+00
         0.00000E+00
         0.00000E+00
         0.00000E+00
         0.00000E+00
         0.00000E+00
         0.00000E+00
         0.00000E+00
         0.00000E+00
         0.00000E+00
         0.00000E+00
         0.00000E+00
         0.00000E+00
         0.00000E+00
         0.00000E+00
         0.00000E+00
         0.00000E+00
         0.00000E+00
         0.00000E+00
         0.00000E+00
         0.00000E+00
         0.00000E+00
         0.00000E+00
         0.00000E+00
         0.00000E+00
         0.00000E+00
         0.00000E+00
         0.00000E+00
         0.00000E+00
         0.00000E+00
         0.00000E+00
         0.00000E+00
         0.00000E+00
         0.00000E+00
         0.00000E+00
         0.00000E+00
         0.00000E+00
         0.00000E+00
         0.00000E+00
         0.00000E+00
         0.00000E+00
         0.00000E+00
         0.00000E+00
         0.00000E+00
         0.00000E+00
         0.00000E+00
         0.00000E+00
         0.00000E+00
         0.00000E+00
         0.00000E+00
         0.00000E+00
         0.00000E+00
         0.00000E+00
         0.00000E+00
         0.00000E+00
         0.00000E+00
         0.00000E+00
         0.00000E+00
         0.00000E+00
         0.00000E+00
         0.00000E+00
         0.00000E+00
         0.00000E+00
         0.00000E+00
         0.00000E+00
         0.00000E+00
         0.00000E+00
         0.00000E+00
         0.00000E+00
         0.00000E+00
         0.00000E+00
         0.00000E+00
         0.00000E+00
         0.00000E+00
         0.00000E+00
         0.00000E+00
         0.00000E+00
         0.00000E+00
         0.00000E+00
         0.00000E+00
         0.00000E+00
         0.00000E+00
         0.00000E+00
         0.00000E+00
         0.00000E+00
         0.00000E+00
         0.00000E+00
         0.00000E+00
         0.00000E+00
         0.00000E+00
         0.00000E+00
         0.00000E+00
         0.00000E+00
         0.00000E+00
         0.00000E+00
         0.00000E+00
         0.00000E+00
         0.00000E+00
         0.00000E+00
         0.00000E+00
         0.00000E+00
         0.00000E+00
         0.00000E+00
         0.00000E+00
         0.00000E+00
         0.00000E+00
         0.00000E+00
         0.00000E+00
         0.00000E+00
         0.00000E+00
         0.00000E+00
         0.00000E+00
         0.00000E+00
         0.00000E+00
         0.00000E+00
         0.00000E+00
         0.00000E+00
         0.00000E+00
         0.00000E+00
         0.00000E+00
         0.00000E+00
         0.00000E+00
         0.00000E+00
         0.00000E+00
         0.00000E+00
         0.00000E+00
         0.00000E+00
         0.00000E+00
         0.00000E+00
         0.00000E+00
         0.00000E+00
         0.00000E+00
         0.00000E+00
         0.00000E+00
         0.00000E+00
         0.00000E+00
         0.00000E+00
         0.00000E+00
         0.00000E+00
         0.00000E+00
         0.00000E+00
         0.00000E+00
         0.00000E+00
         0.00000E+00
         0.00000E+00
         0.00000E+00
         0.00000E+00
         0.00000E+00
         0.00000E+00
         0.00000E+00
         0.00000E+00
         0.00000E+00
         0.00000E+00
         0.00000E+00
         0.00000E+00
         0.00000E+00
         0.00000E+00
         0.00000E+00
         0.00000E+00
         0.00000E+00
         0.00000E+00
         0.00000E+00
         0.00000E+00
         0.00000E+00
         0.00000E+00
         0.00000E+00
         0.00000E+00
         0.00000E+00
         0.00000E+00
         0.00000E+00
         0.00000E+00
         0.00000E+00
         0.00000E+00
         0.00000E+00
         0.00000E+00
         0.00000E+00
         0.00000E+00
         0.00000E+00
         0.00000E+00
         0.00000E+00
         0.00000E+00
         0.00000E+00
         0.00000E+00
         0.00000E+00
         0.00000E+00
         0.00000E+00
         0.00000E+00
         0.00000E+00
         0.00000E+00
         0.00000E+00
         0.00000E+00
         0.00000E+00
         0.00000E+00
         0.00000E+00
         0.00000E+00
         0.00000E+00
         0.00000E+00
         0.00000E+00
         0.00000E+00
         0.00000E+00
         0.00000E+00
         0.00000E+00
         0.00000E+00
         0.00000E+00
         0.00000E+00
         0.00000E+00
         0.00000E+00
         0.00000E+00
         0.00000E+00
         0.00000E+00
         0.00000E+00
         0.00000E+00
         0.00000E+00
         0.00000E+00
         0.00000E+00
         0.00000E+00
         0.00000E+00
         0.00000E+00
         0.00000E+00
         0.00000E+00
         0.00000E+00
         0.00000E+00
         0.00000E+00
         0.00000E+00
         0.00000E+00
         0.00000E+00
         0.00000E+00
         0.00000E+00
         0.00000E+00
         0.00000E+00
         0.00000E+00
         0.00000E+00
         0.00000E+00
         0.00000E+00
         0.00000E+00
         0.00000E+00
         0.00000E+00
         0.00000E+00
         0.00000E+00
         0.00000E+00
         0.00000E+00
         0.00000E+00
         0.00000E+00
         0.00000E+00
         0.00000E+00
         0.00000E+00
         0.00000E+00
         0.00000E+00
         0.00000E+00
         0.00000E+00
         0.00000E+00
         0.00000E+00
         0.00000E+00
         0.00000E+00
         0.00000E+00
         0.00000E+00
         0.00000E+00
         0.00000E+00
         0.00000E+00
         0.00000E+00
         0.00000E+00
         0.00000E+00
         0.00000E+00
         0.00000E+00
         0.00000E+00
         0.00000E+00
         0.00000E+00
         0.00000E+00
         0.00000E+00
         0.00000E+00
         0.00000E+00
         0.00000E+00
         0.00000E+00
         0.00000E+00
         0.00000E+00
         0.00000E+00
         0.00000E+00
         0.00000E+00
         0.00000E+00
         0.00000E+00
         0.00000E+00
         0.00000E+00
         0.00000E+00
         0.00000E+00
         0.00000E+00
         0.00000E+00
         0.00000E+00
         0.00000E+00
         0.00000E+00
         0.00000E+00
         0.00000E+00
         0.00000E+00
         0.00000E+00
         0.00000E+00
         0.00000E+00
         0.00000E+00
         0.00000E+00
         0.00000E+00
         0.00000E+00
         0.00000E+00
         0.00000E+00
         0.00000E+00
         0.00000E+00
         0.00000E+00
         0.00000E+00
         0.00000E+00
         0.00000E+00
         0.00000E+00
         0.00000E+00
         0.00000E+00
         0.00000E+00
         0.00000E+00
         0.00000E+00
         0.00000E+00
         0.00000E+00
         0.00000E+00
         0.00000E+00
         0.00000E+00
         0.00000E+00
         0.00000E+00
         0.00000E+00
         0.00000E+00
         0.00000E+00
         0.00000E+00
         0.00000E+00
         0.00000E+00
         0.00000E+00
         0.00000E+00
         0.00000E+00
         0.00000E+00
         0.00000E+00
         0.00000E+00
         0.00000E+00
         0.00000E+00
         0.00000E+00
         0.00000E+00
         0.00000E+00
         0.00000E+00
         0.00000E+00
         0.00000E+00
         0.00000E+00
         0.00000E+00
         0.00000E+00
         0.00000E+00
         0.00000E+00
         0.00000E+00
         0.00000E+00
         0.00000E+00
         0.00000E+00
         0.00000E+00
         0.00000E+00
         0.00000E+00
         0.00000E+00
         0.00000E+00
         0.00000E+00
         0.00000E+00
         0.00000E+00
         0.00000E+00
         0.00000E+00
         0.00000E+00
         0.00000E+00
         0.00000E+00
         0.00000E+00
         0.00000E+00
         0.00000E+00
         0.00000E+00
         0.00000E+00
         0.00000E+00
         0.00000E+00
         0.00000E+00
         0.00000E+00
         0.00000E+00
         0.00000E+00
         0.00000E+00
         0.00000E+00
         0.00000E+00
         0.00000E+00
         0.00000E+00
         0.00000E+00
         0.00000E+00
         0.00000E+00
         0.00000E+00
         0.00000E+00
         0.00000E+00
         0.00000E+00
         0.00000E+00
         0.00000E+00
         0.00000E+00
         0.00000E+00
         0.00000E+00
         0.00000E+00
         0.00000E+00
         0.00000E+00
         0.00000E+00
         0.00000E+00
         0.00000E+00
         0.00000E+00
         0.00000E+00
         0.00000E+00
         0.00000E+00
         0.00000E+00
         0.00000E+00
         0.00000E+00
         0.00000E+00
         0.00000E+00
         0.00000E+00
         0.00000E+00
         0.00000E+00
         0.00000E+00
         0.00000E+00
         0.00000E+00
         0.00000E+00
         0.00000E+00
         0.00000E+00
         0.00000E+00
         0.00000E+00
         0.00000E+00
         0.00000E+00
         0.00000E+00
         0.00000E+00
         0.00000E+00
         0.00000E+00
         0.00000E+00
         0.00000E+00
         0.00000E+00
         0.00000E+00
         0.00000E+00
         0.00000E+00
         0.00000E+00
         0.00000E+00
         0.00000E+00
         0.00000E+00
         0.00000E+00
         0.00000E+00
         0.00000E+00
         0.00000E+00
         0.00000E+00
         0.00000E+00
         0.00000E+00
         0.00000E+00
         0.00000E+00
         0.00000E+00
         0.00000E+00
         0.00000E+00
         0.00000E+00
         0.00000E+00
         0.00000E+00
         0.00000E+00
         0.00000E+00
         0.00000E+00
         0.00000E+00
         0.00000E+00
         0.00000E+00
         0.00000E+00
         0.00000E+00
         0.00000E+00
         0.00000E+00
         0.00000E+00
         0.00000E+00
         0.00000E+00
         0.00000E+00
         0.00000E+00
         0.00000E+00
         0.00000E+00
         0.00000E+00
         0.00000E+00
         0.00000E+00
         0.00000E+00
         0.00000E+00
         0.00000E+00
         0.00000E+00
         0.00000E+00
         0.00000E+00
         0.00000E+00
         0.00000E+00
         0.00000E+00
         0.00000E+00
         0.00000E+00
         0.00000E+00
         0.00000E+00
         0.00000E+00
         0.00000E+00
         0.00000E+00
         0.00000E+00
         0.00000E+00
         0.00000E+00
         0.00000E+00
         0.00000E+00
         0.00000E+00
         0.00000E+00
         0.00000E+00
         0.00000E+00
         0.00000E+00
         0.00000E+00
         0.00000E+00
         0.00000E+00
         0.00000E+00
         0.00000E+00
         0.00000E+00
         0.00000E+00
         0.00000E+00
         0.00000E+00
         0.00000E+00
         0.00000E+00
         0.00000E+00
         0.00000E+00
         0.00000E+00
         0.00000E+00
         0.00000E+00
         0.00000E+00
         0.00000E+00
         0.00000E+00
         0.00000E+00
         0.00000E+00
         0.00000E+00
         0.00000E+00
         0.00000E+00
         0.00000E+00
         0.00000E+00
         0.00000E+00
         0.00000E+00
         0.00000E+00
         0.00000E+00
         0.00000E+00
         0.00000E+00
         0.00000E+00
         0.00000E+00
         0.00000E+00
         0.00000E+00
         0.00000E+00
         0.00000E+00
         0.00000E+00
         0.00000E+00
         0.00000E+00
         0.00000E+00
         0.00000E+00
         0.00000E+00
         0.00000E+00
         0.00000E+00
         0.00000E+00
         0.00000E+00
         0.00000E+00
         0.00000E+00
         0.00000E+00
         0.00000E+00
         0.00000E+00
         0.00000E+00
         0.00000E+00
         0.00000E+00
         0.00000E+00
         0.00000E+00
         0.00000E+00
         0.00000E+00
         0.00000E+00
         0.00000E+00
         0.00000E+00
         0.00000E+00
         0.00000E+00
         0.00000E+00
         0.00000E+00
         0.00000E+00
         0.00000E+00
         0.00000E+00
         0.00000E+00
         0.00000E+00
         0.00000E+00
         0.00000E+00
         0.00000E+00
         0.00000E+00
         0.00000E+00
         0.00000E+00
         0.00000E+00
         0.00000E+00
         0.00000E+00
         0.00000E+00
         0.00000E+00
         0.00000E+00
         0.00000E+00
         0.00000E+00
         0.00000E+00
         0.00000E+00
         0.00000E+00
         0.00000E+00
         0.00000E+00
         0.00000E+00
         0.00000E+00
         0.00000E+00
         0.00000E+00
         0.00000E+00
         0.00000E+00
         0.00000E+00
         0.00000E+00
         0.00000E+00
         0.00000E+00
         0.00000E+00
         0.00000E+00
         0.00000E+00
         0.00000E+00
         0.00000E+00
         0.00000E+00
         0.00000E+00
         0.00000E+00
         0.00000E+00
         0.00000E+00
         0.00000E+00
         0.00000E+00
         0.00000E+00
         0.00000E+00
         0.00000E+00
         0.00000E+00
         0.00000E+00
         0.00000E+00
         0.00000E+00
         0.00000E+00
         0.00000E+00
         0.00000E+00
         0.00000E+00
         0.00000E+00
         0.00000E+00
         0.00000E+00
         0.00000E+00
         0.00000E+00
         0.00000E+00
         0.00000E+00
         0.00000E+00
         0.00000E+00
         0.00000E+00
         0.00000E+00
         0.00000E+00
         0.00000E+00
         0.00000E+00
         0.00000E+00
         0.00000E+00
         0.00000E+00
         0.00000E+00
         0.00000E+00
         0.00000E+00
         0.00000E+00
         0.00000E+00
         0.00000E+00
         0.00000E+00
         0.00000E+00
         0.00000E+00
         0.00000E+00
         0.00000E+00
         0.00000E+00
         0.00000E+00
         0.00000E+00
         0.00000E+00
         0.00000E+00
         0.00000E+00
         0.00000E+00
         0.00000E+00
         0.00000E+00
         0.00000E+00
         0.00000E+00
         0.00000E+00
         0.00000E+00
         0.00000E+00
         0.00000E+00
         0.00000E+00
         0.00000E+00
         0.00000E+00
         0.00000E+00
         0.00000E+00
         0.00000E+00
         0.00000E+00
         0.00000E+00
         0.00000E+00
         0.00000E+00
         0.00000E+00
         0.00000E+00
         0.00000E+00
         0.00000E+00
         0.00000E+00
         0.00000E+00
         0.00000E+00
         0.00000E+00
         0.00000E+00
         0.00000E+00
         0.00000E+00
         0.00000E+00
         0.00000E+00
         0.00000E+00
         0.00000E+00
         0.00000E+00
         0.00000E+00
         0.00000E+00
         0.00000E+00
         0.00000E+00
         0.00000E+00
         0.00000E+00
         0.00000E+00
         0.00000E+00
         0.00000E+00
         0.00000E+00
         0.00000E+00
         0.00000E+00
         0.00000E+00
         0.00000E+00
         0.00000E+00
         0.00000E+00
         0.00000E+00
         0.00000E+00
         0.00000E+00
         0.00000E+00
         0.00000E+00
         0.00000E+00
         0.00000E+00
         0.00000E+00
         0.00000E+00
         0.00000E+00
         0.00000E+00
         0.00000E+00
         0.00000E+00
         0.00000E+00
         0.00000E+00
         0.00000E+00
         0.00000E+00
         0.00000E+00
         0.00000E+00
         0.00000E+00
         0.00000E+00
         0.00000E+00
         0.00000E+00
         0.00000E+00
         0.00000E+00
         0.00000E+00
         0.00000E+00
         0.00000E+00
         0.00000E+00
         0.00000E+00
         0.00000E+00
         0.00000E+00
         0.00000E+00
         0.00000E+00
         0.00000E+00
         0.00000E+00
         0.00000E+00
         0.00000E+00
         0.00000E+00
         0.00000E+00
         0.00000E+00
         0.00000E+00
         0.00000E+00
         0.00000E+00
         0.00000E+00
         0.00000E+00
         0.00000E+00
         0.00000E+00
         0.00000E+00
         0.00000E+00
         0.00000E+00
         0.00000E+00
         0.00000E+00
         0.00000E+00
         0.00000E+00
         0.00000E+00
         0.00000E+00
         0.00000E+00
         0.00000E+00
         0.00000E+00
         0.00000E+00
         0.00000E+00
         0.00000E+00
         0.00000E+00
         0.00000E+00
         0.00000E+00
         0.00000E+00
         0.00000E+00
         0.00000E+00
         0.00000E+00
         0.00000E+00
         0.00000E+00
         0.00000E+00
         0.00000E+00
         0.00000E+00
         0.00000E+00
         0.00000E+00
         0.00000E+00
         0.00000E+00
         0.00000E+00
         0.00000E+00
         0.00000E+00
         0.00000E+00
         0.00000E+00
         0.00000E+00
         0.00000E+00
         0.00000E+00
         0.00000E+00
         0.00000E+00
         0.00000E+00
         0.00000E+00
         0.00000E+00
         0.00000E+00
         0.00000E+00
         0.00000E+00
         0.00000E+00
         0.00000E+00
         0.00000E+00
         0.00000E+00
         0.00000E+00
         0.00000E+00
         0.00000E+00
         0.00000E+00
         0.00000E+00
         0.00000E+00
         0.00000E+00
         0.00000E+00
         0.00000E+00
         0.00000E+00
         0.00000E+00
         0.00000E+00
         0.00000E+00
         0.00000E+00
         0.00000E+00
         0.00000E+00
         0.00000E+00
         0.00000E+00
         0.00000E+00
         0.00000E+00
         0.00000E+00
         0.00000E+00
         0.00000E+00
         0.00000E+00
         0.00000E+00
         0.00000E+00
         0.00000E+00
         0.00000E+00
         0.00000E+00
         0.00000E+00
         0.00000E+00
         0.00000E+00
         0.00000E+00
         0.00000E+00
         0.00000E+00
         0.00000E+00
         0.00000E+00
         0.00000E+00
         0.00000E+00
         0.00000E+00
         0.00000E+00
         0.00000E+00
         0.00000E+00
         0.00000E+00
         0.00000E+00
         0.00000E+00
         0.00000E+00
         0.00000E+00
         0.00000E+00
         0.00000E+00
         0.00000E+00
         0.00000E+00
         0.00000E+00
         0.00000E+00
         0.00000E+00
         0.00000E+00
         0.00000E+00
         0.00000E+00
         0.00000E+00
         0.00000E+00
         0.00000E+00
         0.00000E+00
         0.00000E+00
         0.00000E+00
         0.00000E+00
         0.00000E+00
         0.00000E+00
         0.00000E+00
         0.00000E+00
         0.00000E+00
         0.00000E+00
         0.00000E+00
         0.00000E+00
         0.00000E+00
         0.00000E+00
         0.00000E+00
         0.00000E+00
         0.00000E+00
         0.00000E+00
         0.00000E+00
         0.00000E+00
         0.00000E+00
         0.00000E+00
         0.00000E+00
         0.00000E+00
         0.00000E+00
         0.00000E+00
         0.00000E+00
         0.00000E+00
         0.00000E+00
         0.00000E+00
         0.00000E+00
         0.00000E+00
         0.00000E+00
         0.00000E+00
         0.00000E+00
         0.00000E+00
         0.00000E+00
         0.00000E+00
         0.00000E+00
         0.00000E+00
         0.00000E+00
         0.00000E+00
         0.00000E+00
         0.00000E+00
         0.00000E+00
         0.00000E+00
         0.00000E+00
         0.00000E+00
         0.00000E+00
         0.00000E+00
         0.00000E+00
         0.00000E+00
         0.00000E+00
         0.00000E+00
         0.00000E+00
         0.00000E+00
         0.00000E+00
         0.00000E+00
         0.00000E+00
         0.00000E+00
         0.00000E+00
         0.00000E+00
         0.00000E+00
         0.00000E+00
         0.00000E+00
         0.00000E+00
         0.00000E+00
         0.00000E+00
         0.00000E+00
         0.00000E+00
         0.00000E+00
         0.00000E+00
         0.00000E+00
         0.00000E+00
         0.00000E+00
         0.00000E+00
         0.00000E+00
         0.00000E+00
         0.00000E+00
         0.00000E+00
         0.00000E+00
         0.00000E+00
         0.00000E+00
         0.00000E+00
         0.00000E+00
         0.00000E+00
         0.00000E+00
         0.00000E+00
         0.00000E+00
         0.00000E+00
         0.00000E+00
         0.00000E+00
         0.00000E+00
         0.00000E+00
         0.00000E+00
         0.00000E+00
         0.00000E+00
         0.00000E+00
         0.00000E+00
         0.00000E+00
         0.00000E+00
         0.00000E+00
         0.00000E+00
         0.00000E+00
         0.00000E+00
         0.00000E+00
         0.00000E+00
         0.00000E+00
         0.00000E+00
         0.00000E+00
         0.00000E+00
         0.00000E+00
         0.00000E+00
         0.00000E+00
         0.00000E+00
         0.00000E+00
         0.00000E+00
         0.00000E+00
         0.00000E+00
         0.00000E+00
         0.00000E+00
         0.00000E+00
         0.00000E+00
         0.00000E+00
         0.00000E+00
         0.00000E+00
         0.00000E+00
         0.00000E+00
         0.00000E+00
         0.00000E+00
         0.00000E+00
         0.00000E+00
         0.00000E+00
         0.00000E+00
         0.00000E+00
         0.00000E+00
         0.00000E+00
         0.00000E+00
         0.00000E+00
         0.00000E+00
         0.00000E+00
         0.00000E+00
         0.00000E+00
         0.00000E+00
         0.00000E+00
         0.00000E+00
         0.00000E+00
         0.00000E+00
         0.00000E+00
         0.00000E+00
         0.00000E+00
         0.00000E+00
         0.00000E+00
         0.00000E+00
         0.00000E+00
         0.00000E+00
         0.00000E+00
         0.00000E+00
         0.00000E+00
         0.00000E+00
         0.00000E+00
         0.00000E+00
         0.00000E+00
         0.00000E+00
         0.00000E+00
         0.00000E+00
         0.00000E+00
         0.00000E+00
         0.00000E+00
         0.00000E+00
         0.00000E+00
         0.00000E+00
         0.00000E+00
         0.00000E+00
         0.00000E+00
         0.00000E+00
         0.00000E+00
         0.00000E+00
         0.00000E+00
         0.00000E+00
         0.00000E+00
         0.00000E+00
         0.00000E+00
         0.00000E+00
         0.00000E+00
         0.00000E+00
         0.00000E+00
         0.00000E+00
         0.00000E+00
         0.00000E+00
         0.00000E+00
         0.00000E+00
         0.00000E+00
         0.00000E+00
         0.00000E+00
         0.00000E+00
         0.00000E+00
         0.00000E+00
         0.00000E+00
         0.00000E+00
         0.00000E+00
         0.00000E+00
         0.00000E+00
         0.00000E+00
         0.00000E+00
         0.00000E+00
         0.00000E+00
         0.00000E+00
         0.00000E+00
         0.00000E+00
         0.00000E+00
         0.00000E+00
         0.00000E+00
         0.00000E+00
         0.00000E+00
         0.00000E+00
         0.00000E+00
         0.00000E+00
         0.00000E+00
         0.00000E+00
         0.00000E+00
         0.00000E+00
         0.00000E+00
         0.00000E+00
         0.00000E+00
         0.00000E+00
         0.00000E+00
         0.00000E+00
         0.00000E+00
         0.00000E+00
         0.00000E+00
         0.00000E+00
         0.00000E+00
         0.00000E+00
         0.00000E+00
         0.00000E+00
         0.00000E+00
         0.00000E+00
         0.00000E+00
         0.00000E+00
         0.00000E+00
         0.00000E+00
         0.00000E+00
         0.00000E+00
         0.00000E+00
         0.00000E+00
         0.00000E+00
         0.00000E+00
         0.00000E+00
         0.00000E+00
         0.00000E+00
         0.00000E+00
         0.00000E+00
         0.00000E+00
         0.00000E+00
         0.00000E+00
         0.00000E+00
         0.00000E+00
         0.00000E+00
         0.00000E+00
         0.00000E+00
         0.00000E+00
         0.00000E+00
         0.00000E+00
         0.00000E+00
         0.00000E+00
         0.00000E+00
         0.00000E+00
         0.00000E+00
         0.00000E+00
         0.00000E+00
         0.00000E+00
         0.00000E+00
         0.00000E+00
         0.00000E+00
         0.00000E+00
         0.00000E+00
         0.00000E+00
         0.00000E+00
         0.00000E+00
         0.00000E+00
         0.00000E+00
         0.00000E+00
         0.00000E+00
         0.00000E+00
         0.00000E+00
         0.00000E+00
         0.00000E+00
         0.00000E+00
         0.00000E+00
         0.00000E+00
         0.00000E+00
         0.00000E+00
         0.00000E+00
         0.00000E+00
         0.00000E+00
         0.00000E+00
         0.00000E+00
         0.00000E+00
         0.00000E+00
         0.00000E+00
         0.00000E+00
         0.00000E+00
         0.00000E+00
         0.00000E+00
         0.00000E+00
         0.00000E+00
         0.00000E+00
         0.00000E+00
         0.00000E+00
         0.00000E+00
         0.00000E+00
         0.00000E+00
         0.00000E+00
         0.00000E+00
         0.00000E+00
         0.00000E+00
         0.00000E+00
         0.00000E+00
         0.00000E+00
         0.00000E+00
         0.00000E+00
         0.00000E+00
         0.00000E+00
         0.00000E+00
         0.00000E+00
         0.00000E+00
         0.00000E+00
         0.00000E+00
         0.00000E+00
         0.00000E+00
         0.00000E+00
         0.00000E+00
         0.00000E+00
         0.00000E+00
         0.00000E+00
         0.00000E+00
         0.00000E+00
         0.00000E+00
         0.00000E+00
         0.00000E+00
         0.00000E+00
         0.00000E+00
         0.00000E+00
         0.00000E+00
         0.00000E+00
         0.00000E+00
         0.00000E+00
         0.00000E+00
         0.00000E+00
         0.00000E+00
         0.00000E+00
         0.00000E+00
         0.00000E+00
         0.00000E+00
         0.00000E+00
         0.00000E+00
         0.00000E+00
         0.00000E+00
         0.00000E+00
         0.00000E+00
         0.00000E+00
         0.00000E+00
         0.00000E+00
         0.00000E+00
         0.00000E+00
         0.00000E+00
         0.00000E+00
         0.00000E+00
         0.00000E+00
         0.00000E+00
         0.00000E+00
         0.00000E+00
         0.00000E+00
         0.00000E+00
         0.00000E+00
         0.00000E+00
         0.00000E+00
         0.00000E+00
         0.00000E+00
         0.00000E+00
         0.00000E+00
         0.00000E+00
         0.00000E+00
         0.00000E+00
         0.00000E+00
         0.00000E+00
         0.00000E+00
         0.00000E+00
         0.00000E+00
         0.00000E+00
         0.00000E+00
         0.00000E+00
         0.00000E+00
         0.00000E+00
         0.00000E+00
         0.00000E+00
         0.00000E+00
         0.00000E+00
         0.00000E+00
         0.00000E+00
         0.00000E+00
         0.00000E+00
         0.00000E+00
         0.00000E+00
         0.00000E+00
         0.00000E+00
         0.00000E+00
         0.00000E+00
         0.00000E+00
         0.00000E+00
         0.00000E+00
         0.00000E+00
         0.00000E+00
         0.00000E+00
         0.00000E+00
         0.00000E+00
         0.00000E+00
         0.00000E+00
         0.00000E+00
         0.00000E+00
         0.00000E+00
         0.00000E+00
         0.00000E+00
         0.00000E+00
         0.00000E+00
         0.00000E+00
         0.00000E+00
         0.00000E+00
         0.00000E+00
         0.00000E+00
         0.00000E+00
         0.00000E+00
         0.00000E+00
         0.00000E+00
         0.00000E+00
         0.00000E+00
         0.00000E+00
         0.00000E+00
         0.00000E+00
         0.00000E+00
         0.00000E+00
         0.00000E+00
         0.00000E+00
         0.00000E+00
         0.00000E+00
         0.00000E+00
         0.00000E+00
         0.00000E+00
         0.00000E+00
         0.00000E+00
         0.00000E+00
         0.00000E+00
         0.00000E+00
         0.00000E+00
         0.00000E+00
         0.00000E+00
         0.00000E+00
         0.00000E+00
         0.00000E+00
         0.00000E+00
         0.00000E+00
         0.00000E+00
         0.00000E+00
         0.00000E+00
         0.00000E+00
         0.00000E+00
         0.00000E+00
         0.00000E+00
         0.00000E+00
         0.00000E+00
         0.00000E+00
         0.00000E+00
         0.00000E+00
         0.00000E+00
         0.00000E+00
         0.00000E+00
         0.00000E+00
         0.00000E+00
         0.00000E+00
         0.00000E+00
         0.00000E+00
         0.00000E+00
         0.00000E+00
         0.00000E+00
         0.00000E+00
         0.00000E+00
         0.00000E+00
         0.00000E+00
         0.00000E+00
         0.00000E+00
         0.00000E+00
         0.00000E+00
         0.00000E+00
         0.00000E+00
         0.00000E+00
  
SCALARS                      stress_yz  double 1
LOOKUP_TABLE default
         0.00000E+00
         0.00000E+00
         0.00000E+00
         0.00000E+00
         0.00000E+00
         0.00000E+00
         0.00000E+00
         0.00000E+00
         0.00000E+00
         0.00000E+00
         0.00000E+00
         0.00000E+00
         0.00000E+00
         0.00000E+00
         0.00000E+00
         0.00000E+00
         0.00000E+00
         0.00000E+00
         0.00000E+00
         0.00000E+00
         0.00000E+00
         0.00000E+00
         0.00000E+00
         0.00000E+00
         0.00000E+00
         0.00000E+00
         0.00000E+00
         0.00000E+00
         0.00000E+00
         0.00000E+00
         0.00000E+00
         0.00000E+00
         0.00000E+00
         0.00000E+00
         0.00000E+00
         0.00000E+00
         0.00000E+00
         0.00000E+00
         0.00000E+00
         0.00000E+00
         0.00000E+00
         0.00000E+00
         0.00000E+00
         0.00000E+00
         0.00000E+00
         0.00000E+00
         0.00000E+00
         0.00000E+00
         0.00000E+00
         0.00000E+00
         0.00000E+00
         0.00000E+00
         0.00000E+00
         0.00000E+00
         0.00000E+00
         0.00000E+00
         0.00000E+00
         0.00000E+00
         0.00000E+00
         0.00000E+00
         0.00000E+00
         0.00000E+00
         0.00000E+00
         0.00000E+00
         0.00000E+00
         0.00000E+00
         0.00000E+00
         0.00000E+00
         0.00000E+00
         0.00000E+00
         0.00000E+00
         0.00000E+00
         0.00000E+00
         0.00000E+00
         0.00000E+00
         0.00000E+00
         0.00000E+00
         0.00000E+00
         0.00000E+00
         0.00000E+00
         0.00000E+00
         0.00000E+00
         0.00000E+00
         0.00000E+00
         0.00000E+00
         0.00000E+00
         0.00000E+00
         0.00000E+00
         0.00000E+00
         0.00000E+00
         0.00000E+00
         0.00000E+00
         0.00000E+00
         0.00000E+00
         0.00000E+00
         0.00000E+00
         0.00000E+00
         0.00000E+00
         0.00000E+00
         0.00000E+00
         0.00000E+00
         0.00000E+00
         0.00000E+00
         0.00000E+00
         0.00000E+00
         0.00000E+00
         0.00000E+00
         0.00000E+00
         0.00000E+00
         0.00000E+00
         0.00000E+00
         0.00000E+00
         0.00000E+00
         0.00000E+00
         0.00000E+00
         0.00000E+00
         0.00000E+00
         0.00000E+00
         0.00000E+00
         0.00000E+00
         0.00000E+00
         0.00000E+00
         0.00000E+00
         0.00000E+00
         0.00000E+00
         0.00000E+00
         0.00000E+00
         0.00000E+00
         0.00000E+00
         0.00000E+00
         0.00000E+00
         0.00000E+00
         0.00000E+00
         0.00000E+00
         0.00000E+00
         0.00000E+00
         0.00000E+00
         0.00000E+00
         0.00000E+00
         0.00000E+00
         0.00000E+00
         0.00000E+00
         0.00000E+00
         0.00000E+00
         0.00000E+00
         0.00000E+00
         0.00000E+00
         0.00000E+00
         0.00000E+00
         0.00000E+00
         0.00000E+00
         0.00000E+00
         0.00000E+00
         0.00000E+00
         0.00000E+00
         0.00000E+00
         0.00000E+00
         0.00000E+00
         0.00000E+00
         0.00000E+00
         0.00000E+00
         0.00000E+00
         0.00000E+00
         0.00000E+00
         0.00000E+00
         0.00000E+00
         0.00000E+00
         0.00000E+00
         0.00000E+00
         0.00000E+00
         0.00000E+00
         0.00000E+00
         0.00000E+00
         0.00000E+00
         0.00000E+00
         0.00000E+00
         0.00000E+00
         0.00000E+00
         0.00000E+00
         0.00000E+00
         0.00000E+00
         0.00000E+00
         0.00000E+00
         0.00000E+00
         0.00000E+00
         0.00000E+00
         0.00000E+00
         0.00000E+00
         0.00000E+00
         0.00000E+00
         0.00000E+00
         0.00000E+00
         0.00000E+00
         0.00000E+00
         0.00000E+00
         0.00000E+00
         0.00000E+00
         0.00000E+00
         0.00000E+00
         0.00000E+00
         0.00000E+00
         0.00000E+00
         0.00000E+00
         0.00000E+00
         0.00000E+00
         0.00000E+00
         0.00000E+00
         0.00000E+00
         0.00000E+00
         0.00000E+00
         0.00000E+00
         0.00000E+00
         0.00000E+00
         0.00000E+00
         0.00000E+00
         0.00000E+00
         0.00000E+00
         0.00000E+00
         0.00000E+00
         0.00000E+00
         0.00000E+00
         0.00000E+00
         0.00000E+00
         0.00000E+00
         0.00000E+00
         0.00000E+00
         0.00000E+00
         0.00000E+00
         0.00000E+00
         0.00000E+00
         0.00000E+00
         0.00000E+00
         0.00000E+00
         0.00000E+00
         0.00000E+00
         0.00000E+00
         0.00000E+00
         0.00000E+00
         0.00000E+00
         0.00000E+00
         0.00000E+00
         0.00000E+00
         0.00000E+00
         0.00000E+00
         0.00000E+00
         0.00000E+00
         0.00000E+00
         0.00000E+00
         0.00000E+00
         0.00000E+00
         0.00000E+00
         0.00000E+00
         0.00000E+00
         0.00000E+00
         0.00000E+00
         0.00000E+00
         0.00000E+00
         0.00000E+00
         0.00000E+00
         0.00000E+00
         0.00000E+00
         0.00000E+00
         0.00000E+00
         0.00000E+00
         0.00000E+00
         0.00000E+00
         0.00000E+00
         0.00000E+00
         0.00000E+00
         0.00000E+00
         0.00000E+00
         0.00000E+00
         0.00000E+00
         0.00000E+00
         0.00000E+00
         0.00000E+00
         0.00000E+00
         0.00000E+00
         0.00000E+00
         0.00000E+00
         0.00000E+00
         0.00000E+00
         0.00000E+00
         0.00000E+00
         0.00000E+00
         0.00000E+00
         0.00000E+00
         0.00000E+00
         0.00000E+00
         0.00000E+00
         0.00000E+00
         0.00000E+00
         0.00000E+00
         0.00000E+00
         0.00000E+00
         0.00000E+00
         0.00000E+00
         0.00000E+00
         0.00000E+00
         0.00000E+00
         0.00000E+00
         0.00000E+00
         0.00000E+00
         0.00000E+00
         0.00000E+00
         0.00000E+00
         0.00000E+00
         0.00000E+00
         0.00000E+00
         0.00000E+00
         0.00000E+00
         0.00000E+00
         0.00000E+00
         0.00000E+00
         0.00000E+00
         0.00000E+00
         0.00000E+00
         0.00000E+00
         0.00000E+00
         0.00000E+00
         0.00000E+00
         0.00000E+00
         0.00000E+00
         0.00000E+00
         0.00000E+00
         0.00000E+00
         0.00000E+00
         0.00000E+00
         0.00000E+00
         0.00000E+00
         0.00000E+00
         0.00000E+00
         0.00000E+00
         0.00000E+00
         0.00000E+00
         0.00000E+00
         0.00000E+00
         0.00000E+00
         0.00000E+00
         0.00000E+00
         0.00000E+00
         0.00000E+00
         0.00000E+00
         0.00000E+00
         0.00000E+00
         0.00000E+00
         0.00000E+00
         0.00000E+00
         0.00000E+00
         0.00000E+00
         0.00000E+00
         0.00000E+00
         0.00000E+00
         0.00000E+00
         0.00000E+00
         0.00000E+00
         0.00000E+00
         0.00000E+00
         0.00000E+00
         0.00000E+00
         0.00000E+00
         0.00000E+00
         0.00000E+00
         0.00000E+00
         0.00000E+00
         0.00000E+00
         0.00000E+00
         0.00000E+00
         0.00000E+00
         0.00000E+00
         0.00000E+00
         0.00000E+00
         0.00000E+00
         0.00000E+00
         0.00000E+00
         0.00000E+00
         0.00000E+00
         0.00000E+00
         0.00000E+00
         0.00000E+00
         0.00000E+00
         0.00000E+00
         0.00000E+00
         0.00000E+00
         0.00000E+00
         0.00000E+00
         0.00000E+00
         0.00000E+00
         0.00000E+00
         0.00000E+00
         0.00000E+00
         0.00000E+00
         0.00000E+00
         0.00000E+00
         0.00000E+00
         0.00000E+00
         0.00000E+00
         0.00000E+00
         0.00000E+00
         0.00000E+00
         0.00000E+00
         0.00000E+00
         0.00000E+00
         0.00000E+00
         0.00000E+00
         0.00000E+00
         0.00000E+00
         0.00000E+00
         0.00000E+00
         0.00000E+00
         0.00000E+00
         0.00000E+00
         0.00000E+00
         0.00000E+00
         0.00000E+00
         0.00000E+00
         0.00000E+00
         0.00000E+00
         0.00000E+00
         0.00000E+00
         0.00000E+00
         0.00000E+00
         0.00000E+00
         0.00000E+00
         0.00000E+00
         0.00000E+00
         0.00000E+00
         0.00000E+00
         0.00000E+00
         0.00000E+00
         0.00000E+00
         0.00000E+00
         0.00000E+00
         0.00000E+00
         0.00000E+00
         0.00000E+00
         0.00000E+00
         0.00000E+00
         0.00000E+00
         0.00000E+00
         0.00000E+00
         0.00000E+00
         0.00000E+00
         0.00000E+00
         0.00000E+00
         0.00000E+00
         0.00000E+00
         0.00000E+00
         0.00000E+00
         0.00000E+00
         0.00000E+00
         0.00000E+00
         0.00000E+00
         0.00000E+00
         0.00000E+00
         0.00000E+00
         0.00000E+00
         0.00000E+00
         0.00000E+00
         0.00000E+00
         0.00000E+00
         0.00000E+00
         0.00000E+00
         0.00000E+00
         0.00000E+00
         0.00000E+00
         0.00000E+00
         0.00000E+00
         0.00000E+00
         0.00000E+00
         0.00000E+00
         0.00000E+00
         0.00000E+00
         0.00000E+00
         0.00000E+00
         0.00000E+00
         0.00000E+00
         0.00000E+00
         0.00000E+00
         0.00000E+00
         0.00000E+00
         0.00000E+00
         0.00000E+00
         0.00000E+00
         0.00000E+00
         0.00000E+00
         0.00000E+00
         0.00000E+00
         0.00000E+00
         0.00000E+00
         0.00000E+00
         0.00000E+00
         0.00000E+00
         0.00000E+00
         0.00000E+00
         0.00000E+00
         0.00000E+00
         0.00000E+00
         0.00000E+00
         0.00000E+00
         0.00000E+00
         0.00000E+00
         0.00000E+00
         0.00000E+00
         0.00000E+00
         0.00000E+00
         0.00000E+00
         0.00000E+00
         0.00000E+00
         0.00000E+00
         0.00000E+00
         0.00000E+00
         0.00000E+00
         0.00000E+00
         0.00000E+00
         0.00000E+00
         0.00000E+00
         0.00000E+00
         0.00000E+00
         0.00000E+00
         0.00000E+00
         0.00000E+00
         0.00000E+00
         0.00000E+00
         0.00000E+00
         0.00000E+00
         0.00000E+00
         0.00000E+00
         0.00000E+00
         0.00000E+00
         0.00000E+00
         0.00000E+00
         0.00000E+00
         0.00000E+00
         0.00000E+00
         0.00000E+00
         0.00000E+00
         0.00000E+00
         0.00000E+00
         0.00000E+00
         0.00000E+00
         0.00000E+00
         0.00000E+00
         0.00000E+00
         0.00000E+00
         0.00000E+00
         0.00000E+00
         0.00000E+00
         0.00000E+00
         0.00000E+00
         0.00000E+00
         0.00000E+00
         0.00000E+00
         0.00000E+00
         0.00000E+00
         0.00000E+00
         0.00000E+00
         0.00000E+00
         0.00000E+00
         0.00000E+00
         0.00000E+00
         0.00000E+00
         0.00000E+00
         0.00000E+00
         0.00000E+00
         0.00000E+00
         0.00000E+00
         0.00000E+00
         0.00000E+00
         0.00000E+00
         0.00000E+00
         0.00000E+00
         0.00000E+00
         0.00000E+00
         0.00000E+00
         0.00000E+00
         0.00000E+00
         0.00000E+00
         0.00000E+00
         0.00000E+00
         0.00000E+00
         0.00000E+00
         0.00000E+00
         0.00000E+00
         0.00000E+00
         0.00000E+00
         0.00000E+00
         0.00000E+00
         0.00000E+00
         0.00000E+00
         0.00000E+00
         0.00000E+00
         0.00000E+00
         0.00000E+00
         0.00000E+00
         0.00000E+00
         0.00000E+00
         0.00000E+00
         0.00000E+00
         0.00000E+00
         0.00000E+00
         0.00000E+00
         0.00000E+00
         0.00000E+00
         0.00000E+00
         0.00000E+00
         0.00000E+00
         0.00000E+00
         0.00000E+00
         0.00000E+00
         0.00000E+00
         0.00000E+00
         0.00000E+00
         0.00000E+00
         0.00000E+00
         0.00000E+00
         0.00000E+00
         0.00000E+00
         0.00000E+00
         0.00000E+00
         0.00000E+00
         0.00000E+00
         0.00000E+00
         0.00000E+00
         0.00000E+00
         0.00000E+00
         0.00000E+00
         0.00000E+00
         0.00000E+00
         0.00000E+00
         0.00000E+00
         0.00000E+00
         0.00000E+00
         0.00000E+00
         0.00000E+00
         0.00000E+00
         0.00000E+00
         0.00000E+00
         0.00000E+00
         0.00000E+00
         0.00000E+00
         0.00000E+00
         0.00000E+00
         0.00000E+00
         0.00000E+00
         0.00000E+00
         0.00000E+00
         0.00000E+00
         0.00000E+00
         0.00000E+00
         0.00000E+00
         0.00000E+00
         0.00000E+00
         0.00000E+00
         0.00000E+00
         0.00000E+00
         0.00000E+00
         0.00000E+00
         0.00000E+00
         0.00000E+00
         0.00000E+00
         0.00000E+00
         0.00000E+00
         0.00000E+00
         0.00000E+00
         0.00000E+00
         0.00000E+00
         0.00000E+00
         0.00000E+00
         0.00000E+00
         0.00000E+00
         0.00000E+00
         0.00000E+00
         0.00000E+00
         0.00000E+00
         0.00000E+00
         0.00000E+00
         0.00000E+00
         0.00000E+00
         0.00000E+00
         0.00000E+00
         0.00000E+00
         0.00000E+00
         0.00000E+00
         0.00000E+00
         0.00000E+00
         0.00000E+00
         0.00000E+00
         0.00000E+00
         0.00000E+00
         0.00000E+00
         0.00000E+00
         0.00000E+00
         0.00000E+00
         0.00000E+00
         0.00000E+00
         0.00000E+00
         0.00000E+00
         0.00000E+00
         0.00000E+00
         0.00000E+00
         0.00000E+00
         0.00000E+00
         0.00000E+00
         0.00000E+00
         0.00000E+00
         0.00000E+00
         0.00000E+00
         0.00000E+00
         0.00000E+00
         0.00000E+00
         0.00000E+00
         0.00000E+00
         0.00000E+00
         0.00000E+00
         0.00000E+00
         0.00000E+00
         0.00000E+00
         0.00000E+00
         0.00000E+00
         0.00000E+00
         0.00000E+00
         0.00000E+00
         0.00000E+00
         0.00000E+00
         0.00000E+00
         0.00000E+00
         0.00000E+00
         0.00000E+00
         0.00000E+00
         0.00000E+00
         0.00000E+00
         0.00000E+00
         0.00000E+00
         0.00000E+00
         0.00000E+00
         0.00000E+00
         0.00000E+00
         0.00000E+00
         0.00000E+00
         0.00000E+00
         0.00000E+00
         0.00000E+00
         0.00000E+00
         0.00000E+00
         0.00000E+00
         0.00000E+00
         0.00000E+00
         0.00000E+00
         0.00000E+00
         0.00000E+00
         0.00000E+00
         0.00000E+00
         0.00000E+00
         0.00000E+00
         0.00000E+00
         0.00000E+00
         0.00000E+00
         0.00000E+00
         0.00000E+00
         0.00000E+00
         0.00000E+00
         0.00000E+00
         0.00000E+00
         0.00000E+00
         0.00000E+00
         0.00000E+00
         0.00000E+00
         0.00000E+00
         0.00000E+00
         0.00000E+00
         0.00000E+00
         0.00000E+00
         0.00000E+00
         0.00000E+00
         0.00000E+00
         0.00000E+00
         0.00000E+00
         0.00000E+00
         0.00000E+00
         0.00000E+00
         0.00000E+00
         0.00000E+00
         0.00000E+00
         0.00000E+00
         0.00000E+00
         0.00000E+00
         0.00000E+00
         0.00000E+00
         0.00000E+00
         0.00000E+00
         0.00000E+00
         0.00000E+00
         0.00000E+00
         0.00000E+00
         0.00000E+00
         0.00000E+00
         0.00000E+00
         0.00000E+00
         0.00000E+00
         0.00000E+00
         0.00000E+00
         0.00000E+00
         0.00000E+00
         0.00000E+00
         0.00000E+00
         0.00000E+00
         0.00000E+00
         0.00000E+00
         0.00000E+00
         0.00000E+00
         0.00000E+00
         0.00000E+00
         0.00000E+00
         0.00000E+00
         0.00000E+00
         0.00000E+00
         0.00000E+00
         0.00000E+00
         0.00000E+00
         0.00000E+00
         0.00000E+00
         0.00000E+00
         0.00000E+00
         0.00000E+00
         0.00000E+00
         0.00000E+00
         0.00000E+00
         0.00000E+00
         0.00000E+00
         0.00000E+00
         0.00000E+00
         0.00000E+00
         0.00000E+00
         0.00000E+00
         0.00000E+00
         0.00000E+00
         0.00000E+00
         0.00000E+00
         0.00000E+00
         0.00000E+00
         0.00000E+00
         0.00000E+00
         0.00000E+00
         0.00000E+00
         0.00000E+00
         0.00000E+00
         0.00000E+00
         0.00000E+00
         0.00000E+00
         0.00000E+00
         0.00000E+00
         0.00000E+00
         0.00000E+00
         0.00000E+00
         0.00000E+00
         0.00000E+00
         0.00000E+00
         0.00000E+00
         0.00000E+00
         0.00000E+00
         0.00000E+00
         0.00000E+00
         0.00000E+00
         0.00000E+00
         0.00000E+00
         0.00000E+00
         0.00000E+00
         0.00000E+00
         0.00000E+00
         0.00000E+00
         0.00000E+00
         0.00000E+00
         0.00000E+00
         0.00000E+00
         0.00000E+00
         0.00000E+00
         0.00000E+00
         0.00000E+00
         0.00000E+00
         0.00000E+00
         0.00000E+00
         0.00000E+00
         0.00000E+00
         0.00000E+00
         0.00000E+00
         0.00000E+00
         0.00000E+00
         0.00000E+00
         0.00000E+00
         0.00000E+00
         0.00000E+00
         0.00000E+00
         0.00000E+00
         0.00000E+00
         0.00000E+00
         0.00000E+00
         0.00000E+00
         0.00000E+00
         0.00000E+00
         0.00000E+00
         0.00000E+00
         0.00000E+00
         0.00000E+00
         0.00000E+00
         0.00000E+00
         0.00000E+00
         0.00000E+00
         0.00000E+00
         0.00000E+00
         0.00000E+00
         0.00000E+00
         0.00000E+00
         0.00000E+00
         0.00000E+00
         0.00000E+00
         0.00000E+00
         0.00000E+00
         0.00000E+00
         0.00000E+00
         0.00000E+00
         0.00000E+00
         0.00000E+00
         0.00000E+00
         0.00000E+00
         0.00000E+00
         0.00000E+00
         0.00000E+00
         0.00000E+00
         0.00000E+00
         0.00000E+00
         0.00000E+00
         0.00000E+00
         0.00000E+00
         0.00000E+00
         0.00000E+00
         0.00000E+00
         0.00000E+00
         0.00000E+00
         0.00000E+00
         0.00000E+00
         0.00000E+00
         0.00000E+00
         0.00000E+00
         0.00000E+00
         0.00000E+00
         0.00000E+00
         0.00000E+00
         0.00000E+00
         0.00000E+00
         0.00000E+00
         0.00000E+00
         0.00000E+00
         0.00000E+00
         0.00000E+00
         0.00000E+00
         0.00000E+00
         0.00000E+00
         0.00000E+00
         0.00000E+00
         0.00000E+00
         0.00000E+00
         0.00000E+00
         0.00000E+00
         0.00000E+00
         0.00000E+00
         0.00000E+00
         0.00000E+00
         0.00000E+00
         0.00000E+00
         0.00000E+00
         0.00000E+00
         0.00000E+00
         0.00000E+00
         0.00000E+00
         0.00000E+00
         0.00000E+00
         0.00000E+00
         0.00000E+00
         0.00000E+00
         0.00000E+00
         0.00000E+00
         0.00000E+00
         0.00000E+00
         0.00000E+00
         0.00000E+00
         0.00000E+00
         0.00000E+00
         0.00000E+00
         0.00000E+00
         0.00000E+00
         0.00000E+00
         0.00000E+00
         0.00000E+00
         0.00000E+00
         0.00000E+00
         0.00000E+00
         0.00000E+00
         0.00000E+00
         0.00000E+00
         0.00000E+00
         0.00000E+00
         0.00000E+00
         0.00000E+00
         0.00000E+00
         0.00000E+00
         0.00000E+00
         0.00000E+00
         0.00000E+00
         0.00000E+00
         0.00000E+00
         0.00000E+00
         0.00000E+00
         0.00000E+00
         0.00000E+00
         0.00000E+00
         0.00000E+00
         0.00000E+00
         0.00000E+00
         0.00000E+00
         0.00000E+00
         0.00000E+00
         0.00000E+00
         0.00000E+00
         0.00000E+00
         0.00000E+00
         0.00000E+00
         0.00000E+00
         0.00000E+00
         0.00000E+00
         0.00000E+00
         0.00000E+00
         0.00000E+00
         0.00000E+00
         0.00000E+00
         0.00000E+00
         0.00000E+00
         0.00000E+00
         0.00000E+00
         0.00000E+00
         0.00000E+00
         0.00000E+00
         0.00000E+00
         0.00000E+00
         0.00000E+00
         0.00000E+00
         0.00000E+00
         0.00000E+00
         0.00000E+00
         0.00000E+00
         0.00000E+00
         0.00000E+00
         0.00000E+00
         0.00000E+00
         0.00000E+00
         0.00000E+00
         0.00000E+00
         0.00000E+00
         0.00000E+00
         0.00000E+00
         0.00000E+00
         0.00000E+00
         0.00000E+00
         0.00000E+00
         0.00000E+00
         0.00000E+00
         0.00000E+00
         0.00000E+00
         0.00000E+00
         0.00000E+00
         0.00000E+00
         0.00000E+00
         0.00000E+00
         0.00000E+00
         0.00000E+00
         0.00000E+00
         0.00000E+00
         0.00000E+00
         0.00000E+00
         0.00000E+00
         0.00000E+00
         0.00000E+00
         0.00000E+00
         0.00000E+00
         0.00000E+00
         0.00000E+00
         0.00000E+00
         0.00000E+00
         0.00000E+00
         0.00000E+00
         0.00000E+00
         0.00000E+00
         0.00000E+00
         0.00000E+00
         0.00000E+00
         0.00000E+00
         0.00000E+00
         0.00000E+00
         0.00000E+00
         0.00000E+00
         0.00000E+00
         0.00000E+00
         0.00000E+00
         0.00000E+00
         0.00000E+00
         0.00000E+00
         0.00000E+00
         0.00000E+00
         0.00000E+00
         0.00000E+00
         0.00000E+00
         0.00000E+00
         0.00000E+00
         0.00000E+00
         0.00000E+00
         0.00000E+00
         0.00000E+00
         0.00000E+00
         0.00000E+00
         0.00000E+00
         0.00000E+00
         0.00000E+00
         0.00000E+00
         0.00000E+00
         0.00000E+00
         0.00000E+00
         0.00000E+00
         0.00000E+00
         0.00000E+00
         0.00000E+00
         0.00000E+00
         0.00000E+00
         0.00000E+00
         0.00000E+00
         0.00000E+00
         0.00000E+00
         0.00000E+00
         0.00000E+00
         0.00000E+00
         0.00000E+00
         0.00000E+00
         0.00000E+00
         0.00000E+00
         0.00000E+00
         0.00000E+00
         0.00000E+00
         0.00000E+00
         0.00000E+00
         0.00000E+00
         0.00000E+00
         0.00000E+00
         0.00000E+00
         0.00000E+00
         0.00000E+00
         0.00000E+00
         0.00000E+00
         0.00000E+00
         0.00000E+00
         0.00000E+00
         0.00000E+00
         0.00000E+00
         0.00000E+00
         0.00000E+00
         0.00000E+00
         0.00000E+00
         0.00000E+00
         0.00000E+00
         0.00000E+00
         0.00000E+00
         0.00000E+00
         0.00000E+00
         0.00000E+00
         0.00000E+00
         0.00000E+00
         0.00000E+00
         0.00000E+00
         0.00000E+00
         0.00000E+00
         0.00000E+00
         0.00000E+00
         0.00000E+00
         0.00000E+00
         0.00000E+00
         0.00000E+00
         0.00000E+00
         0.00000E+00
         0.00000E+00
         0.00000E+00
         0.00000E+00
         0.00000E+00
         0.00000E+00
         0.00000E+00
         0.00000E+00
         0.00000E+00
         0.00000E+00
         0.00000E+00
         0.00000E+00
         0.00000E+00
         0.00000E+00
         0.00000E+00
         0.00000E+00
         0.00000E+00
         0.00000E+00
         0.00000E+00
         0.00000E+00
         0.00000E+00
         0.00000E+00
         0.00000E+00
         0.00000E+00
         0.00000E+00
         0.00000E+00
         0.00000E+00
         0.00000E+00
         0.00000E+00
         0.00000E+00
         0.00000E+00
         0.00000E+00
         0.00000E+00
         0.00000E+00
         0.00000E+00
         0.00000E+00
         0.00000E+00
         0.00000E+00
         0.00000E+00
         0.00000E+00
         0.00000E+00
         0.00000E+00
         0.00000E+00
         0.00000E+00
         0.00000E+00
         0.00000E+00
         0.00000E+00
         0.00000E+00
         0.00000E+00
         0.00000E+00
         0.00000E+00
         0.00000E+00
         0.00000E+00
         0.00000E+00
         0.00000E+00
         0.00000E+00
         0.00000E+00
         0.00000E+00
         0.00000E+00
         0.00000E+00
         0.00000E+00
         0.00000E+00
         0.00000E+00
         0.00000E+00
         0.00000E+00
         0.00000E+00
         0.00000E+00
         0.00000E+00
         0.00000E+00
         0.00000E+00
         0.00000E+00
         0.00000E+00
         0.00000E+00
         0.00000E+00
         0.00000E+00
         0.00000E+00
         0.00000E+00
         0.00000E+00
         0.00000E+00
         0.00000E+00
         0.00000E+00
         0.00000E+00
         0.00000E+00
         0.00000E+00
         0.00000E+00
         0.00000E+00
         0.00000E+00
         0.00000E+00
         0.00000E+00
         0.00000E+00
         0.00000E+00
         0.00000E+00
         0.00000E+00
         0.00000E+00
         0.00000E+00
         0.00000E+00
         0.00000E+00
         0.00000E+00
         0.00000E+00
         0.00000E+00
         0.00000E+00
         0.00000E+00
         0.00000E+00
         0.00000E+00
         0.00000E+00
         0.00000E+00
         0.00000E+00
         0.00000E+00
         0.00000E+00
         0.00000E+00
         0.00000E+00
         0.00000E+00
         0.00000E+00
         0.00000E+00
         0.00000E+00
         0.00000E+00
         0.00000E+00
         0.00000E+00
         0.00000E+00
         0.00000E+00
         0.00000E+00
         0.00000E+00
         0.00000E+00
         0.00000E+00
         0.00000E+00
         0.00000E+00
         0.00000E+00
         0.00000E+00
         0.00000E+00
         0.00000E+00
         0.00000E+00
         0.00000E+00
         0.00000E+00
         0.00000E+00
         0.00000E+00
         0.00000E+00
         0.00000E+00
         0.00000E+00
         0.00000E+00
         0.00000E+00
         0.00000E+00
         0.00000E+00
         0.00000E+00
         0.00000E+00
         0.00000E+00
         0.00000E+00
         0.00000E+00
         0.00000E+00
         0.00000E+00
         0.00000E+00
         0.00000E+00
         0.00000E+00
         0.00000E+00
         0.00000E+00
         0.00000E+00
         0.00000E+00
         0.00000E+00
         0.00000E+00
         0.00000E+00
         0.00000E+00
         0.00000E+00
         0.00000E+00
         0.00000E+00
         0.00000E+00
         0.00000E+00
         0.00000E+00
         0.00000E+00
         0.00000E+00
         0.00000E+00
         0.00000E+00
         0.00000E+00
         0.00000E+00
         0.00000E+00
         0.00000E+00
         0.00000E+00
         0.00000E+00
         0.00000E+00
         0.00000E+00
         0.00000E+00
         0.00000E+00
         0.00000E+00
         0.00000E+00
         0.00000E+00
         0.00000E+00
         0.00000E+00
         0.00000E+00
         0.00000E+00
         0.00000E+00
         0.00000E+00
         0.00000E+00
         0.00000E+00
         0.00000E+00
         0.00000E+00
         0.00000E+00
         0.00000E+00
         0.00000E+00
         0.00000E+00
         0.00000E+00
         0.00000E+00
         0.00000E+00
         0.00000E+00
         0.00000E+00
         0.00000E+00
         0.00000E+00
         0.00000E+00
         0.00000E+00
         0.00000E+00
         0.00000E+00
         0.00000E+00
         0.00000E+00
         0.00000E+00
         0.00000E+00
         0.00000E+00
         0.00000E+00
         0.00000E+00
         0.00000E+00
         0.00000E+00
         0.00000E+00
         0.00000E+00
         0.00000E+00
         0.00000E+00
         0.00000E+00
         0.00000E+00
         0.00000E+00
         0.00000E+00
         0.00000E+00
         0.00000E+00
         0.00000E+00
         0.00000E+00
         0.00000E+00
         0.00000E+00
         0.00000E+00
         0.00000E+00
         0.00000E+00
         0.00000E+00
         0.00000E+00
         0.00000E+00
         0.00000E+00
         0.00000E+00
         0.00000E+00
         0.00000E+00
         0.00000E+00
         0.00000E+00
         0.00000E+00
         0.00000E+00
         0.00000E+00
         0.00000E+00
         0.00000E+00
         0.00000E+00
         0.00000E+00
         0.00000E+00
         0.00000E+00
         0.00000E+00
         0.00000E+00
         0.00000E+00
         0.00000E+00
         0.00000E+00
         0.00000E+00
         0.00000E+00
         0.00000E+00
         0.00000E+00
         0.00000E+00
         0.00000E+00
         0.00000E+00
         0.00000E+00
         0.00000E+00
         0.00000E+00
         0.00000E+00
         0.00000E+00
         0.00000E+00
         0.00000E+00
         0.00000E+00
         0.00000E+00
         0.00000E+00
         0.00000E+00
         0.00000E+00
         0.00000E+00
         0.00000E+00
         0.00000E+00
         0.00000E+00
         0.00000E+00
         0.00000E+00
         0.00000E+00
         0.00000E+00
         0.00000E+00
         0.00000E+00
         0.00000E+00
         0.00000E+00
         0.00000E+00
         0.00000E+00
         0.00000E+00
         0.00000E+00
         0.00000E+00
         0.00000E+00
         0.00000E+00
         0.00000E+00
         0.00000E+00
         0.00000E+00
         0.00000E+00
         0.00000E+00
         0.00000E+00
         0.00000E+00
         0.00000E+00
         0.00000E+00
         0.00000E+00
         0.00000E+00
         0.00000E+00
         0.00000E+00
         0.00000E+00
         0.00000E+00
         0.00000E+00
         0.00000E+00
         0.00000E+00
         0.00000E+00
         0.00000E+00
         0.00000E+00
         0.00000E+00
         0.00000E+00
         0.00000E+00
         0.00000E+00
         0.00000E+00
         0.00000E+00
         0.00000E+00
         0.00000E+00
         0.00000E+00
         0.00000E+00
         0.00000E+00
         0.00000E+00
         0.00000E+00
         0.00000E+00
         0.00000E+00
         0.00000E+00
         0.00000E+00
         0.00000E+00
         0.00000E+00
         0.00000E+00
         0.00000E+00
         0.00000E+00
         0.00000E+00
         0.00000E+00
         0.00000E+00
         0.00000E+00
         0.00000E+00
         0.00000E+00
         0.00000E+00
         0.00000E+00
         0.00000E+00
         0.00000E+00
         0.00000E+00
         0.00000E+00
         0.00000E+00
         0.00000E+00
         0.00000E+00
         0.00000E+00
         0.00000E+00
         0.00000E+00
         0.00000E+00
         0.00000E+00
         0.00000E+00
         0.00000E+00
         0.00000E+00
         0.00000E+00
         0.00000E+00
         0.00000E+00
         0.00000E+00
         0.00000E+00
         0.00000E+00
         0.00000E+00
         0.00000E+00
         0.00000E+00
         0.00000E+00
         0.00000E+00
         0.00000E+00
         0.00000E+00
         0.00000E+00
         0.00000E+00
         0.00000E+00
         0.00000E+00
         0.00000E+00
         0.00000E+00
         0.00000E+00
         0.00000E+00
         0.00000E+00
         0.00000E+00
         0.00000E+00
         0.00000E+00
         0.00000E+00
         0.00000E+00
         0.00000E+00
         0.00000E+00
         0.00000E+00
         0.00000E+00
         0.00000E+00
         0.00000E+00
         0.00000E+00
         0.00000E+00
         0.00000E+00
         0.00000E+00
         0.00000E+00
         0.00000E+00
         0.00000E+00
         0.00000E+00
         0.00000E+00
         0.00000E+00
         0.00000E+00
         0.00000E+00
         0.00000E+00
         0.00000E+00
         0.00000E+00
         0.00000E+00
         0.00000E+00
         0.00000E+00
         0.00000E+00
         0.00000E+00
         0.00000E+00
         0.00000E+00
         0.00000E+00
         0.00000E+00
         0.00000E+00
         0.00000E+00
         0.00000E+00
         0.00000E+00
         0.00000E+00
         0.00000E+00
         0.00000E+00
         0.00000E+00
         0.00000E+00
         0.00000E+00
         0.00000E+00
         0.00000E+00
         0.00000E+00
         0.00000E+00
         0.00000E+00
         0.00000E+00
         0.00000E+00
         0.00000E+00
         0.00000E+00
         0.00000E+00
         0.00000E+00
         0.00000E+00
         0.00000E+00
         0.00000E+00
         0.00000E+00
         0.00000E+00
         0.00000E+00
         0.00000E+00
         0.00000E+00
         0.00000E+00
         0.00000E+00
         0.00000E+00
         0.00000E+00
         0.00000E+00
         0.00000E+00
         0.00000E+00
         0.00000E+00
         0.00000E+00
         0.00000E+00
         0.00000E+00
         0.00000E+00
         0.00000E+00
         0.00000E+00
         0.00000E+00
         0.00000E+00
         0.00000E+00
         0.00000E+00
         0.00000E+00
         0.00000E+00
         0.00000E+00
         0.00000E+00
         0.00000E+00
         0.00000E+00
         0.00000E+00
         0.00000E+00
         0.00000E+00
         0.00000E+00
         0.00000E+00
         0.00000E+00
         0.00000E+00
         0.00000E+00
         0.00000E+00
         0.00000E+00
         0.00000E+00
         0.00000E+00
         0.00000E+00
         0.00000E+00
         0.00000E+00
         0.00000E+00
         0.00000E+00
         0.00000E+00
         0.00000E+00
         0.00000E+00
         0.00000E+00
         0.00000E+00
         0.00000E+00
         0.00000E+00
         0.00000E+00
         0.00000E+00
         0.00000E+00
         0.00000E+00
         0.00000E+00
         0.00000E+00
         0.00000E+00
         0.00000E+00
         0.00000E+00
         0.00000E+00
         0.00000E+00
         0.00000E+00
         0.00000E+00
         0.00000E+00
         0.00000E+00
         0.00000E+00
         0.00000E+00
         0.00000E+00
         0.00000E+00
         0.00000E+00
         0.00000E+00
         0.00000E+00
         0.00000E+00
         0.00000E+00
         0.00000E+00
         0.00000E+00
         0.00000E+00
         0.00000E+00
         0.00000E+00
         0.00000E+00
         0.00000E+00
         0.00000E+00
         0.00000E+00
         0.00000E+00
         0.00000E+00
         0.00000E+00
         0.00000E+00
         0.00000E+00
         0.00000E+00
         0.00000E+00
         0.00000E+00
         0.00000E+00
         0.00000E+00
         0.00000E+00
         0.00000E+00
         0.00000E+00
         0.00000E+00
         0.00000E+00
         0.00000E+00
         0.00000E+00
         0.00000E+00
         0.00000E+00
         0.00000E+00
         0.00000E+00
         0.00000E+00
         0.00000E+00
         0.00000E+00
         0.00000E+00
         0.00000E+00
         0.00000E+00
         0.00000E+00
         0.00000E+00
         0.00000E+00
         0.00000E+00
         0.00000E+00
         0.00000E+00
         0.00000E+00
         0.00000E+00
         0.00000E+00
         0.00000E+00
         0.00000E+00
         0.00000E+00
         0.00000E+00
         0.00000E+00
         0.00000E+00
         0.00000E+00
         0.00000E+00
         0.00000E+00
         0.00000E+00
         0.00000E+00
         0.00000E+00
         0.00000E+00
         0.00000E+00
         0.00000E+00
         0.00000E+00
         0.00000E+00
         0.00000E+00
         0.00000E+00
         0.00000E+00
         0.00000E+00
         0.00000E+00
         0.00000E+00
         0.00000E+00
         0.00000E+00
         0.00000E+00
         0.00000E+00
         0.00000E+00
         0.00000E+00
         0.00000E+00
         0.00000E+00
         0.00000E+00
         0.00000E+00
         0.00000E+00
         0.00000E+00
         0.00000E+00
         0.00000E+00
         0.00000E+00
         0.00000E+00
         0.00000E+00
         0.00000E+00
         0.00000E+00
         0.00000E+00
         0.00000E+00
         0.00000E+00
         0.00000E+00
         0.00000E+00
         0.00000E+00
         0.00000E+00
         0.00000E+00
         0.00000E+00
         0.00000E+00
         0.00000E+00
         0.00000E+00
         0.00000E+00
         0.00000E+00
         0.00000E+00
         0.00000E+00
         0.00000E+00
         0.00000E+00
         0.00000E+00
         0.00000E+00
         0.00000E+00
         0.00000E+00
         0.00000E+00
         0.00000E+00
         0.00000E+00
         0.00000E+00
         0.00000E+00
         0.00000E+00
         0.00000E+00
         0.00000E+00
         0.00000E+00
         0.00000E+00
         0.00000E+00
         0.00000E+00
         0.00000E+00
         0.00000E+00
         0.00000E+00
         0.00000E+00
         0.00000E+00
         0.00000E+00
         0.00000E+00
         0.00000E+00
         0.00000E+00
         0.00000E+00
         0.00000E+00
         0.00000E+00
         0.00000E+00
         0.00000E+00
         0.00000E+00
         0.00000E+00
         0.00000E+00
         0.00000E+00
         0.00000E+00
         0.00000E+00
         0.00000E+00
         0.00000E+00
         0.00000E+00
         0.00000E+00
         0.00000E+00
         0.00000E+00
         0.00000E+00
         0.00000E+00
         0.00000E+00
         0.00000E+00
         0.00000E+00
         0.00000E+00
         0.00000E+00
         0.00000E+00
         0.00000E+00
         0.00000E+00
         0.00000E+00
         0.00000E+00
         0.00000E+00
         0.00000E+00
         0.00000E+00
         0.00000E+00
         0.00000E+00
         0.00000E+00
         0.00000E+00
         0.00000E+00
         0.00000E+00
         0.00000E+00
         0.00000E+00
         0.00000E+00
         0.00000E+00
         0.00000E+00
         0.00000E+00
         0.00000E+00
         0.00000E+00
         0.00000E+00
         0.00000E+00
         0.00000E+00
         0.00000E+00
         0.00000E+00
         0.00000E+00
         0.00000E+00
         0.00000E+00
         0.00000E+00
         0.00000E+00
         0.00000E+00
         0.00000E+00
         0.00000E+00
         0.00000E+00
         0.00000E+00
         0.00000E+00
         0.00000E+00
         0.00000E+00
         0.00000E+00
         0.00000E+00
         0.00000E+00
         0.00000E+00
         0.00000E+00
         0.00000E+00
         0.00000E+00
         0.00000E+00
         0.00000E+00
         0.00000E+00
         0.00000E+00
         0.00000E+00
         0.00000E+00
         0.00000E+00
         0.00000E+00
         0.00000E+00
         0.00000E+00
         0.00000E+00
         0.00000E+00
         0.00000E+00
         0.00000E+00
         0.00000E+00
         0.00000E+00
         0.00000E+00
         0.00000E+00
         0.00000E+00
         0.00000E+00
         0.00000E+00
         0.00000E+00
         0.00000E+00
         0.00000E+00
         0.00000E+00
         0.00000E+00
         0.00000E+00
         0.00000E+00
         0.00000E+00
         0.00000E+00
         0.00000E+00
         0.00000E+00
         0.00000E+00
         0.00000E+00
         0.00000E+00
         0.00000E+00
         0.00000E+00
         0.00000E+00
         0.00000E+00
         0.00000E+00
         0.00000E+00
         0.00000E+00
         0.00000E+00
         0.00000E+00
         0.00000E+00
  
SCALARS                      stress_xz  double 1
LOOKUP_TABLE default
         0.00000E+00
         0.00000E+00
         0.00000E+00
         0.00000E+00
         0.00000E+00
         0.00000E+00
         0.00000E+00
         0.00000E+00
         0.00000E+00
         0.00000E+00
         0.00000E+00
         0.00000E+00
         0.00000E+00
         0.00000E+00
         0.00000E+00
         0.00000E+00
         0.00000E+00
         0.00000E+00
         0.00000E+00
         0.00000E+00
         0.00000E+00
         0.00000E+00
         0.00000E+00
         0.00000E+00
         0.00000E+00
         0.00000E+00
         0.00000E+00
         0.00000E+00
         0.00000E+00
         0.00000E+00
         0.00000E+00
         0.00000E+00
         0.00000E+00
         0.00000E+00
         0.00000E+00
         0.00000E+00
         0.00000E+00
         0.00000E+00
         0.00000E+00
         0.00000E+00
         0.00000E+00
         0.00000E+00
         0.00000E+00
         0.00000E+00
         0.00000E+00
         0.00000E+00
         0.00000E+00
         0.00000E+00
         0.00000E+00
         0.00000E+00
         0.00000E+00
         0.00000E+00
         0.00000E+00
         0.00000E+00
         0.00000E+00
         0.00000E+00
         0.00000E+00
         0.00000E+00
         0.00000E+00
         0.00000E+00
         0.00000E+00
         0.00000E+00
         0.00000E+00
         0.00000E+00
         0.00000E+00
         0.00000E+00
         0.00000E+00
         0.00000E+00
         0.00000E+00
         0.00000E+00
         0.00000E+00
         0.00000E+00
         0.00000E+00
         0.00000E+00
         0.00000E+00
         0.00000E+00
         0.00000E+00
         0.00000E+00
         0.00000E+00
         0.00000E+00
         0.00000E+00
         0.00000E+00
         0.00000E+00
         0.00000E+00
         0.00000E+00
         0.00000E+00
         0.00000E+00
         0.00000E+00
         0.00000E+00
         0.00000E+00
         0.00000E+00
         0.00000E+00
         0.00000E+00
         0.00000E+00
         0.00000E+00
         0.00000E+00
         0.00000E+00
         0.00000E+00
         0.00000E+00
         0.00000E+00
         0.00000E+00
         0.00000E+00
         0.00000E+00
         0.00000E+00
         0.00000E+00
         0.00000E+00
         0.00000E+00
         0.00000E+00
         0.00000E+00
         0.00000E+00
         0.00000E+00
         0.00000E+00
         0.00000E+00
         0.00000E+00
         0.00000E+00
         0.00000E+00
         0.00000E+00
         0.00000E+00
         0.00000E+00
         0.00000E+00
         0.00000E+00
         0.00000E+00
         0.00000E+00
         0.00000E+00
         0.00000E+00
         0.00000E+00
         0.00000E+00
         0.00000E+00
         0.00000E+00
         0.00000E+00
         0.00000E+00
         0.00000E+00
         0.00000E+00
         0.00000E+00
         0.00000E+00
         0.00000E+00
         0.00000E+00
         0.00000E+00
         0.00000E+00
         0.00000E+00
         0.00000E+00
         0.00000E+00
         0.00000E+00
         0.00000E+00
         0.00000E+00
         0.00000E+00
         0.00000E+00
         0.00000E+00
         0.00000E+00
         0.00000E+00
         0.00000E+00
         0.00000E+00
         0.00000E+00
         0.00000E+00
         0.00000E+00
         0.00000E+00
         0.00000E+00
         0.00000E+00
         0.00000E+00
         0.00000E+00
         0.00000E+00
         0.00000E+00
         0.00000E+00
         0.00000E+00
         0.00000E+00
         0.00000E+00
         0.00000E+00
         0.00000E+00
         0.00000E+00
         0.00000E+00
         0.00000E+00
         0.00000E+00
         0.00000E+00
         0.00000E+00
         0.00000E+00
         0.00000E+00
         0.00000E+00
         0.00000E+00
         0.00000E+00
         0.00000E+00
         0.00000E+00
         0.00000E+00
         0.00000E+00
         0.00000E+00
         0.00000E+00
         0.00000E+00
         0.00000E+00
         0.00000E+00
         0.00000E+00
         0.00000E+00
         0.00000E+00
         0.00000E+00
         0.00000E+00
         0.00000E+00
         0.00000E+00
         0.00000E+00
         0.00000E+00
         0.00000E+00
         0.00000E+00
         0.00000E+00
         0.00000E+00
         0.00000E+00
         0.00000E+00
         0.00000E+00
         0.00000E+00
         0.00000E+00
         0.00000E+00
         0.00000E+00
         0.00000E+00
         0.00000E+00
         0.00000E+00
         0.00000E+00
         0.00000E+00
         0.00000E+00
         0.00000E+00
         0.00000E+00
         0.00000E+00
         0.00000E+00
         0.00000E+00
         0.00000E+00
         0.00000E+00
         0.00000E+00
         0.00000E+00
         0.00000E+00
         0.00000E+00
         0.00000E+00
         0.00000E+00
         0.00000E+00
         0.00000E+00
         0.00000E+00
         0.00000E+00
         0.00000E+00
         0.00000E+00
         0.00000E+00
         0.00000E+00
         0.00000E+00
         0.00000E+00
         0.00000E+00
         0.00000E+00
         0.00000E+00
         0.00000E+00
         0.00000E+00
         0.00000E+00
         0.00000E+00
         0.00000E+00
         0.00000E+00
         0.00000E+00
         0.00000E+00
         0.00000E+00
         0.00000E+00
         0.00000E+00
         0.00000E+00
         0.00000E+00
         0.00000E+00
         0.00000E+00
         0.00000E+00
         0.00000E+00
         0.00000E+00
         0.00000E+00
         0.00000E+00
         0.00000E+00
         0.00000E+00
         0.00000E+00
         0.00000E+00
         0.00000E+00
         0.00000E+00
         0.00000E+00
         0.00000E+00
         0.00000E+00
         0.00000E+00
         0.00000E+00
         0.00000E+00
         0.00000E+00
         0.00000E+00
         0.00000E+00
         0.00000E+00
         0.00000E+00
         0.00000E+00
         0.00000E+00
         0.00000E+00
         0.00000E+00
         0.00000E+00
         0.00000E+00
         0.00000E+00
         0.00000E+00
         0.00000E+00
         0.00000E+00
         0.00000E+00
         0.00000E+00
         0.00000E+00
         0.00000E+00
         0.00000E+00
         0.00000E+00
         0.00000E+00
         0.00000E+00
         0.00000E+00
         0.00000E+00
         0.00000E+00
         0.00000E+00
         0.00000E+00
         0.00000E+00
         0.00000E+00
         0.00000E+00
         0.00000E+00
         0.00000E+00
         0.00000E+00
         0.00000E+00
         0.00000E+00
         0.00000E+00
         0.00000E+00
         0.00000E+00
         0.00000E+00
         0.00000E+00
         0.00000E+00
         0.00000E+00
         0.00000E+00
         0.00000E+00
         0.00000E+00
         0.00000E+00
         0.00000E+00
         0.00000E+00
         0.00000E+00
         0.00000E+00
         0.00000E+00
         0.00000E+00
         0.00000E+00
         0.00000E+00
         0.00000E+00
         0.00000E+00
         0.00000E+00
         0.00000E+00
         0.00000E+00
         0.00000E+00
         0.00000E+00
         0.00000E+00
         0.00000E+00
         0.00000E+00
         0.00000E+00
         0.00000E+00
         0.00000E+00
         0.00000E+00
         0.00000E+00
         0.00000E+00
         0.00000E+00
         0.00000E+00
         0.00000E+00
         0.00000E+00
         0.00000E+00
         0.00000E+00
         0.00000E+00
         0.00000E+00
         0.00000E+00
         0.00000E+00
         0.00000E+00
         0.00000E+00
         0.00000E+00
         0.00000E+00
         0.00000E+00
         0.00000E+00
         0.00000E+00
         0.00000E+00
         0.00000E+00
         0.00000E+00
         0.00000E+00
         0.00000E+00
         0.00000E+00
         0.00000E+00
         0.00000E+00
         0.00000E+00
         0.00000E+00
         0.00000E+00
         0.00000E+00
         0.00000E+00
         0.00000E+00
         0.00000E+00
         0.00000E+00
         0.00000E+00
         0.00000E+00
         0.00000E+00
         0.00000E+00
         0.00000E+00
         0.00000E+00
         0.00000E+00
         0.00000E+00
         0.00000E+00
         0.00000E+00
         0.00000E+00
         0.00000E+00
         0.00000E+00
         0.00000E+00
         0.00000E+00
         0.00000E+00
         0.00000E+00
         0.00000E+00
         0.00000E+00
         0.00000E+00
         0.00000E+00
         0.00000E+00
         0.00000E+00
         0.00000E+00
         0.00000E+00
         0.00000E+00
         0.00000E+00
         0.00000E+00
         0.00000E+00
         0.00000E+00
         0.00000E+00
         0.00000E+00
         0.00000E+00
         0.00000E+00
         0.00000E+00
         0.00000E+00
         0.00000E+00
         0.00000E+00
         0.00000E+00
         0.00000E+00
         0.00000E+00
         0.00000E+00
         0.00000E+00
         0.00000E+00
         0.00000E+00
         0.00000E+00
         0.00000E+00
         0.00000E+00
         0.00000E+00
         0.00000E+00
         0.00000E+00
         0.00000E+00
         0.00000E+00
         0.00000E+00
         0.00000E+00
         0.00000E+00
         0.00000E+00
         0.00000E+00
         0.00000E+00
         0.00000E+00
         0.00000E+00
         0.00000E+00
         0.00000E+00
         0.00000E+00
         0.00000E+00
         0.00000E+00
         0.00000E+00
         0.00000E+00
         0.00000E+00
         0.00000E+00
         0.00000E+00
         0.00000E+00
         0.00000E+00
         0.00000E+00
         0.00000E+00
         0.00000E+00
         0.00000E+00
         0.00000E+00
         0.00000E+00
         0.00000E+00
         0.00000E+00
         0.00000E+00
         0.00000E+00
         0.00000E+00
         0.00000E+00
         0.00000E+00
         0.00000E+00
         0.00000E+00
         0.00000E+00
         0.00000E+00
         0.00000E+00
         0.00000E+00
         0.00000E+00
         0.00000E+00
         0.00000E+00
         0.00000E+00
         0.00000E+00
         0.00000E+00
         0.00000E+00
         0.00000E+00
         0.00000E+00
         0.00000E+00
         0.00000E+00
         0.00000E+00
         0.00000E+00
         0.00000E+00
         0.00000E+00
         0.00000E+00
         0.00000E+00
         0.00000E+00
         0.00000E+00
         0.00000E+00
         0.00000E+00
         0.00000E+00
         0.00000E+00
         0.00000E+00
         0.00000E+00
         0.00000E+00
         0.00000E+00
         0.00000E+00
         0.00000E+00
         0.00000E+00
         0.00000E+00
         0.00000E+00
         0.00000E+00
         0.00000E+00
         0.00000E+00
         0.00000E+00
         0.00000E+00
         0.00000E+00
         0.00000E+00
         0.00000E+00
         0.00000E+00
         0.00000E+00
         0.00000E+00
         0.00000E+00
         0.00000E+00
         0.00000E+00
         0.00000E+00
         0.00000E+00
         0.00000E+00
         0.00000E+00
         0.00000E+00
         0.00000E+00
         0.00000E+00
         0.00000E+00
         0.00000E+00
         0.00000E+00
         0.00000E+00
         0.00000E+00
         0.00000E+00
         0.00000E+00
         0.00000E+00
         0.00000E+00
         0.00000E+00
         0.00000E+00
         0.00000E+00
         0.00000E+00
         0.00000E+00
         0.00000E+00
         0.00000E+00
         0.00000E+00
         0.00000E+00
         0.00000E+00
         0.00000E+00
         0.00000E+00
         0.00000E+00
         0.00000E+00
         0.00000E+00
         0.00000E+00
         0.00000E+00
         0.00000E+00
         0.00000E+00
         0.00000E+00
         0.00000E+00
         0.00000E+00
         0.00000E+00
         0.00000E+00
         0.00000E+00
         0.00000E+00
         0.00000E+00
         0.00000E+00
         0.00000E+00
         0.00000E+00
         0.00000E+00
         0.00000E+00
         0.00000E+00
         0.00000E+00
         0.00000E+00
         0.00000E+00
         0.00000E+00
         0.00000E+00
         0.00000E+00
         0.00000E+00
         0.00000E+00
         0.00000E+00
         0.00000E+00
         0.00000E+00
         0.00000E+00
         0.00000E+00
         0.00000E+00
         0.00000E+00
         0.00000E+00
         0.00000E+00
         0.00000E+00
         0.00000E+00
         0.00000E+00
         0.00000E+00
         0.00000E+00
         0.00000E+00
         0.00000E+00
         0.00000E+00
         0.00000E+00
         0.00000E+00
         0.00000E+00
         0.00000E+00
         0.00000E+00
         0.00000E+00
         0.00000E+00
         0.00000E+00
         0.00000E+00
         0.00000E+00
         0.00000E+00
         0.00000E+00
         0.00000E+00
         0.00000E+00
         0.00000E+00
         0.00000E+00
         0.00000E+00
         0.00000E+00
         0.00000E+00
         0.00000E+00
         0.00000E+00
         0.00000E+00
         0.00000E+00
         0.00000E+00
         0.00000E+00
         0.00000E+00
         0.00000E+00
         0.00000E+00
         0.00000E+00
         0.00000E+00
         0.00000E+00
         0.00000E+00
         0.00000E+00
         0.00000E+00
         0.00000E+00
         0.00000E+00
         0.00000E+00
         0.00000E+00
         0.00000E+00
         0.00000E+00
         0.00000E+00
         0.00000E+00
         0.00000E+00
         0.00000E+00
         0.00000E+00
         0.00000E+00
         0.00000E+00
         0.00000E+00
         0.00000E+00
         0.00000E+00
         0.00000E+00
         0.00000E+00
         0.00000E+00
         0.00000E+00
         0.00000E+00
         0.00000E+00
         0.00000E+00
         0.00000E+00
         0.00000E+00
         0.00000E+00
         0.00000E+00
         0.00000E+00
         0.00000E+00
         0.00000E+00
         0.00000E+00
         0.00000E+00
         0.00000E+00
         0.00000E+00
         0.00000E+00
         0.00000E+00
         0.00000E+00
         0.00000E+00
         0.00000E+00
         0.00000E+00
         0.00000E+00
         0.00000E+00
         0.00000E+00
         0.00000E+00
         0.00000E+00
         0.00000E+00
         0.00000E+00
         0.00000E+00
         0.00000E+00
         0.00000E+00
         0.00000E+00
         0.00000E+00
         0.00000E+00
         0.00000E+00
         0.00000E+00
         0.00000E+00
         0.00000E+00
         0.00000E+00
         0.00000E+00
         0.00000E+00
         0.00000E+00
         0.00000E+00
         0.00000E+00
         0.00000E+00
         0.00000E+00
         0.00000E+00
         0.00000E+00
         0.00000E+00
         0.00000E+00
         0.00000E+00
         0.00000E+00
         0.00000E+00
         0.00000E+00
         0.00000E+00
         0.00000E+00
         0.00000E+00
         0.00000E+00
         0.00000E+00
         0.00000E+00
         0.00000E+00
         0.00000E+00
         0.00000E+00
         0.00000E+00
         0.00000E+00
         0.00000E+00
         0.00000E+00
         0.00000E+00
         0.00000E+00
         0.00000E+00
         0.00000E+00
         0.00000E+00
         0.00000E+00
         0.00000E+00
         0.00000E+00
         0.00000E+00
         0.00000E+00
         0.00000E+00
         0.00000E+00
         0.00000E+00
         0.00000E+00
         0.00000E+00
         0.00000E+00
         0.00000E+00
         0.00000E+00
         0.00000E+00
         0.00000E+00
         0.00000E+00
         0.00000E+00
         0.00000E+00
         0.00000E+00
         0.00000E+00
         0.00000E+00
         0.00000E+00
         0.00000E+00
         0.00000E+00
         0.00000E+00
         0.00000E+00
         0.00000E+00
         0.00000E+00
         0.00000E+00
         0.00000E+00
         0.00000E+00
         0.00000E+00
         0.00000E+00
         0.00000E+00
         0.00000E+00
         0.00000E+00
         0.00000E+00
         0.00000E+00
         0.00000E+00
         0.00000E+00
         0.00000E+00
         0.00000E+00
         0.00000E+00
         0.00000E+00
         0.00000E+00
         0.00000E+00
         0.00000E+00
         0.00000E+00
         0.00000E+00
         0.00000E+00
         0.00000E+00
         0.00000E+00
         0.00000E+00
         0.00000E+00
         0.00000E+00
         0.00000E+00
         0.00000E+00
         0.00000E+00
         0.00000E+00
         0.00000E+00
         0.00000E+00
         0.00000E+00
         0.00000E+00
         0.00000E+00
         0.00000E+00
         0.00000E+00
         0.00000E+00
         0.00000E+00
         0.00000E+00
         0.00000E+00
         0.00000E+00
         0.00000E+00
         0.00000E+00
         0.00000E+00
         0.00000E+00
         0.00000E+00
         0.00000E+00
         0.00000E+00
         0.00000E+00
         0.00000E+00
         0.00000E+00
         0.00000E+00
         0.00000E+00
         0.00000E+00
         0.00000E+00
         0.00000E+00
         0.00000E+00
         0.00000E+00
         0.00000E+00
         0.00000E+00
         0.00000E+00
         0.00000E+00
         0.00000E+00
         0.00000E+00
         0.00000E+00
         0.00000E+00
         0.00000E+00
         0.00000E+00
         0.00000E+00
         0.00000E+00
         0.00000E+00
         0.00000E+00
         0.00000E+00
         0.00000E+00
         0.00000E+00
         0.00000E+00
         0.00000E+00
         0.00000E+00
         0.00000E+00
         0.00000E+00
         0.00000E+00
         0.00000E+00
         0.00000E+00
         0.00000E+00
         0.00000E+00
         0.00000E+00
         0.00000E+00
         0.00000E+00
         0.00000E+00
         0.00000E+00
         0.00000E+00
         0.00000E+00
         0.00000E+00
         0.00000E+00
         0.00000E+00
         0.00000E+00
         0.00000E+00
         0.00000E+00
         0.00000E+00
         0.00000E+00
         0.00000E+00
         0.00000E+00
         0.00000E+00
         0.00000E+00
         0.00000E+00
         0.00000E+00
         0.00000E+00
         0.00000E+00
         0.00000E+00
         0.00000E+00
         0.00000E+00
         0.00000E+00
         0.00000E+00
         0.00000E+00
         0.00000E+00
         0.00000E+00
         0.00000E+00
         0.00000E+00
         0.00000E+00
         0.00000E+00
         0.00000E+00
         0.00000E+00
         0.00000E+00
         0.00000E+00
         0.00000E+00
         0.00000E+00
         0.00000E+00
         0.00000E+00
         0.00000E+00
         0.00000E+00
         0.00000E+00
         0.00000E+00
         0.00000E+00
         0.00000E+00
         0.00000E+00
         0.00000E+00
         0.00000E+00
         0.00000E+00
         0.00000E+00
         0.00000E+00
         0.00000E+00
         0.00000E+00
         0.00000E+00
         0.00000E+00
         0.00000E+00
         0.00000E+00
         0.00000E+00
         0.00000E+00
         0.00000E+00
         0.00000E+00
         0.00000E+00
         0.00000E+00
         0.00000E+00
         0.00000E+00
         0.00000E+00
         0.00000E+00
         0.00000E+00
         0.00000E+00
         0.00000E+00
         0.00000E+00
         0.00000E+00
         0.00000E+00
         0.00000E+00
         0.00000E+00
         0.00000E+00
         0.00000E+00
         0.00000E+00
         0.00000E+00
         0.00000E+00
         0.00000E+00
         0.00000E+00
         0.00000E+00
         0.00000E+00
         0.00000E+00
         0.00000E+00
         0.00000E+00
         0.00000E+00
         0.00000E+00
         0.00000E+00
         0.00000E+00
         0.00000E+00
         0.00000E+00
         0.00000E+00
         0.00000E+00
         0.00000E+00
         0.00000E+00
         0.00000E+00
         0.00000E+00
         0.00000E+00
         0.00000E+00
         0.00000E+00
         0.00000E+00
         0.00000E+00
         0.00000E+00
         0.00000E+00
         0.00000E+00
         0.00000E+00
         0.00000E+00
         0.00000E+00
         0.00000E+00
         0.00000E+00
         0.00000E+00
         0.00000E+00
         0.00000E+00
         0.00000E+00
         0.00000E+00
         0.00000E+00
         0.00000E+00
         0.00000E+00
         0.00000E+00
         0.00000E+00
         0.00000E+00
         0.00000E+00
         0.00000E+00
         0.00000E+00
         0.00000E+00
         0.00000E+00
         0.00000E+00
         0.00000E+00
         0.00000E+00
         0.00000E+00
         0.00000E+00
         0.00000E+00
         0.00000E+00
         0.00000E+00
         0.00000E+00
         0.00000E+00
         0.00000E+00
         0.00000E+00
         0.00000E+00
         0.00000E+00
         0.00000E+00
         0.00000E+00
         0.00000E+00
         0.00000E+00
         0.00000E+00
         0.00000E+00
         0.00000E+00
         0.00000E+00
         0.00000E+00
         0.00000E+00
         0.00000E+00
         0.00000E+00
         0.00000E+00
         0.00000E+00
         0.00000E+00
         0.00000E+00
         0.00000E+00
         0.00000E+00
         0.00000E+00
         0.00000E+00
         0.00000E+00
         0.00000E+00
         0.00000E+00
         0.00000E+00
         0.00000E+00
         0.00000E+00
         0.00000E+00
         0.00000E+00
         0.00000E+00
         0.00000E+00
         0.00000E+00
         0.00000E+00
         0.00000E+00
         0.00000E+00
         0.00000E+00
         0.00000E+00
         0.00000E+00
         0.00000E+00
         0.00000E+00
         0.00000E+00
         0.00000E+00
         0.00000E+00
         0.00000E+00
         0.00000E+00
         0.00000E+00
         0.00000E+00
         0.00000E+00
         0.00000E+00
         0.00000E+00
         0.00000E+00
         0.00000E+00
         0.00000E+00
         0.00000E+00
         0.00000E+00
         0.00000E+00
         0.00000E+00
         0.00000E+00
         0.00000E+00
         0.00000E+00
         0.00000E+00
         0.00000E+00
         0.00000E+00
         0.00000E+00
         0.00000E+00
         0.00000E+00
         0.00000E+00
         0.00000E+00
         0.00000E+00
         0.00000E+00
         0.00000E+00
         0.00000E+00
         0.00000E+00
         0.00000E+00
         0.00000E+00
         0.00000E+00
         0.00000E+00
         0.00000E+00
         0.00000E+00
         0.00000E+00
         0.00000E+00
         0.00000E+00
         0.00000E+00
         0.00000E+00
         0.00000E+00
         0.00000E+00
         0.00000E+00
         0.00000E+00
         0.00000E+00
         0.00000E+00
         0.00000E+00
         0.00000E+00
         0.00000E+00
         0.00000E+00
         0.00000E+00
         0.00000E+00
         0.00000E+00
         0.00000E+00
         0.00000E+00
         0.00000E+00
         0.00000E+00
         0.00000E+00
         0.00000E+00
         0.00000E+00
         0.00000E+00
         0.00000E+00
         0.00000E+00
         0.00000E+00
         0.00000E+00
         0.00000E+00
         0.00000E+00
         0.00000E+00
         0.00000E+00
         0.00000E+00
         0.00000E+00
         0.00000E+00
         0.00000E+00
         0.00000E+00
         0.00000E+00
         0.00000E+00
         0.00000E+00
         0.00000E+00
         0.00000E+00
         0.00000E+00
         0.00000E+00
         0.00000E+00
         0.00000E+00
         0.00000E+00
         0.00000E+00
         0.00000E+00
         0.00000E+00
         0.00000E+00
         0.00000E+00
         0.00000E+00
         0.00000E+00
         0.00000E+00
         0.00000E+00
         0.00000E+00
         0.00000E+00
         0.00000E+00
         0.00000E+00
         0.00000E+00
         0.00000E+00
         0.00000E+00
         0.00000E+00
         0.00000E+00
         0.00000E+00
         0.00000E+00
         0.00000E+00
         0.00000E+00
         0.00000E+00
         0.00000E+00
         0.00000E+00
         0.00000E+00
         0.00000E+00
         0.00000E+00
         0.00000E+00
         0.00000E+00
         0.00000E+00
         0.00000E+00
         0.00000E+00
         0.00000E+00
         0.00000E+00
         0.00000E+00
         0.00000E+00
         0.00000E+00
         0.00000E+00
         0.00000E+00
         0.00000E+00
         0.00000E+00
         0.00000E+00
         0.00000E+00
         0.00000E+00
         0.00000E+00
         0.00000E+00
         0.00000E+00
         0.00000E+00
         0.00000E+00
         0.00000E+00
         0.00000E+00
         0.00000E+00
         0.00000E+00
         0.00000E+00
         0.00000E+00
         0.00000E+00
         0.00000E+00
         0.00000E+00
         0.00000E+00
         0.00000E+00
         0.00000E+00
         0.00000E+00
         0.00000E+00
         0.00000E+00
         0.00000E+00
         0.00000E+00
         0.00000E+00
         0.00000E+00
         0.00000E+00
         0.00000E+00
         0.00000E+00
         0.00000E+00
         0.00000E+00
         0.00000E+00
         0.00000E+00
         0.00000E+00
         0.00000E+00
         0.00000E+00
         0.00000E+00
         0.00000E+00
         0.00000E+00
         0.00000E+00
         0.00000E+00
         0.00000E+00
         0.00000E+00
         0.00000E+00
         0.00000E+00
         0.00000E+00
         0.00000E+00
         0.00000E+00
         0.00000E+00
         0.00000E+00
         0.00000E+00
         0.00000E+00
         0.00000E+00
         0.00000E+00
         0.00000E+00
         0.00000E+00
         0.00000E+00
         0.00000E+00
         0.00000E+00
         0.00000E+00
         0.00000E+00
         0.00000E+00
         0.00000E+00
         0.00000E+00
         0.00000E+00
         0.00000E+00
         0.00000E+00
         0.00000E+00
         0.00000E+00
         0.00000E+00
         0.00000E+00
         0.00000E+00
         0.00000E+00
         0.00000E+00
         0.00000E+00
         0.00000E+00
         0.00000E+00
         0.00000E+00
         0.00000E+00
         0.00000E+00
         0.00000E+00
         0.00000E+00
         0.00000E+00
         0.00000E+00
         0.00000E+00
         0.00000E+00
         0.00000E+00
         0.00000E+00
         0.00000E+00
         0.00000E+00
         0.00000E+00
         0.00000E+00
         0.00000E+00
         0.00000E+00
         0.00000E+00
         0.00000E+00
         0.00000E+00
         0.00000E+00
         0.00000E+00
         0.00000E+00
         0.00000E+00
         0.00000E+00
         0.00000E+00
         0.00000E+00
         0.00000E+00
         0.00000E+00
         0.00000E+00
         0.00000E+00
         0.00000E+00
         0.00000E+00
         0.00000E+00
         0.00000E+00
         0.00000E+00
         0.00000E+00
         0.00000E+00
         0.00000E+00
         0.00000E+00
         0.00000E+00
         0.00000E+00
         0.00000E+00
         0.00000E+00
         0.00000E+00
         0.00000E+00
         0.00000E+00
         0.00000E+00
         0.00000E+00
         0.00000E+00
         0.00000E+00
         0.00000E+00
         0.00000E+00
         0.00000E+00
         0.00000E+00
         0.00000E+00
         0.00000E+00
         0.00000E+00
         0.00000E+00
         0.00000E+00
         0.00000E+00
         0.00000E+00
         0.00000E+00
         0.00000E+00
         0.00000E+00
         0.00000E+00
         0.00000E+00
         0.00000E+00
         0.00000E+00
         0.00000E+00
         0.00000E+00
         0.00000E+00
         0.00000E+00
         0.00000E+00
         0.00000E+00
         0.00000E+00
         0.00000E+00
         0.00000E+00
         0.00000E+00
         0.00000E+00
         0.00000E+00
         0.00000E+00
         0.00000E+00
         0.00000E+00
         0.00000E+00
         0.00000E+00
         0.00000E+00
         0.00000E+00
         0.00000E+00
         0.00000E+00
         0.00000E+00
         0.00000E+00
         0.00000E+00
         0.00000E+00
         0.00000E+00
         0.00000E+00
         0.00000E+00
         0.00000E+00
         0.00000E+00
         0.00000E+00
         0.00000E+00
         0.00000E+00
         0.00000E+00
         0.00000E+00
         0.00000E+00
         0.00000E+00
         0.00000E+00
         0.00000E+00
         0.00000E+00
         0.00000E+00
         0.00000E+00
         0.00000E+00
         0.00000E+00
         0.00000E+00
         0.00000E+00
         0.00000E+00
         0.00000E+00
         0.00000E+00
         0.00000E+00
         0.00000E+00
         0.00000E+00
         0.00000E+00
         0.00000E+00
         0.00000E+00
         0.00000E+00
         0.00000E+00
         0.00000E+00
         0.00000E+00
         0.00000E+00
         0.00000E+00
         0.00000E+00
         0.00000E+00
         0.00000E+00
         0.00000E+00
         0.00000E+00
         0.00000E+00
         0.00000E+00
         0.00000E+00
         0.00000E+00
         0.00000E+00
         0.00000E+00
         0.00000E+00
         0.00000E+00
         0.00000E+00
         0.00000E+00
         0.00000E+00
         0.00000E+00
         0.00000E+00
         0.00000E+00
         0.00000E+00
         0.00000E+00
         0.00000E+00
         0.00000E+00
         0.00000E+00
         0.00000E+00
         0.00000E+00
         0.00000E+00
         0.00000E+00
         0.00000E+00
         0.00000E+00
         0.00000E+00
         0.00000E+00
         0.00000E+00
         0.00000E+00
         0.00000E+00
         0.00000E+00
         0.00000E+00
         0.00000E+00
         0.00000E+00
         0.00000E+00
         0.00000E+00
         0.00000E+00
         0.00000E+00
         0.00000E+00
         0.00000E+00
         0.00000E+00
         0.00000E+00
         0.00000E+00
         0.00000E+00
         0.00000E+00
         0.00000E+00
         0.00000E+00
         0.00000E+00
         0.00000E+00
         0.00000E+00
         0.00000E+00
         0.00000E+00
         0.00000E+00
         0.00000E+00
         0.00000E+00
         0.00000E+00
         0.00000E+00
         0.00000E+00
         0.00000E+00
         0.00000E+00
         0.00000E+00
         0.00000E+00
         0.00000E+00
         0.00000E+00
         0.00000E+00
         0.00000E+00
         0.00000E+00
         0.00000E+00
         0.00000E+00
         0.00000E+00
         0.00000E+00
         0.00000E+00
         0.00000E+00
         0.00000E+00
         0.00000E+00
         0.00000E+00
         0.00000E+00
         0.00000E+00
         0.00000E+00
         0.00000E+00
         0.00000E+00
         0.00000E+00
         0.00000E+00
         0.00000E+00
         0.00000E+00
         0.00000E+00
         0.00000E+00
         0.00000E+00
         0.00000E+00
         0.00000E+00
         0.00000E+00
         0.00000E+00
         0.00000E+00
         0.00000E+00
         0.00000E+00
         0.00000E+00
         0.00000E+00
         0.00000E+00
         0.00000E+00
         0.00000E+00
         0.00000E+00
         0.00000E+00
         0.00000E+00
         0.00000E+00
         0.00000E+00
         0.00000E+00
         0.00000E+00
         0.00000E+00
         0.00000E+00
         0.00000E+00
         0.00000E+00
         0.00000E+00
         0.00000E+00
         0.00000E+00
         0.00000E+00
         0.00000E+00
         0.00000E+00
         0.00000E+00
         0.00000E+00
         0.00000E+00
         0.00000E+00
         0.00000E+00
         0.00000E+00
         0.00000E+00
         0.00000E+00
         0.00000E+00
         0.00000E+00
         0.00000E+00
         0.00000E+00
         0.00000E+00
         0.00000E+00
         0.00000E+00
         0.00000E+00
         0.00000E+00
         0.00000E+00
         0.00000E+00
         0.00000E+00
         0.00000E+00
         0.00000E+00
         0.00000E+00
         0.00000E+00
         0.00000E+00
         0.00000E+00
         0.00000E+00
         0.00000E+00
         0.00000E+00
         0.00000E+00
         0.00000E+00
         0.00000E+00
         0.00000E+00
         0.00000E+00
         0.00000E+00
         0.00000E+00
         0.00000E+00
         0.00000E+00
         0.00000E+00
         0.00000E+00
         0.00000E+00
         0.00000E+00
         0.00000E+00
         0.00000E+00
         0.00000E+00
         0.00000E+00
         0.00000E+00
         0.00000E+00
         0.00000E+00
         0.00000E+00
         0.00000E+00
         0.00000E+00
         0.00000E+00
         0.00000E+00
         0.00000E+00
         0.00000E+00
         0.00000E+00
         0.00000E+00
         0.00000E+00
         0.00000E+00
         0.00000E+00
         0.00000E+00
         0.00000E+00
         0.00000E+00
         0.00000E+00
         0.00000E+00
         0.00000E+00
         0.00000E+00
         0.00000E+00
         0.00000E+00
         0.00000E+00
         0.00000E+00
         0.00000E+00
         0.00000E+00
         0.00000E+00
         0.00000E+00
         0.00000E+00
         0.00000E+00
         0.00000E+00
         0.00000E+00
         0.00000E+00
         0.00000E+00
         0.00000E+00
         0.00000E+00
         0.00000E+00
         0.00000E+00
         0.00000E+00
         0.00000E+00
         0.00000E+00
         0.00000E+00
         0.00000E+00
         0.00000E+00
         0.00000E+00
         0.00000E+00
         0.00000E+00
         0.00000E+00
         0.00000E+00
         0.00000E+00
         0.00000E+00
         0.00000E+00
         0.00000E+00
         0.00000E+00
         0.00000E+00
         0.00000E+00
         0.00000E+00
         0.00000E+00
         0.00000E+00
         0.00000E+00
         0.00000E+00
         0.00000E+00
         0.00000E+00
         0.00000E+00
         0.00000E+00
         0.00000E+00
         0.00000E+00
         0.00000E+00
         0.00000E+00
         0.00000E+00
         0.00000E+00
         0.00000E+00
         0.00000E+00
         0.00000E+00
         0.00000E+00
         0.00000E+00
         0.00000E+00
         0.00000E+00
         0.00000E+00
         0.00000E+00
         0.00000E+00
         0.00000E+00
         0.00000E+00
         0.00000E+00
         0.00000E+00
         0.00000E+00
         0.00000E+00
         0.00000E+00
         0.00000E+00
         0.00000E+00
         0.00000E+00
         0.00000E+00
         0.00000E+00
         0.00000E+00
         0.00000E+00
         0.00000E+00
         0.00000E+00
         0.00000E+00
         0.00000E+00
         0.00000E+00
         0.00000E+00
         0.00000E+00
         0.00000E+00
         0.00000E+00
         0.00000E+00
         0.00000E+00
         0.00000E+00
         0.00000E+00
         0.00000E+00
         0.00000E+00
         0.00000E+00
         0.00000E+00
         0.00000E+00
         0.00000E+00
         0.00000E+00
         0.00000E+00
         0.00000E+00
         0.00000E+00
         0.00000E+00
         0.00000E+00
         0.00000E+00
         0.00000E+00
         0.00000E+00
         0.00000E+00
         0.00000E+00
         0.00000E+00
         0.00000E+00
         0.00000E+00
         0.00000E+00
         0.00000E+00
         0.00000E+00
         0.00000E+00
         0.00000E+00
         0.00000E+00
         0.00000E+00
         0.00000E+00
         0.00000E+00
         0.00000E+00
         0.00000E+00
         0.00000E+00
         0.00000E+00
         0.00000E+00
         0.00000E+00
         0.00000E+00
         0.00000E+00
         0.00000E+00
         0.00000E+00
         0.00000E+00
         0.00000E+00
         0.00000E+00
         0.00000E+00
         0.00000E+00
         0.00000E+00
         0.00000E+00
         0.00000E+00
         0.00000E+00
         0.00000E+00
         0.00000E+00
         0.00000E+00
         0.00000E+00
         0.00000E+00
         0.00000E+00
         0.00000E+00
         0.00000E+00
         0.00000E+00
         0.00000E+00
         0.00000E+00
         0.00000E+00
         0.00000E+00
         0.00000E+00
         0.00000E+00
         0.00000E+00
         0.00000E+00
         0.00000E+00
         0.00000E+00
         0.00000E+00
         0.00000E+00
         0.00000E+00
         0.00000E+00
         0.00000E+00
         0.00000E+00
         0.00000E+00
         0.00000E+00
         0.00000E+00
         0.00000E+00
         0.00000E+00
         0.00000E+00
         0.00000E+00
         0.00000E+00
         0.00000E+00
         0.00000E+00
         0.00000E+00
         0.00000E+00
         0.00000E+00
         0.00000E+00
         0.00000E+00
         0.00000E+00
         0.00000E+00
         0.00000E+00
         0.00000E+00
         0.00000E+00
         0.00000E+00
         0.00000E+00
         0.00000E+00
         0.00000E+00
         0.00000E+00
         0.00000E+00
         0.00000E+00
         0.00000E+00
         0.00000E+00
         0.00000E+00
         0.00000E+00
         0.00000E+00
         0.00000E+00
         0.00000E+00
         0.00000E+00
         0.00000E+00
         0.00000E+00
         0.00000E+00
         0.00000E+00
         0.00000E+00
         0.00000E+00
         0.00000E+00
         0.00000E+00
         0.00000E+00
         0.00000E+00
         0.00000E+00
         0.00000E+00
         0.00000E+00
         0.00000E+00
         0.00000E+00
         0.00000E+00
         0.00000E+00
         0.00000E+00
         0.00000E+00
         0.00000E+00
         0.00000E+00
         0.00000E+00
         0.00000E+00
         0.00000E+00
         0.00000E+00
         0.00000E+00
         0.00000E+00
         0.00000E+00
         0.00000E+00
         0.00000E+00
         0.00000E+00
         0.00000E+00
         0.00000E+00
         0.00000E+00
         0.00000E+00
         0.00000E+00
         0.00000E+00
         0.00000E+00
         0.00000E+00
         0.00000E+00
         0.00000E+00
         0.00000E+00
         0.00000E+00
         0.00000E+00
         0.00000E+00
         0.00000E+00
         0.00000E+00
         0.00000E+00
         0.00000E+00
         0.00000E+00
         0.00000E+00
         0.00000E+00
         0.00000E+00
         0.00000E+00
         0.00000E+00
         0.00000E+00
         0.00000E+00
         0.00000E+00
         0.00000E+00
         0.00000E+00
         0.00000E+00
         0.00000E+00
         0.00000E+00
         0.00000E+00
         0.00000E+00
         0.00000E+00
         0.00000E+00
         0.00000E+00
         0.00000E+00
         0.00000E+00
         0.00000E+00
         0.00000E+00
         0.00000E+00
         0.00000E+00
         0.00000E+00
         0.00000E+00
         0.00000E+00
         0.00000E+00
         0.00000E+00
         0.00000E+00
         0.00000E+00
         0.00000E+00
         0.00000E+00
         0.00000E+00
         0.00000E+00
         0.00000E+00
         0.00000E+00
         0.00000E+00
         0.00000E+00
         0.00000E+00
         0.00000E+00
         0.00000E+00
         0.00000E+00
         0.00000E+00
         0.00000E+00
         0.00000E+00
         0.00000E+00
         0.00000E+00
         0.00000E+00
         0.00000E+00
         0.00000E+00
         0.00000E+00
         0.00000E+00
         0.00000E+00
         0.00000E+00
         0.00000E+00
         0.00000E+00
         0.00000E+00
         0.00000E+00
         0.00000E+00
         0.00000E+00
         0.00000E+00
         0.00000E+00
         0.00000E+00
         0.00000E+00
         0.00000E+00
         0.00000E+00
         0.00000E+00
         0.00000E+00
         0.00000E+00
         0.00000E+00
         0.00000E+00
         0.00000E+00
         0.00000E+00
         0.00000E+00
         0.00000E+00
         0.00000E+00
         0.00000E+00
         0.00000E+00
         0.00000E+00
         0.00000E+00
         0.00000E+00
         0.00000E+00
         0.00000E+00
         0.00000E+00
         0.00000E+00
         0.00000E+00
         0.00000E+00
         0.00000E+00
         0.00000E+00
         0.00000E+00
         0.00000E+00
         0.00000E+00
         0.00000E+00
         0.00000E+00
         0.00000E+00
         0.00000E+00
         0.00000E+00
         0.00000E+00
         0.00000E+00
         0.00000E+00
         0.00000E+00
         0.00000E+00
         0.00000E+00
         0.00000E+00
         0.00000E+00
         0.00000E+00
         0.00000E+00
         0.00000E+00
         0.00000E+00
         0.00000E+00
         0.00000E+00
         0.00000E+00
         0.00000E+00
         0.00000E+00
         0.00000E+00
         0.00000E+00
         0.00000E+00
         0.00000E+00
         0.00000E+00
         0.00000E+00
         0.00000E+00
         0.00000E+00
         0.00000E+00
         0.00000E+00
         0.00000E+00
         0.00000E+00
         0.00000E+00
         0.00000E+00
         0.00000E+00
         0.00000E+00
         0.00000E+00
         0.00000E+00
         0.00000E+00
         0.00000E+00
         0.00000E+00
         0.00000E+00
         0.00000E+00
         0.00000E+00
         0.00000E+00
         0.00000E+00
         0.00000E+00
         0.00000E+00
         0.00000E+00
         0.00000E+00
         0.00000E+00
         0.00000E+00
         0.00000E+00
         0.00000E+00
         0.00000E+00
         0.00000E+00
         0.00000E+00
         0.00000E+00
         0.00000E+00
         0.00000E+00
         0.00000E+00
         0.00000E+00
         0.00000E+00
         0.00000E+00
         0.00000E+00
         0.00000E+00
         0.00000E+00
         0.00000E+00
  
SCALARS                      stress_xy  double 1
LOOKUP_TABLE default
         0.00000E+00
         0.00000E+00
         0.00000E+00
         0.00000E+00
         0.00000E+00
         0.00000E+00
         0.00000E+00
         0.00000E+00
         0.00000E+00
         0.00000E+00
         0.00000E+00
         0.00000E+00
         0.00000E+00
         0.00000E+00
         0.00000E+00
         0.00000E+00
         0.00000E+00
         0.00000E+00
         0.00000E+00
         0.00000E+00
         0.00000E+00
         0.00000E+00
         0.00000E+00
         0.00000E+00
         0.00000E+00
         0.00000E+00
         0.00000E+00
         0.00000E+00
         0.00000E+00
         0.00000E+00
         0.00000E+00
         0.00000E+00
         0.00000E+00
         0.00000E+00
         0.00000E+00
         0.00000E+00
         0.00000E+00
         0.00000E+00
         0.00000E+00
         0.00000E+00
         0.00000E+00
         0.00000E+00
         0.00000E+00
         0.00000E+00
         0.00000E+00
         0.00000E+00
         0.00000E+00
         0.00000E+00
         0.00000E+00
         0.00000E+00
         0.00000E+00
         0.00000E+00
         0.00000E+00
         0.00000E+00
         0.00000E+00
         0.00000E+00
         0.00000E+00
         0.00000E+00
         0.00000E+00
         0.00000E+00
         0.00000E+00
         0.00000E+00
         0.00000E+00
         0.00000E+00
         0.00000E+00
         0.00000E+00
         0.00000E+00
         0.00000E+00
         0.00000E+00
         0.00000E+00
         0.00000E+00
         0.00000E+00
         0.00000E+00
         0.00000E+00
         0.00000E+00
         0.00000E+00
         0.00000E+00
         0.00000E+00
         0.00000E+00
         0.00000E+00
         0.00000E+00
         0.00000E+00
         0.00000E+00
         0.00000E+00
         0.00000E+00
         0.00000E+00
         0.00000E+00
         0.00000E+00
         0.00000E+00
         0.00000E+00
         0.00000E+00
         0.00000E+00
         0.00000E+00
         0.00000E+00
         0.00000E+00
         0.00000E+00
         0.00000E+00
         0.00000E+00
         0.00000E+00
         0.00000E+00
         0.00000E+00
         0.00000E+00
         0.00000E+00
         0.00000E+00
         0.00000E+00
         0.00000E+00
         0.00000E+00
         0.00000E+00
         0.00000E+00
         0.00000E+00
         0.00000E+00
         0.00000E+00
         0.00000E+00
         0.00000E+00
         0.00000E+00
         0.00000E+00
         0.00000E+00
         0.00000E+00
         0.00000E+00
         0.00000E+00
         0.00000E+00
         0.00000E+00
         0.00000E+00
         0.00000E+00
         0.00000E+00
         0.00000E+00
         0.00000E+00
         0.00000E+00
         0.00000E+00
         0.00000E+00
         0.00000E+00
         0.00000E+00
         0.00000E+00
         0.00000E+00
         0.00000E+00
         0.00000E+00
         0.00000E+00
         0.00000E+00
         0.00000E+00
         0.00000E+00
         0.00000E+00
         0.00000E+00
         0.00000E+00
         0.00000E+00
         0.00000E+00
         0.00000E+00
         0.00000E+00
         0.00000E+00
         0.00000E+00
         0.00000E+00
         0.00000E+00
         0.00000E+00
         0.00000E+00
         0.00000E+00
         0.00000E+00
         0.00000E+00
         0.00000E+00
         0.00000E+00
         0.00000E+00
         0.00000E+00
         0.00000E+00
         0.00000E+00
         0.00000E+00
         0.00000E+00
         0.00000E+00
         0.00000E+00
         0.00000E+00
         0.00000E+00
         0.00000E+00
         0.00000E+00
         0.00000E+00
         0.00000E+00
         0.00000E+00
         0.00000E+00
         0.00000E+00
         0.00000E+00
         0.00000E+00
         0.00000E+00
         0.00000E+00
         0.00000E+00
         0.00000E+00
         0.00000E+00
         0.00000E+00
         0.00000E+00
         0.00000E+00
         0.00000E+00
         0.00000E+00
         0.00000E+00
         0.00000E+00
         0.00000E+00
         0.00000E+00
         0.00000E+00
         0.00000E+00
         0.00000E+00
         0.00000E+00
         0.00000E+00
         0.00000E+00
         0.00000E+00
         0.00000E+00
         0.00000E+00
         0.00000E+00
         0.00000E+00
         0.00000E+00
         0.00000E+00
         0.00000E+00
         0.00000E+00
         0.00000E+00
         0.00000E+00
         0.00000E+00
         0.00000E+00
         0.00000E+00
         0.00000E+00
         0.00000E+00
         0.00000E+00
         0.00000E+00
         0.00000E+00
         0.00000E+00
         0.00000E+00
         0.00000E+00
         0.00000E+00
         0.00000E+00
         0.00000E+00
         0.00000E+00
         0.00000E+00
         0.00000E+00
         0.00000E+00
         0.00000E+00
         0.00000E+00
         0.00000E+00
         0.00000E+00
         0.00000E+00
         0.00000E+00
         0.00000E+00
         0.00000E+00
         0.00000E+00
         0.00000E+00
         0.00000E+00
         0.00000E+00
         0.00000E+00
         0.00000E+00
         0.00000E+00
         0.00000E+00
         0.00000E+00
         0.00000E+00
         0.00000E+00
         0.00000E+00
         0.00000E+00
         0.00000E+00
         0.00000E+00
         0.00000E+00
         0.00000E+00
         0.00000E+00
         0.00000E+00
         0.00000E+00
         0.00000E+00
         0.00000E+00
         0.00000E+00
         0.00000E+00
         0.00000E+00
         0.00000E+00
         0.00000E+00
         0.00000E+00
         0.00000E+00
         0.00000E+00
         0.00000E+00
         0.00000E+00
         0.00000E+00
         0.00000E+00
         0.00000E+00
         0.00000E+00
         0.00000E+00
         0.00000E+00
         0.00000E+00
         0.00000E+00
         0.00000E+00
         0.00000E+00
         0.00000E+00
         0.00000E+00
         0.00000E+00
         0.00000E+00
         0.00000E+00
         0.00000E+00
         0.00000E+00
         0.00000E+00
         0.00000E+00
         0.00000E+00
         0.00000E+00
         0.00000E+00
         0.00000E+00
         0.00000E+00
         0.00000E+00
         0.00000E+00
         0.00000E+00
         0.00000E+00
         0.00000E+00
         0.00000E+00
         0.00000E+00
         0.00000E+00
         0.00000E+00
         0.00000E+00
         0.00000E+00
         0.00000E+00
         0.00000E+00
         0.00000E+00
         0.00000E+00
         0.00000E+00
         0.00000E+00
         0.00000E+00
         0.00000E+00
         0.00000E+00
         0.00000E+00
         0.00000E+00
         0.00000E+00
         0.00000E+00
         0.00000E+00
         0.00000E+00
         0.00000E+00
         0.00000E+00
         0.00000E+00
         0.00000E+00
         0.00000E+00
         0.00000E+00
         0.00000E+00
         0.00000E+00
         0.00000E+00
         0.00000E+00
         0.00000E+00
         0.00000E+00
         0.00000E+00
         0.00000E+00
         0.00000E+00
         0.00000E+00
         0.00000E+00
         0.00000E+00
         0.00000E+00
         0.00000E+00
         0.00000E+00
         0.00000E+00
         0.00000E+00
         0.00000E+00
         0.00000E+00
         0.00000E+00
         0.00000E+00
         0.00000E+00
         0.00000E+00
         0.00000E+00
         0.00000E+00
         0.00000E+00
         0.00000E+00
         0.00000E+00
         0.00000E+00
         0.00000E+00
         0.00000E+00
         0.00000E+00
         0.00000E+00
         0.00000E+00
         0.00000E+00
         0.00000E+00
         0.00000E+00
         0.00000E+00
         0.00000E+00
         0.00000E+00
         0.00000E+00
         0.00000E+00
         0.00000E+00
         0.00000E+00
         0.00000E+00
         0.00000E+00
         0.00000E+00
         0.00000E+00
         0.00000E+00
         0.00000E+00
         0.00000E+00
         0.00000E+00
         0.00000E+00
         0.00000E+00
         0.00000E+00
         0.00000E+00
         0.00000E+00
         0.00000E+00
         0.00000E+00
         0.00000E+00
         0.00000E+00
         0.00000E+00
         0.00000E+00
         0.00000E+00
         0.00000E+00
         0.00000E+00
         0.00000E+00
         0.00000E+00
         0.00000E+00
         0.00000E+00
         0.00000E+00
         0.00000E+00
         0.00000E+00
         0.00000E+00
         0.00000E+00
         0.00000E+00
         0.00000E+00
         0.00000E+00
         0.00000E+00
         0.00000E+00
         0.00000E+00
         0.00000E+00
         0.00000E+00
         0.00000E+00
         0.00000E+00
         0.00000E+00
         0.00000E+00
         0.00000E+00
         0.00000E+00
         0.00000E+00
         0.00000E+00
         0.00000E+00
         0.00000E+00
         0.00000E+00
         0.00000E+00
         0.00000E+00
         0.00000E+00
         0.00000E+00
         0.00000E+00
         0.00000E+00
         0.00000E+00
         0.00000E+00
         0.00000E+00
         0.00000E+00
         0.00000E+00
         0.00000E+00
         0.00000E+00
         0.00000E+00
         0.00000E+00
         0.00000E+00
         0.00000E+00
         0.00000E+00
         0.00000E+00
         0.00000E+00
         0.00000E+00
         0.00000E+00
         0.00000E+00
         0.00000E+00
         0.00000E+00
         0.00000E+00
         0.00000E+00
         0.00000E+00
         0.00000E+00
         0.00000E+00
         0.00000E+00
         0.00000E+00
         0.00000E+00
         0.00000E+00
         0.00000E+00
         0.00000E+00
         0.00000E+00
         0.00000E+00
         0.00000E+00
         0.00000E+00
         0.00000E+00
         0.00000E+00
         0.00000E+00
         0.00000E+00
         0.00000E+00
         0.00000E+00
         0.00000E+00
         0.00000E+00
         0.00000E+00
         0.00000E+00
         0.00000E+00
         0.00000E+00
         0.00000E+00
         0.00000E+00
         0.00000E+00
         0.00000E+00
         0.00000E+00
         0.00000E+00
         0.00000E+00
         0.00000E+00
         0.00000E+00
         0.00000E+00
         0.00000E+00
         0.00000E+00
         0.00000E+00
         0.00000E+00
         0.00000E+00
         0.00000E+00
         0.00000E+00
         0.00000E+00
         0.00000E+00
         0.00000E+00
         0.00000E+00
         0.00000E+00
         0.00000E+00
         0.00000E+00
         0.00000E+00
         0.00000E+00
         0.00000E+00
         0.00000E+00
         0.00000E+00
         0.00000E+00
         0.00000E+00
         0.00000E+00
         0.00000E+00
         0.00000E+00
         0.00000E+00
         0.00000E+00
         0.00000E+00
         0.00000E+00
         0.00000E+00
         0.00000E+00
         0.00000E+00
         0.00000E+00
         0.00000E+00
         0.00000E+00
         0.00000E+00
         0.00000E+00
         0.00000E+00
         0.00000E+00
         0.00000E+00
         0.00000E+00
         0.00000E+00
         0.00000E+00
         0.00000E+00
         0.00000E+00
         0.00000E+00
         0.00000E+00
         0.00000E+00
         0.00000E+00
         0.00000E+00
         0.00000E+00
         0.00000E+00
         0.00000E+00
         0.00000E+00
         0.00000E+00
         0.00000E+00
         0.00000E+00
         0.00000E+00
         0.00000E+00
         0.00000E+00
         0.00000E+00
         0.00000E+00
         0.00000E+00
         0.00000E+00
         0.00000E+00
         0.00000E+00
         0.00000E+00
         0.00000E+00
         0.00000E+00
         0.00000E+00
         0.00000E+00
         0.00000E+00
         0.00000E+00
         0.00000E+00
         0.00000E+00
         0.00000E+00
         0.00000E+00
         0.00000E+00
         0.00000E+00
         0.00000E+00
         0.00000E+00
         0.00000E+00
         0.00000E+00
         0.00000E+00
         0.00000E+00
         0.00000E+00
         0.00000E+00
         0.00000E+00
         0.00000E+00
         0.00000E+00
         0.00000E+00
         0.00000E+00
         0.00000E+00
         0.00000E+00
         0.00000E+00
         0.00000E+00
         0.00000E+00
         0.00000E+00
         0.00000E+00
         0.00000E+00
         0.00000E+00
         0.00000E+00
         0.00000E+00
         0.00000E+00
         0.00000E+00
         0.00000E+00
         0.00000E+00
         0.00000E+00
         0.00000E+00
         0.00000E+00
         0.00000E+00
         0.00000E+00
         0.00000E+00
         0.00000E+00
         0.00000E+00
         0.00000E+00
         0.00000E+00
         0.00000E+00
         0.00000E+00
         0.00000E+00
         0.00000E+00
         0.00000E+00
         0.00000E+00
         0.00000E+00
         0.00000E+00
         0.00000E+00
         0.00000E+00
         0.00000E+00
         0.00000E+00
         0.00000E+00
         0.00000E+00
         0.00000E+00
         0.00000E+00
         0.00000E+00
         0.00000E+00
         0.00000E+00
         0.00000E+00
         0.00000E+00
         0.00000E+00
         0.00000E+00
         0.00000E+00
         0.00000E+00
         0.00000E+00
         0.00000E+00
         0.00000E+00
         0.00000E+00
         0.00000E+00
         0.00000E+00
         0.00000E+00
         0.00000E+00
         0.00000E+00
         0.00000E+00
         0.00000E+00
         0.00000E+00
         0.00000E+00
         0.00000E+00
         0.00000E+00
         0.00000E+00
         0.00000E+00
         0.00000E+00
         0.00000E+00
         0.00000E+00
         0.00000E+00
         0.00000E+00
         0.00000E+00
         0.00000E+00
         0.00000E+00
         0.00000E+00
         0.00000E+00
         0.00000E+00
         0.00000E+00
         0.00000E+00
         0.00000E+00
         0.00000E+00
         0.00000E+00
         0.00000E+00
         0.00000E+00
         0.00000E+00
         0.00000E+00
         0.00000E+00
         0.00000E+00
         0.00000E+00
         0.00000E+00
         0.00000E+00
         0.00000E+00
         0.00000E+00
         0.00000E+00
         0.00000E+00
         0.00000E+00
         0.00000E+00
         0.00000E+00
         0.00000E+00
         0.00000E+00
         0.00000E+00
         0.00000E+00
         0.00000E+00
         0.00000E+00
         0.00000E+00
         0.00000E+00
         0.00000E+00
         0.00000E+00
         0.00000E+00
         0.00000E+00
         0.00000E+00
         0.00000E+00
         0.00000E+00
         0.00000E+00
         0.00000E+00
         0.00000E+00
         0.00000E+00
         0.00000E+00
         0.00000E+00
         0.00000E+00
         0.00000E+00
         0.00000E+00
         0.00000E+00
         0.00000E+00
         0.00000E+00
         0.00000E+00
         0.00000E+00
         0.00000E+00
         0.00000E+00
         0.00000E+00
         0.00000E+00
         0.00000E+00
         0.00000E+00
         0.00000E+00
         0.00000E+00
         0.00000E+00
         0.00000E+00
         0.00000E+00
         0.00000E+00
         0.00000E+00
         0.00000E+00
         0.00000E+00
         0.00000E+00
         0.00000E+00
         0.00000E+00
         0.00000E+00
         0.00000E+00
         0.00000E+00
         0.00000E+00
         0.00000E+00
         0.00000E+00
         0.00000E+00
         0.00000E+00
         0.00000E+00
         0.00000E+00
         0.00000E+00
         0.00000E+00
         0.00000E+00
         0.00000E+00
         0.00000E+00
         0.00000E+00
         0.00000E+00
         0.00000E+00
         0.00000E+00
         0.00000E+00
         0.00000E+00
         0.00000E+00
         0.00000E+00
         0.00000E+00
         0.00000E+00
         0.00000E+00
         0.00000E+00
         0.00000E+00
         0.00000E+00
         0.00000E+00
         0.00000E+00
         0.00000E+00
         0.00000E+00
         0.00000E+00
         0.00000E+00
         0.00000E+00
         0.00000E+00
         0.00000E+00
         0.00000E+00
         0.00000E+00
         0.00000E+00
         0.00000E+00
         0.00000E+00
         0.00000E+00
         0.00000E+00
         0.00000E+00
         0.00000E+00
         0.00000E+00
         0.00000E+00
         0.00000E+00
         0.00000E+00
         0.00000E+00
         0.00000E+00
         0.00000E+00
         0.00000E+00
         0.00000E+00
         0.00000E+00
         0.00000E+00
         0.00000E+00
         0.00000E+00
         0.00000E+00
         0.00000E+00
         0.00000E+00
         0.00000E+00
         0.00000E+00
         0.00000E+00
         0.00000E+00
         0.00000E+00
         0.00000E+00
         0.00000E+00
         0.00000E+00
         0.00000E+00
         0.00000E+00
         0.00000E+00
         0.00000E+00
         0.00000E+00
         0.00000E+00
         0.00000E+00
         0.00000E+00
         0.00000E+00
         0.00000E+00
         0.00000E+00
         0.00000E+00
         0.00000E+00
         0.00000E+00
         0.00000E+00
         0.00000E+00
         0.00000E+00
         0.00000E+00
         0.00000E+00
         0.00000E+00
         0.00000E+00
         0.00000E+00
         0.00000E+00
         0.00000E+00
         0.00000E+00
         0.00000E+00
         0.00000E+00
         0.00000E+00
         0.00000E+00
         0.00000E+00
         0.00000E+00
         0.00000E+00
         0.00000E+00
         0.00000E+00
         0.00000E+00
         0.00000E+00
         0.00000E+00
         0.00000E+00
         0.00000E+00
         0.00000E+00
         0.00000E+00
         0.00000E+00
         0.00000E+00
         0.00000E+00
         0.00000E+00
         0.00000E+00
         0.00000E+00
         0.00000E+00
         0.00000E+00
         0.00000E+00
         0.00000E+00
         0.00000E+00
         0.00000E+00
         0.00000E+00
         0.00000E+00
         0.00000E+00
         0.00000E+00
         0.00000E+00
         0.00000E+00
         0.00000E+00
         0.00000E+00
         0.00000E+00
         0.00000E+00
         0.00000E+00
         0.00000E+00
         0.00000E+00
         0.00000E+00
         0.00000E+00
         0.00000E+00
         0.00000E+00
         0.00000E+00
         0.00000E+00
         0.00000E+00
         0.00000E+00
         0.00000E+00
         0.00000E+00
         0.00000E+00
         0.00000E+00
         0.00000E+00
         0.00000E+00
         0.00000E+00
         0.00000E+00
         0.00000E+00
         0.00000E+00
         0.00000E+00
         0.00000E+00
         0.00000E+00
         0.00000E+00
         0.00000E+00
         0.00000E+00
         0.00000E+00
         0.00000E+00
         0.00000E+00
         0.00000E+00
         0.00000E+00
         0.00000E+00
         0.00000E+00
         0.00000E+00
         0.00000E+00
         0.00000E+00
         0.00000E+00
         0.00000E+00
         0.00000E+00
         0.00000E+00
         0.00000E+00
         0.00000E+00
         0.00000E+00
         0.00000E+00
         0.00000E+00
         0.00000E+00
         0.00000E+00
         0.00000E+00
         0.00000E+00
         0.00000E+00
         0.00000E+00
         0.00000E+00
         0.00000E+00
         0.00000E+00
         0.00000E+00
         0.00000E+00
         0.00000E+00
         0.00000E+00
         0.00000E+00
         0.00000E+00
         0.00000E+00
         0.00000E+00
         0.00000E+00
         0.00000E+00
         0.00000E+00
         0.00000E+00
         0.00000E+00
         0.00000E+00
         0.00000E+00
         0.00000E+00
         0.00000E+00
         0.00000E+00
         0.00000E+00
         0.00000E+00
         0.00000E+00
         0.00000E+00
         0.00000E+00
         0.00000E+00
         0.00000E+00
         0.00000E+00
         0.00000E+00
         0.00000E+00
         0.00000E+00
         0.00000E+00
         0.00000E+00
         0.00000E+00
         0.00000E+00
         0.00000E+00
         0.00000E+00
         0.00000E+00
         0.00000E+00
         0.00000E+00
         0.00000E+00
         0.00000E+00
         0.00000E+00
         0.00000E+00
         0.00000E+00
         0.00000E+00
         0.00000E+00
         0.00000E+00
         0.00000E+00
         0.00000E+00
         0.00000E+00
         0.00000E+00
         0.00000E+00
         0.00000E+00
         0.00000E+00
         0.00000E+00
         0.00000E+00
         0.00000E+00
         0.00000E+00
         0.00000E+00
         0.00000E+00
         0.00000E+00
         0.00000E+00
         0.00000E+00
         0.00000E+00
         0.00000E+00
         0.00000E+00
         0.00000E+00
         0.00000E+00
         0.00000E+00
         0.00000E+00
         0.00000E+00
         0.00000E+00
         0.00000E+00
         0.00000E+00
         0.00000E+00
         0.00000E+00
         0.00000E+00
         0.00000E+00
         0.00000E+00
         0.00000E+00
         0.00000E+00
         0.00000E+00
         0.00000E+00
         0.00000E+00
         0.00000E+00
         0.00000E+00
         0.00000E+00
         0.00000E+00
         0.00000E+00
         0.00000E+00
         0.00000E+00
         0.00000E+00
         0.00000E+00
         0.00000E+00
         0.00000E+00
         0.00000E+00
         0.00000E+00
         0.00000E+00
         0.00000E+00
         0.00000E+00
         0.00000E+00
         0.00000E+00
         0.00000E+00
         0.00000E+00
         0.00000E+00
         0.00000E+00
         0.00000E+00
         0.00000E+00
         0.00000E+00
         0.00000E+00
         0.00000E+00
         0.00000E+00
         0.00000E+00
         0.00000E+00
         0.00000E+00
         0.00000E+00
         0.00000E+00
         0.00000E+00
         0.00000E+00
         0.00000E+00
         0.00000E+00
         0.00000E+00
         0.00000E+00
         0.00000E+00
         0.00000E+00
         0.00000E+00
         0.00000E+00
         0.00000E+00
         0.00000E+00
         0.00000E+00
         0.00000E+00
         0.00000E+00
         0.00000E+00
         0.00000E+00
         0.00000E+00
         0.00000E+00
         0.00000E+00
         0.00000E+00
         0.00000E+00
         0.00000E+00
         0.00000E+00
         0.00000E+00
         0.00000E+00
         0.00000E+00
         0.00000E+00
         0.00000E+00
         0.00000E+00
         0.00000E+00
         0.00000E+00
         0.00000E+00
         0.00000E+00
         0.00000E+00
         0.00000E+00
         0.00000E+00
         0.00000E+00
         0.00000E+00
         0.00000E+00
         0.00000E+00
         0.00000E+00
         0.00000E+00
         0.00000E+00
         0.00000E+00
         0.00000E+00
         0.00000E+00
         0.00000E+00
         0.00000E+00
         0.00000E+00
         0.00000E+00
         0.00000E+00
         0.00000E+00
         0.00000E+00
         0.00000E+00
         0.00000E+00
         0.00000E+00
         0.00000E+00
         0.00000E+00
         0.00000E+00
         0.00000E+00
         0.00000E+00
         0.00000E+00
         0.00000E+00
         0.00000E+00
         0.00000E+00
         0.00000E+00
         0.00000E+00
         0.00000E+00
         0.00000E+00
         0.00000E+00
         0.00000E+00
         0.00000E+00
         0.00000E+00
         0.00000E+00
         0.00000E+00
         0.00000E+00
         0.00000E+00
         0.00000E+00
         0.00000E+00
         0.00000E+00
         0.00000E+00
         0.00000E+00
         0.00000E+00
         0.00000E+00
         0.00000E+00
         0.00000E+00
         0.00000E+00
         0.00000E+00
         0.00000E+00
         0.00000E+00
         0.00000E+00
         0.00000E+00
         0.00000E+00
         0.00000E+00
         0.00000E+00
         0.00000E+00
         0.00000E+00
         0.00000E+00
         0.00000E+00
         0.00000E+00
         0.00000E+00
         0.00000E+00
         0.00000E+00
         0.00000E+00
         0.00000E+00
         0.00000E+00
         0.00000E+00
         0.00000E+00
         0.00000E+00
         0.00000E+00
         0.00000E+00
         0.00000E+00
         0.00000E+00
         0.00000E+00
         0.00000E+00
         0.00000E+00
         0.00000E+00
         0.00000E+00
         0.00000E+00
         0.00000E+00
         0.00000E+00
         0.00000E+00
         0.00000E+00
         0.00000E+00
         0.00000E+00
         0.00000E+00
         0.00000E+00
         0.00000E+00
         0.00000E+00
         0.00000E+00
         0.00000E+00
         0.00000E+00
         0.00000E+00
         0.00000E+00
         0.00000E+00
         0.00000E+00
         0.00000E+00
         0.00000E+00
         0.00000E+00
         0.00000E+00
         0.00000E+00
         0.00000E+00
         0.00000E+00
         0.00000E+00
         0.00000E+00
         0.00000E+00
         0.00000E+00
         0.00000E+00
         0.00000E+00
         0.00000E+00
         0.00000E+00
         0.00000E+00
         0.00000E+00
         0.00000E+00
         0.00000E+00
         0.00000E+00
         0.00000E+00
         0.00000E+00
         0.00000E+00
         0.00000E+00
         0.00000E+00
         0.00000E+00
         0.00000E+00
         0.00000E+00
         0.00000E+00
         0.00000E+00
         0.00000E+00
         0.00000E+00
         0.00000E+00
         0.00000E+00
         0.00000E+00
         0.00000E+00
         0.00000E+00
         0.00000E+00
         0.00000E+00
         0.00000E+00
         0.00000E+00
         0.00000E+00
         0.00000E+00
         0.00000E+00
         0.00000E+00
         0.00000E+00
         0.00000E+00
         0.00000E+00
         0.00000E+00
         0.00000E+00
         0.00000E+00
         0.00000E+00
         0.00000E+00
         0.00000E+00
         0.00000E+00
         0.00000E+00
         0.00000E+00
         0.00000E+00
         0.00000E+00
         0.00000E+00
         0.00000E+00
         0.00000E+00
         0.00000E+00
         0.00000E+00
         0.00000E+00
         0.00000E+00
         0.00000E+00
         0.00000E+00
         0.00000E+00
         0.00000E+00
         0.00000E+00
         0.00000E+00
         0.00000E+00
         0.00000E+00
         0.00000E+00
         0.00000E+00
         0.00000E+00
         0.00000E+00
         0.00000E+00
         0.00000E+00
         0.00000E+00
         0.00000E+00
         0.00000E+00
         0.00000E+00
         0.00000E+00
         0.00000E+00
         0.00000E+00
         0.00000E+00
         0.00000E+00
         0.00000E+00
         0.00000E+00
         0.00000E+00
         0.00000E+00
         0.00000E+00
         0.00000E+00
         0.00000E+00
         0.00000E+00
         0.00000E+00
         0.00000E+00
         0.00000E+00
         0.00000E+00
         0.00000E+00
         0.00000E+00
         0.00000E+00
         0.00000E+00
         0.00000E+00
         0.00000E+00
         0.00000E+00
         0.00000E+00
         0.00000E+00
         0.00000E+00
         0.00000E+00
         0.00000E+00
         0.00000E+00
         0.00000E+00
         0.00000E+00
         0.00000E+00
         0.00000E+00
         0.00000E+00
         0.00000E+00
         0.00000E+00
         0.00000E+00
         0.00000E+00
         0.00000E+00
         0.00000E+00
         0.00000E+00
         0.00000E+00
         0.00000E+00
         0.00000E+00
         0.00000E+00
         0.00000E+00
         0.00000E+00
         0.00000E+00
         0.00000E+00
         0.00000E+00
         0.00000E+00
         0.00000E+00
         0.00000E+00
         0.00000E+00
         0.00000E+00
         0.00000E+00
         0.00000E+00
         0.00000E+00
         0.00000E+00
         0.00000E+00
         0.00000E+00
         0.00000E+00
         0.00000E+00
         0.00000E+00
         0.00000E+00
         0.00000E+00
         0.00000E+00
         0.00000E+00
         0.00000E+00
         0.00000E+00
         0.00000E+00
         0.00000E+00
         0.00000E+00
         0.00000E+00
         0.00000E+00
         0.00000E+00
         0.00000E+00
         0.00000E+00
         0.00000E+00
         0.00000E+00
         0.00000E+00
         0.00000E+00
         0.00000E+00
         0.00000E+00
         0.00000E+00
         0.00000E+00
         0.00000E+00
         0.00000E+00
         0.00000E+00
         0.00000E+00
         0.00000E+00
         0.00000E+00
         0.00000E+00
         0.00000E+00
         0.00000E+00
         0.00000E+00
         0.00000E+00
         0.00000E+00
         0.00000E+00
         0.00000E+00
         0.00000E+00
         0.00000E+00
         0.00000E+00
         0.00000E+00
         0.00000E+00
         0.00000E+00
         0.00000E+00
         0.00000E+00
         0.00000E+00
         0.00000E+00
         0.00000E+00
         0.00000E+00
         0.00000E+00
         0.00000E+00
         0.00000E+00
         0.00000E+00
         0.00000E+00
         0.00000E+00
         0.00000E+00
         0.00000E+00
         0.00000E+00
         0.00000E+00
         0.00000E+00
         0.00000E+00
         0.00000E+00
         0.00000E+00
         0.00000E+00
         0.00000E+00
         0.00000E+00
         0.00000E+00
         0.00000E+00
         0.00000E+00
         0.00000E+00
         0.00000E+00
         0.00000E+00
         0.00000E+00
         0.00000E+00
         0.00000E+00
         0.00000E+00
         0.00000E+00
         0.00000E+00
         0.00000E+00
         0.00000E+00
         0.00000E+00
         0.00000E+00
         0.00000E+00
         0.00000E+00
         0.00000E+00
         0.00000E+00
         0.00000E+00
         0.00000E+00
         0.00000E+00
         0.00000E+00
         0.00000E+00
         0.00000E+00
         0.00000E+00
         0.00000E+00
         0.00000E+00
         0.00000E+00
         0.00000E+00
         0.00000E+00
         0.00000E+00
         0.00000E+00
         0.00000E+00
         0.00000E+00
         0.00000E+00
         0.00000E+00
         0.00000E+00
         0.00000E+00
         0.00000E+00
         0.00000E+00
         0.00000E+00
         0.00000E+00
         0.00000E+00
         0.00000E+00
         0.00000E+00
         0.00000E+00
         0.00000E+00
         0.00000E+00
         0.00000E+00
         0.00000E+00
         0.00000E+00
         0.00000E+00
         0.00000E+00
         0.00000E+00
         0.00000E+00
         0.00000E+00
         0.00000E+00
         0.00000E+00
         0.00000E+00
         0.00000E+00
         0.00000E+00
         0.00000E+00
         0.00000E+00
         0.00000E+00
         0.00000E+00
         0.00000E+00
         0.00000E+00
         0.00000E+00
         0.00000E+00
         0.00000E+00
         0.00000E+00
         0.00000E+00
         0.00000E+00
         0.00000E+00
         0.00000E+00
         0.00000E+00
         0.00000E+00
         0.00000E+00
         0.00000E+00
         0.00000E+00
         0.00000E+00
         0.00000E+00
         0.00000E+00
         0.00000E+00
         0.00000E+00
         0.00000E+00
         0.00000E+00
         0.00000E+00
         0.00000E+00
         0.00000E+00
         0.00000E+00
         0.00000E+00
         0.00000E+00
         0.00000E+00
         0.00000E+00
         0.00000E+00
         0.00000E+00
         0.00000E+00
         0.00000E+00
         0.00000E+00
         0.00000E+00
         0.00000E+00
         0.00000E+00
         0.00000E+00
         0.00000E+00
         0.00000E+00
         0.00000E+00
         0.00000E+00
         0.00000E+00
         0.00000E+00
         0.00000E+00
         0.00000E+00
         0.00000E+00
         0.00000E+00
         0.00000E+00
         0.00000E+00
         0.00000E+00
         0.00000E+00
         0.00000E+00
         0.00000E+00
         0.00000E+00
         0.00000E+00
         0.00000E+00
         0.00000E+00
         0.00000E+00
         0.00000E+00
         0.00000E+00
         0.00000E+00
         0.00000E+00
         0.00000E+00
         0.00000E+00
         0.00000E+00
         0.00000E+00
         0.00000E+00
         0.00000E+00
         0.00000E+00
         0.00000E+00
         0.00000E+00
         0.00000E+00
         0.00000E+00
         0.00000E+00
         0.00000E+00
         0.00000E+00
         0.00000E+00
         0.00000E+00
         0.00000E+00
         0.00000E+00
         0.00000E+00
         0.00000E+00
         0.00000E+00
         0.00000E+00
         0.00000E+00
         0.00000E+00
         0.00000E+00
         0.00000E+00
         0.00000E+00
         0.00000E+00
         0.00000E+00
         0.00000E+00
         0.00000E+00
         0.00000E+00
         0.00000E+00
         0.00000E+00
         0.00000E+00
         0.00000E+00
         0.00000E+00
         0.00000E+00
         0.00000E+00
         0.00000E+00
         0.00000E+00
         0.00000E+00
         0.00000E+00
         0.00000E+00
         0.00000E+00
         0.00000E+00
         0.00000E+00
         0.00000E+00
         0.00000E+00
         0.00000E+00
         0.00000E+00
         0.00000E+00
         0.00000E+00
         0.00000E+00
         0.00000E+00
         0.00000E+00
         0.00000E+00
         0.00000E+00
         0.00000E+00
         0.00000E+00
         0.00000E+00
         0.00000E+00
         0.00000E+00
         0.00000E+00
         0.00000E+00
         0.00000E+00
         0.00000E+00
         0.00000E+00
         0.00000E+00
         0.00000E+00
         0.00000E+00
         0.00000E+00
         0.00000E+00
         0.00000E+00
         0.00000E+00
         0.00000E+00
         0.00000E+00
         0.00000E+00
         0.00000E+00
         0.00000E+00
         0.00000E+00
         0.00000E+00
         0.00000E+00
         0.00000E+00
         0.00000E+00
         0.00000E+00
         0.00000E+00
         0.00000E+00
         0.00000E+00
         0.00000E+00
         0.00000E+00
         0.00000E+00
         0.00000E+00
         0.00000E+00
         0.00000E+00
         0.00000E+00
         0.00000E+00
         0.00000E+00
         0.00000E+00
         0.00000E+00
         0.00000E+00
         0.00000E+00
         0.00000E+00
         0.00000E+00
         0.00000E+00
         0.00000E+00
         0.00000E+00
         0.00000E+00
         0.00000E+00
         0.00000E+00
         0.00000E+00
         0.00000E+00
         0.00000E+00
         0.00000E+00
         0.00000E+00
         0.00000E+00
         0.00000E+00
         0.00000E+00
         0.00000E+00
         0.00000E+00
         0.00000E+00
         0.00000E+00
         0.00000E+00
         0.00000E+00
         0.00000E+00
         0.00000E+00
         0.00000E+00
         0.00000E+00
         0.00000E+00
         0.00000E+00
         0.00000E+00
         0.00000E+00
         0.00000E+00
         0.00000E+00
         0.00000E+00
         0.00000E+00
         0.00000E+00
         0.00000E+00
         0.00000E+00
         0.00000E+00
         0.00000E+00
         0.00000E+00
         0.00000E+00
         0.00000E+00
         0.00000E+00
         0.00000E+00
         0.00000E+00
         0.00000E+00
         0.00000E+00
         0.00000E+00
         0.00000E+00
         0.00000E+00
         0.00000E+00
         0.00000E+00
         0.00000E+00
         0.00000E+00
         0.00000E+00
         0.00000E+00
         0.00000E+00
         0.00000E+00
         0.00000E+00
         0.00000E+00
         0.00000E+00
         0.00000E+00
         0.00000E+00
         0.00000E+00
         0.00000E+00
         0.00000E+00
         0.00000E+00
         0.00000E+00
         0.00000E+00
         0.00000E+00
         0.00000E+00
         0.00000E+00
         0.00000E+00
         0.00000E+00
         0.00000E+00
         0.00000E+00
         0.00000E+00
         0.00000E+00
         0.00000E+00
         0.00000E+00
         0.00000E+00
         0.00000E+00
         0.00000E+00
         0.00000E+00
         0.00000E+00
         0.00000E+00
         0.00000E+00
         0.00000E+00
         0.00000E+00
         0.00000E+00
         0.00000E+00
         0.00000E+00
         0.00000E+00
         0.00000E+00
         0.00000E+00
         0.00000E+00
         0.00000E+00
         0.00000E+00
         0.00000E+00
         0.00000E+00
         0.00000E+00
         0.00000E+00
         0.00000E+00
         0.00000E+00
         0.00000E+00
         0.00000E+00
         0.00000E+00
         0.00000E+00
         0.00000E+00
         0.00000E+00
         0.00000E+00
         0.00000E+00
         0.00000E+00
         0.00000E+00
         0.00000E+00
         0.00000E+00
         0.00000E+00
         0.00000E+00
         0.00000E+00
         0.00000E+00
         0.00000E+00
         0.00000E+00
         0.00000E+00
         0.00000E+00
         0.00000E+00
         0.00000E+00
         0.00000E+00
         0.00000E+00
         0.00000E+00
         0.00000E+00
         0.00000E+00
         0.00000E+00
         0.00000E+00
         0.00000E+00
         0.00000E+00
         0.00000E+00
         0.00000E+00
         0.00000E+00
         0.00000E+00
         0.00000E+00
         0.00000E+00
         0.00000E+00
         0.00000E+00
         0.00000E+00
         0.00000E+00
         0.00000E+00
         0.00000E+00
         0.00000E+00
         0.00000E+00
         0.00000E+00
         0.00000E+00
         0.00000E+00
         0.00000E+00
         0.00000E+00
         0.00000E+00
         0.00000E+00
         0.00000E+00
         0.00000E+00
         0.00000E+00
         0.00000E+00
         0.00000E+00
         0.00000E+00
         0.00000E+00
         0.00000E+00
         0.00000E+00
         0.00000E+00
         0.00000E+00
         0.00000E+00
         0.00000E+00
         0.00000E+00
         0.00000E+00
         0.00000E+00
         0.00000E+00
         0.00000E+00
         0.00000E+00
         0.00000E+00
         0.00000E+00
         0.00000E+00
         0.00000E+00
         0.00000E+00
         0.00000E+00
         0.00000E+00
         0.00000E+00
         0.00000E+00
         0.00000E+00
         0.00000E+00
         0.00000E+00
         0.00000E+00
         0.00000E+00
         0.00000E+00
         0.00000E+00
         0.00000E+00
         0.00000E+00
         0.00000E+00
         0.00000E+00
         0.00000E+00
         0.00000E+00
         0.00000E+00
         0.00000E+00
         0.00000E+00
         0.00000E+00
         0.00000E+00
         0.00000E+00
         0.00000E+00
         0.00000E+00
         0.00000E+00
         0.00000E+00
         0.00000E+00
         0.00000E+00
         0.00000E+00
         0.00000E+00
         0.00000E+00
         0.00000E+00
         0.00000E+00
         0.00000E+00
         0.00000E+00
         0.00000E+00
         0.00000E+00
         0.00000E+00
         0.00000E+00
         0.00000E+00
         0.00000E+00
         0.00000E+00
         0.00000E+00
         0.00000E+00
         0.00000E+00
         0.00000E+00
         0.00000E+00
         0.00000E+00
         0.00000E+00
         0.00000E+00
         0.00000E+00
         0.00000E+00
         0.00000E+00
         0.00000E+00
         0.00000E+00
         0.00000E+00
         0.00000E+00
         0.00000E+00
         0.00000E+00
         0.00000E+00
         0.00000E+00
         0.00000E+00
         0.00000E+00
         0.00000E+00
         0.00000E+00
         0.00000E+00
         0.00000E+00
         0.00000E+00
         0.00000E+00
         0.00000E+00
         0.00000E+00
         0.00000E+00
         0.00000E+00
         0.00000E+00
         0.00000E+00
         0.00000E+00
         0.00000E+00
         0.00000E+00
         0.00000E+00
         0.00000E+00
         0.00000E+00
         0.00000E+00
         0.00000E+00
         0.00000E+00
         0.00000E+00
         0.00000E+00
         0.00000E+00
         0.00000E+00
         0.00000E+00
         0.00000E+00
         0.00000E+00
         0.00000E+00
         0.00000E+00
         0.00000E+00
         0.00000E+00
         0.00000E+00
         0.00000E+00
         0.00000E+00
         0.00000E+00
         0.00000E+00
         0.00000E+00
         0.00000E+00
         0.00000E+00
         0.00000E+00
         0.00000E+00
         0.00000E+00
         0.00000E+00
         0.00000E+00
         0.00000E+00
         0.00000E+00
         0.00000E+00
         0.00000E+00
         0.00000E+00
         0.00000E+00
         0.00000E+00
         0.00000E+00
         0.00000E+00
         0.00000E+00
         0.00000E+00
         0.00000E+00
         0.00000E+00
         0.00000E+00
         0.00000E+00
         0.00000E+00
         0.00000E+00
         0.00000E+00
         0.00000E+00
         0.00000E+00
         0.00000E+00
         0.00000E+00
         0.00000E+00
         0.00000E+00
         0.00000E+00
         0.00000E+00
         0.00000E+00
         0.00000E+00
         0.00000E+00
         0.00000E+00
         0.00000E+00
         0.00000E+00
         0.00000E+00
         0.00000E+00
         0.00000E+00
         0.00000E+00
         0.00000E+00
         0.00000E+00
         0.00000E+00
         0.00000E+00
         0.00000E+00
         0.00000E+00
         0.00000E+00
         0.00000E+00
         0.00000E+00
         0.00000E+00
         0.00000E+00
         0.00000E+00
         0.00000E+00
         0.00000E+00
         0.00000E+00
         0.00000E+00
         0.00000E+00
         0.00000E+00
         0.00000E+00
         0.00000E+00
         0.00000E+00
  
SCALARS                      strain_xx  double 1
LOOKUP_TABLE default
         0.00000E+00
         0.00000E+00
         0.00000E+00
         0.00000E+00
         0.00000E+00
         0.00000E+00
         0.00000E+00
         0.00000E+00
         0.00000E+00
         0.00000E+00
         0.00000E+00
         0.00000E+00
         0.00000E+00
         0.00000E+00
         0.00000E+00
         0.00000E+00
         0.00000E+00
         0.00000E+00
         0.00000E+00
         0.00000E+00
         0.00000E+00
         0.00000E+00
         0.00000E+00
         0.00000E+00
         0.00000E+00
         0.00000E+00
         0.00000E+00
         0.00000E+00
         0.00000E+00
         0.00000E+00
         0.00000E+00
         0.00000E+00
         0.00000E+00
         0.00000E+00
         0.00000E+00
         0.00000E+00
         0.00000E+00
         0.00000E+00
         0.00000E+00
         0.00000E+00
         0.00000E+00
         0.00000E+00
         0.00000E+00
         0.00000E+00
         0.00000E+00
         0.00000E+00
         0.00000E+00
         0.00000E+00
         0.00000E+00
         0.00000E+00
         0.00000E+00
         0.00000E+00
         0.00000E+00
         0.00000E+00
         0.00000E+00
         0.00000E+00
         0.00000E+00
         0.00000E+00
         0.00000E+00
         0.00000E+00
         0.00000E+00
         0.00000E+00
         0.00000E+00
         0.00000E+00
         0.00000E+00
         0.00000E+00
         0.00000E+00
         0.00000E+00
         0.00000E+00
         0.00000E+00
         0.00000E+00
         0.00000E+00
         0.00000E+00
         0.00000E+00
         0.00000E+00
         0.00000E+00
         0.00000E+00
         0.00000E+00
         0.00000E+00
         0.00000E+00
         0.00000E+00
         0.00000E+00
         0.00000E+00
         0.00000E+00
         0.00000E+00
         0.00000E+00
         0.00000E+00
         0.00000E+00
         0.00000E+00
         0.00000E+00
         0.00000E+00
         0.00000E+00
         0.00000E+00
         0.00000E+00
         0.00000E+00
         0.00000E+00
         0.00000E+00
         0.00000E+00
         0.00000E+00
         0.00000E+00
         0.00000E+00
         0.00000E+00
         0.00000E+00
         0.00000E+00
         0.00000E+00
         0.00000E+00
         0.00000E+00
         0.00000E+00
         0.00000E+00
         0.00000E+00
         0.00000E+00
         0.00000E+00
         0.00000E+00
         0.00000E+00
         0.00000E+00
         0.00000E+00
         0.00000E+00
         0.00000E+00
         0.00000E+00
         0.00000E+00
         0.00000E+00
         0.00000E+00
         0.00000E+00
         0.00000E+00
         0.00000E+00
         0.00000E+00
         0.00000E+00
         0.00000E+00
         0.00000E+00
         0.00000E+00
         0.00000E+00
         0.00000E+00
         0.00000E+00
         0.00000E+00
         0.00000E+00
         0.00000E+00
         0.00000E+00
         0.00000E+00
         0.00000E+00
         0.00000E+00
         0.00000E+00
         0.00000E+00
         0.00000E+00
         0.00000E+00
         0.00000E+00
         0.00000E+00
         0.00000E+00
         0.00000E+00
         0.00000E+00
         0.00000E+00
         0.00000E+00
         0.00000E+00
         0.00000E+00
         0.00000E+00
         0.00000E+00
         0.00000E+00
         0.00000E+00
         0.00000E+00
         0.00000E+00
         0.00000E+00
         0.00000E+00
         0.00000E+00
         0.00000E+00
         0.00000E+00
         0.00000E+00
         0.00000E+00
         0.00000E+00
         0.00000E+00
         0.00000E+00
         0.00000E+00
         0.00000E+00
         0.00000E+00
         0.00000E+00
         0.00000E+00
         0.00000E+00
         0.00000E+00
         0.00000E+00
         0.00000E+00
         0.00000E+00
         0.00000E+00
         0.00000E+00
         0.00000E+00
         0.00000E+00
         0.00000E+00
         0.00000E+00
         0.00000E+00
         0.00000E+00
         0.00000E+00
         0.00000E+00
         0.00000E+00
         0.00000E+00
         0.00000E+00
         0.00000E+00
         0.00000E+00
         0.00000E+00
         0.00000E+00
         0.00000E+00
         0.00000E+00
         0.00000E+00
         0.00000E+00
         0.00000E+00
         0.00000E+00
         0.00000E+00
         0.00000E+00
         0.00000E+00
         0.00000E+00
         0.00000E+00
         0.00000E+00
         0.00000E+00
         0.00000E+00
         0.00000E+00
         0.00000E+00
         0.00000E+00
         0.00000E+00
         0.00000E+00
         0.00000E+00
         0.00000E+00
         0.00000E+00
         0.00000E+00
         0.00000E+00
         0.00000E+00
         0.00000E+00
         0.00000E+00
         0.00000E+00
         0.00000E+00
         0.00000E+00
         0.00000E+00
         0.00000E+00
         0.00000E+00
         0.00000E+00
         0.00000E+00
         0.00000E+00
         0.00000E+00
         0.00000E+00
         0.00000E+00
         0.00000E+00
         0.00000E+00
         0.00000E+00
         0.00000E+00
         0.00000E+00
         0.00000E+00
         0.00000E+00
         0.00000E+00
         0.00000E+00
         0.00000E+00
         0.00000E+00
         0.00000E+00
         0.00000E+00
         0.00000E+00
         0.00000E+00
         0.00000E+00
         0.00000E+00
         0.00000E+00
         0.00000E+00
         0.00000E+00
         0.00000E+00
         0.00000E+00
         0.00000E+00
         0.00000E+00
         0.00000E+00
         0.00000E+00
         0.00000E+00
         0.00000E+00
         0.00000E+00
         0.00000E+00
         0.00000E+00
         0.00000E+00
         0.00000E+00
         0.00000E+00
         0.00000E+00
         0.00000E+00
         0.00000E+00
         0.00000E+00
         0.00000E+00
         0.00000E+00
         0.00000E+00
         0.00000E+00
         0.00000E+00
         0.00000E+00
         0.00000E+00
         0.00000E+00
         0.00000E+00
         0.00000E+00
         0.00000E+00
         0.00000E+00
         0.00000E+00
         0.00000E+00
         0.00000E+00
         0.00000E+00
         0.00000E+00
         0.00000E+00
         0.00000E+00
         0.00000E+00
         0.00000E+00
         0.00000E+00
         0.00000E+00
         0.00000E+00
         0.00000E+00
         0.00000E+00
         0.00000E+00
         0.00000E+00
         0.00000E+00
         0.00000E+00
         0.00000E+00
         0.00000E+00
         0.00000E+00
         0.00000E+00
         0.00000E+00
         0.00000E+00
         0.00000E+00
         0.00000E+00
         0.00000E+00
         0.00000E+00
         0.00000E+00
         0.00000E+00
         0.00000E+00
         0.00000E+00
         0.00000E+00
         0.00000E+00
         0.00000E+00
         0.00000E+00
         0.00000E+00
         0.00000E+00
         0.00000E+00
         0.00000E+00
         0.00000E+00
         0.00000E+00
         0.00000E+00
         0.00000E+00
         0.00000E+00
         0.00000E+00
         0.00000E+00
         0.00000E+00
         0.00000E+00
         0.00000E+00
         0.00000E+00
         0.00000E+00
         0.00000E+00
         0.00000E+00
         0.00000E+00
         0.00000E+00
         0.00000E+00
         0.00000E+00
         0.00000E+00
         0.00000E+00
         0.00000E+00
         0.00000E+00
         0.00000E+00
         0.00000E+00
         0.00000E+00
         0.00000E+00
         0.00000E+00
         0.00000E+00
         0.00000E+00
         0.00000E+00
         0.00000E+00
         0.00000E+00
         0.00000E+00
         0.00000E+00
         0.00000E+00
         0.00000E+00
         0.00000E+00
         0.00000E+00
         0.00000E+00
         0.00000E+00
         0.00000E+00
         0.00000E+00
         0.00000E+00
         0.00000E+00
         0.00000E+00
         0.00000E+00
         0.00000E+00
         0.00000E+00
         0.00000E+00
         0.00000E+00
         0.00000E+00
         0.00000E+00
         0.00000E+00
         0.00000E+00
         0.00000E+00
         0.00000E+00
         0.00000E+00
         0.00000E+00
         0.00000E+00
         0.00000E+00
         0.00000E+00
         0.00000E+00
         0.00000E+00
         0.00000E+00
         0.00000E+00
         0.00000E+00
         0.00000E+00
         0.00000E+00
         0.00000E+00
         0.00000E+00
         0.00000E+00
         0.00000E+00
         0.00000E+00
         0.00000E+00
         0.00000E+00
         0.00000E+00
         0.00000E+00
         0.00000E+00
         0.00000E+00
         0.00000E+00
         0.00000E+00
         0.00000E+00
         0.00000E+00
         0.00000E+00
         0.00000E+00
         0.00000E+00
         0.00000E+00
         0.00000E+00
         0.00000E+00
         0.00000E+00
         0.00000E+00
         0.00000E+00
         0.00000E+00
         0.00000E+00
         0.00000E+00
         0.00000E+00
         0.00000E+00
         0.00000E+00
         0.00000E+00
         0.00000E+00
         0.00000E+00
         0.00000E+00
         0.00000E+00
         0.00000E+00
         0.00000E+00
         0.00000E+00
         0.00000E+00
         0.00000E+00
         0.00000E+00
         0.00000E+00
         0.00000E+00
         0.00000E+00
         0.00000E+00
         0.00000E+00
         0.00000E+00
         0.00000E+00
         0.00000E+00
         0.00000E+00
         0.00000E+00
         0.00000E+00
         0.00000E+00
         0.00000E+00
         0.00000E+00
         0.00000E+00
         0.00000E+00
         0.00000E+00
         0.00000E+00
         0.00000E+00
         0.00000E+00
         0.00000E+00
         0.00000E+00
         0.00000E+00
         0.00000E+00
         0.00000E+00
         0.00000E+00
         0.00000E+00
         0.00000E+00
         0.00000E+00
         0.00000E+00
         0.00000E+00
         0.00000E+00
         0.00000E+00
         0.00000E+00
         0.00000E+00
         0.00000E+00
         0.00000E+00
         0.00000E+00
         0.00000E+00
         0.00000E+00
         0.00000E+00
         0.00000E+00
         0.00000E+00
         0.00000E+00
         0.00000E+00
         0.00000E+00
         0.00000E+00
         0.00000E+00
         0.00000E+00
         0.00000E+00
         0.00000E+00
         0.00000E+00
         0.00000E+00
         0.00000E+00
         0.00000E+00
         0.00000E+00
         0.00000E+00
         0.00000E+00
         0.00000E+00
         0.00000E+00
         0.00000E+00
         0.00000E+00
         0.00000E+00
         0.00000E+00
         0.00000E+00
         0.00000E+00
         0.00000E+00
         0.00000E+00
         0.00000E+00
         0.00000E+00
         0.00000E+00
         0.00000E+00
         0.00000E+00
         0.00000E+00
         0.00000E+00
         0.00000E+00
         0.00000E+00
         0.00000E+00
         0.00000E+00
         0.00000E+00
         0.00000E+00
         0.00000E+00
         0.00000E+00
         0.00000E+00
         0.00000E+00
         0.00000E+00
         0.00000E+00
         0.00000E+00
         0.00000E+00
         0.00000E+00
         0.00000E+00
         0.00000E+00
         0.00000E+00
         0.00000E+00
         0.00000E+00
         0.00000E+00
         0.00000E+00
         0.00000E+00
         0.00000E+00
         0.00000E+00
         0.00000E+00
         0.00000E+00
         0.00000E+00
         0.00000E+00
         0.00000E+00
         0.00000E+00
         0.00000E+00
         0.00000E+00
         0.00000E+00
         0.00000E+00
         0.00000E+00
         0.00000E+00
         0.00000E+00
         0.00000E+00
         0.00000E+00
         0.00000E+00
         0.00000E+00
         0.00000E+00
         0.00000E+00
         0.00000E+00
         0.00000E+00
         0.00000E+00
         0.00000E+00
         0.00000E+00
         0.00000E+00
         0.00000E+00
         0.00000E+00
         0.00000E+00
         0.00000E+00
         0.00000E+00
         0.00000E+00
         0.00000E+00
         0.00000E+00
         0.00000E+00
         0.00000E+00
         0.00000E+00
         0.00000E+00
         0.00000E+00
         0.00000E+00
         0.00000E+00
         0.00000E+00
         0.00000E+00
         0.00000E+00
         0.00000E+00
         0.00000E+00
         0.00000E+00
         0.00000E+00
         0.00000E+00
         0.00000E+00
         0.00000E+00
         0.00000E+00
         0.00000E+00
         0.00000E+00
         0.00000E+00
         0.00000E+00
         0.00000E+00
         0.00000E+00
         0.00000E+00
         0.00000E+00
         0.00000E+00
         0.00000E+00
         0.00000E+00
         0.00000E+00
         0.00000E+00
         0.00000E+00
         0.00000E+00
         0.00000E+00
         0.00000E+00
         0.00000E+00
         0.00000E+00
         0.00000E+00
         0.00000E+00
         0.00000E+00
         0.00000E+00
         0.00000E+00
         0.00000E+00
         0.00000E+00
         0.00000E+00
         0.00000E+00
         0.00000E+00
         0.00000E+00
         0.00000E+00
         0.00000E+00
         0.00000E+00
         0.00000E+00
         0.00000E+00
         0.00000E+00
         0.00000E+00
         0.00000E+00
         0.00000E+00
         0.00000E+00
         0.00000E+00
         0.00000E+00
         0.00000E+00
         0.00000E+00
         0.00000E+00
         0.00000E+00
         0.00000E+00
         0.00000E+00
         0.00000E+00
         0.00000E+00
         0.00000E+00
         0.00000E+00
         0.00000E+00
         0.00000E+00
         0.00000E+00
         0.00000E+00
         0.00000E+00
         0.00000E+00
         0.00000E+00
         0.00000E+00
         0.00000E+00
         0.00000E+00
         0.00000E+00
         0.00000E+00
         0.00000E+00
         0.00000E+00
         0.00000E+00
         0.00000E+00
         0.00000E+00
         0.00000E+00
         0.00000E+00
         0.00000E+00
         0.00000E+00
         0.00000E+00
         0.00000E+00
         0.00000E+00
         0.00000E+00
         0.00000E+00
         0.00000E+00
         0.00000E+00
         0.00000E+00
         0.00000E+00
         0.00000E+00
         0.00000E+00
         0.00000E+00
         0.00000E+00
         0.00000E+00
         0.00000E+00
         0.00000E+00
         0.00000E+00
         0.00000E+00
         0.00000E+00
         0.00000E+00
         0.00000E+00
         0.00000E+00
         0.00000E+00
         0.00000E+00
         0.00000E+00
         0.00000E+00
         0.00000E+00
         0.00000E+00
         0.00000E+00
         0.00000E+00
         0.00000E+00
         0.00000E+00
         0.00000E+00
         0.00000E+00
         0.00000E+00
         0.00000E+00
         0.00000E+00
         0.00000E+00
         0.00000E+00
         0.00000E+00
         0.00000E+00
         0.00000E+00
         0.00000E+00
         0.00000E+00
         0.00000E+00
         0.00000E+00
         0.00000E+00
         0.00000E+00
         0.00000E+00
         0.00000E+00
         0.00000E+00
         0.00000E+00
         0.00000E+00
         0.00000E+00
         0.00000E+00
         0.00000E+00
         0.00000E+00
         0.00000E+00
         0.00000E+00
         0.00000E+00
         0.00000E+00
         0.00000E+00
         0.00000E+00
         0.00000E+00
         0.00000E+00
         0.00000E+00
         0.00000E+00
         0.00000E+00
         0.00000E+00
         0.00000E+00
         0.00000E+00
         0.00000E+00
         0.00000E+00
         0.00000E+00
         0.00000E+00
         0.00000E+00
         0.00000E+00
         0.00000E+00
         0.00000E+00
         0.00000E+00
         0.00000E+00
         0.00000E+00
         0.00000E+00
         0.00000E+00
         0.00000E+00
         0.00000E+00
         0.00000E+00
         0.00000E+00
         0.00000E+00
         0.00000E+00
         0.00000E+00
         0.00000E+00
         0.00000E+00
         0.00000E+00
         0.00000E+00
         0.00000E+00
         0.00000E+00
         0.00000E+00
         0.00000E+00
         0.00000E+00
         0.00000E+00
         0.00000E+00
         0.00000E+00
         0.00000E+00
         0.00000E+00
         0.00000E+00
         0.00000E+00
         0.00000E+00
         0.00000E+00
         0.00000E+00
         0.00000E+00
         0.00000E+00
         0.00000E+00
         0.00000E+00
         0.00000E+00
         0.00000E+00
         0.00000E+00
         0.00000E+00
         0.00000E+00
         0.00000E+00
         0.00000E+00
         0.00000E+00
         0.00000E+00
         0.00000E+00
         0.00000E+00
         0.00000E+00
         0.00000E+00
         0.00000E+00
         0.00000E+00
         0.00000E+00
         0.00000E+00
         0.00000E+00
         0.00000E+00
         0.00000E+00
         0.00000E+00
         0.00000E+00
         0.00000E+00
         0.00000E+00
         0.00000E+00
         0.00000E+00
         0.00000E+00
         0.00000E+00
         0.00000E+00
         0.00000E+00
         0.00000E+00
         0.00000E+00
         0.00000E+00
         0.00000E+00
         0.00000E+00
         0.00000E+00
         0.00000E+00
         0.00000E+00
         0.00000E+00
         0.00000E+00
         0.00000E+00
         0.00000E+00
         0.00000E+00
         0.00000E+00
         0.00000E+00
         0.00000E+00
         0.00000E+00
         0.00000E+00
         0.00000E+00
         0.00000E+00
         0.00000E+00
         0.00000E+00
         0.00000E+00
         0.00000E+00
         0.00000E+00
         0.00000E+00
         0.00000E+00
         0.00000E+00
         0.00000E+00
         0.00000E+00
         0.00000E+00
         0.00000E+00
         0.00000E+00
         0.00000E+00
         0.00000E+00
         0.00000E+00
         0.00000E+00
         0.00000E+00
         0.00000E+00
         0.00000E+00
         0.00000E+00
         0.00000E+00
         0.00000E+00
         0.00000E+00
         0.00000E+00
         0.00000E+00
         0.00000E+00
         0.00000E+00
         0.00000E+00
         0.00000E+00
         0.00000E+00
         0.00000E+00
         0.00000E+00
         0.00000E+00
         0.00000E+00
         0.00000E+00
         0.00000E+00
         0.00000E+00
         0.00000E+00
         0.00000E+00
         0.00000E+00
         0.00000E+00
         0.00000E+00
         0.00000E+00
         0.00000E+00
         0.00000E+00
         0.00000E+00
         0.00000E+00
         0.00000E+00
         0.00000E+00
         0.00000E+00
         0.00000E+00
         0.00000E+00
         0.00000E+00
         0.00000E+00
         0.00000E+00
         0.00000E+00
         0.00000E+00
         0.00000E+00
         0.00000E+00
         0.00000E+00
         0.00000E+00
         0.00000E+00
         0.00000E+00
         0.00000E+00
         0.00000E+00
         0.00000E+00
         0.00000E+00
         0.00000E+00
         0.00000E+00
         0.00000E+00
         0.00000E+00
         0.00000E+00
         0.00000E+00
         0.00000E+00
         0.00000E+00
         0.00000E+00
         0.00000E+00
         0.00000E+00
         0.00000E+00
         0.00000E+00
         0.00000E+00
         0.00000E+00
         0.00000E+00
         0.00000E+00
         0.00000E+00
         0.00000E+00
         0.00000E+00
         0.00000E+00
         0.00000E+00
         0.00000E+00
         0.00000E+00
         0.00000E+00
         0.00000E+00
         0.00000E+00
         0.00000E+00
         0.00000E+00
         0.00000E+00
         0.00000E+00
         0.00000E+00
         0.00000E+00
         0.00000E+00
         0.00000E+00
         0.00000E+00
         0.00000E+00
         0.00000E+00
         0.00000E+00
         0.00000E+00
         0.00000E+00
         0.00000E+00
         0.00000E+00
         0.00000E+00
         0.00000E+00
         0.00000E+00
         0.00000E+00
         0.00000E+00
         0.00000E+00
         0.00000E+00
         0.00000E+00
         0.00000E+00
         0.00000E+00
         0.00000E+00
         0.00000E+00
         0.00000E+00
         0.00000E+00
         0.00000E+00
         0.00000E+00
         0.00000E+00
         0.00000E+00
         0.00000E+00
         0.00000E+00
         0.00000E+00
         0.00000E+00
         0.00000E+00
         0.00000E+00
         0.00000E+00
         0.00000E+00
         0.00000E+00
         0.00000E+00
         0.00000E+00
         0.00000E+00
         0.00000E+00
         0.00000E+00
         0.00000E+00
         0.00000E+00
         0.00000E+00
         0.00000E+00
         0.00000E+00
         0.00000E+00
         0.00000E+00
         0.00000E+00
         0.00000E+00
         0.00000E+00
         0.00000E+00
         0.00000E+00
         0.00000E+00
         0.00000E+00
         0.00000E+00
         0.00000E+00
         0.00000E+00
         0.00000E+00
         0.00000E+00
         0.00000E+00
         0.00000E+00
         0.00000E+00
         0.00000E+00
         0.00000E+00
         0.00000E+00
         0.00000E+00
         0.00000E+00
         0.00000E+00
         0.00000E+00
         0.00000E+00
         0.00000E+00
         0.00000E+00
         0.00000E+00
         0.00000E+00
         0.00000E+00
         0.00000E+00
         0.00000E+00
         0.00000E+00
         0.00000E+00
         0.00000E+00
         0.00000E+00
         0.00000E+00
         0.00000E+00
         0.00000E+00
         0.00000E+00
         0.00000E+00
         0.00000E+00
         0.00000E+00
         0.00000E+00
         0.00000E+00
         0.00000E+00
         0.00000E+00
         0.00000E+00
         0.00000E+00
         0.00000E+00
         0.00000E+00
         0.00000E+00
         0.00000E+00
         0.00000E+00
         0.00000E+00
         0.00000E+00
         0.00000E+00
         0.00000E+00
         0.00000E+00
         0.00000E+00
         0.00000E+00
         0.00000E+00
         0.00000E+00
         0.00000E+00
         0.00000E+00
         0.00000E+00
         0.00000E+00
         0.00000E+00
         0.00000E+00
         0.00000E+00
         0.00000E+00
         0.00000E+00
         0.00000E+00
         0.00000E+00
         0.00000E+00
         0.00000E+00
         0.00000E+00
         0.00000E+00
         0.00000E+00
         0.00000E+00
         0.00000E+00
         0.00000E+00
         0.00000E+00
         0.00000E+00
         0.00000E+00
         0.00000E+00
         0.00000E+00
         0.00000E+00
         0.00000E+00
         0.00000E+00
         0.00000E+00
         0.00000E+00
         0.00000E+00
         0.00000E+00
         0.00000E+00
         0.00000E+00
         0.00000E+00
         0.00000E+00
         0.00000E+00
         0.00000E+00
         0.00000E+00
         0.00000E+00
         0.00000E+00
         0.00000E+00
         0.00000E+00
         0.00000E+00
         0.00000E+00
         0.00000E+00
         0.00000E+00
         0.00000E+00
         0.00000E+00
         0.00000E+00
         0.00000E+00
         0.00000E+00
         0.00000E+00
         0.00000E+00
         0.00000E+00
         0.00000E+00
         0.00000E+00
         0.00000E+00
         0.00000E+00
         0.00000E+00
         0.00000E+00
         0.00000E+00
         0.00000E+00
         0.00000E+00
         0.00000E+00
         0.00000E+00
         0.00000E+00
         0.00000E+00
         0.00000E+00
         0.00000E+00
         0.00000E+00
         0.00000E+00
         0.00000E+00
         0.00000E+00
         0.00000E+00
         0.00000E+00
         0.00000E+00
         0.00000E+00
         0.00000E+00
         0.00000E+00
         0.00000E+00
         0.00000E+00
         0.00000E+00
         0.00000E+00
         0.00000E+00
         0.00000E+00
         0.00000E+00
         0.00000E+00
         0.00000E+00
         0.00000E+00
         0.00000E+00
         0.00000E+00
         0.00000E+00
         0.00000E+00
         0.00000E+00
         0.00000E+00
         0.00000E+00
         0.00000E+00
         0.00000E+00
         0.00000E+00
         0.00000E+00
         0.00000E+00
         0.00000E+00
         0.00000E+00
         0.00000E+00
         0.00000E+00
         0.00000E+00
         0.00000E+00
         0.00000E+00
         0.00000E+00
         0.00000E+00
         0.00000E+00
         0.00000E+00
         0.00000E+00
         0.00000E+00
         0.00000E+00
         0.00000E+00
         0.00000E+00
         0.00000E+00
         0.00000E+00
         0.00000E+00
         0.00000E+00
         0.00000E+00
         0.00000E+00
         0.00000E+00
         0.00000E+00
         0.00000E+00
         0.00000E+00
         0.00000E+00
         0.00000E+00
         0.00000E+00
         0.00000E+00
         0.00000E+00
         0.00000E+00
         0.00000E+00
         0.00000E+00
         0.00000E+00
         0.00000E+00
         0.00000E+00
         0.00000E+00
         0.00000E+00
         0.00000E+00
         0.00000E+00
         0.00000E+00
         0.00000E+00
         0.00000E+00
         0.00000E+00
         0.00000E+00
         0.00000E+00
         0.00000E+00
         0.00000E+00
         0.00000E+00
         0.00000E+00
         0.00000E+00
         0.00000E+00
         0.00000E+00
         0.00000E+00
         0.00000E+00
         0.00000E+00
         0.00000E+00
         0.00000E+00
         0.00000E+00
         0.00000E+00
         0.00000E+00
         0.00000E+00
         0.00000E+00
         0.00000E+00
         0.00000E+00
         0.00000E+00
         0.00000E+00
         0.00000E+00
         0.00000E+00
         0.00000E+00
         0.00000E+00
         0.00000E+00
         0.00000E+00
         0.00000E+00
         0.00000E+00
         0.00000E+00
         0.00000E+00
         0.00000E+00
         0.00000E+00
         0.00000E+00
         0.00000E+00
         0.00000E+00
         0.00000E+00
         0.00000E+00
         0.00000E+00
         0.00000E+00
         0.00000E+00
         0.00000E+00
         0.00000E+00
         0.00000E+00
         0.00000E+00
         0.00000E+00
         0.00000E+00
         0.00000E+00
         0.00000E+00
         0.00000E+00
         0.00000E+00
         0.00000E+00
         0.00000E+00
         0.00000E+00
         0.00000E+00
         0.00000E+00
         0.00000E+00
         0.00000E+00
         0.00000E+00
         0.00000E+00
         0.00000E+00
         0.00000E+00
         0.00000E+00
         0.00000E+00
         0.00000E+00
         0.00000E+00
         0.00000E+00
         0.00000E+00
         0.00000E+00
         0.00000E+00
         0.00000E+00
         0.00000E+00
         0.00000E+00
         0.00000E+00
         0.00000E+00
         0.00000E+00
         0.00000E+00
         0.00000E+00
         0.00000E+00
         0.00000E+00
         0.00000E+00
         0.00000E+00
         0.00000E+00
         0.00000E+00
         0.00000E+00
         0.00000E+00
         0.00000E+00
         0.00000E+00
         0.00000E+00
         0.00000E+00
         0.00000E+00
         0.00000E+00
         0.00000E+00
         0.00000E+00
         0.00000E+00
         0.00000E+00
         0.00000E+00
         0.00000E+00
         0.00000E+00
         0.00000E+00
         0.00000E+00
         0.00000E+00
         0.00000E+00
         0.00000E+00
         0.00000E+00
         0.00000E+00
         0.00000E+00
         0.00000E+00
         0.00000E+00
         0.00000E+00
         0.00000E+00
         0.00000E+00
         0.00000E+00
         0.00000E+00
         0.00000E+00
         0.00000E+00
         0.00000E+00
         0.00000E+00
         0.00000E+00
         0.00000E+00
         0.00000E+00
         0.00000E+00
         0.00000E+00
         0.00000E+00
         0.00000E+00
         0.00000E+00
         0.00000E+00
         0.00000E+00
         0.00000E+00
         0.00000E+00
         0.00000E+00
         0.00000E+00
         0.00000E+00
         0.00000E+00
         0.00000E+00
         0.00000E+00
         0.00000E+00
         0.00000E+00
         0.00000E+00
         0.00000E+00
         0.00000E+00
         0.00000E+00
         0.00000E+00
         0.00000E+00
         0.00000E+00
         0.00000E+00
         0.00000E+00
         0.00000E+00
         0.00000E+00
         0.00000E+00
         0.00000E+00
         0.00000E+00
         0.00000E+00
         0.00000E+00
         0.00000E+00
         0.00000E+00
         0.00000E+00
         0.00000E+00
         0.00000E+00
         0.00000E+00
         0.00000E+00
         0.00000E+00
         0.00000E+00
         0.00000E+00
         0.00000E+00
         0.00000E+00
         0.00000E+00
         0.00000E+00
         0.00000E+00
         0.00000E+00
         0.00000E+00
         0.00000E+00
         0.00000E+00
         0.00000E+00
         0.00000E+00
         0.00000E+00
         0.00000E+00
         0.00000E+00
         0.00000E+00
         0.00000E+00
         0.00000E+00
         0.00000E+00
         0.00000E+00
         0.00000E+00
         0.00000E+00
         0.00000E+00
         0.00000E+00
         0.00000E+00
         0.00000E+00
         0.00000E+00
         0.00000E+00
         0.00000E+00
         0.00000E+00
         0.00000E+00
         0.00000E+00
         0.00000E+00
         0.00000E+00
         0.00000E+00
         0.00000E+00
         0.00000E+00
         0.00000E+00
         0.00000E+00
         0.00000E+00
         0.00000E+00
         0.00000E+00
         0.00000E+00
         0.00000E+00
         0.00000E+00
         0.00000E+00
         0.00000E+00
         0.00000E+00
         0.00000E+00
         0.00000E+00
         0.00000E+00
         0.00000E+00
         0.00000E+00
         0.00000E+00
         0.00000E+00
         0.00000E+00
         0.00000E+00
         0.00000E+00
         0.00000E+00
         0.00000E+00
         0.00000E+00
         0.00000E+00
         0.00000E+00
         0.00000E+00
         0.00000E+00
         0.00000E+00
         0.00000E+00
         0.00000E+00
         0.00000E+00
         0.00000E+00
         0.00000E+00
         0.00000E+00
         0.00000E+00
         0.00000E+00
         0.00000E+00
         0.00000E+00
         0.00000E+00
         0.00000E+00
         0.00000E+00
         0.00000E+00
         0.00000E+00
         0.00000E+00
         0.00000E+00
         0.00000E+00
         0.00000E+00
         0.00000E+00
         0.00000E+00
         0.00000E+00
         0.00000E+00
         0.00000E+00
         0.00000E+00
         0.00000E+00
         0.00000E+00
         0.00000E+00
         0.00000E+00
         0.00000E+00
         0.00000E+00
         0.00000E+00
         0.00000E+00
         0.00000E+00
         0.00000E+00
         0.00000E+00
         0.00000E+00
         0.00000E+00
         0.00000E+00
         0.00000E+00
         0.00000E+00
         0.00000E+00
         0.00000E+00
         0.00000E+00
         0.00000E+00
         0.00000E+00
         0.00000E+00
         0.00000E+00
         0.00000E+00
         0.00000E+00
         0.00000E+00
         0.00000E+00
         0.00000E+00
         0.00000E+00
         0.00000E+00
         0.00000E+00
         0.00000E+00
         0.00000E+00
         0.00000E+00
         0.00000E+00
         0.00000E+00
         0.00000E+00
         0.00000E+00
         0.00000E+00
         0.00000E+00
         0.00000E+00
         0.00000E+00
         0.00000E+00
         0.00000E+00
         0.00000E+00
         0.00000E+00
         0.00000E+00
         0.00000E+00
         0.00000E+00
         0.00000E+00
         0.00000E+00
         0.00000E+00
         0.00000E+00
         0.00000E+00
         0.00000E+00
         0.00000E+00
         0.00000E+00
         0.00000E+00
         0.00000E+00
         0.00000E+00
         0.00000E+00
         0.00000E+00
         0.00000E+00
         0.00000E+00
         0.00000E+00
         0.00000E+00
         0.00000E+00
         0.00000E+00
         0.00000E+00
         0.00000E+00
         0.00000E+00
         0.00000E+00
         0.00000E+00
         0.00000E+00
         0.00000E+00
         0.00000E+00
         0.00000E+00
         0.00000E+00
         0.00000E+00
         0.00000E+00
         0.00000E+00
         0.00000E+00
         0.00000E+00
         0.00000E+00
         0.00000E+00
         0.00000E+00
         0.00000E+00
         0.00000E+00
         0.00000E+00
         0.00000E+00
         0.00000E+00
         0.00000E+00
         0.00000E+00
         0.00000E+00
         0.00000E+00
         0.00000E+00
         0.00000E+00
         0.00000E+00
         0.00000E+00
         0.00000E+00
         0.00000E+00
         0.00000E+00
         0.00000E+00
         0.00000E+00
         0.00000E+00
         0.00000E+00
         0.00000E+00
         0.00000E+00
         0.00000E+00
         0.00000E+00
         0.00000E+00
         0.00000E+00
         0.00000E+00
         0.00000E+00
         0.00000E+00
         0.00000E+00
         0.00000E+00
         0.00000E+00
         0.00000E+00
         0.00000E+00
         0.00000E+00
         0.00000E+00
         0.00000E+00
         0.00000E+00
         0.00000E+00
         0.00000E+00
         0.00000E+00
         0.00000E+00
         0.00000E+00
         0.00000E+00
         0.00000E+00
         0.00000E+00
         0.00000E+00
         0.00000E+00
         0.00000E+00
         0.00000E+00
         0.00000E+00
         0.00000E+00
         0.00000E+00
         0.00000E+00
         0.00000E+00
         0.00000E+00
         0.00000E+00
         0.00000E+00
         0.00000E+00
         0.00000E+00
         0.00000E+00
         0.00000E+00
         0.00000E+00
         0.00000E+00
         0.00000E+00
         0.00000E+00
         0.00000E+00
         0.00000E+00
         0.00000E+00
         0.00000E+00
         0.00000E+00
         0.00000E+00
         0.00000E+00
         0.00000E+00
         0.00000E+00
         0.00000E+00
         0.00000E+00
         0.00000E+00
         0.00000E+00
         0.00000E+00
         0.00000E+00
         0.00000E+00
         0.00000E+00
         0.00000E+00
         0.00000E+00
         0.00000E+00
         0.00000E+00
         0.00000E+00
         0.00000E+00
         0.00000E+00
         0.00000E+00
         0.00000E+00
         0.00000E+00
         0.00000E+00
         0.00000E+00
         0.00000E+00
         0.00000E+00
         0.00000E+00
         0.00000E+00
         0.00000E+00
         0.00000E+00
         0.00000E+00
         0.00000E+00
         0.00000E+00
         0.00000E+00
         0.00000E+00
         0.00000E+00
         0.00000E+00
         0.00000E+00
         0.00000E+00
         0.00000E+00
         0.00000E+00
         0.00000E+00
         0.00000E+00
         0.00000E+00
         0.00000E+00
         0.00000E+00
         0.00000E+00
         0.00000E+00
         0.00000E+00
         0.00000E+00
         0.00000E+00
         0.00000E+00
         0.00000E+00
         0.00000E+00
         0.00000E+00
         0.00000E+00
         0.00000E+00
         0.00000E+00
         0.00000E+00
         0.00000E+00
         0.00000E+00
         0.00000E+00
         0.00000E+00
         0.00000E+00
         0.00000E+00
         0.00000E+00
         0.00000E+00
         0.00000E+00
         0.00000E+00
         0.00000E+00
         0.00000E+00
         0.00000E+00
         0.00000E+00
         0.00000E+00
         0.00000E+00
         0.00000E+00
         0.00000E+00
         0.00000E+00
         0.00000E+00
         0.00000E+00
         0.00000E+00
         0.00000E+00
         0.00000E+00
         0.00000E+00
         0.00000E+00
         0.00000E+00
         0.00000E+00
         0.00000E+00
         0.00000E+00
         0.00000E+00
         0.00000E+00
         0.00000E+00
         0.00000E+00
         0.00000E+00
         0.00000E+00
         0.00000E+00
         0.00000E+00
         0.00000E+00
         0.00000E+00
         0.00000E+00
         0.00000E+00
         0.00000E+00
         0.00000E+00
         0.00000E+00
         0.00000E+00
         0.00000E+00
         0.00000E+00
         0.00000E+00
         0.00000E+00
         0.00000E+00
         0.00000E+00
         0.00000E+00
         0.00000E+00
         0.00000E+00
         0.00000E+00
         0.00000E+00
         0.00000E+00
         0.00000E+00
         0.00000E+00
         0.00000E+00
         0.00000E+00
         0.00000E+00
         0.00000E+00
         0.00000E+00
         0.00000E+00
         0.00000E+00
         0.00000E+00
         0.00000E+00
         0.00000E+00
         0.00000E+00
         0.00000E+00
         0.00000E+00
         0.00000E+00
         0.00000E+00
         0.00000E+00
         0.00000E+00
         0.00000E+00
         0.00000E+00
         0.00000E+00
         0.00000E+00
         0.00000E+00
         0.00000E+00
         0.00000E+00
         0.00000E+00
         0.00000E+00
         0.00000E+00
         0.00000E+00
         0.00000E+00
         0.00000E+00
         0.00000E+00
         0.00000E+00
         0.00000E+00
         0.00000E+00
         0.00000E+00
         0.00000E+00
         0.00000E+00
         0.00000E+00
         0.00000E+00
         0.00000E+00
         0.00000E+00
         0.00000E+00
         0.00000E+00
         0.00000E+00
         0.00000E+00
         0.00000E+00
         0.00000E+00
         0.00000E+00
         0.00000E+00
         0.00000E+00
         0.00000E+00
         0.00000E+00
         0.00000E+00
         0.00000E+00
         0.00000E+00
         0.00000E+00
         0.00000E+00
         0.00000E+00
         0.00000E+00
         0.00000E+00
         0.00000E+00
         0.00000E+00
         0.00000E+00
         0.00000E+00
         0.00000E+00
         0.00000E+00
         0.00000E+00
         0.00000E+00
         0.00000E+00
         0.00000E+00
         0.00000E+00
         0.00000E+00
         0.00000E+00
         0.00000E+00
         0.00000E+00
         0.00000E+00
         0.00000E+00
         0.00000E+00
         0.00000E+00
         0.00000E+00
         0.00000E+00
         0.00000E+00
         0.00000E+00
         0.00000E+00
         0.00000E+00
         0.00000E+00
         0.00000E+00
         0.00000E+00
         0.00000E+00
         0.00000E+00
         0.00000E+00
         0.00000E+00
         0.00000E+00
         0.00000E+00
         0.00000E+00
         0.00000E+00
         0.00000E+00
         0.00000E+00
         0.00000E+00
         0.00000E+00
         0.00000E+00
         0.00000E+00
         0.00000E+00
         0.00000E+00
         0.00000E+00
         0.00000E+00
         0.00000E+00
         0.00000E+00
         0.00000E+00
         0.00000E+00
         0.00000E+00
         0.00000E+00
         0.00000E+00
         0.00000E+00
         0.00000E+00
         0.00000E+00
         0.00000E+00
         0.00000E+00
         0.00000E+00
         0.00000E+00
         0.00000E+00
         0.00000E+00
         0.00000E+00
         0.00000E+00
         0.00000E+00
         0.00000E+00
         0.00000E+00
         0.00000E+00
         0.00000E+00
         0.00000E+00
         0.00000E+00
         0.00000E+00
         0.00000E+00
         0.00000E+00
         0.00000E+00
         0.00000E+00
         0.00000E+00
         0.00000E+00
         0.00000E+00
         0.00000E+00
         0.00000E+00
         0.00000E+00
         0.00000E+00
         0.00000E+00
         0.00000E+00
         0.00000E+00
         0.00000E+00
         0.00000E+00
         0.00000E+00
         0.00000E+00
         0.00000E+00
         0.00000E+00
         0.00000E+00
         0.00000E+00
         0.00000E+00
         0.00000E+00
         0.00000E+00
         0.00000E+00
         0.00000E+00
         0.00000E+00
         0.00000E+00
         0.00000E+00
         0.00000E+00
         0.00000E+00
         0.00000E+00
         0.00000E+00
         0.00000E+00
         0.00000E+00
         0.00000E+00
         0.00000E+00
         0.00000E+00
         0.00000E+00
         0.00000E+00
         0.00000E+00
         0.00000E+00
         0.00000E+00
         0.00000E+00
         0.00000E+00
         0.00000E+00
         0.00000E+00
         0.00000E+00
         0.00000E+00
         0.00000E+00
         0.00000E+00
         0.00000E+00
         0.00000E+00
         0.00000E+00
         0.00000E+00
         0.00000E+00
         0.00000E+00
         0.00000E+00
         0.00000E+00
         0.00000E+00
         0.00000E+00
         0.00000E+00
         0.00000E+00
         0.00000E+00
         0.00000E+00
         0.00000E+00
         0.00000E+00
         0.00000E+00
         0.00000E+00
         0.00000E+00
         0.00000E+00
         0.00000E+00
         0.00000E+00
         0.00000E+00
         0.00000E+00
         0.00000E+00
         0.00000E+00
         0.00000E+00
         0.00000E+00
         0.00000E+00
         0.00000E+00
         0.00000E+00
         0.00000E+00
         0.00000E+00
         0.00000E+00
         0.00000E+00
         0.00000E+00
         0.00000E+00
         0.00000E+00
         0.00000E+00
         0.00000E+00
         0.00000E+00
         0.00000E+00
         0.00000E+00
         0.00000E+00
         0.00000E+00
         0.00000E+00
         0.00000E+00
         0.00000E+00
         0.00000E+00
         0.00000E+00
         0.00000E+00
         0.00000E+00
         0.00000E+00
         0.00000E+00
         0.00000E+00
  
SCALARS                      strain_yy  double 1
LOOKUP_TABLE default
         0.00000E+00
         0.00000E+00
         0.00000E+00
         0.00000E+00
         0.00000E+00
         0.00000E+00
         0.00000E+00
         0.00000E+00
         0.00000E+00
         0.00000E+00
         0.00000E+00
         0.00000E+00
         0.00000E+00
         0.00000E+00
         0.00000E+00
         0.00000E+00
         0.00000E+00
         0.00000E+00
         0.00000E+00
         0.00000E+00
         0.00000E+00
         0.00000E+00
         0.00000E+00
         0.00000E+00
         0.00000E+00
         0.00000E+00
         0.00000E+00
         0.00000E+00
         0.00000E+00
         0.00000E+00
         0.00000E+00
         0.00000E+00
         0.00000E+00
         0.00000E+00
         0.00000E+00
         0.00000E+00
         0.00000E+00
         0.00000E+00
         0.00000E+00
         0.00000E+00
         0.00000E+00
         0.00000E+00
         0.00000E+00
         0.00000E+00
         0.00000E+00
         0.00000E+00
         0.00000E+00
         0.00000E+00
         0.00000E+00
         0.00000E+00
         0.00000E+00
         0.00000E+00
         0.00000E+00
         0.00000E+00
         0.00000E+00
         0.00000E+00
         0.00000E+00
         0.00000E+00
         0.00000E+00
         0.00000E+00
         0.00000E+00
         0.00000E+00
         0.00000E+00
         0.00000E+00
         0.00000E+00
         0.00000E+00
         0.00000E+00
         0.00000E+00
         0.00000E+00
         0.00000E+00
         0.00000E+00
         0.00000E+00
         0.00000E+00
         0.00000E+00
         0.00000E+00
         0.00000E+00
         0.00000E+00
         0.00000E+00
         0.00000E+00
         0.00000E+00
         0.00000E+00
         0.00000E+00
         0.00000E+00
         0.00000E+00
         0.00000E+00
         0.00000E+00
         0.00000E+00
         0.00000E+00
         0.00000E+00
         0.00000E+00
         0.00000E+00
         0.00000E+00
         0.00000E+00
         0.00000E+00
         0.00000E+00
         0.00000E+00
         0.00000E+00
         0.00000E+00
         0.00000E+00
         0.00000E+00
         0.00000E+00
         0.00000E+00
         0.00000E+00
         0.00000E+00
         0.00000E+00
         0.00000E+00
         0.00000E+00
         0.00000E+00
         0.00000E+00
         0.00000E+00
         0.00000E+00
         0.00000E+00
         0.00000E+00
         0.00000E+00
         0.00000E+00
         0.00000E+00
         0.00000E+00
         0.00000E+00
         0.00000E+00
         0.00000E+00
         0.00000E+00
         0.00000E+00
         0.00000E+00
         0.00000E+00
         0.00000E+00
         0.00000E+00
         0.00000E+00
         0.00000E+00
         0.00000E+00
         0.00000E+00
         0.00000E+00
         0.00000E+00
         0.00000E+00
         0.00000E+00
         0.00000E+00
         0.00000E+00
         0.00000E+00
         0.00000E+00
         0.00000E+00
         0.00000E+00
         0.00000E+00
         0.00000E+00
         0.00000E+00
         0.00000E+00
         0.00000E+00
         0.00000E+00
         0.00000E+00
         0.00000E+00
         0.00000E+00
         0.00000E+00
         0.00000E+00
         0.00000E+00
         0.00000E+00
         0.00000E+00
         0.00000E+00
         0.00000E+00
         0.00000E+00
         0.00000E+00
         0.00000E+00
         0.00000E+00
         0.00000E+00
         0.00000E+00
         0.00000E+00
         0.00000E+00
         0.00000E+00
         0.00000E+00
         0.00000E+00
         0.00000E+00
         0.00000E+00
         0.00000E+00
         0.00000E+00
         0.00000E+00
         0.00000E+00
         0.00000E+00
         0.00000E+00
         0.00000E+00
         0.00000E+00
         0.00000E+00
         0.00000E+00
         0.00000E+00
         0.00000E+00
         0.00000E+00
         0.00000E+00
         0.00000E+00
         0.00000E+00
         0.00000E+00
         0.00000E+00
         0.00000E+00
         0.00000E+00
         0.00000E+00
         0.00000E+00
         0.00000E+00
         0.00000E+00
         0.00000E+00
         0.00000E+00
         0.00000E+00
         0.00000E+00
         0.00000E+00
         0.00000E+00
         0.00000E+00
         0.00000E+00
         0.00000E+00
         0.00000E+00
         0.00000E+00
         0.00000E+00
         0.00000E+00
         0.00000E+00
         0.00000E+00
         0.00000E+00
         0.00000E+00
         0.00000E+00
         0.00000E+00
         0.00000E+00
         0.00000E+00
         0.00000E+00
         0.00000E+00
         0.00000E+00
         0.00000E+00
         0.00000E+00
         0.00000E+00
         0.00000E+00
         0.00000E+00
         0.00000E+00
         0.00000E+00
         0.00000E+00
         0.00000E+00
         0.00000E+00
         0.00000E+00
         0.00000E+00
         0.00000E+00
         0.00000E+00
         0.00000E+00
         0.00000E+00
         0.00000E+00
         0.00000E+00
         0.00000E+00
         0.00000E+00
         0.00000E+00
         0.00000E+00
         0.00000E+00
         0.00000E+00
         0.00000E+00
         0.00000E+00
         0.00000E+00
         0.00000E+00
         0.00000E+00
         0.00000E+00
         0.00000E+00
         0.00000E+00
         0.00000E+00
         0.00000E+00
         0.00000E+00
         0.00000E+00
         0.00000E+00
         0.00000E+00
         0.00000E+00
         0.00000E+00
         0.00000E+00
         0.00000E+00
         0.00000E+00
         0.00000E+00
         0.00000E+00
         0.00000E+00
         0.00000E+00
         0.00000E+00
         0.00000E+00
         0.00000E+00
         0.00000E+00
         0.00000E+00
         0.00000E+00
         0.00000E+00
         0.00000E+00
         0.00000E+00
         0.00000E+00
         0.00000E+00
         0.00000E+00
         0.00000E+00
         0.00000E+00
         0.00000E+00
         0.00000E+00
         0.00000E+00
         0.00000E+00
         0.00000E+00
         0.00000E+00
         0.00000E+00
         0.00000E+00
         0.00000E+00
         0.00000E+00
         0.00000E+00
         0.00000E+00
         0.00000E+00
         0.00000E+00
         0.00000E+00
         0.00000E+00
         0.00000E+00
         0.00000E+00
         0.00000E+00
         0.00000E+00
         0.00000E+00
         0.00000E+00
         0.00000E+00
         0.00000E+00
         0.00000E+00
         0.00000E+00
         0.00000E+00
         0.00000E+00
         0.00000E+00
         0.00000E+00
         0.00000E+00
         0.00000E+00
         0.00000E+00
         0.00000E+00
         0.00000E+00
         0.00000E+00
         0.00000E+00
         0.00000E+00
         0.00000E+00
         0.00000E+00
         0.00000E+00
         0.00000E+00
         0.00000E+00
         0.00000E+00
         0.00000E+00
         0.00000E+00
         0.00000E+00
         0.00000E+00
         0.00000E+00
         0.00000E+00
         0.00000E+00
         0.00000E+00
         0.00000E+00
         0.00000E+00
         0.00000E+00
         0.00000E+00
         0.00000E+00
         0.00000E+00
         0.00000E+00
         0.00000E+00
         0.00000E+00
         0.00000E+00
         0.00000E+00
         0.00000E+00
         0.00000E+00
         0.00000E+00
         0.00000E+00
         0.00000E+00
         0.00000E+00
         0.00000E+00
         0.00000E+00
         0.00000E+00
         0.00000E+00
         0.00000E+00
         0.00000E+00
         0.00000E+00
         0.00000E+00
         0.00000E+00
         0.00000E+00
         0.00000E+00
         0.00000E+00
         0.00000E+00
         0.00000E+00
         0.00000E+00
         0.00000E+00
         0.00000E+00
         0.00000E+00
         0.00000E+00
         0.00000E+00
         0.00000E+00
         0.00000E+00
         0.00000E+00
         0.00000E+00
         0.00000E+00
         0.00000E+00
         0.00000E+00
         0.00000E+00
         0.00000E+00
         0.00000E+00
         0.00000E+00
         0.00000E+00
         0.00000E+00
         0.00000E+00
         0.00000E+00
         0.00000E+00
         0.00000E+00
         0.00000E+00
         0.00000E+00
         0.00000E+00
         0.00000E+00
         0.00000E+00
         0.00000E+00
         0.00000E+00
         0.00000E+00
         0.00000E+00
         0.00000E+00
         0.00000E+00
         0.00000E+00
         0.00000E+00
         0.00000E+00
         0.00000E+00
         0.00000E+00
         0.00000E+00
         0.00000E+00
         0.00000E+00
         0.00000E+00
         0.00000E+00
         0.00000E+00
         0.00000E+00
         0.00000E+00
         0.00000E+00
         0.00000E+00
         0.00000E+00
         0.00000E+00
         0.00000E+00
         0.00000E+00
         0.00000E+00
         0.00000E+00
         0.00000E+00
         0.00000E+00
         0.00000E+00
         0.00000E+00
         0.00000E+00
         0.00000E+00
         0.00000E+00
         0.00000E+00
         0.00000E+00
         0.00000E+00
         0.00000E+00
         0.00000E+00
         0.00000E+00
         0.00000E+00
         0.00000E+00
         0.00000E+00
         0.00000E+00
         0.00000E+00
         0.00000E+00
         0.00000E+00
         0.00000E+00
         0.00000E+00
         0.00000E+00
         0.00000E+00
         0.00000E+00
         0.00000E+00
         0.00000E+00
         0.00000E+00
         0.00000E+00
         0.00000E+00
         0.00000E+00
         0.00000E+00
         0.00000E+00
         0.00000E+00
         0.00000E+00
         0.00000E+00
         0.00000E+00
         0.00000E+00
         0.00000E+00
         0.00000E+00
         0.00000E+00
         0.00000E+00
         0.00000E+00
         0.00000E+00
         0.00000E+00
         0.00000E+00
         0.00000E+00
         0.00000E+00
         0.00000E+00
         0.00000E+00
         0.00000E+00
         0.00000E+00
         0.00000E+00
         0.00000E+00
         0.00000E+00
         0.00000E+00
         0.00000E+00
         0.00000E+00
         0.00000E+00
         0.00000E+00
         0.00000E+00
         0.00000E+00
         0.00000E+00
         0.00000E+00
         0.00000E+00
         0.00000E+00
         0.00000E+00
         0.00000E+00
         0.00000E+00
         0.00000E+00
         0.00000E+00
         0.00000E+00
         0.00000E+00
         0.00000E+00
         0.00000E+00
         0.00000E+00
         0.00000E+00
         0.00000E+00
         0.00000E+00
         0.00000E+00
         0.00000E+00
         0.00000E+00
         0.00000E+00
         0.00000E+00
         0.00000E+00
         0.00000E+00
         0.00000E+00
         0.00000E+00
         0.00000E+00
         0.00000E+00
         0.00000E+00
         0.00000E+00
         0.00000E+00
         0.00000E+00
         0.00000E+00
         0.00000E+00
         0.00000E+00
         0.00000E+00
         0.00000E+00
         0.00000E+00
         0.00000E+00
         0.00000E+00
         0.00000E+00
         0.00000E+00
         0.00000E+00
         0.00000E+00
         0.00000E+00
         0.00000E+00
         0.00000E+00
         0.00000E+00
         0.00000E+00
         0.00000E+00
         0.00000E+00
         0.00000E+00
         0.00000E+00
         0.00000E+00
         0.00000E+00
         0.00000E+00
         0.00000E+00
         0.00000E+00
         0.00000E+00
         0.00000E+00
         0.00000E+00
         0.00000E+00
         0.00000E+00
         0.00000E+00
         0.00000E+00
         0.00000E+00
         0.00000E+00
         0.00000E+00
         0.00000E+00
         0.00000E+00
         0.00000E+00
         0.00000E+00
         0.00000E+00
         0.00000E+00
         0.00000E+00
         0.00000E+00
         0.00000E+00
         0.00000E+00
         0.00000E+00
         0.00000E+00
         0.00000E+00
         0.00000E+00
         0.00000E+00
         0.00000E+00
         0.00000E+00
         0.00000E+00
         0.00000E+00
         0.00000E+00
         0.00000E+00
         0.00000E+00
         0.00000E+00
         0.00000E+00
         0.00000E+00
         0.00000E+00
         0.00000E+00
         0.00000E+00
         0.00000E+00
         0.00000E+00
         0.00000E+00
         0.00000E+00
         0.00000E+00
         0.00000E+00
         0.00000E+00
         0.00000E+00
         0.00000E+00
         0.00000E+00
         0.00000E+00
         0.00000E+00
         0.00000E+00
         0.00000E+00
         0.00000E+00
         0.00000E+00
         0.00000E+00
         0.00000E+00
         0.00000E+00
         0.00000E+00
         0.00000E+00
         0.00000E+00
         0.00000E+00
         0.00000E+00
         0.00000E+00
         0.00000E+00
         0.00000E+00
         0.00000E+00
         0.00000E+00
         0.00000E+00
         0.00000E+00
         0.00000E+00
         0.00000E+00
         0.00000E+00
         0.00000E+00
         0.00000E+00
         0.00000E+00
         0.00000E+00
         0.00000E+00
         0.00000E+00
         0.00000E+00
         0.00000E+00
         0.00000E+00
         0.00000E+00
         0.00000E+00
         0.00000E+00
         0.00000E+00
         0.00000E+00
         0.00000E+00
         0.00000E+00
         0.00000E+00
         0.00000E+00
         0.00000E+00
         0.00000E+00
         0.00000E+00
         0.00000E+00
         0.00000E+00
         0.00000E+00
         0.00000E+00
         0.00000E+00
         0.00000E+00
         0.00000E+00
         0.00000E+00
         0.00000E+00
         0.00000E+00
         0.00000E+00
         0.00000E+00
         0.00000E+00
         0.00000E+00
         0.00000E+00
         0.00000E+00
         0.00000E+00
         0.00000E+00
         0.00000E+00
         0.00000E+00
         0.00000E+00
         0.00000E+00
         0.00000E+00
         0.00000E+00
         0.00000E+00
         0.00000E+00
         0.00000E+00
         0.00000E+00
         0.00000E+00
         0.00000E+00
         0.00000E+00
         0.00000E+00
         0.00000E+00
         0.00000E+00
         0.00000E+00
         0.00000E+00
         0.00000E+00
         0.00000E+00
         0.00000E+00
         0.00000E+00
         0.00000E+00
         0.00000E+00
         0.00000E+00
         0.00000E+00
         0.00000E+00
         0.00000E+00
         0.00000E+00
         0.00000E+00
         0.00000E+00
         0.00000E+00
         0.00000E+00
         0.00000E+00
         0.00000E+00
         0.00000E+00
         0.00000E+00
         0.00000E+00
         0.00000E+00
         0.00000E+00
         0.00000E+00
         0.00000E+00
         0.00000E+00
         0.00000E+00
         0.00000E+00
         0.00000E+00
         0.00000E+00
         0.00000E+00
         0.00000E+00
         0.00000E+00
         0.00000E+00
         0.00000E+00
         0.00000E+00
         0.00000E+00
         0.00000E+00
         0.00000E+00
         0.00000E+00
         0.00000E+00
         0.00000E+00
         0.00000E+00
         0.00000E+00
         0.00000E+00
         0.00000E+00
         0.00000E+00
         0.00000E+00
         0.00000E+00
         0.00000E+00
         0.00000E+00
         0.00000E+00
         0.00000E+00
         0.00000E+00
         0.00000E+00
         0.00000E+00
         0.00000E+00
         0.00000E+00
         0.00000E+00
         0.00000E+00
         0.00000E+00
         0.00000E+00
         0.00000E+00
         0.00000E+00
         0.00000E+00
         0.00000E+00
         0.00000E+00
         0.00000E+00
         0.00000E+00
         0.00000E+00
         0.00000E+00
         0.00000E+00
         0.00000E+00
         0.00000E+00
         0.00000E+00
         0.00000E+00
         0.00000E+00
         0.00000E+00
         0.00000E+00
         0.00000E+00
         0.00000E+00
         0.00000E+00
         0.00000E+00
         0.00000E+00
         0.00000E+00
         0.00000E+00
         0.00000E+00
         0.00000E+00
         0.00000E+00
         0.00000E+00
         0.00000E+00
         0.00000E+00
         0.00000E+00
         0.00000E+00
         0.00000E+00
         0.00000E+00
         0.00000E+00
         0.00000E+00
         0.00000E+00
         0.00000E+00
         0.00000E+00
         0.00000E+00
         0.00000E+00
         0.00000E+00
         0.00000E+00
         0.00000E+00
         0.00000E+00
         0.00000E+00
         0.00000E+00
         0.00000E+00
         0.00000E+00
         0.00000E+00
         0.00000E+00
         0.00000E+00
         0.00000E+00
         0.00000E+00
         0.00000E+00
         0.00000E+00
         0.00000E+00
         0.00000E+00
         0.00000E+00
         0.00000E+00
         0.00000E+00
         0.00000E+00
         0.00000E+00
         0.00000E+00
         0.00000E+00
         0.00000E+00
         0.00000E+00
         0.00000E+00
         0.00000E+00
         0.00000E+00
         0.00000E+00
         0.00000E+00
         0.00000E+00
         0.00000E+00
         0.00000E+00
         0.00000E+00
         0.00000E+00
         0.00000E+00
         0.00000E+00
         0.00000E+00
         0.00000E+00
         0.00000E+00
         0.00000E+00
         0.00000E+00
         0.00000E+00
         0.00000E+00
         0.00000E+00
         0.00000E+00
         0.00000E+00
         0.00000E+00
         0.00000E+00
         0.00000E+00
         0.00000E+00
         0.00000E+00
         0.00000E+00
         0.00000E+00
         0.00000E+00
         0.00000E+00
         0.00000E+00
         0.00000E+00
         0.00000E+00
         0.00000E+00
         0.00000E+00
         0.00000E+00
         0.00000E+00
         0.00000E+00
         0.00000E+00
         0.00000E+00
         0.00000E+00
         0.00000E+00
         0.00000E+00
         0.00000E+00
         0.00000E+00
         0.00000E+00
         0.00000E+00
         0.00000E+00
         0.00000E+00
         0.00000E+00
         0.00000E+00
         0.00000E+00
         0.00000E+00
         0.00000E+00
         0.00000E+00
         0.00000E+00
         0.00000E+00
         0.00000E+00
         0.00000E+00
         0.00000E+00
         0.00000E+00
         0.00000E+00
         0.00000E+00
         0.00000E+00
         0.00000E+00
         0.00000E+00
         0.00000E+00
         0.00000E+00
         0.00000E+00
         0.00000E+00
         0.00000E+00
         0.00000E+00
         0.00000E+00
         0.00000E+00
         0.00000E+00
         0.00000E+00
         0.00000E+00
         0.00000E+00
         0.00000E+00
         0.00000E+00
         0.00000E+00
         0.00000E+00
         0.00000E+00
         0.00000E+00
         0.00000E+00
         0.00000E+00
         0.00000E+00
         0.00000E+00
         0.00000E+00
         0.00000E+00
         0.00000E+00
         0.00000E+00
         0.00000E+00
         0.00000E+00
         0.00000E+00
         0.00000E+00
         0.00000E+00
         0.00000E+00
         0.00000E+00
         0.00000E+00
         0.00000E+00
         0.00000E+00
         0.00000E+00
         0.00000E+00
         0.00000E+00
         0.00000E+00
         0.00000E+00
         0.00000E+00
         0.00000E+00
         0.00000E+00
         0.00000E+00
         0.00000E+00
         0.00000E+00
         0.00000E+00
         0.00000E+00
         0.00000E+00
         0.00000E+00
         0.00000E+00
         0.00000E+00
         0.00000E+00
         0.00000E+00
         0.00000E+00
         0.00000E+00
         0.00000E+00
         0.00000E+00
         0.00000E+00
         0.00000E+00
         0.00000E+00
         0.00000E+00
         0.00000E+00
         0.00000E+00
         0.00000E+00
         0.00000E+00
         0.00000E+00
         0.00000E+00
         0.00000E+00
         0.00000E+00
         0.00000E+00
         0.00000E+00
         0.00000E+00
         0.00000E+00
         0.00000E+00
         0.00000E+00
         0.00000E+00
         0.00000E+00
         0.00000E+00
         0.00000E+00
         0.00000E+00
         0.00000E+00
         0.00000E+00
         0.00000E+00
         0.00000E+00
         0.00000E+00
         0.00000E+00
         0.00000E+00
         0.00000E+00
         0.00000E+00
         0.00000E+00
         0.00000E+00
         0.00000E+00
         0.00000E+00
         0.00000E+00
         0.00000E+00
         0.00000E+00
         0.00000E+00
         0.00000E+00
         0.00000E+00
         0.00000E+00
         0.00000E+00
         0.00000E+00
         0.00000E+00
         0.00000E+00
         0.00000E+00
         0.00000E+00
         0.00000E+00
         0.00000E+00
         0.00000E+00
         0.00000E+00
         0.00000E+00
         0.00000E+00
         0.00000E+00
         0.00000E+00
         0.00000E+00
         0.00000E+00
         0.00000E+00
         0.00000E+00
         0.00000E+00
         0.00000E+00
         0.00000E+00
         0.00000E+00
         0.00000E+00
         0.00000E+00
         0.00000E+00
         0.00000E+00
         0.00000E+00
         0.00000E+00
         0.00000E+00
         0.00000E+00
         0.00000E+00
         0.00000E+00
         0.00000E+00
         0.00000E+00
         0.00000E+00
         0.00000E+00
         0.00000E+00
         0.00000E+00
         0.00000E+00
         0.00000E+00
         0.00000E+00
         0.00000E+00
         0.00000E+00
         0.00000E+00
         0.00000E+00
         0.00000E+00
         0.00000E+00
         0.00000E+00
         0.00000E+00
         0.00000E+00
         0.00000E+00
         0.00000E+00
         0.00000E+00
         0.00000E+00
         0.00000E+00
         0.00000E+00
         0.00000E+00
         0.00000E+00
         0.00000E+00
         0.00000E+00
         0.00000E+00
         0.00000E+00
         0.00000E+00
         0.00000E+00
         0.00000E+00
         0.00000E+00
         0.00000E+00
         0.00000E+00
         0.00000E+00
         0.00000E+00
         0.00000E+00
         0.00000E+00
         0.00000E+00
         0.00000E+00
         0.00000E+00
         0.00000E+00
         0.00000E+00
         0.00000E+00
         0.00000E+00
         0.00000E+00
         0.00000E+00
         0.00000E+00
         0.00000E+00
         0.00000E+00
         0.00000E+00
         0.00000E+00
         0.00000E+00
         0.00000E+00
         0.00000E+00
         0.00000E+00
         0.00000E+00
         0.00000E+00
         0.00000E+00
         0.00000E+00
         0.00000E+00
         0.00000E+00
         0.00000E+00
         0.00000E+00
         0.00000E+00
         0.00000E+00
         0.00000E+00
         0.00000E+00
         0.00000E+00
         0.00000E+00
         0.00000E+00
         0.00000E+00
         0.00000E+00
         0.00000E+00
         0.00000E+00
         0.00000E+00
         0.00000E+00
         0.00000E+00
         0.00000E+00
         0.00000E+00
         0.00000E+00
         0.00000E+00
         0.00000E+00
         0.00000E+00
         0.00000E+00
         0.00000E+00
         0.00000E+00
         0.00000E+00
         0.00000E+00
         0.00000E+00
         0.00000E+00
         0.00000E+00
         0.00000E+00
         0.00000E+00
         0.00000E+00
         0.00000E+00
         0.00000E+00
         0.00000E+00
         0.00000E+00
         0.00000E+00
         0.00000E+00
         0.00000E+00
         0.00000E+00
         0.00000E+00
         0.00000E+00
         0.00000E+00
         0.00000E+00
         0.00000E+00
         0.00000E+00
         0.00000E+00
         0.00000E+00
         0.00000E+00
         0.00000E+00
         0.00000E+00
         0.00000E+00
         0.00000E+00
         0.00000E+00
         0.00000E+00
         0.00000E+00
         0.00000E+00
         0.00000E+00
         0.00000E+00
         0.00000E+00
         0.00000E+00
         0.00000E+00
         0.00000E+00
         0.00000E+00
         0.00000E+00
         0.00000E+00
         0.00000E+00
         0.00000E+00
         0.00000E+00
         0.00000E+00
         0.00000E+00
         0.00000E+00
         0.00000E+00
         0.00000E+00
         0.00000E+00
         0.00000E+00
         0.00000E+00
         0.00000E+00
         0.00000E+00
         0.00000E+00
         0.00000E+00
         0.00000E+00
         0.00000E+00
         0.00000E+00
         0.00000E+00
         0.00000E+00
         0.00000E+00
         0.00000E+00
         0.00000E+00
         0.00000E+00
         0.00000E+00
         0.00000E+00
         0.00000E+00
         0.00000E+00
         0.00000E+00
         0.00000E+00
         0.00000E+00
         0.00000E+00
         0.00000E+00
         0.00000E+00
         0.00000E+00
         0.00000E+00
         0.00000E+00
         0.00000E+00
         0.00000E+00
         0.00000E+00
         0.00000E+00
         0.00000E+00
         0.00000E+00
         0.00000E+00
         0.00000E+00
         0.00000E+00
         0.00000E+00
         0.00000E+00
         0.00000E+00
         0.00000E+00
         0.00000E+00
         0.00000E+00
         0.00000E+00
         0.00000E+00
         0.00000E+00
         0.00000E+00
         0.00000E+00
         0.00000E+00
         0.00000E+00
         0.00000E+00
         0.00000E+00
         0.00000E+00
         0.00000E+00
         0.00000E+00
         0.00000E+00
         0.00000E+00
         0.00000E+00
         0.00000E+00
         0.00000E+00
         0.00000E+00
         0.00000E+00
         0.00000E+00
         0.00000E+00
         0.00000E+00
         0.00000E+00
         0.00000E+00
         0.00000E+00
         0.00000E+00
         0.00000E+00
         0.00000E+00
         0.00000E+00
         0.00000E+00
         0.00000E+00
         0.00000E+00
         0.00000E+00
         0.00000E+00
         0.00000E+00
         0.00000E+00
         0.00000E+00
         0.00000E+00
         0.00000E+00
         0.00000E+00
         0.00000E+00
         0.00000E+00
         0.00000E+00
         0.00000E+00
         0.00000E+00
         0.00000E+00
         0.00000E+00
         0.00000E+00
         0.00000E+00
         0.00000E+00
         0.00000E+00
         0.00000E+00
         0.00000E+00
         0.00000E+00
         0.00000E+00
         0.00000E+00
         0.00000E+00
         0.00000E+00
         0.00000E+00
         0.00000E+00
         0.00000E+00
         0.00000E+00
         0.00000E+00
         0.00000E+00
         0.00000E+00
         0.00000E+00
         0.00000E+00
         0.00000E+00
         0.00000E+00
         0.00000E+00
         0.00000E+00
         0.00000E+00
         0.00000E+00
         0.00000E+00
         0.00000E+00
         0.00000E+00
         0.00000E+00
         0.00000E+00
         0.00000E+00
         0.00000E+00
         0.00000E+00
         0.00000E+00
         0.00000E+00
         0.00000E+00
         0.00000E+00
         0.00000E+00
         0.00000E+00
         0.00000E+00
         0.00000E+00
         0.00000E+00
         0.00000E+00
         0.00000E+00
         0.00000E+00
         0.00000E+00
         0.00000E+00
         0.00000E+00
         0.00000E+00
         0.00000E+00
         0.00000E+00
         0.00000E+00
         0.00000E+00
         0.00000E+00
         0.00000E+00
         0.00000E+00
         0.00000E+00
         0.00000E+00
         0.00000E+00
         0.00000E+00
         0.00000E+00
         0.00000E+00
         0.00000E+00
         0.00000E+00
         0.00000E+00
         0.00000E+00
         0.00000E+00
         0.00000E+00
         0.00000E+00
         0.00000E+00
         0.00000E+00
         0.00000E+00
         0.00000E+00
         0.00000E+00
         0.00000E+00
         0.00000E+00
         0.00000E+00
         0.00000E+00
         0.00000E+00
         0.00000E+00
         0.00000E+00
         0.00000E+00
         0.00000E+00
         0.00000E+00
         0.00000E+00
         0.00000E+00
         0.00000E+00
         0.00000E+00
         0.00000E+00
         0.00000E+00
         0.00000E+00
         0.00000E+00
         0.00000E+00
         0.00000E+00
         0.00000E+00
         0.00000E+00
         0.00000E+00
         0.00000E+00
         0.00000E+00
         0.00000E+00
         0.00000E+00
         0.00000E+00
         0.00000E+00
         0.00000E+00
         0.00000E+00
         0.00000E+00
         0.00000E+00
         0.00000E+00
         0.00000E+00
         0.00000E+00
         0.00000E+00
         0.00000E+00
         0.00000E+00
         0.00000E+00
         0.00000E+00
         0.00000E+00
         0.00000E+00
         0.00000E+00
         0.00000E+00
         0.00000E+00
         0.00000E+00
         0.00000E+00
         0.00000E+00
         0.00000E+00
         0.00000E+00
         0.00000E+00
         0.00000E+00
         0.00000E+00
         0.00000E+00
         0.00000E+00
         0.00000E+00
         0.00000E+00
         0.00000E+00
         0.00000E+00
         0.00000E+00
         0.00000E+00
         0.00000E+00
         0.00000E+00
         0.00000E+00
         0.00000E+00
         0.00000E+00
         0.00000E+00
         0.00000E+00
         0.00000E+00
         0.00000E+00
         0.00000E+00
         0.00000E+00
         0.00000E+00
         0.00000E+00
         0.00000E+00
         0.00000E+00
         0.00000E+00
         0.00000E+00
         0.00000E+00
         0.00000E+00
         0.00000E+00
         0.00000E+00
         0.00000E+00
         0.00000E+00
         0.00000E+00
         0.00000E+00
         0.00000E+00
         0.00000E+00
         0.00000E+00
         0.00000E+00
         0.00000E+00
         0.00000E+00
         0.00000E+00
         0.00000E+00
         0.00000E+00
         0.00000E+00
         0.00000E+00
         0.00000E+00
         0.00000E+00
         0.00000E+00
         0.00000E+00
         0.00000E+00
         0.00000E+00
         0.00000E+00
         0.00000E+00
         0.00000E+00
         0.00000E+00
         0.00000E+00
         0.00000E+00
         0.00000E+00
         0.00000E+00
         0.00000E+00
         0.00000E+00
         0.00000E+00
         0.00000E+00
         0.00000E+00
         0.00000E+00
         0.00000E+00
         0.00000E+00
         0.00000E+00
         0.00000E+00
         0.00000E+00
         0.00000E+00
         0.00000E+00
         0.00000E+00
         0.00000E+00
         0.00000E+00
         0.00000E+00
         0.00000E+00
         0.00000E+00
         0.00000E+00
         0.00000E+00
         0.00000E+00
         0.00000E+00
         0.00000E+00
         0.00000E+00
         0.00000E+00
         0.00000E+00
         0.00000E+00
         0.00000E+00
         0.00000E+00
         0.00000E+00
         0.00000E+00
         0.00000E+00
         0.00000E+00
         0.00000E+00
         0.00000E+00
         0.00000E+00
         0.00000E+00
         0.00000E+00
         0.00000E+00
         0.00000E+00
         0.00000E+00
         0.00000E+00
         0.00000E+00
         0.00000E+00
         0.00000E+00
         0.00000E+00
         0.00000E+00
         0.00000E+00
         0.00000E+00
         0.00000E+00
         0.00000E+00
         0.00000E+00
         0.00000E+00
         0.00000E+00
         0.00000E+00
         0.00000E+00
         0.00000E+00
         0.00000E+00
         0.00000E+00
         0.00000E+00
         0.00000E+00
         0.00000E+00
         0.00000E+00
         0.00000E+00
         0.00000E+00
         0.00000E+00
         0.00000E+00
         0.00000E+00
         0.00000E+00
         0.00000E+00
         0.00000E+00
         0.00000E+00
         0.00000E+00
         0.00000E+00
         0.00000E+00
         0.00000E+00
         0.00000E+00
         0.00000E+00
         0.00000E+00
         0.00000E+00
         0.00000E+00
         0.00000E+00
         0.00000E+00
         0.00000E+00
         0.00000E+00
         0.00000E+00
         0.00000E+00
         0.00000E+00
         0.00000E+00
         0.00000E+00
         0.00000E+00
         0.00000E+00
         0.00000E+00
         0.00000E+00
         0.00000E+00
         0.00000E+00
         0.00000E+00
         0.00000E+00
         0.00000E+00
         0.00000E+00
         0.00000E+00
         0.00000E+00
         0.00000E+00
         0.00000E+00
         0.00000E+00
         0.00000E+00
         0.00000E+00
         0.00000E+00
         0.00000E+00
         0.00000E+00
         0.00000E+00
         0.00000E+00
         0.00000E+00
         0.00000E+00
         0.00000E+00
         0.00000E+00
         0.00000E+00
         0.00000E+00
         0.00000E+00
         0.00000E+00
         0.00000E+00
         0.00000E+00
         0.00000E+00
         0.00000E+00
         0.00000E+00
         0.00000E+00
         0.00000E+00
         0.00000E+00
         0.00000E+00
         0.00000E+00
         0.00000E+00
         0.00000E+00
         0.00000E+00
         0.00000E+00
         0.00000E+00
         0.00000E+00
         0.00000E+00
         0.00000E+00
         0.00000E+00
         0.00000E+00
         0.00000E+00
         0.00000E+00
         0.00000E+00
         0.00000E+00
         0.00000E+00
         0.00000E+00
         0.00000E+00
         0.00000E+00
         0.00000E+00
         0.00000E+00
         0.00000E+00
         0.00000E+00
         0.00000E+00
         0.00000E+00
         0.00000E+00
         0.00000E+00
         0.00000E+00
         0.00000E+00
         0.00000E+00
         0.00000E+00
         0.00000E+00
         0.00000E+00
         0.00000E+00
         0.00000E+00
         0.00000E+00
         0.00000E+00
         0.00000E+00
         0.00000E+00
         0.00000E+00
         0.00000E+00
         0.00000E+00
         0.00000E+00
         0.00000E+00
         0.00000E+00
         0.00000E+00
         0.00000E+00
         0.00000E+00
         0.00000E+00
         0.00000E+00
         0.00000E+00
         0.00000E+00
         0.00000E+00
         0.00000E+00
         0.00000E+00
         0.00000E+00
         0.00000E+00
         0.00000E+00
         0.00000E+00
         0.00000E+00
         0.00000E+00
         0.00000E+00
         0.00000E+00
         0.00000E+00
         0.00000E+00
         0.00000E+00
         0.00000E+00
         0.00000E+00
         0.00000E+00
         0.00000E+00
         0.00000E+00
         0.00000E+00
         0.00000E+00
         0.00000E+00
         0.00000E+00
         0.00000E+00
         0.00000E+00
         0.00000E+00
         0.00000E+00
         0.00000E+00
         0.00000E+00
         0.00000E+00
         0.00000E+00
         0.00000E+00
         0.00000E+00
         0.00000E+00
         0.00000E+00
         0.00000E+00
         0.00000E+00
         0.00000E+00
         0.00000E+00
         0.00000E+00
         0.00000E+00
         0.00000E+00
         0.00000E+00
         0.00000E+00
         0.00000E+00
         0.00000E+00
         0.00000E+00
         0.00000E+00
         0.00000E+00
         0.00000E+00
         0.00000E+00
         0.00000E+00
         0.00000E+00
         0.00000E+00
         0.00000E+00
         0.00000E+00
         0.00000E+00
         0.00000E+00
         0.00000E+00
         0.00000E+00
         0.00000E+00
         0.00000E+00
         0.00000E+00
         0.00000E+00
         0.00000E+00
         0.00000E+00
         0.00000E+00
         0.00000E+00
         0.00000E+00
         0.00000E+00
         0.00000E+00
         0.00000E+00
         0.00000E+00
         0.00000E+00
         0.00000E+00
         0.00000E+00
         0.00000E+00
         0.00000E+00
         0.00000E+00
         0.00000E+00
         0.00000E+00
         0.00000E+00
         0.00000E+00
         0.00000E+00
         0.00000E+00
         0.00000E+00
         0.00000E+00
         0.00000E+00
         0.00000E+00
         0.00000E+00
         0.00000E+00
         0.00000E+00
         0.00000E+00
         0.00000E+00
         0.00000E+00
         0.00000E+00
         0.00000E+00
         0.00000E+00
         0.00000E+00
         0.00000E+00
         0.00000E+00
         0.00000E+00
         0.00000E+00
         0.00000E+00
         0.00000E+00
         0.00000E+00
         0.00000E+00
         0.00000E+00
         0.00000E+00
         0.00000E+00
         0.00000E+00
         0.00000E+00
         0.00000E+00
         0.00000E+00
         0.00000E+00
         0.00000E+00
         0.00000E+00
         0.00000E+00
         0.00000E+00
         0.00000E+00
         0.00000E+00
         0.00000E+00
         0.00000E+00
         0.00000E+00
         0.00000E+00
         0.00000E+00
         0.00000E+00
         0.00000E+00
         0.00000E+00
         0.00000E+00
         0.00000E+00
         0.00000E+00
         0.00000E+00
         0.00000E+00
         0.00000E+00
         0.00000E+00
         0.00000E+00
         0.00000E+00
         0.00000E+00
         0.00000E+00
         0.00000E+00
         0.00000E+00
         0.00000E+00
         0.00000E+00
         0.00000E+00
         0.00000E+00
         0.00000E+00
         0.00000E+00
         0.00000E+00
         0.00000E+00
         0.00000E+00
         0.00000E+00
         0.00000E+00
         0.00000E+00
         0.00000E+00
         0.00000E+00
         0.00000E+00
         0.00000E+00
         0.00000E+00
         0.00000E+00
         0.00000E+00
         0.00000E+00
         0.00000E+00
         0.00000E+00
         0.00000E+00
         0.00000E+00
         0.00000E+00
         0.00000E+00
         0.00000E+00
         0.00000E+00
         0.00000E+00
         0.00000E+00
         0.00000E+00
         0.00000E+00
         0.00000E+00
         0.00000E+00
         0.00000E+00
         0.00000E+00
         0.00000E+00
         0.00000E+00
         0.00000E+00
         0.00000E+00
         0.00000E+00
         0.00000E+00
         0.00000E+00
         0.00000E+00
         0.00000E+00
         0.00000E+00
         0.00000E+00
         0.00000E+00
         0.00000E+00
         0.00000E+00
         0.00000E+00
         0.00000E+00
         0.00000E+00
         0.00000E+00
         0.00000E+00
         0.00000E+00
         0.00000E+00
         0.00000E+00
         0.00000E+00
         0.00000E+00
         0.00000E+00
         0.00000E+00
         0.00000E+00
         0.00000E+00
         0.00000E+00
         0.00000E+00
         0.00000E+00
         0.00000E+00
         0.00000E+00
         0.00000E+00
         0.00000E+00
         0.00000E+00
         0.00000E+00
         0.00000E+00
         0.00000E+00
         0.00000E+00
         0.00000E+00
         0.00000E+00
         0.00000E+00
         0.00000E+00
         0.00000E+00
         0.00000E+00
         0.00000E+00
         0.00000E+00
         0.00000E+00
         0.00000E+00
         0.00000E+00
         0.00000E+00
         0.00000E+00
         0.00000E+00
         0.00000E+00
         0.00000E+00
         0.00000E+00
         0.00000E+00
         0.00000E+00
         0.00000E+00
         0.00000E+00
         0.00000E+00
         0.00000E+00
         0.00000E+00
         0.00000E+00
         0.00000E+00
         0.00000E+00
         0.00000E+00
         0.00000E+00
         0.00000E+00
         0.00000E+00
         0.00000E+00
         0.00000E+00
         0.00000E+00
         0.00000E+00
         0.00000E+00
         0.00000E+00
         0.00000E+00
         0.00000E+00
         0.00000E+00
         0.00000E+00
         0.00000E+00
         0.00000E+00
         0.00000E+00
         0.00000E+00
         0.00000E+00
         0.00000E+00
         0.00000E+00
         0.00000E+00
         0.00000E+00
         0.00000E+00
         0.00000E+00
         0.00000E+00
         0.00000E+00
         0.00000E+00
         0.00000E+00
         0.00000E+00
         0.00000E+00
         0.00000E+00
         0.00000E+00
         0.00000E+00
         0.00000E+00
         0.00000E+00
         0.00000E+00
         0.00000E+00
         0.00000E+00
         0.00000E+00
         0.00000E+00
         0.00000E+00
         0.00000E+00
         0.00000E+00
         0.00000E+00
         0.00000E+00
         0.00000E+00
         0.00000E+00
         0.00000E+00
         0.00000E+00
         0.00000E+00
         0.00000E+00
         0.00000E+00
         0.00000E+00
         0.00000E+00
         0.00000E+00
         0.00000E+00
         0.00000E+00
         0.00000E+00
         0.00000E+00
         0.00000E+00
         0.00000E+00
         0.00000E+00
         0.00000E+00
         0.00000E+00
         0.00000E+00
         0.00000E+00
         0.00000E+00
         0.00000E+00
         0.00000E+00
         0.00000E+00
         0.00000E+00
         0.00000E+00
         0.00000E+00
         0.00000E+00
         0.00000E+00
         0.00000E+00
         0.00000E+00
         0.00000E+00
         0.00000E+00
         0.00000E+00
         0.00000E+00
         0.00000E+00
         0.00000E+00
         0.00000E+00
         0.00000E+00
         0.00000E+00
         0.00000E+00
         0.00000E+00
         0.00000E+00
         0.00000E+00
         0.00000E+00
         0.00000E+00
         0.00000E+00
         0.00000E+00
         0.00000E+00
         0.00000E+00
         0.00000E+00
         0.00000E+00
         0.00000E+00
         0.00000E+00
         0.00000E+00
         0.00000E+00
         0.00000E+00
         0.00000E+00
         0.00000E+00
         0.00000E+00
         0.00000E+00
         0.00000E+00
         0.00000E+00
         0.00000E+00
         0.00000E+00
  
SCALARS                      strain_zz  double 1
LOOKUP_TABLE default
         0.00000E+00
         0.00000E+00
         0.00000E+00
         0.00000E+00
         0.00000E+00
         0.00000E+00
         0.00000E+00
         0.00000E+00
         0.00000E+00
         0.00000E+00
         0.00000E+00
         0.00000E+00
         0.00000E+00
         0.00000E+00
         0.00000E+00
         0.00000E+00
         0.00000E+00
         0.00000E+00
         0.00000E+00
         0.00000E+00
         0.00000E+00
         0.00000E+00
         0.00000E+00
         0.00000E+00
         0.00000E+00
         0.00000E+00
         0.00000E+00
         0.00000E+00
         0.00000E+00
         0.00000E+00
         0.00000E+00
         0.00000E+00
         0.00000E+00
         0.00000E+00
         0.00000E+00
         0.00000E+00
         0.00000E+00
         0.00000E+00
         0.00000E+00
         0.00000E+00
         0.00000E+00
         0.00000E+00
         0.00000E+00
         0.00000E+00
         0.00000E+00
         0.00000E+00
         0.00000E+00
         0.00000E+00
         0.00000E+00
         0.00000E+00
         0.00000E+00
         0.00000E+00
         0.00000E+00
         0.00000E+00
         0.00000E+00
         0.00000E+00
         0.00000E+00
         0.00000E+00
         0.00000E+00
         0.00000E+00
         0.00000E+00
         0.00000E+00
         0.00000E+00
         0.00000E+00
         0.00000E+00
         0.00000E+00
         0.00000E+00
         0.00000E+00
         0.00000E+00
         0.00000E+00
         0.00000E+00
         0.00000E+00
         0.00000E+00
         0.00000E+00
         0.00000E+00
         0.00000E+00
         0.00000E+00
         0.00000E+00
         0.00000E+00
         0.00000E+00
         0.00000E+00
         0.00000E+00
         0.00000E+00
         0.00000E+00
         0.00000E+00
         0.00000E+00
         0.00000E+00
         0.00000E+00
         0.00000E+00
         0.00000E+00
         0.00000E+00
         0.00000E+00
         0.00000E+00
         0.00000E+00
         0.00000E+00
         0.00000E+00
         0.00000E+00
         0.00000E+00
         0.00000E+00
         0.00000E+00
         0.00000E+00
         0.00000E+00
         0.00000E+00
         0.00000E+00
         0.00000E+00
         0.00000E+00
         0.00000E+00
         0.00000E+00
         0.00000E+00
         0.00000E+00
         0.00000E+00
         0.00000E+00
         0.00000E+00
         0.00000E+00
         0.00000E+00
         0.00000E+00
         0.00000E+00
         0.00000E+00
         0.00000E+00
         0.00000E+00
         0.00000E+00
         0.00000E+00
         0.00000E+00
         0.00000E+00
         0.00000E+00
         0.00000E+00
         0.00000E+00
         0.00000E+00
         0.00000E+00
         0.00000E+00
         0.00000E+00
         0.00000E+00
         0.00000E+00
         0.00000E+00
         0.00000E+00
         0.00000E+00
         0.00000E+00
         0.00000E+00
         0.00000E+00
         0.00000E+00
         0.00000E+00
         0.00000E+00
         0.00000E+00
         0.00000E+00
         0.00000E+00
         0.00000E+00
         0.00000E+00
         0.00000E+00
         0.00000E+00
         0.00000E+00
         0.00000E+00
         0.00000E+00
         0.00000E+00
         0.00000E+00
         0.00000E+00
         0.00000E+00
         0.00000E+00
         0.00000E+00
         0.00000E+00
         0.00000E+00
         0.00000E+00
         0.00000E+00
         0.00000E+00
         0.00000E+00
         0.00000E+00
         0.00000E+00
         0.00000E+00
         0.00000E+00
         0.00000E+00
         0.00000E+00
         0.00000E+00
         0.00000E+00
         0.00000E+00
         0.00000E+00
         0.00000E+00
         0.00000E+00
         0.00000E+00
         0.00000E+00
         0.00000E+00
         0.00000E+00
         0.00000E+00
         0.00000E+00
         0.00000E+00
         0.00000E+00
         0.00000E+00
         0.00000E+00
         0.00000E+00
         0.00000E+00
         0.00000E+00
         0.00000E+00
         0.00000E+00
         0.00000E+00
         0.00000E+00
         0.00000E+00
         0.00000E+00
         0.00000E+00
         0.00000E+00
         0.00000E+00
         0.00000E+00
         0.00000E+00
         0.00000E+00
         0.00000E+00
         0.00000E+00
         0.00000E+00
         0.00000E+00
         0.00000E+00
         0.00000E+00
         0.00000E+00
         0.00000E+00
         0.00000E+00
         0.00000E+00
         0.00000E+00
         0.00000E+00
         0.00000E+00
         0.00000E+00
         0.00000E+00
         0.00000E+00
         0.00000E+00
         0.00000E+00
         0.00000E+00
         0.00000E+00
         0.00000E+00
         0.00000E+00
         0.00000E+00
         0.00000E+00
         0.00000E+00
         0.00000E+00
         0.00000E+00
         0.00000E+00
         0.00000E+00
         0.00000E+00
         0.00000E+00
         0.00000E+00
         0.00000E+00
         0.00000E+00
         0.00000E+00
         0.00000E+00
         0.00000E+00
         0.00000E+00
         0.00000E+00
         0.00000E+00
         0.00000E+00
         0.00000E+00
         0.00000E+00
         0.00000E+00
         0.00000E+00
         0.00000E+00
         0.00000E+00
         0.00000E+00
         0.00000E+00
         0.00000E+00
         0.00000E+00
         0.00000E+00
         0.00000E+00
         0.00000E+00
         0.00000E+00
         0.00000E+00
         0.00000E+00
         0.00000E+00
         0.00000E+00
         0.00000E+00
         0.00000E+00
         0.00000E+00
         0.00000E+00
         0.00000E+00
         0.00000E+00
         0.00000E+00
         0.00000E+00
         0.00000E+00
         0.00000E+00
         0.00000E+00
         0.00000E+00
         0.00000E+00
         0.00000E+00
         0.00000E+00
         0.00000E+00
         0.00000E+00
         0.00000E+00
         0.00000E+00
         0.00000E+00
         0.00000E+00
         0.00000E+00
         0.00000E+00
         0.00000E+00
         0.00000E+00
         0.00000E+00
         0.00000E+00
         0.00000E+00
         0.00000E+00
         0.00000E+00
         0.00000E+00
         0.00000E+00
         0.00000E+00
         0.00000E+00
         0.00000E+00
         0.00000E+00
         0.00000E+00
         0.00000E+00
         0.00000E+00
         0.00000E+00
         0.00000E+00
         0.00000E+00
         0.00000E+00
         0.00000E+00
         0.00000E+00
         0.00000E+00
         0.00000E+00
         0.00000E+00
         0.00000E+00
         0.00000E+00
         0.00000E+00
         0.00000E+00
         0.00000E+00
         0.00000E+00
         0.00000E+00
         0.00000E+00
         0.00000E+00
         0.00000E+00
         0.00000E+00
         0.00000E+00
         0.00000E+00
         0.00000E+00
         0.00000E+00
         0.00000E+00
         0.00000E+00
         0.00000E+00
         0.00000E+00
         0.00000E+00
         0.00000E+00
         0.00000E+00
         0.00000E+00
         0.00000E+00
         0.00000E+00
         0.00000E+00
         0.00000E+00
         0.00000E+00
         0.00000E+00
         0.00000E+00
         0.00000E+00
         0.00000E+00
         0.00000E+00
         0.00000E+00
         0.00000E+00
         0.00000E+00
         0.00000E+00
         0.00000E+00
         0.00000E+00
         0.00000E+00
         0.00000E+00
         0.00000E+00
         0.00000E+00
         0.00000E+00
         0.00000E+00
         0.00000E+00
         0.00000E+00
         0.00000E+00
         0.00000E+00
         0.00000E+00
         0.00000E+00
         0.00000E+00
         0.00000E+00
         0.00000E+00
         0.00000E+00
         0.00000E+00
         0.00000E+00
         0.00000E+00
         0.00000E+00
         0.00000E+00
         0.00000E+00
         0.00000E+00
         0.00000E+00
         0.00000E+00
         0.00000E+00
         0.00000E+00
         0.00000E+00
         0.00000E+00
         0.00000E+00
         0.00000E+00
         0.00000E+00
         0.00000E+00
         0.00000E+00
         0.00000E+00
         0.00000E+00
         0.00000E+00
         0.00000E+00
         0.00000E+00
         0.00000E+00
         0.00000E+00
         0.00000E+00
         0.00000E+00
         0.00000E+00
         0.00000E+00
         0.00000E+00
         0.00000E+00
         0.00000E+00
         0.00000E+00
         0.00000E+00
         0.00000E+00
         0.00000E+00
         0.00000E+00
         0.00000E+00
         0.00000E+00
         0.00000E+00
         0.00000E+00
         0.00000E+00
         0.00000E+00
         0.00000E+00
         0.00000E+00
         0.00000E+00
         0.00000E+00
         0.00000E+00
         0.00000E+00
         0.00000E+00
         0.00000E+00
         0.00000E+00
         0.00000E+00
         0.00000E+00
         0.00000E+00
         0.00000E+00
         0.00000E+00
         0.00000E+00
         0.00000E+00
         0.00000E+00
         0.00000E+00
         0.00000E+00
         0.00000E+00
         0.00000E+00
         0.00000E+00
         0.00000E+00
         0.00000E+00
         0.00000E+00
         0.00000E+00
         0.00000E+00
         0.00000E+00
         0.00000E+00
         0.00000E+00
         0.00000E+00
         0.00000E+00
         0.00000E+00
         0.00000E+00
         0.00000E+00
         0.00000E+00
         0.00000E+00
         0.00000E+00
         0.00000E+00
         0.00000E+00
         0.00000E+00
         0.00000E+00
         0.00000E+00
         0.00000E+00
         0.00000E+00
         0.00000E+00
         0.00000E+00
         0.00000E+00
         0.00000E+00
         0.00000E+00
         0.00000E+00
         0.00000E+00
         0.00000E+00
         0.00000E+00
         0.00000E+00
         0.00000E+00
         0.00000E+00
         0.00000E+00
         0.00000E+00
         0.00000E+00
         0.00000E+00
         0.00000E+00
         0.00000E+00
         0.00000E+00
         0.00000E+00
         0.00000E+00
         0.00000E+00
         0.00000E+00
         0.00000E+00
         0.00000E+00
         0.00000E+00
         0.00000E+00
         0.00000E+00
         0.00000E+00
         0.00000E+00
         0.00000E+00
         0.00000E+00
         0.00000E+00
         0.00000E+00
         0.00000E+00
         0.00000E+00
         0.00000E+00
         0.00000E+00
         0.00000E+00
         0.00000E+00
         0.00000E+00
         0.00000E+00
         0.00000E+00
         0.00000E+00
         0.00000E+00
         0.00000E+00
         0.00000E+00
         0.00000E+00
         0.00000E+00
         0.00000E+00
         0.00000E+00
         0.00000E+00
         0.00000E+00
         0.00000E+00
         0.00000E+00
         0.00000E+00
         0.00000E+00
         0.00000E+00
         0.00000E+00
         0.00000E+00
         0.00000E+00
         0.00000E+00
         0.00000E+00
         0.00000E+00
         0.00000E+00
         0.00000E+00
         0.00000E+00
         0.00000E+00
         0.00000E+00
         0.00000E+00
         0.00000E+00
         0.00000E+00
         0.00000E+00
         0.00000E+00
         0.00000E+00
         0.00000E+00
         0.00000E+00
         0.00000E+00
         0.00000E+00
         0.00000E+00
         0.00000E+00
         0.00000E+00
         0.00000E+00
         0.00000E+00
         0.00000E+00
         0.00000E+00
         0.00000E+00
         0.00000E+00
         0.00000E+00
         0.00000E+00
         0.00000E+00
         0.00000E+00
         0.00000E+00
         0.00000E+00
         0.00000E+00
         0.00000E+00
         0.00000E+00
         0.00000E+00
         0.00000E+00
         0.00000E+00
         0.00000E+00
         0.00000E+00
         0.00000E+00
         0.00000E+00
         0.00000E+00
         0.00000E+00
         0.00000E+00
         0.00000E+00
         0.00000E+00
         0.00000E+00
         0.00000E+00
         0.00000E+00
         0.00000E+00
         0.00000E+00
         0.00000E+00
         0.00000E+00
         0.00000E+00
         0.00000E+00
         0.00000E+00
         0.00000E+00
         0.00000E+00
         0.00000E+00
         0.00000E+00
         0.00000E+00
         0.00000E+00
         0.00000E+00
         0.00000E+00
         0.00000E+00
         0.00000E+00
         0.00000E+00
         0.00000E+00
         0.00000E+00
         0.00000E+00
         0.00000E+00
         0.00000E+00
         0.00000E+00
         0.00000E+00
         0.00000E+00
         0.00000E+00
         0.00000E+00
         0.00000E+00
         0.00000E+00
         0.00000E+00
         0.00000E+00
         0.00000E+00
         0.00000E+00
         0.00000E+00
         0.00000E+00
         0.00000E+00
         0.00000E+00
         0.00000E+00
         0.00000E+00
         0.00000E+00
         0.00000E+00
         0.00000E+00
         0.00000E+00
         0.00000E+00
         0.00000E+00
         0.00000E+00
         0.00000E+00
         0.00000E+00
         0.00000E+00
         0.00000E+00
         0.00000E+00
         0.00000E+00
         0.00000E+00
         0.00000E+00
         0.00000E+00
         0.00000E+00
         0.00000E+00
         0.00000E+00
         0.00000E+00
         0.00000E+00
         0.00000E+00
         0.00000E+00
         0.00000E+00
         0.00000E+00
         0.00000E+00
         0.00000E+00
         0.00000E+00
         0.00000E+00
         0.00000E+00
         0.00000E+00
         0.00000E+00
         0.00000E+00
         0.00000E+00
         0.00000E+00
         0.00000E+00
         0.00000E+00
         0.00000E+00
         0.00000E+00
         0.00000E+00
         0.00000E+00
         0.00000E+00
         0.00000E+00
         0.00000E+00
         0.00000E+00
         0.00000E+00
         0.00000E+00
         0.00000E+00
         0.00000E+00
         0.00000E+00
         0.00000E+00
         0.00000E+00
         0.00000E+00
         0.00000E+00
         0.00000E+00
         0.00000E+00
         0.00000E+00
         0.00000E+00
         0.00000E+00
         0.00000E+00
         0.00000E+00
         0.00000E+00
         0.00000E+00
         0.00000E+00
         0.00000E+00
         0.00000E+00
         0.00000E+00
         0.00000E+00
         0.00000E+00
         0.00000E+00
         0.00000E+00
         0.00000E+00
         0.00000E+00
         0.00000E+00
         0.00000E+00
         0.00000E+00
         0.00000E+00
         0.00000E+00
         0.00000E+00
         0.00000E+00
         0.00000E+00
         0.00000E+00
         0.00000E+00
         0.00000E+00
         0.00000E+00
         0.00000E+00
         0.00000E+00
         0.00000E+00
         0.00000E+00
         0.00000E+00
         0.00000E+00
         0.00000E+00
         0.00000E+00
         0.00000E+00
         0.00000E+00
         0.00000E+00
         0.00000E+00
         0.00000E+00
         0.00000E+00
         0.00000E+00
         0.00000E+00
         0.00000E+00
         0.00000E+00
         0.00000E+00
         0.00000E+00
         0.00000E+00
         0.00000E+00
         0.00000E+00
         0.00000E+00
         0.00000E+00
         0.00000E+00
         0.00000E+00
         0.00000E+00
         0.00000E+00
         0.00000E+00
         0.00000E+00
         0.00000E+00
         0.00000E+00
         0.00000E+00
         0.00000E+00
         0.00000E+00
         0.00000E+00
         0.00000E+00
         0.00000E+00
         0.00000E+00
         0.00000E+00
         0.00000E+00
         0.00000E+00
         0.00000E+00
         0.00000E+00
         0.00000E+00
         0.00000E+00
         0.00000E+00
         0.00000E+00
         0.00000E+00
         0.00000E+00
         0.00000E+00
         0.00000E+00
         0.00000E+00
         0.00000E+00
         0.00000E+00
         0.00000E+00
         0.00000E+00
         0.00000E+00
         0.00000E+00
         0.00000E+00
         0.00000E+00
         0.00000E+00
         0.00000E+00
         0.00000E+00
         0.00000E+00
         0.00000E+00
         0.00000E+00
         0.00000E+00
         0.00000E+00
         0.00000E+00
         0.00000E+00
         0.00000E+00
         0.00000E+00
         0.00000E+00
         0.00000E+00
         0.00000E+00
         0.00000E+00
         0.00000E+00
         0.00000E+00
         0.00000E+00
         0.00000E+00
         0.00000E+00
         0.00000E+00
         0.00000E+00
         0.00000E+00
         0.00000E+00
         0.00000E+00
         0.00000E+00
         0.00000E+00
         0.00000E+00
         0.00000E+00
         0.00000E+00
         0.00000E+00
         0.00000E+00
         0.00000E+00
         0.00000E+00
         0.00000E+00
         0.00000E+00
         0.00000E+00
         0.00000E+00
         0.00000E+00
         0.00000E+00
         0.00000E+00
         0.00000E+00
         0.00000E+00
         0.00000E+00
         0.00000E+00
         0.00000E+00
         0.00000E+00
         0.00000E+00
         0.00000E+00
         0.00000E+00
         0.00000E+00
         0.00000E+00
         0.00000E+00
         0.00000E+00
         0.00000E+00
         0.00000E+00
         0.00000E+00
         0.00000E+00
         0.00000E+00
         0.00000E+00
         0.00000E+00
         0.00000E+00
         0.00000E+00
         0.00000E+00
         0.00000E+00
         0.00000E+00
         0.00000E+00
         0.00000E+00
         0.00000E+00
         0.00000E+00
         0.00000E+00
         0.00000E+00
         0.00000E+00
         0.00000E+00
         0.00000E+00
         0.00000E+00
         0.00000E+00
         0.00000E+00
         0.00000E+00
         0.00000E+00
         0.00000E+00
         0.00000E+00
         0.00000E+00
         0.00000E+00
         0.00000E+00
         0.00000E+00
         0.00000E+00
         0.00000E+00
         0.00000E+00
         0.00000E+00
         0.00000E+00
         0.00000E+00
         0.00000E+00
         0.00000E+00
         0.00000E+00
         0.00000E+00
         0.00000E+00
         0.00000E+00
         0.00000E+00
         0.00000E+00
         0.00000E+00
         0.00000E+00
         0.00000E+00
         0.00000E+00
         0.00000E+00
         0.00000E+00
         0.00000E+00
         0.00000E+00
         0.00000E+00
         0.00000E+00
         0.00000E+00
         0.00000E+00
         0.00000E+00
         0.00000E+00
         0.00000E+00
         0.00000E+00
         0.00000E+00
         0.00000E+00
         0.00000E+00
         0.00000E+00
         0.00000E+00
         0.00000E+00
         0.00000E+00
         0.00000E+00
         0.00000E+00
         0.00000E+00
         0.00000E+00
         0.00000E+00
         0.00000E+00
         0.00000E+00
         0.00000E+00
         0.00000E+00
         0.00000E+00
         0.00000E+00
         0.00000E+00
         0.00000E+00
         0.00000E+00
         0.00000E+00
         0.00000E+00
         0.00000E+00
         0.00000E+00
         0.00000E+00
         0.00000E+00
         0.00000E+00
         0.00000E+00
         0.00000E+00
         0.00000E+00
         0.00000E+00
         0.00000E+00
         0.00000E+00
         0.00000E+00
         0.00000E+00
         0.00000E+00
         0.00000E+00
         0.00000E+00
         0.00000E+00
         0.00000E+00
         0.00000E+00
         0.00000E+00
         0.00000E+00
         0.00000E+00
         0.00000E+00
         0.00000E+00
         0.00000E+00
         0.00000E+00
         0.00000E+00
         0.00000E+00
         0.00000E+00
         0.00000E+00
         0.00000E+00
         0.00000E+00
         0.00000E+00
         0.00000E+00
         0.00000E+00
         0.00000E+00
         0.00000E+00
         0.00000E+00
         0.00000E+00
         0.00000E+00
         0.00000E+00
         0.00000E+00
         0.00000E+00
         0.00000E+00
         0.00000E+00
         0.00000E+00
         0.00000E+00
         0.00000E+00
         0.00000E+00
         0.00000E+00
         0.00000E+00
         0.00000E+00
         0.00000E+00
         0.00000E+00
         0.00000E+00
         0.00000E+00
         0.00000E+00
         0.00000E+00
         0.00000E+00
         0.00000E+00
         0.00000E+00
         0.00000E+00
         0.00000E+00
         0.00000E+00
         0.00000E+00
         0.00000E+00
         0.00000E+00
         0.00000E+00
         0.00000E+00
         0.00000E+00
         0.00000E+00
         0.00000E+00
         0.00000E+00
         0.00000E+00
         0.00000E+00
         0.00000E+00
         0.00000E+00
         0.00000E+00
         0.00000E+00
         0.00000E+00
         0.00000E+00
         0.00000E+00
         0.00000E+00
         0.00000E+00
         0.00000E+00
         0.00000E+00
         0.00000E+00
         0.00000E+00
         0.00000E+00
         0.00000E+00
         0.00000E+00
         0.00000E+00
         0.00000E+00
         0.00000E+00
         0.00000E+00
         0.00000E+00
         0.00000E+00
         0.00000E+00
         0.00000E+00
         0.00000E+00
         0.00000E+00
         0.00000E+00
         0.00000E+00
         0.00000E+00
         0.00000E+00
         0.00000E+00
         0.00000E+00
         0.00000E+00
         0.00000E+00
         0.00000E+00
         0.00000E+00
         0.00000E+00
         0.00000E+00
         0.00000E+00
         0.00000E+00
         0.00000E+00
         0.00000E+00
         0.00000E+00
         0.00000E+00
         0.00000E+00
         0.00000E+00
         0.00000E+00
         0.00000E+00
         0.00000E+00
         0.00000E+00
         0.00000E+00
         0.00000E+00
         0.00000E+00
         0.00000E+00
         0.00000E+00
         0.00000E+00
         0.00000E+00
         0.00000E+00
         0.00000E+00
         0.00000E+00
         0.00000E+00
         0.00000E+00
         0.00000E+00
         0.00000E+00
         0.00000E+00
         0.00000E+00
         0.00000E+00
         0.00000E+00
         0.00000E+00
         0.00000E+00
         0.00000E+00
         0.00000E+00
         0.00000E+00
         0.00000E+00
         0.00000E+00
         0.00000E+00
         0.00000E+00
         0.00000E+00
         0.00000E+00
         0.00000E+00
         0.00000E+00
         0.00000E+00
         0.00000E+00
         0.00000E+00
         0.00000E+00
         0.00000E+00
         0.00000E+00
         0.00000E+00
         0.00000E+00
         0.00000E+00
         0.00000E+00
         0.00000E+00
         0.00000E+00
         0.00000E+00
         0.00000E+00
         0.00000E+00
         0.00000E+00
         0.00000E+00
         0.00000E+00
         0.00000E+00
         0.00000E+00
         0.00000E+00
         0.00000E+00
         0.00000E+00
         0.00000E+00
         0.00000E+00
         0.00000E+00
         0.00000E+00
         0.00000E+00
         0.00000E+00
         0.00000E+00
         0.00000E+00
         0.00000E+00
         0.00000E+00
         0.00000E+00
         0.00000E+00
         0.00000E+00
         0.00000E+00
         0.00000E+00
         0.00000E+00
         0.00000E+00
         0.00000E+00
         0.00000E+00
         0.00000E+00
         0.00000E+00
         0.00000E+00
         0.00000E+00
         0.00000E+00
         0.00000E+00
         0.00000E+00
         0.00000E+00
         0.00000E+00
         0.00000E+00
         0.00000E+00
         0.00000E+00
         0.00000E+00
         0.00000E+00
         0.00000E+00
         0.00000E+00
         0.00000E+00
         0.00000E+00
         0.00000E+00
         0.00000E+00
         0.00000E+00
         0.00000E+00
         0.00000E+00
         0.00000E+00
         0.00000E+00
         0.00000E+00
         0.00000E+00
         0.00000E+00
         0.00000E+00
         0.00000E+00
         0.00000E+00
         0.00000E+00
         0.00000E+00
         0.00000E+00
         0.00000E+00
         0.00000E+00
         0.00000E+00
         0.00000E+00
         0.00000E+00
         0.00000E+00
         0.00000E+00
         0.00000E+00
         0.00000E+00
         0.00000E+00
         0.00000E+00
         0.00000E+00
         0.00000E+00
         0.00000E+00
         0.00000E+00
         0.00000E+00
         0.00000E+00
         0.00000E+00
         0.00000E+00
         0.00000E+00
         0.00000E+00
         0.00000E+00
         0.00000E+00
         0.00000E+00
         0.00000E+00
         0.00000E+00
         0.00000E+00
         0.00000E+00
         0.00000E+00
         0.00000E+00
         0.00000E+00
         0.00000E+00
         0.00000E+00
         0.00000E+00
         0.00000E+00
         0.00000E+00
         0.00000E+00
         0.00000E+00
         0.00000E+00
         0.00000E+00
         0.00000E+00
         0.00000E+00
         0.00000E+00
         0.00000E+00
         0.00000E+00
         0.00000E+00
         0.00000E+00
         0.00000E+00
         0.00000E+00
         0.00000E+00
         0.00000E+00
         0.00000E+00
         0.00000E+00
         0.00000E+00
         0.00000E+00
         0.00000E+00
         0.00000E+00
         0.00000E+00
         0.00000E+00
         0.00000E+00
         0.00000E+00
         0.00000E+00
         0.00000E+00
         0.00000E+00
         0.00000E+00
         0.00000E+00
         0.00000E+00
         0.00000E+00
         0.00000E+00
         0.00000E+00
         0.00000E+00
         0.00000E+00
         0.00000E+00
         0.00000E+00
         0.00000E+00
         0.00000E+00
         0.00000E+00
         0.00000E+00
         0.00000E+00
         0.00000E+00
         0.00000E+00
         0.00000E+00
         0.00000E+00
         0.00000E+00
         0.00000E+00
         0.00000E+00
         0.00000E+00
         0.00000E+00
         0.00000E+00
         0.00000E+00
         0.00000E+00
         0.00000E+00
         0.00000E+00
         0.00000E+00
         0.00000E+00
         0.00000E+00
         0.00000E+00
         0.00000E+00
         0.00000E+00
         0.00000E+00
         0.00000E+00
         0.00000E+00
         0.00000E+00
         0.00000E+00
         0.00000E+00
         0.00000E+00
         0.00000E+00
         0.00000E+00
         0.00000E+00
         0.00000E+00
         0.00000E+00
         0.00000E+00
         0.00000E+00
         0.00000E+00
         0.00000E+00
         0.00000E+00
         0.00000E+00
         0.00000E+00
         0.00000E+00
         0.00000E+00
         0.00000E+00
         0.00000E+00
         0.00000E+00
         0.00000E+00
         0.00000E+00
         0.00000E+00
         0.00000E+00
         0.00000E+00
         0.00000E+00
         0.00000E+00
         0.00000E+00
         0.00000E+00
         0.00000E+00
         0.00000E+00
         0.00000E+00
         0.00000E+00
         0.00000E+00
         0.00000E+00
         0.00000E+00
         0.00000E+00
         0.00000E+00
         0.00000E+00
         0.00000E+00
         0.00000E+00
         0.00000E+00
         0.00000E+00
         0.00000E+00
         0.00000E+00
         0.00000E+00
         0.00000E+00
         0.00000E+00
         0.00000E+00
         0.00000E+00
         0.00000E+00
         0.00000E+00
         0.00000E+00
         0.00000E+00
         0.00000E+00
         0.00000E+00
         0.00000E+00
         0.00000E+00
         0.00000E+00
         0.00000E+00
         0.00000E+00
         0.00000E+00
         0.00000E+00
         0.00000E+00
         0.00000E+00
         0.00000E+00
         0.00000E+00
         0.00000E+00
         0.00000E+00
         0.00000E+00
         0.00000E+00
         0.00000E+00
         0.00000E+00
         0.00000E+00
         0.00000E+00
         0.00000E+00
         0.00000E+00
         0.00000E+00
         0.00000E+00
         0.00000E+00
         0.00000E+00
         0.00000E+00
         0.00000E+00
         0.00000E+00
         0.00000E+00
         0.00000E+00
         0.00000E+00
         0.00000E+00
         0.00000E+00
         0.00000E+00
         0.00000E+00
         0.00000E+00
         0.00000E+00
         0.00000E+00
         0.00000E+00
         0.00000E+00
         0.00000E+00
         0.00000E+00
         0.00000E+00
         0.00000E+00
         0.00000E+00
         0.00000E+00
         0.00000E+00
         0.00000E+00
         0.00000E+00
         0.00000E+00
         0.00000E+00
         0.00000E+00
         0.00000E+00
         0.00000E+00
         0.00000E+00
         0.00000E+00
         0.00000E+00
         0.00000E+00
         0.00000E+00
         0.00000E+00
         0.00000E+00
         0.00000E+00
         0.00000E+00
         0.00000E+00
         0.00000E+00
         0.00000E+00
         0.00000E+00
         0.00000E+00
         0.00000E+00
         0.00000E+00
         0.00000E+00
         0.00000E+00
         0.00000E+00
         0.00000E+00
         0.00000E+00
         0.00000E+00
         0.00000E+00
         0.00000E+00
         0.00000E+00
         0.00000E+00
         0.00000E+00
         0.00000E+00
         0.00000E+00
         0.00000E+00
         0.00000E+00
         0.00000E+00
         0.00000E+00
         0.00000E+00
         0.00000E+00
         0.00000E+00
         0.00000E+00
         0.00000E+00
         0.00000E+00
         0.00000E+00
         0.00000E+00
         0.00000E+00
         0.00000E+00
         0.00000E+00
         0.00000E+00
         0.00000E+00
         0.00000E+00
         0.00000E+00
         0.00000E+00
         0.00000E+00
         0.00000E+00
         0.00000E+00
         0.00000E+00
         0.00000E+00
         0.00000E+00
         0.00000E+00
         0.00000E+00
         0.00000E+00
         0.00000E+00
         0.00000E+00
         0.00000E+00
         0.00000E+00
         0.00000E+00
         0.00000E+00
         0.00000E+00
         0.00000E+00
         0.00000E+00
         0.00000E+00
         0.00000E+00
         0.00000E+00
         0.00000E+00
         0.00000E+00
         0.00000E+00
         0.00000E+00
         0.00000E+00
         0.00000E+00
         0.00000E+00
         0.00000E+00
         0.00000E+00
         0.00000E+00
         0.00000E+00
         0.00000E+00
         0.00000E+00
         0.00000E+00
         0.00000E+00
         0.00000E+00
         0.00000E+00
         0.00000E+00
         0.00000E+00
         0.00000E+00
         0.00000E+00
         0.00000E+00
         0.00000E+00
         0.00000E+00
         0.00000E+00
         0.00000E+00
         0.00000E+00
         0.00000E+00
         0.00000E+00
         0.00000E+00
         0.00000E+00
         0.00000E+00
         0.00000E+00
         0.00000E+00
         0.00000E+00
         0.00000E+00
         0.00000E+00
         0.00000E+00
         0.00000E+00
         0.00000E+00
         0.00000E+00
         0.00000E+00
         0.00000E+00
         0.00000E+00
         0.00000E+00
         0.00000E+00
         0.00000E+00
         0.00000E+00
         0.00000E+00
         0.00000E+00
         0.00000E+00
         0.00000E+00
         0.00000E+00
         0.00000E+00
         0.00000E+00
         0.00000E+00
         0.00000E+00
         0.00000E+00
         0.00000E+00
         0.00000E+00
         0.00000E+00
         0.00000E+00
         0.00000E+00
         0.00000E+00
         0.00000E+00
         0.00000E+00
         0.00000E+00
         0.00000E+00
         0.00000E+00
         0.00000E+00
         0.00000E+00
         0.00000E+00
         0.00000E+00
         0.00000E+00
         0.00000E+00
         0.00000E+00
         0.00000E+00
         0.00000E+00
         0.00000E+00
         0.00000E+00
         0.00000E+00
         0.00000E+00
         0.00000E+00
         0.00000E+00
         0.00000E+00
         0.00000E+00
         0.00000E+00
         0.00000E+00
         0.00000E+00
         0.00000E+00
         0.00000E+00
         0.00000E+00
         0.00000E+00
         0.00000E+00
         0.00000E+00
         0.00000E+00
         0.00000E+00
         0.00000E+00
         0.00000E+00
         0.00000E+00
         0.00000E+00
         0.00000E+00
         0.00000E+00
         0.00000E+00
         0.00000E+00
         0.00000E+00
         0.00000E+00
         0.00000E+00
         0.00000E+00
         0.00000E+00
         0.00000E+00
         0.00000E+00
         0.00000E+00
         0.00000E+00
         0.00000E+00
         0.00000E+00
         0.00000E+00
         0.00000E+00
         0.00000E+00
         0.00000E+00
         0.00000E+00
         0.00000E+00
         0.00000E+00
         0.00000E+00
         0.00000E+00
         0.00000E+00
         0.00000E+00
         0.00000E+00
         0.00000E+00
         0.00000E+00
         0.00000E+00
         0.00000E+00
         0.00000E+00
         0.00000E+00
         0.00000E+00
         0.00000E+00
         0.00000E+00
         0.00000E+00
         0.00000E+00
         0.00000E+00
         0.00000E+00
         0.00000E+00
         0.00000E+00
         0.00000E+00
         0.00000E+00
         0.00000E+00
         0.00000E+00
         0.00000E+00
         0.00000E+00
         0.00000E+00
         0.00000E+00
         0.00000E+00
         0.00000E+00
         0.00000E+00
         0.00000E+00
         0.00000E+00
         0.00000E+00
         0.00000E+00
         0.00000E+00
         0.00000E+00
         0.00000E+00
         0.00000E+00
         0.00000E+00
         0.00000E+00
         0.00000E+00
         0.00000E+00
         0.00000E+00
         0.00000E+00
         0.00000E+00
         0.00000E+00
         0.00000E+00
         0.00000E+00
         0.00000E+00
         0.00000E+00
         0.00000E+00
         0.00000E+00
         0.00000E+00
         0.00000E+00
         0.00000E+00
         0.00000E+00
         0.00000E+00
         0.00000E+00
         0.00000E+00
         0.00000E+00
         0.00000E+00
         0.00000E+00
         0.00000E+00
         0.00000E+00
         0.00000E+00
         0.00000E+00
         0.00000E+00
         0.00000E+00
         0.00000E+00
         0.00000E+00
         0.00000E+00
         0.00000E+00
         0.00000E+00
         0.00000E+00
         0.00000E+00
         0.00000E+00
         0.00000E+00
         0.00000E+00
         0.00000E+00
         0.00000E+00
         0.00000E+00
         0.00000E+00
         0.00000E+00
         0.00000E+00
         0.00000E+00
         0.00000E+00
         0.00000E+00
         0.00000E+00
         0.00000E+00
         0.00000E+00
         0.00000E+00
         0.00000E+00
         0.00000E+00
         0.00000E+00
         0.00000E+00
         0.00000E+00
         0.00000E+00
         0.00000E+00
         0.00000E+00
         0.00000E+00
         0.00000E+00
         0.00000E+00
         0.00000E+00
         0.00000E+00
         0.00000E+00
         0.00000E+00
         0.00000E+00
         0.00000E+00
         0.00000E+00
         0.00000E+00
         0.00000E+00
         0.00000E+00
         0.00000E+00
         0.00000E+00
         0.00000E+00
         0.00000E+00
         0.00000E+00
         0.00000E+00
         0.00000E+00
         0.00000E+00
         0.00000E+00
         0.00000E+00
         0.00000E+00
         0.00000E+00
         0.00000E+00
         0.00000E+00
         0.00000E+00
         0.00000E+00
         0.00000E+00
         0.00000E+00
         0.00000E+00
         0.00000E+00
         0.00000E+00
         0.00000E+00
         0.00000E+00
         0.00000E+00
         0.00000E+00
         0.00000E+00
         0.00000E+00
         0.00000E+00
         0.00000E+00
         0.00000E+00
         0.00000E+00
         0.00000E+00
         0.00000E+00
         0.00000E+00
         0.00000E+00
         0.00000E+00
         0.00000E+00
         0.00000E+00
         0.00000E+00
         0.00000E+00
         0.00000E+00
         0.00000E+00
         0.00000E+00
         0.00000E+00
         0.00000E+00
         0.00000E+00
         0.00000E+00
         0.00000E+00
         0.00000E+00
         0.00000E+00
         0.00000E+00
         0.00000E+00
         0.00000E+00
         0.00000E+00
         0.00000E+00
         0.00000E+00
         0.00000E+00
         0.00000E+00
         0.00000E+00
         0.00000E+00
         0.00000E+00
         0.00000E+00
         0.00000E+00
         0.00000E+00
         0.00000E+00
         0.00000E+00
         0.00000E+00
         0.00000E+00
         0.00000E+00
         0.00000E+00
         0.00000E+00
         0.00000E+00
         0.00000E+00
         0.00000E+00
         0.00000E+00
         0.00000E+00
         0.00000E+00
         0.00000E+00
         0.00000E+00
         0.00000E+00
         0.00000E+00
         0.00000E+00
         0.00000E+00
         0.00000E+00
         0.00000E+00
         0.00000E+00
         0.00000E+00
         0.00000E+00
         0.00000E+00
         0.00000E+00
         0.00000E+00
         0.00000E+00
         0.00000E+00
         0.00000E+00
         0.00000E+00
         0.00000E+00
         0.00000E+00
         0.00000E+00
         0.00000E+00
         0.00000E+00
         0.00000E+00
         0.00000E+00
         0.00000E+00
         0.00000E+00
         0.00000E+00
         0.00000E+00
         0.00000E+00
         0.00000E+00
         0.00000E+00
         0.00000E+00
         0.00000E+00
         0.00000E+00
         0.00000E+00
         0.00000E+00
         0.00000E+00
         0.00000E+00
         0.00000E+00
         0.00000E+00
         0.00000E+00
         0.00000E+00
         0.00000E+00
         0.00000E+00
         0.00000E+00
         0.00000E+00
         0.00000E+00
         0.00000E+00
         0.00000E+00
         0.00000E+00
         0.00000E+00
         0.00000E+00
         0.00000E+00
         0.00000E+00
         0.00000E+00
         0.00000E+00
         0.00000E+00
         0.00000E+00
         0.00000E+00
         0.00000E+00
         0.00000E+00
         0.00000E+00
         0.00000E+00
         0.00000E+00
         0.00000E+00
         0.00000E+00
         0.00000E+00
         0.00000E+00
         0.00000E+00
         0.00000E+00
         0.00000E+00
         0.00000E+00
         0.00000E+00
         0.00000E+00
         0.00000E+00
         0.00000E+00
         0.00000E+00
         0.00000E+00
         0.00000E+00
         0.00000E+00
         0.00000E+00
         0.00000E+00
         0.00000E+00
         0.00000E+00
         0.00000E+00
         0.00000E+00
         0.00000E+00
         0.00000E+00
         0.00000E+00
         0.00000E+00
         0.00000E+00
         0.00000E+00
         0.00000E+00
         0.00000E+00
         0.00000E+00
         0.00000E+00
         0.00000E+00
         0.00000E+00
         0.00000E+00
         0.00000E+00
         0.00000E+00
         0.00000E+00
         0.00000E+00
         0.00000E+00
         0.00000E+00
         0.00000E+00
         0.00000E+00
         0.00000E+00
         0.00000E+00
         0.00000E+00
         0.00000E+00
         0.00000E+00
         0.00000E+00
         0.00000E+00
         0.00000E+00
         0.00000E+00
         0.00000E+00
         0.00000E+00
         0.00000E+00
         0.00000E+00
         0.00000E+00
         0.00000E+00
         0.00000E+00
         0.00000E+00
         0.00000E+00
         0.00000E+00
         0.00000E+00
         0.00000E+00
         0.00000E+00
         0.00000E+00
         0.00000E+00
         0.00000E+00
         0.00000E+00
         0.00000E+00
         0.00000E+00
         0.00000E+00
         0.00000E+00
         0.00000E+00
         0.00000E+00
         0.00000E+00
         0.00000E+00
         0.00000E+00
         0.00000E+00
         0.00000E+00
         0.00000E+00
         0.00000E+00
         0.00000E+00
         0.00000E+00
         0.00000E+00
         0.00000E+00
         0.00000E+00
         0.00000E+00
         0.00000E+00
         0.00000E+00
         0.00000E+00
         0.00000E+00
         0.00000E+00
         0.00000E+00
         0.00000E+00
         0.00000E+00
         0.00000E+00
         0.00000E+00
         0.00000E+00
         0.00000E+00
         0.00000E+00
         0.00000E+00
         0.00000E+00
         0.00000E+00
         0.00000E+00
         0.00000E+00
         0.00000E+00
         0.00000E+00
         0.00000E+00
         0.00000E+00
         0.00000E+00
         0.00000E+00
         0.00000E+00
         0.00000E+00
         0.00000E+00
         0.00000E+00
         0.00000E+00
         0.00000E+00
         0.00000E+00
         0.00000E+00
         0.00000E+00
         0.00000E+00
         0.00000E+00
         0.00000E+00
         0.00000E+00
         0.00000E+00
         0.00000E+00
         0.00000E+00
         0.00000E+00
         0.00000E+00
         0.00000E+00
         0.00000E+00
         0.00000E+00
         0.00000E+00
         0.00000E+00
         0.00000E+00
         0.00000E+00
         0.00000E+00
         0.00000E+00
         0.00000E+00
         0.00000E+00
         0.00000E+00
         0.00000E+00
         0.00000E+00
         0.00000E+00
         0.00000E+00
         0.00000E+00
         0.00000E+00
         0.00000E+00
         0.00000E+00
         0.00000E+00
         0.00000E+00
         0.00000E+00
         0.00000E+00
         0.00000E+00
         0.00000E+00
         0.00000E+00
         0.00000E+00
         0.00000E+00
         0.00000E+00
         0.00000E+00
         0.00000E+00
         0.00000E+00
         0.00000E+00
         0.00000E+00
         0.00000E+00
         0.00000E+00
  
SCALARS                      strain_yz  double 1
LOOKUP_TABLE default
         0.00000E+00
         0.00000E+00
         0.00000E+00
         0.00000E+00
         0.00000E+00
         0.00000E+00
         0.00000E+00
         0.00000E+00
         0.00000E+00
         0.00000E+00
         0.00000E+00
         0.00000E+00
         0.00000E+00
         0.00000E+00
         0.00000E+00
         0.00000E+00
         0.00000E+00
         0.00000E+00
         0.00000E+00
         0.00000E+00
         0.00000E+00
         0.00000E+00
         0.00000E+00
         0.00000E+00
         0.00000E+00
         0.00000E+00
         0.00000E+00
         0.00000E+00
         0.00000E+00
         0.00000E+00
         0.00000E+00
         0.00000E+00
         0.00000E+00
         0.00000E+00
         0.00000E+00
         0.00000E+00
         0.00000E+00
         0.00000E+00
         0.00000E+00
         0.00000E+00
         0.00000E+00
         0.00000E+00
         0.00000E+00
         0.00000E+00
         0.00000E+00
         0.00000E+00
         0.00000E+00
         0.00000E+00
         0.00000E+00
         0.00000E+00
         0.00000E+00
         0.00000E+00
         0.00000E+00
         0.00000E+00
         0.00000E+00
         0.00000E+00
         0.00000E+00
         0.00000E+00
         0.00000E+00
         0.00000E+00
         0.00000E+00
         0.00000E+00
         0.00000E+00
         0.00000E+00
         0.00000E+00
         0.00000E+00
         0.00000E+00
         0.00000E+00
         0.00000E+00
         0.00000E+00
         0.00000E+00
         0.00000E+00
         0.00000E+00
         0.00000E+00
         0.00000E+00
         0.00000E+00
         0.00000E+00
         0.00000E+00
         0.00000E+00
         0.00000E+00
         0.00000E+00
         0.00000E+00
         0.00000E+00
         0.00000E+00
         0.00000E+00
         0.00000E+00
         0.00000E+00
         0.00000E+00
         0.00000E+00
         0.00000E+00
         0.00000E+00
         0.00000E+00
         0.00000E+00
         0.00000E+00
         0.00000E+00
         0.00000E+00
         0.00000E+00
         0.00000E+00
         0.00000E+00
         0.00000E+00
         0.00000E+00
         0.00000E+00
         0.00000E+00
         0.00000E+00
         0.00000E+00
         0.00000E+00
         0.00000E+00
         0.00000E+00
         0.00000E+00
         0.00000E+00
         0.00000E+00
         0.00000E+00
         0.00000E+00
         0.00000E+00
         0.00000E+00
         0.00000E+00
         0.00000E+00
         0.00000E+00
         0.00000E+00
         0.00000E+00
         0.00000E+00
         0.00000E+00
         0.00000E+00
         0.00000E+00
         0.00000E+00
         0.00000E+00
         0.00000E+00
         0.00000E+00
         0.00000E+00
         0.00000E+00
         0.00000E+00
         0.00000E+00
         0.00000E+00
         0.00000E+00
         0.00000E+00
         0.00000E+00
         0.00000E+00
         0.00000E+00
         0.00000E+00
         0.00000E+00
         0.00000E+00
         0.00000E+00
         0.00000E+00
         0.00000E+00
         0.00000E+00
         0.00000E+00
         0.00000E+00
         0.00000E+00
         0.00000E+00
         0.00000E+00
         0.00000E+00
         0.00000E+00
         0.00000E+00
         0.00000E+00
         0.00000E+00
         0.00000E+00
         0.00000E+00
         0.00000E+00
         0.00000E+00
         0.00000E+00
         0.00000E+00
         0.00000E+00
         0.00000E+00
         0.00000E+00
         0.00000E+00
         0.00000E+00
         0.00000E+00
         0.00000E+00
         0.00000E+00
         0.00000E+00
         0.00000E+00
         0.00000E+00
         0.00000E+00
         0.00000E+00
         0.00000E+00
         0.00000E+00
         0.00000E+00
         0.00000E+00
         0.00000E+00
         0.00000E+00
         0.00000E+00
         0.00000E+00
         0.00000E+00
         0.00000E+00
         0.00000E+00
         0.00000E+00
         0.00000E+00
         0.00000E+00
         0.00000E+00
         0.00000E+00
         0.00000E+00
         0.00000E+00
         0.00000E+00
         0.00000E+00
         0.00000E+00
         0.00000E+00
         0.00000E+00
         0.00000E+00
         0.00000E+00
         0.00000E+00
         0.00000E+00
         0.00000E+00
         0.00000E+00
         0.00000E+00
         0.00000E+00
         0.00000E+00
         0.00000E+00
         0.00000E+00
         0.00000E+00
         0.00000E+00
         0.00000E+00
         0.00000E+00
         0.00000E+00
         0.00000E+00
         0.00000E+00
         0.00000E+00
         0.00000E+00
         0.00000E+00
         0.00000E+00
         0.00000E+00
         0.00000E+00
         0.00000E+00
         0.00000E+00
         0.00000E+00
         0.00000E+00
         0.00000E+00
         0.00000E+00
         0.00000E+00
         0.00000E+00
         0.00000E+00
         0.00000E+00
         0.00000E+00
         0.00000E+00
         0.00000E+00
         0.00000E+00
         0.00000E+00
         0.00000E+00
         0.00000E+00
         0.00000E+00
         0.00000E+00
         0.00000E+00
         0.00000E+00
         0.00000E+00
         0.00000E+00
         0.00000E+00
         0.00000E+00
         0.00000E+00
         0.00000E+00
         0.00000E+00
         0.00000E+00
         0.00000E+00
         0.00000E+00
         0.00000E+00
         0.00000E+00
         0.00000E+00
         0.00000E+00
         0.00000E+00
         0.00000E+00
         0.00000E+00
         0.00000E+00
         0.00000E+00
         0.00000E+00
         0.00000E+00
         0.00000E+00
         0.00000E+00
         0.00000E+00
         0.00000E+00
         0.00000E+00
         0.00000E+00
         0.00000E+00
         0.00000E+00
         0.00000E+00
         0.00000E+00
         0.00000E+00
         0.00000E+00
         0.00000E+00
         0.00000E+00
         0.00000E+00
         0.00000E+00
         0.00000E+00
         0.00000E+00
         0.00000E+00
         0.00000E+00
         0.00000E+00
         0.00000E+00
         0.00000E+00
         0.00000E+00
         0.00000E+00
         0.00000E+00
         0.00000E+00
         0.00000E+00
         0.00000E+00
         0.00000E+00
         0.00000E+00
         0.00000E+00
         0.00000E+00
         0.00000E+00
         0.00000E+00
         0.00000E+00
         0.00000E+00
         0.00000E+00
         0.00000E+00
         0.00000E+00
         0.00000E+00
         0.00000E+00
         0.00000E+00
         0.00000E+00
         0.00000E+00
         0.00000E+00
         0.00000E+00
         0.00000E+00
         0.00000E+00
         0.00000E+00
         0.00000E+00
         0.00000E+00
         0.00000E+00
         0.00000E+00
         0.00000E+00
         0.00000E+00
         0.00000E+00
         0.00000E+00
         0.00000E+00
         0.00000E+00
         0.00000E+00
         0.00000E+00
         0.00000E+00
         0.00000E+00
         0.00000E+00
         0.00000E+00
         0.00000E+00
         0.00000E+00
         0.00000E+00
         0.00000E+00
         0.00000E+00
         0.00000E+00
         0.00000E+00
         0.00000E+00
         0.00000E+00
         0.00000E+00
         0.00000E+00
         0.00000E+00
         0.00000E+00
         0.00000E+00
         0.00000E+00
         0.00000E+00
         0.00000E+00
         0.00000E+00
         0.00000E+00
         0.00000E+00
         0.00000E+00
         0.00000E+00
         0.00000E+00
         0.00000E+00
         0.00000E+00
         0.00000E+00
         0.00000E+00
         0.00000E+00
         0.00000E+00
         0.00000E+00
         0.00000E+00
         0.00000E+00
         0.00000E+00
         0.00000E+00
         0.00000E+00
         0.00000E+00
         0.00000E+00
         0.00000E+00
         0.00000E+00
         0.00000E+00
         0.00000E+00
         0.00000E+00
         0.00000E+00
         0.00000E+00
         0.00000E+00
         0.00000E+00
         0.00000E+00
         0.00000E+00
         0.00000E+00
         0.00000E+00
         0.00000E+00
         0.00000E+00
         0.00000E+00
         0.00000E+00
         0.00000E+00
         0.00000E+00
         0.00000E+00
         0.00000E+00
         0.00000E+00
         0.00000E+00
         0.00000E+00
         0.00000E+00
         0.00000E+00
         0.00000E+00
         0.00000E+00
         0.00000E+00
         0.00000E+00
         0.00000E+00
         0.00000E+00
         0.00000E+00
         0.00000E+00
         0.00000E+00
         0.00000E+00
         0.00000E+00
         0.00000E+00
         0.00000E+00
         0.00000E+00
         0.00000E+00
         0.00000E+00
         0.00000E+00
         0.00000E+00
         0.00000E+00
         0.00000E+00
         0.00000E+00
         0.00000E+00
         0.00000E+00
         0.00000E+00
         0.00000E+00
         0.00000E+00
         0.00000E+00
         0.00000E+00
         0.00000E+00
         0.00000E+00
         0.00000E+00
         0.00000E+00
         0.00000E+00
         0.00000E+00
         0.00000E+00
         0.00000E+00
         0.00000E+00
         0.00000E+00
         0.00000E+00
         0.00000E+00
         0.00000E+00
         0.00000E+00
         0.00000E+00
         0.00000E+00
         0.00000E+00
         0.00000E+00
         0.00000E+00
         0.00000E+00
         0.00000E+00
         0.00000E+00
         0.00000E+00
         0.00000E+00
         0.00000E+00
         0.00000E+00
         0.00000E+00
         0.00000E+00
         0.00000E+00
         0.00000E+00
         0.00000E+00
         0.00000E+00
         0.00000E+00
         0.00000E+00
         0.00000E+00
         0.00000E+00
         0.00000E+00
         0.00000E+00
         0.00000E+00
         0.00000E+00
         0.00000E+00
         0.00000E+00
         0.00000E+00
         0.00000E+00
         0.00000E+00
         0.00000E+00
         0.00000E+00
         0.00000E+00
         0.00000E+00
         0.00000E+00
         0.00000E+00
         0.00000E+00
         0.00000E+00
         0.00000E+00
         0.00000E+00
         0.00000E+00
         0.00000E+00
         0.00000E+00
         0.00000E+00
         0.00000E+00
         0.00000E+00
         0.00000E+00
         0.00000E+00
         0.00000E+00
         0.00000E+00
         0.00000E+00
         0.00000E+00
         0.00000E+00
         0.00000E+00
         0.00000E+00
         0.00000E+00
         0.00000E+00
         0.00000E+00
         0.00000E+00
         0.00000E+00
         0.00000E+00
         0.00000E+00
         0.00000E+00
         0.00000E+00
         0.00000E+00
         0.00000E+00
         0.00000E+00
         0.00000E+00
         0.00000E+00
         0.00000E+00
         0.00000E+00
         0.00000E+00
         0.00000E+00
         0.00000E+00
         0.00000E+00
         0.00000E+00
         0.00000E+00
         0.00000E+00
         0.00000E+00
         0.00000E+00
         0.00000E+00
         0.00000E+00
         0.00000E+00
         0.00000E+00
         0.00000E+00
         0.00000E+00
         0.00000E+00
         0.00000E+00
         0.00000E+00
         0.00000E+00
         0.00000E+00
         0.00000E+00
         0.00000E+00
         0.00000E+00
         0.00000E+00
         0.00000E+00
         0.00000E+00
         0.00000E+00
         0.00000E+00
         0.00000E+00
         0.00000E+00
         0.00000E+00
         0.00000E+00
         0.00000E+00
         0.00000E+00
         0.00000E+00
         0.00000E+00
         0.00000E+00
         0.00000E+00
         0.00000E+00
         0.00000E+00
         0.00000E+00
         0.00000E+00
         0.00000E+00
         0.00000E+00
         0.00000E+00
         0.00000E+00
         0.00000E+00
         0.00000E+00
         0.00000E+00
         0.00000E+00
         0.00000E+00
         0.00000E+00
         0.00000E+00
         0.00000E+00
         0.00000E+00
         0.00000E+00
         0.00000E+00
         0.00000E+00
         0.00000E+00
         0.00000E+00
         0.00000E+00
         0.00000E+00
         0.00000E+00
         0.00000E+00
         0.00000E+00
         0.00000E+00
         0.00000E+00
         0.00000E+00
         0.00000E+00
         0.00000E+00
         0.00000E+00
         0.00000E+00
         0.00000E+00
         0.00000E+00
         0.00000E+00
         0.00000E+00
         0.00000E+00
         0.00000E+00
         0.00000E+00
         0.00000E+00
         0.00000E+00
         0.00000E+00
         0.00000E+00
         0.00000E+00
         0.00000E+00
         0.00000E+00
         0.00000E+00
         0.00000E+00
         0.00000E+00
         0.00000E+00
         0.00000E+00
         0.00000E+00
         0.00000E+00
         0.00000E+00
         0.00000E+00
         0.00000E+00
         0.00000E+00
         0.00000E+00
         0.00000E+00
         0.00000E+00
         0.00000E+00
         0.00000E+00
         0.00000E+00
         0.00000E+00
         0.00000E+00
         0.00000E+00
         0.00000E+00
         0.00000E+00
         0.00000E+00
         0.00000E+00
         0.00000E+00
         0.00000E+00
         0.00000E+00
         0.00000E+00
         0.00000E+00
         0.00000E+00
         0.00000E+00
         0.00000E+00
         0.00000E+00
         0.00000E+00
         0.00000E+00
         0.00000E+00
         0.00000E+00
         0.00000E+00
         0.00000E+00
         0.00000E+00
         0.00000E+00
         0.00000E+00
         0.00000E+00
         0.00000E+00
         0.00000E+00
         0.00000E+00
         0.00000E+00
         0.00000E+00
         0.00000E+00
         0.00000E+00
         0.00000E+00
         0.00000E+00
         0.00000E+00
         0.00000E+00
         0.00000E+00
         0.00000E+00
         0.00000E+00
         0.00000E+00
         0.00000E+00
         0.00000E+00
         0.00000E+00
         0.00000E+00
         0.00000E+00
         0.00000E+00
         0.00000E+00
         0.00000E+00
         0.00000E+00
         0.00000E+00
         0.00000E+00
         0.00000E+00
         0.00000E+00
         0.00000E+00
         0.00000E+00
         0.00000E+00
         0.00000E+00
         0.00000E+00
         0.00000E+00
         0.00000E+00
         0.00000E+00
         0.00000E+00
         0.00000E+00
         0.00000E+00
         0.00000E+00
         0.00000E+00
         0.00000E+00
         0.00000E+00
         0.00000E+00
         0.00000E+00
         0.00000E+00
         0.00000E+00
         0.00000E+00
         0.00000E+00
         0.00000E+00
         0.00000E+00
         0.00000E+00
         0.00000E+00
         0.00000E+00
         0.00000E+00
         0.00000E+00
         0.00000E+00
         0.00000E+00
         0.00000E+00
         0.00000E+00
         0.00000E+00
         0.00000E+00
         0.00000E+00
         0.00000E+00
         0.00000E+00
         0.00000E+00
         0.00000E+00
         0.00000E+00
         0.00000E+00
         0.00000E+00
         0.00000E+00
         0.00000E+00
         0.00000E+00
         0.00000E+00
         0.00000E+00
         0.00000E+00
         0.00000E+00
         0.00000E+00
         0.00000E+00
         0.00000E+00
         0.00000E+00
         0.00000E+00
         0.00000E+00
         0.00000E+00
         0.00000E+00
         0.00000E+00
         0.00000E+00
         0.00000E+00
         0.00000E+00
         0.00000E+00
         0.00000E+00
         0.00000E+00
         0.00000E+00
         0.00000E+00
         0.00000E+00
         0.00000E+00
         0.00000E+00
         0.00000E+00
         0.00000E+00
         0.00000E+00
         0.00000E+00
         0.00000E+00
         0.00000E+00
         0.00000E+00
         0.00000E+00
         0.00000E+00
         0.00000E+00
         0.00000E+00
         0.00000E+00
         0.00000E+00
         0.00000E+00
         0.00000E+00
         0.00000E+00
         0.00000E+00
         0.00000E+00
         0.00000E+00
         0.00000E+00
         0.00000E+00
         0.00000E+00
         0.00000E+00
         0.00000E+00
         0.00000E+00
         0.00000E+00
         0.00000E+00
         0.00000E+00
         0.00000E+00
         0.00000E+00
         0.00000E+00
         0.00000E+00
         0.00000E+00
         0.00000E+00
         0.00000E+00
         0.00000E+00
         0.00000E+00
         0.00000E+00
         0.00000E+00
         0.00000E+00
         0.00000E+00
         0.00000E+00
         0.00000E+00
         0.00000E+00
         0.00000E+00
         0.00000E+00
         0.00000E+00
         0.00000E+00
         0.00000E+00
         0.00000E+00
         0.00000E+00
         0.00000E+00
         0.00000E+00
         0.00000E+00
         0.00000E+00
         0.00000E+00
         0.00000E+00
         0.00000E+00
         0.00000E+00
         0.00000E+00
         0.00000E+00
         0.00000E+00
         0.00000E+00
         0.00000E+00
         0.00000E+00
         0.00000E+00
         0.00000E+00
         0.00000E+00
         0.00000E+00
         0.00000E+00
         0.00000E+00
         0.00000E+00
         0.00000E+00
         0.00000E+00
         0.00000E+00
         0.00000E+00
         0.00000E+00
         0.00000E+00
         0.00000E+00
         0.00000E+00
         0.00000E+00
         0.00000E+00
         0.00000E+00
         0.00000E+00
         0.00000E+00
         0.00000E+00
         0.00000E+00
         0.00000E+00
         0.00000E+00
         0.00000E+00
         0.00000E+00
         0.00000E+00
         0.00000E+00
         0.00000E+00
         0.00000E+00
         0.00000E+00
         0.00000E+00
         0.00000E+00
         0.00000E+00
         0.00000E+00
         0.00000E+00
         0.00000E+00
         0.00000E+00
         0.00000E+00
         0.00000E+00
         0.00000E+00
         0.00000E+00
         0.00000E+00
         0.00000E+00
         0.00000E+00
         0.00000E+00
         0.00000E+00
         0.00000E+00
         0.00000E+00
         0.00000E+00
         0.00000E+00
         0.00000E+00
         0.00000E+00
         0.00000E+00
         0.00000E+00
         0.00000E+00
         0.00000E+00
         0.00000E+00
         0.00000E+00
         0.00000E+00
         0.00000E+00
         0.00000E+00
         0.00000E+00
         0.00000E+00
         0.00000E+00
         0.00000E+00
         0.00000E+00
         0.00000E+00
         0.00000E+00
         0.00000E+00
         0.00000E+00
         0.00000E+00
         0.00000E+00
         0.00000E+00
         0.00000E+00
         0.00000E+00
         0.00000E+00
         0.00000E+00
         0.00000E+00
         0.00000E+00
         0.00000E+00
         0.00000E+00
         0.00000E+00
         0.00000E+00
         0.00000E+00
         0.00000E+00
         0.00000E+00
         0.00000E+00
         0.00000E+00
         0.00000E+00
         0.00000E+00
         0.00000E+00
         0.00000E+00
         0.00000E+00
         0.00000E+00
         0.00000E+00
         0.00000E+00
         0.00000E+00
         0.00000E+00
         0.00000E+00
         0.00000E+00
         0.00000E+00
         0.00000E+00
         0.00000E+00
         0.00000E+00
         0.00000E+00
         0.00000E+00
         0.00000E+00
         0.00000E+00
         0.00000E+00
         0.00000E+00
         0.00000E+00
         0.00000E+00
         0.00000E+00
         0.00000E+00
         0.00000E+00
         0.00000E+00
         0.00000E+00
         0.00000E+00
         0.00000E+00
         0.00000E+00
         0.00000E+00
         0.00000E+00
         0.00000E+00
         0.00000E+00
         0.00000E+00
         0.00000E+00
         0.00000E+00
         0.00000E+00
         0.00000E+00
         0.00000E+00
         0.00000E+00
         0.00000E+00
         0.00000E+00
         0.00000E+00
         0.00000E+00
         0.00000E+00
         0.00000E+00
         0.00000E+00
         0.00000E+00
         0.00000E+00
         0.00000E+00
         0.00000E+00
         0.00000E+00
         0.00000E+00
         0.00000E+00
         0.00000E+00
         0.00000E+00
         0.00000E+00
         0.00000E+00
         0.00000E+00
         0.00000E+00
         0.00000E+00
         0.00000E+00
         0.00000E+00
         0.00000E+00
         0.00000E+00
         0.00000E+00
         0.00000E+00
         0.00000E+00
         0.00000E+00
         0.00000E+00
         0.00000E+00
         0.00000E+00
         0.00000E+00
         0.00000E+00
         0.00000E+00
         0.00000E+00
         0.00000E+00
         0.00000E+00
         0.00000E+00
         0.00000E+00
         0.00000E+00
         0.00000E+00
         0.00000E+00
         0.00000E+00
         0.00000E+00
         0.00000E+00
         0.00000E+00
         0.00000E+00
         0.00000E+00
         0.00000E+00
         0.00000E+00
         0.00000E+00
         0.00000E+00
         0.00000E+00
         0.00000E+00
         0.00000E+00
         0.00000E+00
         0.00000E+00
         0.00000E+00
         0.00000E+00
         0.00000E+00
         0.00000E+00
         0.00000E+00
         0.00000E+00
         0.00000E+00
         0.00000E+00
         0.00000E+00
         0.00000E+00
         0.00000E+00
         0.00000E+00
         0.00000E+00
         0.00000E+00
         0.00000E+00
         0.00000E+00
         0.00000E+00
         0.00000E+00
         0.00000E+00
         0.00000E+00
         0.00000E+00
         0.00000E+00
         0.00000E+00
         0.00000E+00
         0.00000E+00
         0.00000E+00
         0.00000E+00
         0.00000E+00
         0.00000E+00
         0.00000E+00
         0.00000E+00
         0.00000E+00
         0.00000E+00
         0.00000E+00
         0.00000E+00
         0.00000E+00
         0.00000E+00
         0.00000E+00
         0.00000E+00
         0.00000E+00
         0.00000E+00
         0.00000E+00
         0.00000E+00
         0.00000E+00
         0.00000E+00
         0.00000E+00
         0.00000E+00
         0.00000E+00
         0.00000E+00
         0.00000E+00
         0.00000E+00
         0.00000E+00
         0.00000E+00
         0.00000E+00
         0.00000E+00
         0.00000E+00
         0.00000E+00
         0.00000E+00
         0.00000E+00
         0.00000E+00
         0.00000E+00
         0.00000E+00
         0.00000E+00
         0.00000E+00
         0.00000E+00
         0.00000E+00
         0.00000E+00
         0.00000E+00
         0.00000E+00
         0.00000E+00
         0.00000E+00
         0.00000E+00
         0.00000E+00
         0.00000E+00
         0.00000E+00
         0.00000E+00
         0.00000E+00
         0.00000E+00
         0.00000E+00
         0.00000E+00
         0.00000E+00
         0.00000E+00
         0.00000E+00
         0.00000E+00
         0.00000E+00
         0.00000E+00
         0.00000E+00
         0.00000E+00
         0.00000E+00
         0.00000E+00
         0.00000E+00
         0.00000E+00
         0.00000E+00
         0.00000E+00
         0.00000E+00
         0.00000E+00
         0.00000E+00
         0.00000E+00
         0.00000E+00
         0.00000E+00
         0.00000E+00
         0.00000E+00
         0.00000E+00
         0.00000E+00
         0.00000E+00
         0.00000E+00
         0.00000E+00
         0.00000E+00
         0.00000E+00
         0.00000E+00
         0.00000E+00
         0.00000E+00
         0.00000E+00
         0.00000E+00
         0.00000E+00
         0.00000E+00
         0.00000E+00
         0.00000E+00
         0.00000E+00
         0.00000E+00
         0.00000E+00
         0.00000E+00
         0.00000E+00
         0.00000E+00
         0.00000E+00
         0.00000E+00
         0.00000E+00
         0.00000E+00
         0.00000E+00
         0.00000E+00
         0.00000E+00
         0.00000E+00
         0.00000E+00
         0.00000E+00
         0.00000E+00
         0.00000E+00
         0.00000E+00
         0.00000E+00
         0.00000E+00
         0.00000E+00
         0.00000E+00
         0.00000E+00
         0.00000E+00
         0.00000E+00
         0.00000E+00
         0.00000E+00
         0.00000E+00
         0.00000E+00
         0.00000E+00
         0.00000E+00
         0.00000E+00
         0.00000E+00
         0.00000E+00
         0.00000E+00
         0.00000E+00
         0.00000E+00
         0.00000E+00
         0.00000E+00
         0.00000E+00
         0.00000E+00
         0.00000E+00
         0.00000E+00
         0.00000E+00
         0.00000E+00
         0.00000E+00
         0.00000E+00
         0.00000E+00
         0.00000E+00
         0.00000E+00
         0.00000E+00
         0.00000E+00
         0.00000E+00
         0.00000E+00
         0.00000E+00
         0.00000E+00
         0.00000E+00
         0.00000E+00
         0.00000E+00
         0.00000E+00
         0.00000E+00
         0.00000E+00
         0.00000E+00
         0.00000E+00
         0.00000E+00
         0.00000E+00
         0.00000E+00
         0.00000E+00
         0.00000E+00
         0.00000E+00
         0.00000E+00
         0.00000E+00
         0.00000E+00
         0.00000E+00
         0.00000E+00
         0.00000E+00
         0.00000E+00
         0.00000E+00
         0.00000E+00
         0.00000E+00
         0.00000E+00
         0.00000E+00
         0.00000E+00
         0.00000E+00
         0.00000E+00
         0.00000E+00
         0.00000E+00
         0.00000E+00
         0.00000E+00
         0.00000E+00
         0.00000E+00
         0.00000E+00
         0.00000E+00
         0.00000E+00
         0.00000E+00
         0.00000E+00
         0.00000E+00
         0.00000E+00
         0.00000E+00
         0.00000E+00
         0.00000E+00
         0.00000E+00
         0.00000E+00
         0.00000E+00
         0.00000E+00
         0.00000E+00
         0.00000E+00
         0.00000E+00
         0.00000E+00
         0.00000E+00
         0.00000E+00
         0.00000E+00
         0.00000E+00
         0.00000E+00
         0.00000E+00
         0.00000E+00
         0.00000E+00
         0.00000E+00
         0.00000E+00
         0.00000E+00
         0.00000E+00
         0.00000E+00
         0.00000E+00
         0.00000E+00
         0.00000E+00
         0.00000E+00
         0.00000E+00
         0.00000E+00
         0.00000E+00
         0.00000E+00
         0.00000E+00
         0.00000E+00
         0.00000E+00
         0.00000E+00
         0.00000E+00
         0.00000E+00
         0.00000E+00
         0.00000E+00
         0.00000E+00
         0.00000E+00
         0.00000E+00
         0.00000E+00
         0.00000E+00
         0.00000E+00
         0.00000E+00
         0.00000E+00
         0.00000E+00
         0.00000E+00
         0.00000E+00
         0.00000E+00
         0.00000E+00
         0.00000E+00
         0.00000E+00
         0.00000E+00
         0.00000E+00
         0.00000E+00
         0.00000E+00
         0.00000E+00
         0.00000E+00
         0.00000E+00
         0.00000E+00
         0.00000E+00
         0.00000E+00
         0.00000E+00
         0.00000E+00
         0.00000E+00
         0.00000E+00
         0.00000E+00
         0.00000E+00
         0.00000E+00
         0.00000E+00
         0.00000E+00
         0.00000E+00
         0.00000E+00
         0.00000E+00
         0.00000E+00
         0.00000E+00
         0.00000E+00
         0.00000E+00
         0.00000E+00
         0.00000E+00
         0.00000E+00
         0.00000E+00
         0.00000E+00
         0.00000E+00
         0.00000E+00
         0.00000E+00
         0.00000E+00
         0.00000E+00
         0.00000E+00
         0.00000E+00
         0.00000E+00
         0.00000E+00
         0.00000E+00
         0.00000E+00
         0.00000E+00
         0.00000E+00
         0.00000E+00
         0.00000E+00
         0.00000E+00
         0.00000E+00
         0.00000E+00
         0.00000E+00
         0.00000E+00
         0.00000E+00
         0.00000E+00
         0.00000E+00
         0.00000E+00
         0.00000E+00
         0.00000E+00
         0.00000E+00
         0.00000E+00
         0.00000E+00
         0.00000E+00
         0.00000E+00
         0.00000E+00
         0.00000E+00
         0.00000E+00
         0.00000E+00
         0.00000E+00
         0.00000E+00
         0.00000E+00
         0.00000E+00
         0.00000E+00
         0.00000E+00
         0.00000E+00
         0.00000E+00
         0.00000E+00
         0.00000E+00
         0.00000E+00
         0.00000E+00
         0.00000E+00
         0.00000E+00
         0.00000E+00
         0.00000E+00
         0.00000E+00
         0.00000E+00
         0.00000E+00
         0.00000E+00
         0.00000E+00
         0.00000E+00
         0.00000E+00
         0.00000E+00
         0.00000E+00
         0.00000E+00
         0.00000E+00
         0.00000E+00
         0.00000E+00
         0.00000E+00
         0.00000E+00
         0.00000E+00
         0.00000E+00
         0.00000E+00
         0.00000E+00
         0.00000E+00
         0.00000E+00
         0.00000E+00
         0.00000E+00
         0.00000E+00
         0.00000E+00
         0.00000E+00
         0.00000E+00
         0.00000E+00
         0.00000E+00
         0.00000E+00
         0.00000E+00
         0.00000E+00
         0.00000E+00
         0.00000E+00
         0.00000E+00
         0.00000E+00
         0.00000E+00
         0.00000E+00
         0.00000E+00
         0.00000E+00
         0.00000E+00
         0.00000E+00
         0.00000E+00
         0.00000E+00
         0.00000E+00
         0.00000E+00
         0.00000E+00
         0.00000E+00
         0.00000E+00
         0.00000E+00
         0.00000E+00
         0.00000E+00
         0.00000E+00
         0.00000E+00
         0.00000E+00
         0.00000E+00
         0.00000E+00
         0.00000E+00
         0.00000E+00
         0.00000E+00
         0.00000E+00
         0.00000E+00
         0.00000E+00
         0.00000E+00
         0.00000E+00
         0.00000E+00
         0.00000E+00
         0.00000E+00
         0.00000E+00
         0.00000E+00
         0.00000E+00
         0.00000E+00
         0.00000E+00
         0.00000E+00
         0.00000E+00
         0.00000E+00
         0.00000E+00
         0.00000E+00
         0.00000E+00
         0.00000E+00
         0.00000E+00
         0.00000E+00
         0.00000E+00
         0.00000E+00
         0.00000E+00
         0.00000E+00
         0.00000E+00
         0.00000E+00
         0.00000E+00
         0.00000E+00
         0.00000E+00
         0.00000E+00
         0.00000E+00
         0.00000E+00
         0.00000E+00
         0.00000E+00
         0.00000E+00
         0.00000E+00
         0.00000E+00
         0.00000E+00
         0.00000E+00
         0.00000E+00
         0.00000E+00
         0.00000E+00
         0.00000E+00
         0.00000E+00
         0.00000E+00
         0.00000E+00
         0.00000E+00
         0.00000E+00
         0.00000E+00
         0.00000E+00
         0.00000E+00
         0.00000E+00
         0.00000E+00
         0.00000E+00
         0.00000E+00
         0.00000E+00
         0.00000E+00
         0.00000E+00
         0.00000E+00
         0.00000E+00
         0.00000E+00
         0.00000E+00
         0.00000E+00
         0.00000E+00
         0.00000E+00
         0.00000E+00
         0.00000E+00
         0.00000E+00
         0.00000E+00
         0.00000E+00
         0.00000E+00
         0.00000E+00
         0.00000E+00
         0.00000E+00
         0.00000E+00
         0.00000E+00
         0.00000E+00
         0.00000E+00
         0.00000E+00
         0.00000E+00
         0.00000E+00
         0.00000E+00
         0.00000E+00
         0.00000E+00
         0.00000E+00
         0.00000E+00
         0.00000E+00
         0.00000E+00
         0.00000E+00
         0.00000E+00
         0.00000E+00
         0.00000E+00
         0.00000E+00
         0.00000E+00
         0.00000E+00
         0.00000E+00
         0.00000E+00
         0.00000E+00
         0.00000E+00
         0.00000E+00
         0.00000E+00
         0.00000E+00
         0.00000E+00
         0.00000E+00
         0.00000E+00
         0.00000E+00
         0.00000E+00
         0.00000E+00
         0.00000E+00
         0.00000E+00
         0.00000E+00
         0.00000E+00
         0.00000E+00
         0.00000E+00
         0.00000E+00
         0.00000E+00
         0.00000E+00
         0.00000E+00
         0.00000E+00
         0.00000E+00
         0.00000E+00
         0.00000E+00
         0.00000E+00
         0.00000E+00
         0.00000E+00
         0.00000E+00
         0.00000E+00
         0.00000E+00
         0.00000E+00
         0.00000E+00
         0.00000E+00
         0.00000E+00
         0.00000E+00
         0.00000E+00
         0.00000E+00
         0.00000E+00
         0.00000E+00
         0.00000E+00
         0.00000E+00
         0.00000E+00
         0.00000E+00
         0.00000E+00
         0.00000E+00
         0.00000E+00
         0.00000E+00
         0.00000E+00
         0.00000E+00
         0.00000E+00
         0.00000E+00
         0.00000E+00
         0.00000E+00
         0.00000E+00
         0.00000E+00
         0.00000E+00
         0.00000E+00
         0.00000E+00
         0.00000E+00
         0.00000E+00
         0.00000E+00
         0.00000E+00
         0.00000E+00
         0.00000E+00
         0.00000E+00
         0.00000E+00
         0.00000E+00
         0.00000E+00
         0.00000E+00
         0.00000E+00
         0.00000E+00
         0.00000E+00
         0.00000E+00
         0.00000E+00
         0.00000E+00
         0.00000E+00
         0.00000E+00
         0.00000E+00
         0.00000E+00
         0.00000E+00
         0.00000E+00
         0.00000E+00
         0.00000E+00
         0.00000E+00
         0.00000E+00
         0.00000E+00
         0.00000E+00
         0.00000E+00
         0.00000E+00
         0.00000E+00
         0.00000E+00
         0.00000E+00
         0.00000E+00
         0.00000E+00
         0.00000E+00
         0.00000E+00
         0.00000E+00
         0.00000E+00
         0.00000E+00
         0.00000E+00
         0.00000E+00
         0.00000E+00
         0.00000E+00
         0.00000E+00
         0.00000E+00
         0.00000E+00
         0.00000E+00
         0.00000E+00
         0.00000E+00
         0.00000E+00
         0.00000E+00
         0.00000E+00
         0.00000E+00
         0.00000E+00
         0.00000E+00
         0.00000E+00
         0.00000E+00
         0.00000E+00
         0.00000E+00
         0.00000E+00
         0.00000E+00
         0.00000E+00
         0.00000E+00
         0.00000E+00
         0.00000E+00
         0.00000E+00
         0.00000E+00
         0.00000E+00
         0.00000E+00
         0.00000E+00
         0.00000E+00
         0.00000E+00
         0.00000E+00
         0.00000E+00
         0.00000E+00
         0.00000E+00
         0.00000E+00
         0.00000E+00
         0.00000E+00
         0.00000E+00
         0.00000E+00
         0.00000E+00
         0.00000E+00
         0.00000E+00
         0.00000E+00
         0.00000E+00
         0.00000E+00
         0.00000E+00
         0.00000E+00
         0.00000E+00
         0.00000E+00
         0.00000E+00
         0.00000E+00
         0.00000E+00
         0.00000E+00
         0.00000E+00
         0.00000E+00
         0.00000E+00
         0.00000E+00
         0.00000E+00
         0.00000E+00
         0.00000E+00
         0.00000E+00
         0.00000E+00
         0.00000E+00
         0.00000E+00
         0.00000E+00
         0.00000E+00
         0.00000E+00
         0.00000E+00
         0.00000E+00
         0.00000E+00
         0.00000E+00
         0.00000E+00
         0.00000E+00
         0.00000E+00
         0.00000E+00
         0.00000E+00
         0.00000E+00
         0.00000E+00
         0.00000E+00
         0.00000E+00
         0.00000E+00
         0.00000E+00
         0.00000E+00
         0.00000E+00
         0.00000E+00
         0.00000E+00
         0.00000E+00
         0.00000E+00
         0.00000E+00
         0.00000E+00
         0.00000E+00
         0.00000E+00
         0.00000E+00
         0.00000E+00
         0.00000E+00
         0.00000E+00
         0.00000E+00
         0.00000E+00
         0.00000E+00
         0.00000E+00
         0.00000E+00
         0.00000E+00
         0.00000E+00
         0.00000E+00
         0.00000E+00
         0.00000E+00
         0.00000E+00
         0.00000E+00
         0.00000E+00
         0.00000E+00
         0.00000E+00
         0.00000E+00
         0.00000E+00
         0.00000E+00
         0.00000E+00
         0.00000E+00
         0.00000E+00
         0.00000E+00
         0.00000E+00
         0.00000E+00
         0.00000E+00
         0.00000E+00
         0.00000E+00
         0.00000E+00
         0.00000E+00
         0.00000E+00
         0.00000E+00
         0.00000E+00
         0.00000E+00
         0.00000E+00
         0.00000E+00
         0.00000E+00
         0.00000E+00
         0.00000E+00
         0.00000E+00
         0.00000E+00
         0.00000E+00
         0.00000E+00
         0.00000E+00
         0.00000E+00
         0.00000E+00
         0.00000E+00
         0.00000E+00
         0.00000E+00
         0.00000E+00
         0.00000E+00
         0.00000E+00
         0.00000E+00
         0.00000E+00
         0.00000E+00
         0.00000E+00
         0.00000E+00
         0.00000E+00
         0.00000E+00
         0.00000E+00
         0.00000E+00
         0.00000E+00
         0.00000E+00
         0.00000E+00
         0.00000E+00
         0.00000E+00
         0.00000E+00
         0.00000E+00
         0.00000E+00
         0.00000E+00
         0.00000E+00
         0.00000E+00
         0.00000E+00
         0.00000E+00
         0.00000E+00
         0.00000E+00
         0.00000E+00
         0.00000E+00
         0.00000E+00
         0.00000E+00
         0.00000E+00
         0.00000E+00
         0.00000E+00
         0.00000E+00
         0.00000E+00
         0.00000E+00
         0.00000E+00
         0.00000E+00
         0.00000E+00
         0.00000E+00
         0.00000E+00
         0.00000E+00
         0.00000E+00
         0.00000E+00
         0.00000E+00
         0.00000E+00
         0.00000E+00
         0.00000E+00
         0.00000E+00
         0.00000E+00
         0.00000E+00
         0.00000E+00
         0.00000E+00
         0.00000E+00
         0.00000E+00
         0.00000E+00
         0.00000E+00
         0.00000E+00
         0.00000E+00
         0.00000E+00
         0.00000E+00
         0.00000E+00
         0.00000E+00
         0.00000E+00
         0.00000E+00
         0.00000E+00
         0.00000E+00
         0.00000E+00
         0.00000E+00
         0.00000E+00
         0.00000E+00
         0.00000E+00
         0.00000E+00
         0.00000E+00
         0.00000E+00
         0.00000E+00
         0.00000E+00
         0.00000E+00
         0.00000E+00
         0.00000E+00
         0.00000E+00
         0.00000E+00
         0.00000E+00
         0.00000E+00
         0.00000E+00
         0.00000E+00
         0.00000E+00
         0.00000E+00
         0.00000E+00
         0.00000E+00
         0.00000E+00
         0.00000E+00
         0.00000E+00
         0.00000E+00
         0.00000E+00
         0.00000E+00
         0.00000E+00
         0.00000E+00
         0.00000E+00
         0.00000E+00
         0.00000E+00
         0.00000E+00
         0.00000E+00
         0.00000E+00
         0.00000E+00
         0.00000E+00
         0.00000E+00
         0.00000E+00
         0.00000E+00
         0.00000E+00
         0.00000E+00
         0.00000E+00
         0.00000E+00
         0.00000E+00
         0.00000E+00
         0.00000E+00
         0.00000E+00
         0.00000E+00
         0.00000E+00
         0.00000E+00
         0.00000E+00
         0.00000E+00
         0.00000E+00
         0.00000E+00
         0.00000E+00
         0.00000E+00
         0.00000E+00
         0.00000E+00
         0.00000E+00
         0.00000E+00
         0.00000E+00
         0.00000E+00
         0.00000E+00
         0.00000E+00
         0.00000E+00
         0.00000E+00
         0.00000E+00
         0.00000E+00
         0.00000E+00
         0.00000E+00
         0.00000E+00
         0.00000E+00
         0.00000E+00
         0.00000E+00
         0.00000E+00
         0.00000E+00
         0.00000E+00
         0.00000E+00
         0.00000E+00
         0.00000E+00
         0.00000E+00
         0.00000E+00
         0.00000E+00
         0.00000E+00
         0.00000E+00
         0.00000E+00
         0.00000E+00
         0.00000E+00
         0.00000E+00
         0.00000E+00
         0.00000E+00
         0.00000E+00
         0.00000E+00
         0.00000E+00
         0.00000E+00
         0.00000E+00
         0.00000E+00
         0.00000E+00
         0.00000E+00
         0.00000E+00
         0.00000E+00
         0.00000E+00
         0.00000E+00
         0.00000E+00
         0.00000E+00
         0.00000E+00
         0.00000E+00
         0.00000E+00
         0.00000E+00
         0.00000E+00
         0.00000E+00
         0.00000E+00
         0.00000E+00
         0.00000E+00
         0.00000E+00
         0.00000E+00
         0.00000E+00
         0.00000E+00
         0.00000E+00
         0.00000E+00
         0.00000E+00
         0.00000E+00
         0.00000E+00
         0.00000E+00
         0.00000E+00
         0.00000E+00
         0.00000E+00
         0.00000E+00
         0.00000E+00
         0.00000E+00
         0.00000E+00
         0.00000E+00
  
SCALARS                      strain_xz  double 1
LOOKUP_TABLE default
         0.00000E+00
         0.00000E+00
         0.00000E+00
         0.00000E+00
         0.00000E+00
         0.00000E+00
         0.00000E+00
         0.00000E+00
         0.00000E+00
         0.00000E+00
         0.00000E+00
         0.00000E+00
         0.00000E+00
         0.00000E+00
         0.00000E+00
         0.00000E+00
         0.00000E+00
         0.00000E+00
         0.00000E+00
         0.00000E+00
         0.00000E+00
         0.00000E+00
         0.00000E+00
         0.00000E+00
         0.00000E+00
         0.00000E+00
         0.00000E+00
         0.00000E+00
         0.00000E+00
         0.00000E+00
         0.00000E+00
         0.00000E+00
         0.00000E+00
         0.00000E+00
         0.00000E+00
         0.00000E+00
         0.00000E+00
         0.00000E+00
         0.00000E+00
         0.00000E+00
         0.00000E+00
         0.00000E+00
         0.00000E+00
         0.00000E+00
         0.00000E+00
         0.00000E+00
         0.00000E+00
         0.00000E+00
         0.00000E+00
         0.00000E+00
         0.00000E+00
         0.00000E+00
         0.00000E+00
         0.00000E+00
         0.00000E+00
         0.00000E+00
         0.00000E+00
         0.00000E+00
         0.00000E+00
         0.00000E+00
         0.00000E+00
         0.00000E+00
         0.00000E+00
         0.00000E+00
         0.00000E+00
         0.00000E+00
         0.00000E+00
         0.00000E+00
         0.00000E+00
         0.00000E+00
         0.00000E+00
         0.00000E+00
         0.00000E+00
         0.00000E+00
         0.00000E+00
         0.00000E+00
         0.00000E+00
         0.00000E+00
         0.00000E+00
         0.00000E+00
         0.00000E+00
         0.00000E+00
         0.00000E+00
         0.00000E+00
         0.00000E+00
         0.00000E+00
         0.00000E+00
         0.00000E+00
         0.00000E+00
         0.00000E+00
         0.00000E+00
         0.00000E+00
         0.00000E+00
         0.00000E+00
         0.00000E+00
         0.00000E+00
         0.00000E+00
         0.00000E+00
         0.00000E+00
         0.00000E+00
         0.00000E+00
         0.00000E+00
         0.00000E+00
         0.00000E+00
         0.00000E+00
         0.00000E+00
         0.00000E+00
         0.00000E+00
         0.00000E+00
         0.00000E+00
         0.00000E+00
         0.00000E+00
         0.00000E+00
         0.00000E+00
         0.00000E+00
         0.00000E+00
         0.00000E+00
         0.00000E+00
         0.00000E+00
         0.00000E+00
         0.00000E+00
         0.00000E+00
         0.00000E+00
         0.00000E+00
         0.00000E+00
         0.00000E+00
         0.00000E+00
         0.00000E+00
         0.00000E+00
         0.00000E+00
         0.00000E+00
         0.00000E+00
         0.00000E+00
         0.00000E+00
         0.00000E+00
         0.00000E+00
         0.00000E+00
         0.00000E+00
         0.00000E+00
         0.00000E+00
         0.00000E+00
         0.00000E+00
         0.00000E+00
         0.00000E+00
         0.00000E+00
         0.00000E+00
         0.00000E+00
         0.00000E+00
         0.00000E+00
         0.00000E+00
         0.00000E+00
         0.00000E+00
         0.00000E+00
         0.00000E+00
         0.00000E+00
         0.00000E+00
         0.00000E+00
         0.00000E+00
         0.00000E+00
         0.00000E+00
         0.00000E+00
         0.00000E+00
         0.00000E+00
         0.00000E+00
         0.00000E+00
         0.00000E+00
         0.00000E+00
         0.00000E+00
         0.00000E+00
         0.00000E+00
         0.00000E+00
         0.00000E+00
         0.00000E+00
         0.00000E+00
         0.00000E+00
         0.00000E+00
         0.00000E+00
         0.00000E+00
         0.00000E+00
         0.00000E+00
         0.00000E+00
         0.00000E+00
         0.00000E+00
         0.00000E+00
         0.00000E+00
         0.00000E+00
         0.00000E+00
         0.00000E+00
         0.00000E+00
         0.00000E+00
         0.00000E+00
         0.00000E+00
         0.00000E+00
         0.00000E+00
         0.00000E+00
         0.00000E+00
         0.00000E+00
         0.00000E+00
         0.00000E+00
         0.00000E+00
         0.00000E+00
         0.00000E+00
         0.00000E+00
         0.00000E+00
         0.00000E+00
         0.00000E+00
         0.00000E+00
         0.00000E+00
         0.00000E+00
         0.00000E+00
         0.00000E+00
         0.00000E+00
         0.00000E+00
         0.00000E+00
         0.00000E+00
         0.00000E+00
         0.00000E+00
         0.00000E+00
         0.00000E+00
         0.00000E+00
         0.00000E+00
         0.00000E+00
         0.00000E+00
         0.00000E+00
         0.00000E+00
         0.00000E+00
         0.00000E+00
         0.00000E+00
         0.00000E+00
         0.00000E+00
         0.00000E+00
         0.00000E+00
         0.00000E+00
         0.00000E+00
         0.00000E+00
         0.00000E+00
         0.00000E+00
         0.00000E+00
         0.00000E+00
         0.00000E+00
         0.00000E+00
         0.00000E+00
         0.00000E+00
         0.00000E+00
         0.00000E+00
         0.00000E+00
         0.00000E+00
         0.00000E+00
         0.00000E+00
         0.00000E+00
         0.00000E+00
         0.00000E+00
         0.00000E+00
         0.00000E+00
         0.00000E+00
         0.00000E+00
         0.00000E+00
         0.00000E+00
         0.00000E+00
         0.00000E+00
         0.00000E+00
         0.00000E+00
         0.00000E+00
         0.00000E+00
         0.00000E+00
         0.00000E+00
         0.00000E+00
         0.00000E+00
         0.00000E+00
         0.00000E+00
         0.00000E+00
         0.00000E+00
         0.00000E+00
         0.00000E+00
         0.00000E+00
         0.00000E+00
         0.00000E+00
         0.00000E+00
         0.00000E+00
         0.00000E+00
         0.00000E+00
         0.00000E+00
         0.00000E+00
         0.00000E+00
         0.00000E+00
         0.00000E+00
         0.00000E+00
         0.00000E+00
         0.00000E+00
         0.00000E+00
         0.00000E+00
         0.00000E+00
         0.00000E+00
         0.00000E+00
         0.00000E+00
         0.00000E+00
         0.00000E+00
         0.00000E+00
         0.00000E+00
         0.00000E+00
         0.00000E+00
         0.00000E+00
         0.00000E+00
         0.00000E+00
         0.00000E+00
         0.00000E+00
         0.00000E+00
         0.00000E+00
         0.00000E+00
         0.00000E+00
         0.00000E+00
         0.00000E+00
         0.00000E+00
         0.00000E+00
         0.00000E+00
         0.00000E+00
         0.00000E+00
         0.00000E+00
         0.00000E+00
         0.00000E+00
         0.00000E+00
         0.00000E+00
         0.00000E+00
         0.00000E+00
         0.00000E+00
         0.00000E+00
         0.00000E+00
         0.00000E+00
         0.00000E+00
         0.00000E+00
         0.00000E+00
         0.00000E+00
         0.00000E+00
         0.00000E+00
         0.00000E+00
         0.00000E+00
         0.00000E+00
         0.00000E+00
         0.00000E+00
         0.00000E+00
         0.00000E+00
         0.00000E+00
         0.00000E+00
         0.00000E+00
         0.00000E+00
         0.00000E+00
         0.00000E+00
         0.00000E+00
         0.00000E+00
         0.00000E+00
         0.00000E+00
         0.00000E+00
         0.00000E+00
         0.00000E+00
         0.00000E+00
         0.00000E+00
         0.00000E+00
         0.00000E+00
         0.00000E+00
         0.00000E+00
         0.00000E+00
         0.00000E+00
         0.00000E+00
         0.00000E+00
         0.00000E+00
         0.00000E+00
         0.00000E+00
         0.00000E+00
         0.00000E+00
         0.00000E+00
         0.00000E+00
         0.00000E+00
         0.00000E+00
         0.00000E+00
         0.00000E+00
         0.00000E+00
         0.00000E+00
         0.00000E+00
         0.00000E+00
         0.00000E+00
         0.00000E+00
         0.00000E+00
         0.00000E+00
         0.00000E+00
         0.00000E+00
         0.00000E+00
         0.00000E+00
         0.00000E+00
         0.00000E+00
         0.00000E+00
         0.00000E+00
         0.00000E+00
         0.00000E+00
         0.00000E+00
         0.00000E+00
         0.00000E+00
         0.00000E+00
         0.00000E+00
         0.00000E+00
         0.00000E+00
         0.00000E+00
         0.00000E+00
         0.00000E+00
         0.00000E+00
         0.00000E+00
         0.00000E+00
         0.00000E+00
         0.00000E+00
         0.00000E+00
         0.00000E+00
         0.00000E+00
         0.00000E+00
         0.00000E+00
         0.00000E+00
         0.00000E+00
         0.00000E+00
         0.00000E+00
         0.00000E+00
         0.00000E+00
         0.00000E+00
         0.00000E+00
         0.00000E+00
         0.00000E+00
         0.00000E+00
         0.00000E+00
         0.00000E+00
         0.00000E+00
         0.00000E+00
         0.00000E+00
         0.00000E+00
         0.00000E+00
         0.00000E+00
         0.00000E+00
         0.00000E+00
         0.00000E+00
         0.00000E+00
         0.00000E+00
         0.00000E+00
         0.00000E+00
         0.00000E+00
         0.00000E+00
         0.00000E+00
         0.00000E+00
         0.00000E+00
         0.00000E+00
         0.00000E+00
         0.00000E+00
         0.00000E+00
         0.00000E+00
         0.00000E+00
         0.00000E+00
         0.00000E+00
         0.00000E+00
         0.00000E+00
         0.00000E+00
         0.00000E+00
         0.00000E+00
         0.00000E+00
         0.00000E+00
         0.00000E+00
         0.00000E+00
         0.00000E+00
         0.00000E+00
         0.00000E+00
         0.00000E+00
         0.00000E+00
         0.00000E+00
         0.00000E+00
         0.00000E+00
         0.00000E+00
         0.00000E+00
         0.00000E+00
         0.00000E+00
         0.00000E+00
         0.00000E+00
         0.00000E+00
         0.00000E+00
         0.00000E+00
         0.00000E+00
         0.00000E+00
         0.00000E+00
         0.00000E+00
         0.00000E+00
         0.00000E+00
         0.00000E+00
         0.00000E+00
         0.00000E+00
         0.00000E+00
         0.00000E+00
         0.00000E+00
         0.00000E+00
         0.00000E+00
         0.00000E+00
         0.00000E+00
         0.00000E+00
         0.00000E+00
         0.00000E+00
         0.00000E+00
         0.00000E+00
         0.00000E+00
         0.00000E+00
         0.00000E+00
         0.00000E+00
         0.00000E+00
         0.00000E+00
         0.00000E+00
         0.00000E+00
         0.00000E+00
         0.00000E+00
         0.00000E+00
         0.00000E+00
         0.00000E+00
         0.00000E+00
         0.00000E+00
         0.00000E+00
         0.00000E+00
         0.00000E+00
         0.00000E+00
         0.00000E+00
         0.00000E+00
         0.00000E+00
         0.00000E+00
         0.00000E+00
         0.00000E+00
         0.00000E+00
         0.00000E+00
         0.00000E+00
         0.00000E+00
         0.00000E+00
         0.00000E+00
         0.00000E+00
         0.00000E+00
         0.00000E+00
         0.00000E+00
         0.00000E+00
         0.00000E+00
         0.00000E+00
         0.00000E+00
         0.00000E+00
         0.00000E+00
         0.00000E+00
         0.00000E+00
         0.00000E+00
         0.00000E+00
         0.00000E+00
         0.00000E+00
         0.00000E+00
         0.00000E+00
         0.00000E+00
         0.00000E+00
         0.00000E+00
         0.00000E+00
         0.00000E+00
         0.00000E+00
         0.00000E+00
         0.00000E+00
         0.00000E+00
         0.00000E+00
         0.00000E+00
         0.00000E+00
         0.00000E+00
         0.00000E+00
         0.00000E+00
         0.00000E+00
         0.00000E+00
         0.00000E+00
         0.00000E+00
         0.00000E+00
         0.00000E+00
         0.00000E+00
         0.00000E+00
         0.00000E+00
         0.00000E+00
         0.00000E+00
         0.00000E+00
         0.00000E+00
         0.00000E+00
         0.00000E+00
         0.00000E+00
         0.00000E+00
         0.00000E+00
         0.00000E+00
         0.00000E+00
         0.00000E+00
         0.00000E+00
         0.00000E+00
         0.00000E+00
         0.00000E+00
         0.00000E+00
         0.00000E+00
         0.00000E+00
         0.00000E+00
         0.00000E+00
         0.00000E+00
         0.00000E+00
         0.00000E+00
         0.00000E+00
         0.00000E+00
         0.00000E+00
         0.00000E+00
         0.00000E+00
         0.00000E+00
         0.00000E+00
         0.00000E+00
         0.00000E+00
         0.00000E+00
         0.00000E+00
         0.00000E+00
         0.00000E+00
         0.00000E+00
         0.00000E+00
         0.00000E+00
         0.00000E+00
         0.00000E+00
         0.00000E+00
         0.00000E+00
         0.00000E+00
         0.00000E+00
         0.00000E+00
         0.00000E+00
         0.00000E+00
         0.00000E+00
         0.00000E+00
         0.00000E+00
         0.00000E+00
         0.00000E+00
         0.00000E+00
         0.00000E+00
         0.00000E+00
         0.00000E+00
         0.00000E+00
         0.00000E+00
         0.00000E+00
         0.00000E+00
         0.00000E+00
         0.00000E+00
         0.00000E+00
         0.00000E+00
         0.00000E+00
         0.00000E+00
         0.00000E+00
         0.00000E+00
         0.00000E+00
         0.00000E+00
         0.00000E+00
         0.00000E+00
         0.00000E+00
         0.00000E+00
         0.00000E+00
         0.00000E+00
         0.00000E+00
         0.00000E+00
         0.00000E+00
         0.00000E+00
         0.00000E+00
         0.00000E+00
         0.00000E+00
         0.00000E+00
         0.00000E+00
         0.00000E+00
         0.00000E+00
         0.00000E+00
         0.00000E+00
         0.00000E+00
         0.00000E+00
         0.00000E+00
         0.00000E+00
         0.00000E+00
         0.00000E+00
         0.00000E+00
         0.00000E+00
         0.00000E+00
         0.00000E+00
         0.00000E+00
         0.00000E+00
         0.00000E+00
         0.00000E+00
         0.00000E+00
         0.00000E+00
         0.00000E+00
         0.00000E+00
         0.00000E+00
         0.00000E+00
         0.00000E+00
         0.00000E+00
         0.00000E+00
         0.00000E+00
         0.00000E+00
         0.00000E+00
         0.00000E+00
         0.00000E+00
         0.00000E+00
         0.00000E+00
         0.00000E+00
         0.00000E+00
         0.00000E+00
         0.00000E+00
         0.00000E+00
         0.00000E+00
         0.00000E+00
         0.00000E+00
         0.00000E+00
         0.00000E+00
         0.00000E+00
         0.00000E+00
         0.00000E+00
         0.00000E+00
         0.00000E+00
         0.00000E+00
         0.00000E+00
         0.00000E+00
         0.00000E+00
         0.00000E+00
         0.00000E+00
         0.00000E+00
         0.00000E+00
         0.00000E+00
         0.00000E+00
         0.00000E+00
         0.00000E+00
         0.00000E+00
         0.00000E+00
         0.00000E+00
         0.00000E+00
         0.00000E+00
         0.00000E+00
         0.00000E+00
         0.00000E+00
         0.00000E+00
         0.00000E+00
         0.00000E+00
         0.00000E+00
         0.00000E+00
         0.00000E+00
         0.00000E+00
         0.00000E+00
         0.00000E+00
         0.00000E+00
         0.00000E+00
         0.00000E+00
         0.00000E+00
         0.00000E+00
         0.00000E+00
         0.00000E+00
         0.00000E+00
         0.00000E+00
         0.00000E+00
         0.00000E+00
         0.00000E+00
         0.00000E+00
         0.00000E+00
         0.00000E+00
         0.00000E+00
         0.00000E+00
         0.00000E+00
         0.00000E+00
         0.00000E+00
         0.00000E+00
         0.00000E+00
         0.00000E+00
         0.00000E+00
         0.00000E+00
         0.00000E+00
         0.00000E+00
         0.00000E+00
         0.00000E+00
         0.00000E+00
         0.00000E+00
         0.00000E+00
         0.00000E+00
         0.00000E+00
         0.00000E+00
         0.00000E+00
         0.00000E+00
         0.00000E+00
         0.00000E+00
         0.00000E+00
         0.00000E+00
         0.00000E+00
         0.00000E+00
         0.00000E+00
         0.00000E+00
         0.00000E+00
         0.00000E+00
         0.00000E+00
         0.00000E+00
         0.00000E+00
         0.00000E+00
         0.00000E+00
         0.00000E+00
         0.00000E+00
         0.00000E+00
         0.00000E+00
         0.00000E+00
         0.00000E+00
         0.00000E+00
         0.00000E+00
         0.00000E+00
         0.00000E+00
         0.00000E+00
         0.00000E+00
         0.00000E+00
         0.00000E+00
         0.00000E+00
         0.00000E+00
         0.00000E+00
         0.00000E+00
         0.00000E+00
         0.00000E+00
         0.00000E+00
         0.00000E+00
         0.00000E+00
         0.00000E+00
         0.00000E+00
         0.00000E+00
         0.00000E+00
         0.00000E+00
         0.00000E+00
         0.00000E+00
         0.00000E+00
         0.00000E+00
         0.00000E+00
         0.00000E+00
         0.00000E+00
         0.00000E+00
         0.00000E+00
         0.00000E+00
         0.00000E+00
         0.00000E+00
         0.00000E+00
         0.00000E+00
         0.00000E+00
         0.00000E+00
         0.00000E+00
         0.00000E+00
         0.00000E+00
         0.00000E+00
         0.00000E+00
         0.00000E+00
         0.00000E+00
         0.00000E+00
         0.00000E+00
         0.00000E+00
         0.00000E+00
         0.00000E+00
         0.00000E+00
         0.00000E+00
         0.00000E+00
         0.00000E+00
         0.00000E+00
         0.00000E+00
         0.00000E+00
         0.00000E+00
         0.00000E+00
         0.00000E+00
         0.00000E+00
         0.00000E+00
         0.00000E+00
         0.00000E+00
         0.00000E+00
         0.00000E+00
         0.00000E+00
         0.00000E+00
         0.00000E+00
         0.00000E+00
         0.00000E+00
         0.00000E+00
         0.00000E+00
         0.00000E+00
         0.00000E+00
         0.00000E+00
         0.00000E+00
         0.00000E+00
         0.00000E+00
         0.00000E+00
         0.00000E+00
         0.00000E+00
         0.00000E+00
         0.00000E+00
         0.00000E+00
         0.00000E+00
         0.00000E+00
         0.00000E+00
         0.00000E+00
         0.00000E+00
         0.00000E+00
         0.00000E+00
         0.00000E+00
         0.00000E+00
         0.00000E+00
         0.00000E+00
         0.00000E+00
         0.00000E+00
         0.00000E+00
         0.00000E+00
         0.00000E+00
         0.00000E+00
         0.00000E+00
         0.00000E+00
         0.00000E+00
         0.00000E+00
         0.00000E+00
         0.00000E+00
         0.00000E+00
         0.00000E+00
         0.00000E+00
         0.00000E+00
         0.00000E+00
         0.00000E+00
         0.00000E+00
         0.00000E+00
         0.00000E+00
         0.00000E+00
         0.00000E+00
         0.00000E+00
         0.00000E+00
         0.00000E+00
         0.00000E+00
         0.00000E+00
         0.00000E+00
         0.00000E+00
         0.00000E+00
         0.00000E+00
         0.00000E+00
         0.00000E+00
         0.00000E+00
         0.00000E+00
         0.00000E+00
         0.00000E+00
         0.00000E+00
         0.00000E+00
         0.00000E+00
         0.00000E+00
         0.00000E+00
         0.00000E+00
         0.00000E+00
         0.00000E+00
         0.00000E+00
         0.00000E+00
         0.00000E+00
         0.00000E+00
         0.00000E+00
         0.00000E+00
         0.00000E+00
         0.00000E+00
         0.00000E+00
         0.00000E+00
         0.00000E+00
         0.00000E+00
         0.00000E+00
         0.00000E+00
         0.00000E+00
         0.00000E+00
         0.00000E+00
         0.00000E+00
         0.00000E+00
         0.00000E+00
         0.00000E+00
         0.00000E+00
         0.00000E+00
         0.00000E+00
         0.00000E+00
         0.00000E+00
         0.00000E+00
         0.00000E+00
         0.00000E+00
         0.00000E+00
         0.00000E+00
         0.00000E+00
         0.00000E+00
         0.00000E+00
         0.00000E+00
         0.00000E+00
         0.00000E+00
         0.00000E+00
         0.00000E+00
         0.00000E+00
         0.00000E+00
         0.00000E+00
         0.00000E+00
         0.00000E+00
         0.00000E+00
         0.00000E+00
         0.00000E+00
         0.00000E+00
         0.00000E+00
         0.00000E+00
         0.00000E+00
         0.00000E+00
         0.00000E+00
         0.00000E+00
         0.00000E+00
         0.00000E+00
         0.00000E+00
         0.00000E+00
         0.00000E+00
         0.00000E+00
         0.00000E+00
         0.00000E+00
         0.00000E+00
         0.00000E+00
         0.00000E+00
         0.00000E+00
         0.00000E+00
         0.00000E+00
         0.00000E+00
         0.00000E+00
         0.00000E+00
         0.00000E+00
         0.00000E+00
         0.00000E+00
         0.00000E+00
         0.00000E+00
         0.00000E+00
         0.00000E+00
         0.00000E+00
         0.00000E+00
         0.00000E+00
         0.00000E+00
         0.00000E+00
         0.00000E+00
         0.00000E+00
         0.00000E+00
         0.00000E+00
         0.00000E+00
         0.00000E+00
         0.00000E+00
         0.00000E+00
         0.00000E+00
         0.00000E+00
         0.00000E+00
         0.00000E+00
         0.00000E+00
         0.00000E+00
         0.00000E+00
         0.00000E+00
         0.00000E+00
         0.00000E+00
         0.00000E+00
         0.00000E+00
         0.00000E+00
         0.00000E+00
         0.00000E+00
         0.00000E+00
         0.00000E+00
         0.00000E+00
         0.00000E+00
         0.00000E+00
         0.00000E+00
         0.00000E+00
         0.00000E+00
         0.00000E+00
         0.00000E+00
         0.00000E+00
         0.00000E+00
         0.00000E+00
         0.00000E+00
         0.00000E+00
         0.00000E+00
         0.00000E+00
         0.00000E+00
         0.00000E+00
         0.00000E+00
         0.00000E+00
         0.00000E+00
         0.00000E+00
         0.00000E+00
         0.00000E+00
         0.00000E+00
         0.00000E+00
         0.00000E+00
         0.00000E+00
         0.00000E+00
         0.00000E+00
         0.00000E+00
         0.00000E+00
         0.00000E+00
         0.00000E+00
         0.00000E+00
         0.00000E+00
         0.00000E+00
         0.00000E+00
         0.00000E+00
         0.00000E+00
         0.00000E+00
         0.00000E+00
         0.00000E+00
         0.00000E+00
         0.00000E+00
         0.00000E+00
         0.00000E+00
         0.00000E+00
         0.00000E+00
         0.00000E+00
         0.00000E+00
         0.00000E+00
         0.00000E+00
         0.00000E+00
         0.00000E+00
         0.00000E+00
         0.00000E+00
         0.00000E+00
         0.00000E+00
         0.00000E+00
         0.00000E+00
         0.00000E+00
         0.00000E+00
         0.00000E+00
         0.00000E+00
         0.00000E+00
         0.00000E+00
         0.00000E+00
         0.00000E+00
         0.00000E+00
         0.00000E+00
         0.00000E+00
         0.00000E+00
         0.00000E+00
         0.00000E+00
         0.00000E+00
         0.00000E+00
         0.00000E+00
         0.00000E+00
         0.00000E+00
         0.00000E+00
         0.00000E+00
         0.00000E+00
         0.00000E+00
         0.00000E+00
         0.00000E+00
         0.00000E+00
         0.00000E+00
         0.00000E+00
         0.00000E+00
         0.00000E+00
         0.00000E+00
         0.00000E+00
         0.00000E+00
         0.00000E+00
         0.00000E+00
         0.00000E+00
         0.00000E+00
         0.00000E+00
         0.00000E+00
         0.00000E+00
         0.00000E+00
         0.00000E+00
         0.00000E+00
         0.00000E+00
         0.00000E+00
         0.00000E+00
         0.00000E+00
         0.00000E+00
         0.00000E+00
         0.00000E+00
         0.00000E+00
         0.00000E+00
         0.00000E+00
         0.00000E+00
         0.00000E+00
         0.00000E+00
         0.00000E+00
         0.00000E+00
         0.00000E+00
         0.00000E+00
         0.00000E+00
         0.00000E+00
         0.00000E+00
         0.00000E+00
         0.00000E+00
         0.00000E+00
         0.00000E+00
         0.00000E+00
         0.00000E+00
         0.00000E+00
         0.00000E+00
         0.00000E+00
         0.00000E+00
         0.00000E+00
         0.00000E+00
         0.00000E+00
         0.00000E+00
         0.00000E+00
         0.00000E+00
         0.00000E+00
         0.00000E+00
         0.00000E+00
         0.00000E+00
         0.00000E+00
         0.00000E+00
         0.00000E+00
         0.00000E+00
         0.00000E+00
         0.00000E+00
         0.00000E+00
         0.00000E+00
         0.00000E+00
         0.00000E+00
         0.00000E+00
         0.00000E+00
         0.00000E+00
         0.00000E+00
         0.00000E+00
         0.00000E+00
         0.00000E+00
         0.00000E+00
         0.00000E+00
         0.00000E+00
         0.00000E+00
         0.00000E+00
         0.00000E+00
         0.00000E+00
         0.00000E+00
         0.00000E+00
         0.00000E+00
         0.00000E+00
         0.00000E+00
         0.00000E+00
         0.00000E+00
         0.00000E+00
         0.00000E+00
         0.00000E+00
         0.00000E+00
         0.00000E+00
         0.00000E+00
         0.00000E+00
         0.00000E+00
         0.00000E+00
         0.00000E+00
         0.00000E+00
         0.00000E+00
         0.00000E+00
         0.00000E+00
         0.00000E+00
         0.00000E+00
         0.00000E+00
         0.00000E+00
         0.00000E+00
         0.00000E+00
         0.00000E+00
         0.00000E+00
         0.00000E+00
         0.00000E+00
         0.00000E+00
         0.00000E+00
         0.00000E+00
         0.00000E+00
         0.00000E+00
         0.00000E+00
         0.00000E+00
         0.00000E+00
         0.00000E+00
         0.00000E+00
         0.00000E+00
         0.00000E+00
         0.00000E+00
         0.00000E+00
         0.00000E+00
         0.00000E+00
         0.00000E+00
         0.00000E+00
         0.00000E+00
         0.00000E+00
         0.00000E+00
         0.00000E+00
         0.00000E+00
         0.00000E+00
         0.00000E+00
         0.00000E+00
         0.00000E+00
         0.00000E+00
         0.00000E+00
         0.00000E+00
         0.00000E+00
         0.00000E+00
         0.00000E+00
         0.00000E+00
         0.00000E+00
         0.00000E+00
         0.00000E+00
         0.00000E+00
         0.00000E+00
         0.00000E+00
         0.00000E+00
         0.00000E+00
         0.00000E+00
         0.00000E+00
         0.00000E+00
         0.00000E+00
         0.00000E+00
         0.00000E+00
         0.00000E+00
         0.00000E+00
         0.00000E+00
         0.00000E+00
         0.00000E+00
         0.00000E+00
         0.00000E+00
         0.00000E+00
         0.00000E+00
         0.00000E+00
         0.00000E+00
         0.00000E+00
         0.00000E+00
         0.00000E+00
         0.00000E+00
         0.00000E+00
         0.00000E+00
         0.00000E+00
         0.00000E+00
         0.00000E+00
         0.00000E+00
         0.00000E+00
         0.00000E+00
         0.00000E+00
         0.00000E+00
         0.00000E+00
         0.00000E+00
         0.00000E+00
         0.00000E+00
         0.00000E+00
         0.00000E+00
         0.00000E+00
         0.00000E+00
         0.00000E+00
         0.00000E+00
         0.00000E+00
         0.00000E+00
         0.00000E+00
         0.00000E+00
         0.00000E+00
         0.00000E+00
         0.00000E+00
         0.00000E+00
         0.00000E+00
         0.00000E+00
         0.00000E+00
         0.00000E+00
         0.00000E+00
         0.00000E+00
         0.00000E+00
         0.00000E+00
         0.00000E+00
         0.00000E+00
         0.00000E+00
         0.00000E+00
         0.00000E+00
         0.00000E+00
         0.00000E+00
         0.00000E+00
         0.00000E+00
         0.00000E+00
         0.00000E+00
         0.00000E+00
         0.00000E+00
         0.00000E+00
         0.00000E+00
         0.00000E+00
         0.00000E+00
         0.00000E+00
         0.00000E+00
         0.00000E+00
         0.00000E+00
         0.00000E+00
         0.00000E+00
         0.00000E+00
         0.00000E+00
         0.00000E+00
         0.00000E+00
         0.00000E+00
         0.00000E+00
         0.00000E+00
         0.00000E+00
         0.00000E+00
         0.00000E+00
         0.00000E+00
         0.00000E+00
         0.00000E+00
         0.00000E+00
         0.00000E+00
         0.00000E+00
         0.00000E+00
         0.00000E+00
         0.00000E+00
         0.00000E+00
         0.00000E+00
         0.00000E+00
         0.00000E+00
         0.00000E+00
         0.00000E+00
         0.00000E+00
         0.00000E+00
         0.00000E+00
         0.00000E+00
         0.00000E+00
         0.00000E+00
         0.00000E+00
         0.00000E+00
         0.00000E+00
         0.00000E+00
         0.00000E+00
         0.00000E+00
         0.00000E+00
         0.00000E+00
         0.00000E+00
         0.00000E+00
         0.00000E+00
         0.00000E+00
         0.00000E+00
         0.00000E+00
         0.00000E+00
         0.00000E+00
         0.00000E+00
         0.00000E+00
         0.00000E+00
         0.00000E+00
         0.00000E+00
         0.00000E+00
         0.00000E+00
         0.00000E+00
         0.00000E+00
         0.00000E+00
         0.00000E+00
         0.00000E+00
         0.00000E+00
         0.00000E+00
         0.00000E+00
         0.00000E+00
         0.00000E+00
         0.00000E+00
         0.00000E+00
         0.00000E+00
         0.00000E+00
         0.00000E+00
         0.00000E+00
         0.00000E+00
         0.00000E+00
         0.00000E+00
         0.00000E+00
         0.00000E+00
         0.00000E+00
         0.00000E+00
         0.00000E+00
         0.00000E+00
         0.00000E+00
         0.00000E+00
         0.00000E+00
         0.00000E+00
         0.00000E+00
         0.00000E+00
         0.00000E+00
         0.00000E+00
         0.00000E+00
         0.00000E+00
         0.00000E+00
         0.00000E+00
         0.00000E+00
         0.00000E+00
         0.00000E+00
         0.00000E+00
         0.00000E+00
         0.00000E+00
         0.00000E+00
         0.00000E+00
         0.00000E+00
         0.00000E+00
         0.00000E+00
         0.00000E+00
         0.00000E+00
         0.00000E+00
         0.00000E+00
         0.00000E+00
         0.00000E+00
         0.00000E+00
         0.00000E+00
         0.00000E+00
         0.00000E+00
         0.00000E+00
         0.00000E+00
         0.00000E+00
         0.00000E+00
         0.00000E+00
         0.00000E+00
         0.00000E+00
         0.00000E+00
         0.00000E+00
         0.00000E+00
         0.00000E+00
         0.00000E+00
         0.00000E+00
         0.00000E+00
         0.00000E+00
         0.00000E+00
         0.00000E+00
         0.00000E+00
         0.00000E+00
         0.00000E+00
         0.00000E+00
         0.00000E+00
         0.00000E+00
         0.00000E+00
         0.00000E+00
         0.00000E+00
         0.00000E+00
         0.00000E+00
         0.00000E+00
         0.00000E+00
         0.00000E+00
         0.00000E+00
         0.00000E+00
         0.00000E+00
         0.00000E+00
         0.00000E+00
         0.00000E+00
         0.00000E+00
         0.00000E+00
         0.00000E+00
         0.00000E+00
         0.00000E+00
         0.00000E+00
         0.00000E+00
         0.00000E+00
         0.00000E+00
         0.00000E+00
         0.00000E+00
         0.00000E+00
         0.00000E+00
         0.00000E+00
         0.00000E+00
         0.00000E+00
         0.00000E+00
         0.00000E+00
         0.00000E+00
         0.00000E+00
         0.00000E+00
         0.00000E+00
         0.00000E+00
         0.00000E+00
         0.00000E+00
         0.00000E+00
         0.00000E+00
         0.00000E+00
         0.00000E+00
         0.00000E+00
         0.00000E+00
         0.00000E+00
         0.00000E+00
         0.00000E+00
         0.00000E+00
         0.00000E+00
         0.00000E+00
         0.00000E+00
         0.00000E+00
         0.00000E+00
         0.00000E+00
         0.00000E+00
         0.00000E+00
         0.00000E+00
         0.00000E+00
         0.00000E+00
         0.00000E+00
         0.00000E+00
         0.00000E+00
         0.00000E+00
         0.00000E+00
         0.00000E+00
         0.00000E+00
         0.00000E+00
         0.00000E+00
         0.00000E+00
         0.00000E+00
         0.00000E+00
         0.00000E+00
         0.00000E+00
         0.00000E+00
         0.00000E+00
         0.00000E+00
         0.00000E+00
         0.00000E+00
         0.00000E+00
         0.00000E+00
         0.00000E+00
         0.00000E+00
         0.00000E+00
         0.00000E+00
         0.00000E+00
         0.00000E+00
         0.00000E+00
         0.00000E+00
         0.00000E+00
         0.00000E+00
         0.00000E+00
         0.00000E+00
         0.00000E+00
         0.00000E+00
         0.00000E+00
         0.00000E+00
         0.00000E+00
         0.00000E+00
         0.00000E+00
         0.00000E+00
         0.00000E+00
         0.00000E+00
         0.00000E+00
         0.00000E+00
         0.00000E+00
         0.00000E+00
         0.00000E+00
         0.00000E+00
         0.00000E+00
         0.00000E+00
         0.00000E+00
         0.00000E+00
         0.00000E+00
         0.00000E+00
         0.00000E+00
         0.00000E+00
         0.00000E+00
         0.00000E+00
         0.00000E+00
         0.00000E+00
         0.00000E+00
         0.00000E+00
         0.00000E+00
         0.00000E+00
         0.00000E+00
         0.00000E+00
         0.00000E+00
         0.00000E+00
         0.00000E+00
         0.00000E+00
         0.00000E+00
         0.00000E+00
         0.00000E+00
         0.00000E+00
         0.00000E+00
         0.00000E+00
         0.00000E+00
         0.00000E+00
         0.00000E+00
         0.00000E+00
         0.00000E+00
         0.00000E+00
         0.00000E+00
         0.00000E+00
         0.00000E+00
         0.00000E+00
         0.00000E+00
         0.00000E+00
         0.00000E+00
         0.00000E+00
         0.00000E+00
         0.00000E+00
         0.00000E+00
         0.00000E+00
         0.00000E+00
         0.00000E+00
         0.00000E+00
         0.00000E+00
         0.00000E+00
         0.00000E+00
         0.00000E+00
         0.00000E+00
         0.00000E+00
         0.00000E+00
         0.00000E+00
         0.00000E+00
         0.00000E+00
         0.00000E+00
         0.00000E+00
         0.00000E+00
         0.00000E+00
         0.00000E+00
         0.00000E+00
         0.00000E+00
         0.00000E+00
         0.00000E+00
         0.00000E+00
         0.00000E+00
         0.00000E+00
         0.00000E+00
         0.00000E+00
         0.00000E+00
         0.00000E+00
         0.00000E+00
         0.00000E+00
         0.00000E+00
         0.00000E+00
         0.00000E+00
         0.00000E+00
         0.00000E+00
         0.00000E+00
         0.00000E+00
         0.00000E+00
         0.00000E+00
         0.00000E+00
         0.00000E+00
         0.00000E+00
         0.00000E+00
         0.00000E+00
         0.00000E+00
         0.00000E+00
         0.00000E+00
         0.00000E+00
         0.00000E+00
         0.00000E+00
         0.00000E+00
         0.00000E+00
         0.00000E+00
         0.00000E+00
         0.00000E+00
         0.00000E+00
         0.00000E+00
         0.00000E+00
         0.00000E+00
         0.00000E+00
         0.00000E+00
         0.00000E+00
         0.00000E+00
         0.00000E+00
         0.00000E+00
         0.00000E+00
         0.00000E+00
         0.00000E+00
         0.00000E+00
         0.00000E+00
         0.00000E+00
         0.00000E+00
         0.00000E+00
         0.00000E+00
         0.00000E+00
         0.00000E+00
         0.00000E+00
         0.00000E+00
         0.00000E+00
         0.00000E+00
         0.00000E+00
         0.00000E+00
         0.00000E+00
         0.00000E+00
         0.00000E+00
         0.00000E+00
         0.00000E+00
         0.00000E+00
         0.00000E+00
         0.00000E+00
         0.00000E+00
         0.00000E+00
         0.00000E+00
         0.00000E+00
         0.00000E+00
         0.00000E+00
         0.00000E+00
         0.00000E+00
         0.00000E+00
         0.00000E+00
         0.00000E+00
         0.00000E+00
         0.00000E+00
         0.00000E+00
         0.00000E+00
         0.00000E+00
         0.00000E+00
         0.00000E+00
         0.00000E+00
         0.00000E+00
         0.00000E+00
         0.00000E+00
         0.00000E+00
         0.00000E+00
         0.00000E+00
         0.00000E+00
         0.00000E+00
         0.00000E+00
         0.00000E+00
         0.00000E+00
         0.00000E+00
         0.00000E+00
         0.00000E+00
         0.00000E+00
         0.00000E+00
         0.00000E+00
         0.00000E+00
         0.00000E+00
         0.00000E+00
         0.00000E+00
         0.00000E+00
         0.00000E+00
         0.00000E+00
         0.00000E+00
         0.00000E+00
         0.00000E+00
         0.00000E+00
         0.00000E+00
         0.00000E+00
         0.00000E+00
         0.00000E+00
         0.00000E+00
         0.00000E+00
         0.00000E+00
         0.00000E+00
         0.00000E+00
         0.00000E+00
         0.00000E+00
         0.00000E+00
         0.00000E+00
         0.00000E+00
         0.00000E+00
         0.00000E+00
         0.00000E+00
         0.00000E+00
         0.00000E+00
         0.00000E+00
         0.00000E+00
         0.00000E+00
         0.00000E+00
         0.00000E+00
         0.00000E+00
         0.00000E+00
         0.00000E+00
         0.00000E+00
         0.00000E+00
         0.00000E+00
         0.00000E+00
         0.00000E+00
         0.00000E+00
         0.00000E+00
         0.00000E+00
         0.00000E+00
         0.00000E+00
         0.00000E+00
         0.00000E+00
         0.00000E+00
         0.00000E+00
         0.00000E+00
         0.00000E+00
         0.00000E+00
         0.00000E+00
         0.00000E+00
         0.00000E+00
         0.00000E+00
         0.00000E+00
         0.00000E+00
         0.00000E+00
         0.00000E+00
         0.00000E+00
         0.00000E+00
         0.00000E+00
         0.00000E+00
         0.00000E+00
         0.00000E+00
         0.00000E+00
         0.00000E+00
         0.00000E+00
         0.00000E+00
         0.00000E+00
         0.00000E+00
         0.00000E+00
         0.00000E+00
         0.00000E+00
         0.00000E+00
         0.00000E+00
         0.00000E+00
         0.00000E+00
         0.00000E+00
         0.00000E+00
         0.00000E+00
         0.00000E+00
         0.00000E+00
         0.00000E+00
         0.00000E+00
         0.00000E+00
         0.00000E+00
         0.00000E+00
         0.00000E+00
         0.00000E+00
         0.00000E+00
         0.00000E+00
         0.00000E+00
         0.00000E+00
         0.00000E+00
         0.00000E+00
         0.00000E+00
         0.00000E+00
         0.00000E+00
         0.00000E+00
         0.00000E+00
         0.00000E+00
         0.00000E+00
         0.00000E+00
         0.00000E+00
         0.00000E+00
         0.00000E+00
         0.00000E+00
         0.00000E+00
         0.00000E+00
         0.00000E+00
         0.00000E+00
         0.00000E+00
         0.00000E+00
         0.00000E+00
         0.00000E+00
         0.00000E+00
         0.00000E+00
         0.00000E+00
         0.00000E+00
         0.00000E+00
         0.00000E+00
         0.00000E+00
         0.00000E+00
         0.00000E+00
         0.00000E+00
         0.00000E+00
         0.00000E+00
         0.00000E+00
         0.00000E+00
         0.00000E+00
         0.00000E+00
         0.00000E+00
         0.00000E+00
         0.00000E+00
         0.00000E+00
         0.00000E+00
         0.00000E+00
         0.00000E+00
         0.00000E+00
         0.00000E+00
         0.00000E+00
         0.00000E+00
         0.00000E+00
         0.00000E+00
         0.00000E+00
         0.00000E+00
         0.00000E+00
         0.00000E+00
         0.00000E+00
         0.00000E+00
         0.00000E+00
         0.00000E+00
         0.00000E+00
         0.00000E+00
         0.00000E+00
         0.00000E+00
         0.00000E+00
         0.00000E+00
         0.00000E+00
         0.00000E+00
         0.00000E+00
         0.00000E+00
         0.00000E+00
  
SCALARS                      strain_xy  double 1
LOOKUP_TABLE default
         0.00000E+00
         0.00000E+00
         0.00000E+00
         0.00000E+00
         0.00000E+00
         0.00000E+00
         0.00000E+00
         0.00000E+00
         0.00000E+00
         0.00000E+00
         0.00000E+00
         0.00000E+00
         0.00000E+00
         0.00000E+00
         0.00000E+00
         0.00000E+00
         0.00000E+00
         0.00000E+00
         0.00000E+00
         0.00000E+00
         0.00000E+00
         0.00000E+00
         0.00000E+00
         0.00000E+00
         0.00000E+00
         0.00000E+00
         0.00000E+00
         0.00000E+00
         0.00000E+00
         0.00000E+00
         0.00000E+00
         0.00000E+00
         0.00000E+00
         0.00000E+00
         0.00000E+00
         0.00000E+00
         0.00000E+00
         0.00000E+00
         0.00000E+00
         0.00000E+00
         0.00000E+00
         0.00000E+00
         0.00000E+00
         0.00000E+00
         0.00000E+00
         0.00000E+00
         0.00000E+00
         0.00000E+00
         0.00000E+00
         0.00000E+00
         0.00000E+00
         0.00000E+00
         0.00000E+00
         0.00000E+00
         0.00000E+00
         0.00000E+00
         0.00000E+00
         0.00000E+00
         0.00000E+00
         0.00000E+00
         0.00000E+00
         0.00000E+00
         0.00000E+00
         0.00000E+00
         0.00000E+00
         0.00000E+00
         0.00000E+00
         0.00000E+00
         0.00000E+00
         0.00000E+00
         0.00000E+00
         0.00000E+00
         0.00000E+00
         0.00000E+00
         0.00000E+00
         0.00000E+00
         0.00000E+00
         0.00000E+00
         0.00000E+00
         0.00000E+00
         0.00000E+00
         0.00000E+00
         0.00000E+00
         0.00000E+00
         0.00000E+00
         0.00000E+00
         0.00000E+00
         0.00000E+00
         0.00000E+00
         0.00000E+00
         0.00000E+00
         0.00000E+00
         0.00000E+00
         0.00000E+00
         0.00000E+00
         0.00000E+00
         0.00000E+00
         0.00000E+00
         0.00000E+00
         0.00000E+00
         0.00000E+00
         0.00000E+00
         0.00000E+00
         0.00000E+00
         0.00000E+00
         0.00000E+00
         0.00000E+00
         0.00000E+00
         0.00000E+00
         0.00000E+00
         0.00000E+00
         0.00000E+00
         0.00000E+00
         0.00000E+00
         0.00000E+00
         0.00000E+00
         0.00000E+00
         0.00000E+00
         0.00000E+00
         0.00000E+00
         0.00000E+00
         0.00000E+00
         0.00000E+00
         0.00000E+00
         0.00000E+00
         0.00000E+00
         0.00000E+00
         0.00000E+00
         0.00000E+00
         0.00000E+00
         0.00000E+00
         0.00000E+00
         0.00000E+00
         0.00000E+00
         0.00000E+00
         0.00000E+00
         0.00000E+00
         0.00000E+00
         0.00000E+00
         0.00000E+00
         0.00000E+00
         0.00000E+00
         0.00000E+00
         0.00000E+00
         0.00000E+00
         0.00000E+00
         0.00000E+00
         0.00000E+00
         0.00000E+00
         0.00000E+00
         0.00000E+00
         0.00000E+00
         0.00000E+00
         0.00000E+00
         0.00000E+00
         0.00000E+00
         0.00000E+00
         0.00000E+00
         0.00000E+00
         0.00000E+00
         0.00000E+00
         0.00000E+00
         0.00000E+00
         0.00000E+00
         0.00000E+00
         0.00000E+00
         0.00000E+00
         0.00000E+00
         0.00000E+00
         0.00000E+00
         0.00000E+00
         0.00000E+00
         0.00000E+00
         0.00000E+00
         0.00000E+00
         0.00000E+00
         0.00000E+00
         0.00000E+00
         0.00000E+00
         0.00000E+00
         0.00000E+00
         0.00000E+00
         0.00000E+00
         0.00000E+00
         0.00000E+00
         0.00000E+00
         0.00000E+00
         0.00000E+00
         0.00000E+00
         0.00000E+00
         0.00000E+00
         0.00000E+00
         0.00000E+00
         0.00000E+00
         0.00000E+00
         0.00000E+00
         0.00000E+00
         0.00000E+00
         0.00000E+00
         0.00000E+00
         0.00000E+00
         0.00000E+00
         0.00000E+00
         0.00000E+00
         0.00000E+00
         0.00000E+00
         0.00000E+00
         0.00000E+00
         0.00000E+00
         0.00000E+00
         0.00000E+00
         0.00000E+00
         0.00000E+00
         0.00000E+00
         0.00000E+00
         0.00000E+00
         0.00000E+00
         0.00000E+00
         0.00000E+00
         0.00000E+00
         0.00000E+00
         0.00000E+00
         0.00000E+00
         0.00000E+00
         0.00000E+00
         0.00000E+00
         0.00000E+00
         0.00000E+00
         0.00000E+00
         0.00000E+00
         0.00000E+00
         0.00000E+00
         0.00000E+00
         0.00000E+00
         0.00000E+00
         0.00000E+00
         0.00000E+00
         0.00000E+00
         0.00000E+00
         0.00000E+00
         0.00000E+00
         0.00000E+00
         0.00000E+00
         0.00000E+00
         0.00000E+00
         0.00000E+00
         0.00000E+00
         0.00000E+00
         0.00000E+00
         0.00000E+00
         0.00000E+00
         0.00000E+00
         0.00000E+00
         0.00000E+00
         0.00000E+00
         0.00000E+00
         0.00000E+00
         0.00000E+00
         0.00000E+00
         0.00000E+00
         0.00000E+00
         0.00000E+00
         0.00000E+00
         0.00000E+00
         0.00000E+00
         0.00000E+00
         0.00000E+00
         0.00000E+00
         0.00000E+00
         0.00000E+00
         0.00000E+00
         0.00000E+00
         0.00000E+00
         0.00000E+00
         0.00000E+00
         0.00000E+00
         0.00000E+00
         0.00000E+00
         0.00000E+00
         0.00000E+00
         0.00000E+00
         0.00000E+00
         0.00000E+00
         0.00000E+00
         0.00000E+00
         0.00000E+00
         0.00000E+00
         0.00000E+00
         0.00000E+00
         0.00000E+00
         0.00000E+00
         0.00000E+00
         0.00000E+00
         0.00000E+00
         0.00000E+00
         0.00000E+00
         0.00000E+00
         0.00000E+00
         0.00000E+00
         0.00000E+00
         0.00000E+00
         0.00000E+00
         0.00000E+00
         0.00000E+00
         0.00000E+00
         0.00000E+00
         0.00000E+00
         0.00000E+00
         0.00000E+00
         0.00000E+00
         0.00000E+00
         0.00000E+00
         0.00000E+00
         0.00000E+00
         0.00000E+00
         0.00000E+00
         0.00000E+00
         0.00000E+00
         0.00000E+00
         0.00000E+00
         0.00000E+00
         0.00000E+00
         0.00000E+00
         0.00000E+00
         0.00000E+00
         0.00000E+00
         0.00000E+00
         0.00000E+00
         0.00000E+00
         0.00000E+00
         0.00000E+00
         0.00000E+00
         0.00000E+00
         0.00000E+00
         0.00000E+00
         0.00000E+00
         0.00000E+00
         0.00000E+00
         0.00000E+00
         0.00000E+00
         0.00000E+00
         0.00000E+00
         0.00000E+00
         0.00000E+00
         0.00000E+00
         0.00000E+00
         0.00000E+00
         0.00000E+00
         0.00000E+00
         0.00000E+00
         0.00000E+00
         0.00000E+00
         0.00000E+00
         0.00000E+00
         0.00000E+00
         0.00000E+00
         0.00000E+00
         0.00000E+00
         0.00000E+00
         0.00000E+00
         0.00000E+00
         0.00000E+00
         0.00000E+00
         0.00000E+00
         0.00000E+00
         0.00000E+00
         0.00000E+00
         0.00000E+00
         0.00000E+00
         0.00000E+00
         0.00000E+00
         0.00000E+00
         0.00000E+00
         0.00000E+00
         0.00000E+00
         0.00000E+00
         0.00000E+00
         0.00000E+00
         0.00000E+00
         0.00000E+00
         0.00000E+00
         0.00000E+00
         0.00000E+00
         0.00000E+00
         0.00000E+00
         0.00000E+00
         0.00000E+00
         0.00000E+00
         0.00000E+00
         0.00000E+00
         0.00000E+00
         0.00000E+00
         0.00000E+00
         0.00000E+00
         0.00000E+00
         0.00000E+00
         0.00000E+00
         0.00000E+00
         0.00000E+00
         0.00000E+00
         0.00000E+00
         0.00000E+00
         0.00000E+00
         0.00000E+00
         0.00000E+00
         0.00000E+00
         0.00000E+00
         0.00000E+00
         0.00000E+00
         0.00000E+00
         0.00000E+00
         0.00000E+00
         0.00000E+00
         0.00000E+00
         0.00000E+00
         0.00000E+00
         0.00000E+00
         0.00000E+00
         0.00000E+00
         0.00000E+00
         0.00000E+00
         0.00000E+00
         0.00000E+00
         0.00000E+00
         0.00000E+00
         0.00000E+00
         0.00000E+00
         0.00000E+00
         0.00000E+00
         0.00000E+00
         0.00000E+00
         0.00000E+00
         0.00000E+00
         0.00000E+00
         0.00000E+00
         0.00000E+00
         0.00000E+00
         0.00000E+00
         0.00000E+00
         0.00000E+00
         0.00000E+00
         0.00000E+00
         0.00000E+00
         0.00000E+00
         0.00000E+00
         0.00000E+00
         0.00000E+00
         0.00000E+00
         0.00000E+00
         0.00000E+00
         0.00000E+00
         0.00000E+00
         0.00000E+00
         0.00000E+00
         0.00000E+00
         0.00000E+00
         0.00000E+00
         0.00000E+00
         0.00000E+00
         0.00000E+00
         0.00000E+00
         0.00000E+00
         0.00000E+00
         0.00000E+00
         0.00000E+00
         0.00000E+00
         0.00000E+00
         0.00000E+00
         0.00000E+00
         0.00000E+00
         0.00000E+00
         0.00000E+00
         0.00000E+00
         0.00000E+00
         0.00000E+00
         0.00000E+00
         0.00000E+00
         0.00000E+00
         0.00000E+00
         0.00000E+00
         0.00000E+00
         0.00000E+00
         0.00000E+00
         0.00000E+00
         0.00000E+00
         0.00000E+00
         0.00000E+00
         0.00000E+00
         0.00000E+00
         0.00000E+00
         0.00000E+00
         0.00000E+00
         0.00000E+00
         0.00000E+00
         0.00000E+00
         0.00000E+00
         0.00000E+00
         0.00000E+00
         0.00000E+00
         0.00000E+00
         0.00000E+00
         0.00000E+00
         0.00000E+00
         0.00000E+00
         0.00000E+00
         0.00000E+00
         0.00000E+00
         0.00000E+00
         0.00000E+00
         0.00000E+00
         0.00000E+00
         0.00000E+00
         0.00000E+00
         0.00000E+00
         0.00000E+00
         0.00000E+00
         0.00000E+00
         0.00000E+00
         0.00000E+00
         0.00000E+00
         0.00000E+00
         0.00000E+00
         0.00000E+00
         0.00000E+00
         0.00000E+00
         0.00000E+00
         0.00000E+00
         0.00000E+00
         0.00000E+00
         0.00000E+00
         0.00000E+00
         0.00000E+00
         0.00000E+00
         0.00000E+00
         0.00000E+00
         0.00000E+00
         0.00000E+00
         0.00000E+00
         0.00000E+00
         0.00000E+00
         0.00000E+00
         0.00000E+00
         0.00000E+00
         0.00000E+00
         0.00000E+00
         0.00000E+00
         0.00000E+00
         0.00000E+00
         0.00000E+00
         0.00000E+00
         0.00000E+00
         0.00000E+00
         0.00000E+00
         0.00000E+00
         0.00000E+00
         0.00000E+00
         0.00000E+00
         0.00000E+00
         0.00000E+00
         0.00000E+00
         0.00000E+00
         0.00000E+00
         0.00000E+00
         0.00000E+00
         0.00000E+00
         0.00000E+00
         0.00000E+00
         0.00000E+00
         0.00000E+00
         0.00000E+00
         0.00000E+00
         0.00000E+00
         0.00000E+00
         0.00000E+00
         0.00000E+00
         0.00000E+00
         0.00000E+00
         0.00000E+00
         0.00000E+00
         0.00000E+00
         0.00000E+00
         0.00000E+00
         0.00000E+00
         0.00000E+00
         0.00000E+00
         0.00000E+00
         0.00000E+00
         0.00000E+00
         0.00000E+00
         0.00000E+00
         0.00000E+00
         0.00000E+00
         0.00000E+00
         0.00000E+00
         0.00000E+00
         0.00000E+00
         0.00000E+00
         0.00000E+00
         0.00000E+00
         0.00000E+00
         0.00000E+00
         0.00000E+00
         0.00000E+00
         0.00000E+00
         0.00000E+00
         0.00000E+00
         0.00000E+00
         0.00000E+00
         0.00000E+00
         0.00000E+00
         0.00000E+00
         0.00000E+00
         0.00000E+00
         0.00000E+00
         0.00000E+00
         0.00000E+00
         0.00000E+00
         0.00000E+00
         0.00000E+00
         0.00000E+00
         0.00000E+00
         0.00000E+00
         0.00000E+00
         0.00000E+00
         0.00000E+00
         0.00000E+00
         0.00000E+00
         0.00000E+00
         0.00000E+00
         0.00000E+00
         0.00000E+00
         0.00000E+00
         0.00000E+00
         0.00000E+00
         0.00000E+00
         0.00000E+00
         0.00000E+00
         0.00000E+00
         0.00000E+00
         0.00000E+00
         0.00000E+00
         0.00000E+00
         0.00000E+00
         0.00000E+00
         0.00000E+00
         0.00000E+00
         0.00000E+00
         0.00000E+00
         0.00000E+00
         0.00000E+00
         0.00000E+00
         0.00000E+00
         0.00000E+00
         0.00000E+00
         0.00000E+00
         0.00000E+00
         0.00000E+00
         0.00000E+00
         0.00000E+00
         0.00000E+00
         0.00000E+00
         0.00000E+00
         0.00000E+00
         0.00000E+00
         0.00000E+00
         0.00000E+00
         0.00000E+00
         0.00000E+00
         0.00000E+00
         0.00000E+00
         0.00000E+00
         0.00000E+00
         0.00000E+00
         0.00000E+00
         0.00000E+00
         0.00000E+00
         0.00000E+00
         0.00000E+00
         0.00000E+00
         0.00000E+00
         0.00000E+00
         0.00000E+00
         0.00000E+00
         0.00000E+00
         0.00000E+00
         0.00000E+00
         0.00000E+00
         0.00000E+00
         0.00000E+00
         0.00000E+00
         0.00000E+00
         0.00000E+00
         0.00000E+00
         0.00000E+00
         0.00000E+00
         0.00000E+00
         0.00000E+00
         0.00000E+00
         0.00000E+00
         0.00000E+00
         0.00000E+00
         0.00000E+00
         0.00000E+00
         0.00000E+00
         0.00000E+00
         0.00000E+00
         0.00000E+00
         0.00000E+00
         0.00000E+00
         0.00000E+00
         0.00000E+00
         0.00000E+00
         0.00000E+00
         0.00000E+00
         0.00000E+00
         0.00000E+00
         0.00000E+00
         0.00000E+00
         0.00000E+00
         0.00000E+00
         0.00000E+00
         0.00000E+00
         0.00000E+00
         0.00000E+00
         0.00000E+00
         0.00000E+00
         0.00000E+00
         0.00000E+00
         0.00000E+00
         0.00000E+00
         0.00000E+00
         0.00000E+00
         0.00000E+00
         0.00000E+00
         0.00000E+00
         0.00000E+00
         0.00000E+00
         0.00000E+00
         0.00000E+00
         0.00000E+00
         0.00000E+00
         0.00000E+00
         0.00000E+00
         0.00000E+00
         0.00000E+00
         0.00000E+00
         0.00000E+00
         0.00000E+00
         0.00000E+00
         0.00000E+00
         0.00000E+00
         0.00000E+00
         0.00000E+00
         0.00000E+00
         0.00000E+00
         0.00000E+00
         0.00000E+00
         0.00000E+00
         0.00000E+00
         0.00000E+00
         0.00000E+00
         0.00000E+00
         0.00000E+00
         0.00000E+00
         0.00000E+00
         0.00000E+00
         0.00000E+00
         0.00000E+00
         0.00000E+00
         0.00000E+00
         0.00000E+00
         0.00000E+00
         0.00000E+00
         0.00000E+00
         0.00000E+00
         0.00000E+00
         0.00000E+00
         0.00000E+00
         0.00000E+00
         0.00000E+00
         0.00000E+00
         0.00000E+00
         0.00000E+00
         0.00000E+00
         0.00000E+00
         0.00000E+00
         0.00000E+00
         0.00000E+00
         0.00000E+00
         0.00000E+00
         0.00000E+00
         0.00000E+00
         0.00000E+00
         0.00000E+00
         0.00000E+00
         0.00000E+00
         0.00000E+00
         0.00000E+00
         0.00000E+00
         0.00000E+00
         0.00000E+00
         0.00000E+00
         0.00000E+00
         0.00000E+00
         0.00000E+00
         0.00000E+00
         0.00000E+00
         0.00000E+00
         0.00000E+00
         0.00000E+00
         0.00000E+00
         0.00000E+00
         0.00000E+00
         0.00000E+00
         0.00000E+00
         0.00000E+00
         0.00000E+00
         0.00000E+00
         0.00000E+00
         0.00000E+00
         0.00000E+00
         0.00000E+00
         0.00000E+00
         0.00000E+00
         0.00000E+00
         0.00000E+00
         0.00000E+00
         0.00000E+00
         0.00000E+00
         0.00000E+00
         0.00000E+00
         0.00000E+00
         0.00000E+00
         0.00000E+00
         0.00000E+00
         0.00000E+00
         0.00000E+00
         0.00000E+00
         0.00000E+00
         0.00000E+00
         0.00000E+00
         0.00000E+00
         0.00000E+00
         0.00000E+00
         0.00000E+00
         0.00000E+00
         0.00000E+00
         0.00000E+00
         0.00000E+00
         0.00000E+00
         0.00000E+00
         0.00000E+00
         0.00000E+00
         0.00000E+00
         0.00000E+00
         0.00000E+00
         0.00000E+00
         0.00000E+00
         0.00000E+00
         0.00000E+00
         0.00000E+00
         0.00000E+00
         0.00000E+00
         0.00000E+00
         0.00000E+00
         0.00000E+00
         0.00000E+00
         0.00000E+00
         0.00000E+00
         0.00000E+00
         0.00000E+00
         0.00000E+00
         0.00000E+00
         0.00000E+00
         0.00000E+00
         0.00000E+00
         0.00000E+00
         0.00000E+00
         0.00000E+00
         0.00000E+00
         0.00000E+00
         0.00000E+00
         0.00000E+00
         0.00000E+00
         0.00000E+00
         0.00000E+00
         0.00000E+00
         0.00000E+00
         0.00000E+00
         0.00000E+00
         0.00000E+00
         0.00000E+00
         0.00000E+00
         0.00000E+00
         0.00000E+00
         0.00000E+00
         0.00000E+00
         0.00000E+00
         0.00000E+00
         0.00000E+00
         0.00000E+00
         0.00000E+00
         0.00000E+00
         0.00000E+00
         0.00000E+00
         0.00000E+00
         0.00000E+00
         0.00000E+00
         0.00000E+00
         0.00000E+00
         0.00000E+00
         0.00000E+00
         0.00000E+00
         0.00000E+00
         0.00000E+00
         0.00000E+00
         0.00000E+00
         0.00000E+00
         0.00000E+00
         0.00000E+00
         0.00000E+00
         0.00000E+00
         0.00000E+00
         0.00000E+00
         0.00000E+00
         0.00000E+00
         0.00000E+00
         0.00000E+00
         0.00000E+00
         0.00000E+00
         0.00000E+00
         0.00000E+00
         0.00000E+00
         0.00000E+00
         0.00000E+00
         0.00000E+00
         0.00000E+00
         0.00000E+00
         0.00000E+00
         0.00000E+00
         0.00000E+00
         0.00000E+00
         0.00000E+00
         0.00000E+00
         0.00000E+00
         0.00000E+00
         0.00000E+00
         0.00000E+00
         0.00000E+00
         0.00000E+00
         0.00000E+00
         0.00000E+00
         0.00000E+00
         0.00000E+00
         0.00000E+00
         0.00000E+00
         0.00000E+00
         0.00000E+00
         0.00000E+00
         0.00000E+00
         0.00000E+00
         0.00000E+00
         0.00000E+00
         0.00000E+00
         0.00000E+00
         0.00000E+00
         0.00000E+00
         0.00000E+00
         0.00000E+00
         0.00000E+00
         0.00000E+00
         0.00000E+00
         0.00000E+00
         0.00000E+00
         0.00000E+00
         0.00000E+00
         0.00000E+00
         0.00000E+00
         0.00000E+00
         0.00000E+00
         0.00000E+00
         0.00000E+00
         0.00000E+00
         0.00000E+00
         0.00000E+00
         0.00000E+00
         0.00000E+00
         0.00000E+00
         0.00000E+00
         0.00000E+00
         0.00000E+00
         0.00000E+00
         0.00000E+00
         0.00000E+00
         0.00000E+00
         0.00000E+00
         0.00000E+00
         0.00000E+00
         0.00000E+00
         0.00000E+00
         0.00000E+00
         0.00000E+00
         0.00000E+00
         0.00000E+00
         0.00000E+00
         0.00000E+00
         0.00000E+00
         0.00000E+00
         0.00000E+00
         0.00000E+00
         0.00000E+00
         0.00000E+00
         0.00000E+00
         0.00000E+00
         0.00000E+00
         0.00000E+00
         0.00000E+00
         0.00000E+00
         0.00000E+00
         0.00000E+00
         0.00000E+00
         0.00000E+00
         0.00000E+00
         0.00000E+00
         0.00000E+00
         0.00000E+00
         0.00000E+00
         0.00000E+00
         0.00000E+00
         0.00000E+00
         0.00000E+00
         0.00000E+00
         0.00000E+00
         0.00000E+00
         0.00000E+00
         0.00000E+00
         0.00000E+00
         0.00000E+00
         0.00000E+00
         0.00000E+00
         0.00000E+00
         0.00000E+00
         0.00000E+00
         0.00000E+00
         0.00000E+00
         0.00000E+00
         0.00000E+00
         0.00000E+00
         0.00000E+00
         0.00000E+00
         0.00000E+00
         0.00000E+00
         0.00000E+00
         0.00000E+00
         0.00000E+00
         0.00000E+00
         0.00000E+00
         0.00000E+00
         0.00000E+00
         0.00000E+00
         0.00000E+00
         0.00000E+00
         0.00000E+00
         0.00000E+00
         0.00000E+00
         0.00000E+00
         0.00000E+00
         0.00000E+00
         0.00000E+00
         0.00000E+00
         0.00000E+00
         0.00000E+00
         0.00000E+00
         0.00000E+00
         0.00000E+00
         0.00000E+00
         0.00000E+00
         0.00000E+00
         0.00000E+00
         0.00000E+00
         0.00000E+00
         0.00000E+00
         0.00000E+00
         0.00000E+00
         0.00000E+00
         0.00000E+00
         0.00000E+00
         0.00000E+00
         0.00000E+00
         0.00000E+00
         0.00000E+00
         0.00000E+00
         0.00000E+00
         0.00000E+00
         0.00000E+00
         0.00000E+00
         0.00000E+00
         0.00000E+00
         0.00000E+00
         0.00000E+00
         0.00000E+00
         0.00000E+00
         0.00000E+00
         0.00000E+00
         0.00000E+00
         0.00000E+00
         0.00000E+00
         0.00000E+00
         0.00000E+00
         0.00000E+00
         0.00000E+00
         0.00000E+00
         0.00000E+00
         0.00000E+00
         0.00000E+00
         0.00000E+00
         0.00000E+00
         0.00000E+00
         0.00000E+00
         0.00000E+00
         0.00000E+00
         0.00000E+00
         0.00000E+00
         0.00000E+00
         0.00000E+00
         0.00000E+00
         0.00000E+00
         0.00000E+00
         0.00000E+00
         0.00000E+00
         0.00000E+00
         0.00000E+00
         0.00000E+00
         0.00000E+00
         0.00000E+00
         0.00000E+00
         0.00000E+00
         0.00000E+00
         0.00000E+00
         0.00000E+00
         0.00000E+00
         0.00000E+00
         0.00000E+00
         0.00000E+00
         0.00000E+00
         0.00000E+00
         0.00000E+00
         0.00000E+00
         0.00000E+00
         0.00000E+00
         0.00000E+00
         0.00000E+00
         0.00000E+00
         0.00000E+00
         0.00000E+00
         0.00000E+00
         0.00000E+00
         0.00000E+00
         0.00000E+00
         0.00000E+00
         0.00000E+00
         0.00000E+00
         0.00000E+00
         0.00000E+00
         0.00000E+00
         0.00000E+00
         0.00000E+00
         0.00000E+00
         0.00000E+00
         0.00000E+00
         0.00000E+00
         0.00000E+00
         0.00000E+00
         0.00000E+00
         0.00000E+00
         0.00000E+00
         0.00000E+00
         0.00000E+00
         0.00000E+00
         0.00000E+00
         0.00000E+00
         0.00000E+00
         0.00000E+00
         0.00000E+00
         0.00000E+00
         0.00000E+00
         0.00000E+00
         0.00000E+00
         0.00000E+00
         0.00000E+00
         0.00000E+00
         0.00000E+00
         0.00000E+00
         0.00000E+00
         0.00000E+00
         0.00000E+00
         0.00000E+00
         0.00000E+00
         0.00000E+00
         0.00000E+00
         0.00000E+00
         0.00000E+00
         0.00000E+00
         0.00000E+00
         0.00000E+00
         0.00000E+00
         0.00000E+00
         0.00000E+00
         0.00000E+00
         0.00000E+00
         0.00000E+00
         0.00000E+00
         0.00000E+00
         0.00000E+00
         0.00000E+00
         0.00000E+00
         0.00000E+00
         0.00000E+00
         0.00000E+00
         0.00000E+00
         0.00000E+00
         0.00000E+00
         0.00000E+00
         0.00000E+00
         0.00000E+00
         0.00000E+00
         0.00000E+00
         0.00000E+00
         0.00000E+00
         0.00000E+00
         0.00000E+00
         0.00000E+00
         0.00000E+00
         0.00000E+00
         0.00000E+00
         0.00000E+00
         0.00000E+00
         0.00000E+00
         0.00000E+00
         0.00000E+00
         0.00000E+00
         0.00000E+00
         0.00000E+00
         0.00000E+00
         0.00000E+00
         0.00000E+00
         0.00000E+00
         0.00000E+00
         0.00000E+00
         0.00000E+00
         0.00000E+00
         0.00000E+00
         0.00000E+00
         0.00000E+00
         0.00000E+00
         0.00000E+00
         0.00000E+00
         0.00000E+00
         0.00000E+00
         0.00000E+00
         0.00000E+00
         0.00000E+00
         0.00000E+00
         0.00000E+00
         0.00000E+00
         0.00000E+00
         0.00000E+00
         0.00000E+00
         0.00000E+00
         0.00000E+00
         0.00000E+00
         0.00000E+00
         0.00000E+00
         0.00000E+00
         0.00000E+00
         0.00000E+00
         0.00000E+00
         0.00000E+00
         0.00000E+00
         0.00000E+00
         0.00000E+00
         0.00000E+00
         0.00000E+00
         0.00000E+00
         0.00000E+00
         0.00000E+00
         0.00000E+00
         0.00000E+00
         0.00000E+00
         0.00000E+00
         0.00000E+00
         0.00000E+00
         0.00000E+00
         0.00000E+00
         0.00000E+00
         0.00000E+00
         0.00000E+00
         0.00000E+00
         0.00000E+00
         0.00000E+00
         0.00000E+00
         0.00000E+00
         0.00000E+00
         0.00000E+00
         0.00000E+00
         0.00000E+00
         0.00000E+00
         0.00000E+00
         0.00000E+00
         0.00000E+00
         0.00000E+00
         0.00000E+00
         0.00000E+00
         0.00000E+00
         0.00000E+00
         0.00000E+00
         0.00000E+00
         0.00000E+00
         0.00000E+00
         0.00000E+00
         0.00000E+00
         0.00000E+00
         0.00000E+00
         0.00000E+00
         0.00000E+00
         0.00000E+00
         0.00000E+00
         0.00000E+00
         0.00000E+00
         0.00000E+00
         0.00000E+00
         0.00000E+00
         0.00000E+00
         0.00000E+00
         0.00000E+00
         0.00000E+00
         0.00000E+00
         0.00000E+00
         0.00000E+00
         0.00000E+00
         0.00000E+00
         0.00000E+00
         0.00000E+00
         0.00000E+00
         0.00000E+00
         0.00000E+00
         0.00000E+00
         0.00000E+00
         0.00000E+00
         0.00000E+00
         0.00000E+00
         0.00000E+00
         0.00000E+00
         0.00000E+00
         0.00000E+00
         0.00000E+00
         0.00000E+00
         0.00000E+00
         0.00000E+00
         0.00000E+00
         0.00000E+00
         0.00000E+00
         0.00000E+00
         0.00000E+00
         0.00000E+00
         0.00000E+00
         0.00000E+00
         0.00000E+00
         0.00000E+00
         0.00000E+00
         0.00000E+00
         0.00000E+00
         0.00000E+00
         0.00000E+00
         0.00000E+00
         0.00000E+00
         0.00000E+00
         0.00000E+00
         0.00000E+00
         0.00000E+00
         0.00000E+00
         0.00000E+00
         0.00000E+00
         0.00000E+00
         0.00000E+00
         0.00000E+00
         0.00000E+00
         0.00000E+00
         0.00000E+00
         0.00000E+00
         0.00000E+00
         0.00000E+00
         0.00000E+00
         0.00000E+00
         0.00000E+00
         0.00000E+00
         0.00000E+00
         0.00000E+00
         0.00000E+00
         0.00000E+00
         0.00000E+00
         0.00000E+00
         0.00000E+00
         0.00000E+00
         0.00000E+00
         0.00000E+00
         0.00000E+00
         0.00000E+00
         0.00000E+00
         0.00000E+00
         0.00000E+00
         0.00000E+00
         0.00000E+00
         0.00000E+00
         0.00000E+00
         0.00000E+00
         0.00000E+00
         0.00000E+00
         0.00000E+00
         0.00000E+00
         0.00000E+00
         0.00000E+00
         0.00000E+00
         0.00000E+00
         0.00000E+00
         0.00000E+00
         0.00000E+00
         0.00000E+00
         0.00000E+00
         0.00000E+00
         0.00000E+00
         0.00000E+00
         0.00000E+00
         0.00000E+00
         0.00000E+00
         0.00000E+00
         0.00000E+00
         0.00000E+00
         0.00000E+00
         0.00000E+00
         0.00000E+00
         0.00000E+00
         0.00000E+00
         0.00000E+00
         0.00000E+00
         0.00000E+00
         0.00000E+00
         0.00000E+00
         0.00000E+00
         0.00000E+00
         0.00000E+00
         0.00000E+00
         0.00000E+00
         0.00000E+00
         0.00000E+00
         0.00000E+00
         0.00000E+00
         0.00000E+00
         0.00000E+00
         0.00000E+00
         0.00000E+00
         0.00000E+00
         0.00000E+00
         0.00000E+00
         0.00000E+00
         0.00000E+00
         0.00000E+00
         0.00000E+00
         0.00000E+00
         0.00000E+00
         0.00000E+00
         0.00000E+00
         0.00000E+00
         0.00000E+00
         0.00000E+00
         0.00000E+00
         0.00000E+00
         0.00000E+00
         0.00000E+00
         0.00000E+00
         0.00000E+00
         0.00000E+00
         0.00000E+00
         0.00000E+00
         0.00000E+00
         0.00000E+00
         0.00000E+00
         0.00000E+00
         0.00000E+00
         0.00000E+00
         0.00000E+00
         0.00000E+00
         0.00000E+00
         0.00000E+00
         0.00000E+00
         0.00000E+00
         0.00000E+00
         0.00000E+00
         0.00000E+00
         0.00000E+00
         0.00000E+00
         0.00000E+00
         0.00000E+00
         0.00000E+00
         0.00000E+00
         0.00000E+00
         0.00000E+00
         0.00000E+00
         0.00000E+00
         0.00000E+00
         0.00000E+00
         0.00000E+00
         0.00000E+00
         0.00000E+00
         0.00000E+00
         0.00000E+00
         0.00000E+00
         0.00000E+00
         0.00000E+00
         0.00000E+00
         0.00000E+00
         0.00000E+00
         0.00000E+00
         0.00000E+00
         0.00000E+00
         0.00000E+00
         0.00000E+00
         0.00000E+00
         0.00000E+00
         0.00000E+00
         0.00000E+00
         0.00000E+00
         0.00000E+00
         0.00000E+00
         0.00000E+00
         0.00000E+00
         0.00000E+00
         0.00000E+00
         0.00000E+00
         0.00000E+00
         0.00000E+00
         0.00000E+00
         0.00000E+00
         0.00000E+00
         0.00000E+00
         0.00000E+00
         0.00000E+00
         0.00000E+00
         0.00000E+00
         0.00000E+00
         0.00000E+00
         0.00000E+00
         0.00000E+00
         0.00000E+00
         0.00000E+00
         0.00000E+00
         0.00000E+00
         0.00000E+00
         0.00000E+00
         0.00000E+00
         0.00000E+00
         0.00000E+00
         0.00000E+00
         0.00000E+00
         0.00000E+00
         0.00000E+00
         0.00000E+00
         0.00000E+00
         0.00000E+00
         0.00000E+00
         0.00000E+00
         0.00000E+00
         0.00000E+00
         0.00000E+00
         0.00000E+00
         0.00000E+00
         0.00000E+00
         0.00000E+00
         0.00000E+00
         0.00000E+00
         0.00000E+00
         0.00000E+00
         0.00000E+00
         0.00000E+00
         0.00000E+00
         0.00000E+00
         0.00000E+00
         0.00000E+00
         0.00000E+00
         0.00000E+00
         0.00000E+00
         0.00000E+00
         0.00000E+00
         0.00000E+00
         0.00000E+00
         0.00000E+00
         0.00000E+00
         0.00000E+00
         0.00000E+00
         0.00000E+00
         0.00000E+00
         0.00000E+00
         0.00000E+00
         0.00000E+00
         0.00000E+00
         0.00000E+00
         0.00000E+00
         0.00000E+00
         0.00000E+00
         0.00000E+00
         0.00000E+00
         0.00000E+00
         0.00000E+00
         0.00000E+00
         0.00000E+00
         0.00000E+00
         0.00000E+00
         0.00000E+00
         0.00000E+00
         0.00000E+00
         0.00000E+00
         0.00000E+00
         0.00000E+00
         0.00000E+00
         0.00000E+00
         0.00000E+00
         0.00000E+00
         0.00000E+00
         0.00000E+00
         0.00000E+00
         0.00000E+00
         0.00000E+00
         0.00000E+00
         0.00000E+00
         0.00000E+00
         0.00000E+00
         0.00000E+00
         0.00000E+00
         0.00000E+00
         0.00000E+00
         0.00000E+00
         0.00000E+00
         0.00000E+00
         0.00000E+00
         0.00000E+00
         0.00000E+00
         0.00000E+00
         0.00000E+00
         0.00000E+00
         0.00000E+00
         0.00000E+00
         0.00000E+00
         0.00000E+00
         0.00000E+00
         0.00000E+00
         0.00000E+00
         0.00000E+00
         0.00000E+00
         0.00000E+00
         0.00000E+00
         0.00000E+00
         0.00000E+00
         0.00000E+00
         0.00000E+00
         0.00000E+00
         0.00000E+00
         0.00000E+00
         0.00000E+00
         0.00000E+00
         0.00000E+00
         0.00000E+00
         0.00000E+00
         0.00000E+00
         0.00000E+00
         0.00000E+00
         0.00000E+00
         0.00000E+00
         0.00000E+00
         0.00000E+00
         0.00000E+00
         0.00000E+00
         0.00000E+00
         0.00000E+00
         0.00000E+00
         0.00000E+00
         0.00000E+00
         0.00000E+00
         0.00000E+00
         0.00000E+00
         0.00000E+00
         0.00000E+00
         0.00000E+00
         0.00000E+00
         0.00000E+00
         0.00000E+00
         0.00000E+00
         0.00000E+00
         0.00000E+00
         0.00000E+00
         0.00000E+00
         0.00000E+00
         0.00000E+00
         0.00000E+00
         0.00000E+00
         0.00000E+00
         0.00000E+00
         0.00000E+00
         0.00000E+00
         0.00000E+00
         0.00000E+00
         0.00000E+00
         0.00000E+00
         0.00000E+00
         0.00000E+00
         0.00000E+00
         0.00000E+00
         0.00000E+00
         0.00000E+00
         0.00000E+00
         0.00000E+00
         0.00000E+00
         0.00000E+00
         0.00000E+00
         0.00000E+00
         0.00000E+00
         0.00000E+00
         0.00000E+00
         0.00000E+00
         0.00000E+00
         0.00000E+00
         0.00000E+00
         0.00000E+00
         0.00000E+00
         0.00000E+00
         0.00000E+00
         0.00000E+00
         0.00000E+00
         0.00000E+00
         0.00000E+00
         0.00000E+00
         0.00000E+00
         0.00000E+00
         0.00000E+00
         0.00000E+00
         0.00000E+00
         0.00000E+00
         0.00000E+00
         0.00000E+00
         0.00000E+00
         0.00000E+00
         0.00000E+00
         0.00000E+00
         0.00000E+00
         0.00000E+00
         0.00000E+00
         0.00000E+00
         0.00000E+00
         0.00000E+00
         0.00000E+00
         0.00000E+00
         0.00000E+00
         0.00000E+00
         0.00000E+00
         0.00000E+00
         0.00000E+00
         0.00000E+00
         0.00000E+00
         0.00000E+00
         0.00000E+00
         0.00000E+00
         0.00000E+00
         0.00000E+00
         0.00000E+00
         0.00000E+00
         0.00000E+00
         0.00000E+00
         0.00000E+00
         0.00000E+00
         0.00000E+00
         0.00000E+00
         0.00000E+00
         0.00000E+00
         0.00000E+00
         0.00000E+00
         0.00000E+00
         0.00000E+00
         0.00000E+00
         0.00000E+00
         0.00000E+00
         0.00000E+00
         0.00000E+00
         0.00000E+00
         0.00000E+00
         0.00000E+00
         0.00000E+00
         0.00000E+00
         0.00000E+00
         0.00000E+00
         0.00000E+00
         0.00000E+00
         0.00000E+00
         0.00000E+00
         0.00000E+00
         0.00000E+00
         0.00000E+00
         0.00000E+00
         0.00000E+00
         0.00000E+00
         0.00000E+00
         0.00000E+00
         0.00000E+00
         0.00000E+00
         0.00000E+00
         0.00000E+00
         0.00000E+00
         0.00000E+00
         0.00000E+00
         0.00000E+00
         0.00000E+00
         0.00000E+00
         0.00000E+00
         0.00000E+00
         0.00000E+00
         0.00000E+00
         0.00000E+00
         0.00000E+00
         0.00000E+00
         0.00000E+00
         0.00000E+00
         0.00000E+00
         0.00000E+00
         0.00000E+00
         0.00000E+00
         0.00000E+00
         0.00000E+00
         0.00000E+00
         0.00000E+00
         0.00000E+00
         0.00000E+00
         0.00000E+00
         0.00000E+00
         0.00000E+00
         0.00000E+00
         0.00000E+00
         0.00000E+00
         0.00000E+00
         0.00000E+00
         0.00000E+00
         0.00000E+00
         0.00000E+00
         0.00000E+00
         0.00000E+00
         0.00000E+00
         0.00000E+00
         0.00000E+00
         0.00000E+00
         0.00000E+00
         0.00000E+00
         0.00000E+00
         0.00000E+00
         0.00000E+00
         0.00000E+00
         0.00000E+00
         0.00000E+00
         0.00000E+00
         0.00000E+00
         0.00000E+00
         0.00000E+00
         0.00000E+00
         0.00000E+00
         0.00000E+00
         0.00000E+00
         0.00000E+00
         0.00000E+00
         0.00000E+00
         0.00000E+00
         0.00000E+00
         0.00000E+00
         0.00000E+00
         0.00000E+00
         0.00000E+00
         0.00000E+00
         0.00000E+00
         0.00000E+00
         0.00000E+00
         0.00000E+00
         0.00000E+00
         0.00000E+00
         0.00000E+00
         0.00000E+00
         0.00000E+00
         0.00000E+00
         0.00000E+00
         0.00000E+00
         0.00000E+00
         0.00000E+00
         0.00000E+00
         0.00000E+00
         0.00000E+00
         0.00000E+00
         0.00000E+00
         0.00000E+00
         0.00000E+00
         0.00000E+00
         0.00000E+00
         0.00000E+00
         0.00000E+00
         0.00000E+00
         0.00000E+00
         0.00000E+00
         0.00000E+00
         0.00000E+00
         0.00000E+00
         0.00000E+00
         0.00000E+00
         0.00000E+00
         0.00000E+00
         0.00000E+00
         0.00000E+00
         0.00000E+00
         0.00000E+00
         0.00000E+00
         0.00000E+00
         0.00000E+00
         0.00000E+00
         0.00000E+00
         0.00000E+00
         0.00000E+00
         0.00000E+00
         0.00000E+00
         0.00000E+00
         0.00000E+00
         0.00000E+00
         0.00000E+00
         0.00000E+00
         0.00000E+00
         0.00000E+00
         0.00000E+00
         0.00000E+00
         0.00000E+00
         0.00000E+00
         0.00000E+00
         0.00000E+00
         0.00000E+00
         0.00000E+00
         0.00000E+00
         0.00000E+00
         0.00000E+00
         0.00000E+00
         0.00000E+00
  
SCALARS                      strain_eq  double 1
LOOKUP_TABLE default
         0.00000E+00
         0.00000E+00
         0.00000E+00
         0.00000E+00
         0.00000E+00
         0.00000E+00
         0.00000E+00
         0.00000E+00
         0.00000E+00
         0.00000E+00
         0.00000E+00
         0.00000E+00
         0.00000E+00
         0.00000E+00
         0.00000E+00
         0.00000E+00
         0.00000E+00
         0.00000E+00
         0.00000E+00
         0.00000E+00
         0.00000E+00
         0.00000E+00
         0.00000E+00
         0.00000E+00
         0.00000E+00
         0.00000E+00
         0.00000E+00
         0.00000E+00
         0.00000E+00
         0.00000E+00
         0.00000E+00
         0.00000E+00
         0.00000E+00
         0.00000E+00
         0.00000E+00
         0.00000E+00
         0.00000E+00
         0.00000E+00
         0.00000E+00
         0.00000E+00
         0.00000E+00
         0.00000E+00
         0.00000E+00
         0.00000E+00
         0.00000E+00
         0.00000E+00
         0.00000E+00
         0.00000E+00
         0.00000E+00
         0.00000E+00
         0.00000E+00
         0.00000E+00
         0.00000E+00
         0.00000E+00
         0.00000E+00
         0.00000E+00
         0.00000E+00
         0.00000E+00
         0.00000E+00
         0.00000E+00
         0.00000E+00
         0.00000E+00
         0.00000E+00
         0.00000E+00
         0.00000E+00
         0.00000E+00
         0.00000E+00
         0.00000E+00
         0.00000E+00
         0.00000E+00
         0.00000E+00
         0.00000E+00
         0.00000E+00
         0.00000E+00
         0.00000E+00
         0.00000E+00
         0.00000E+00
         0.00000E+00
         0.00000E+00
         0.00000E+00
         0.00000E+00
         0.00000E+00
         0.00000E+00
         0.00000E+00
         0.00000E+00
         0.00000E+00
         0.00000E+00
         0.00000E+00
         0.00000E+00
         0.00000E+00
         0.00000E+00
         0.00000E+00
         0.00000E+00
         0.00000E+00
         0.00000E+00
         0.00000E+00
         0.00000E+00
         0.00000E+00
         0.00000E+00
         0.00000E+00
         0.00000E+00
         0.00000E+00
         0.00000E+00
         0.00000E+00
         0.00000E+00
         0.00000E+00
         0.00000E+00
         0.00000E+00
         0.00000E+00
         0.00000E+00
         0.00000E+00
         0.00000E+00
         0.00000E+00
         0.00000E+00
         0.00000E+00
         0.00000E+00
         0.00000E+00
         0.00000E+00
         0.00000E+00
         0.00000E+00
         0.00000E+00
         0.00000E+00
         0.00000E+00
         0.00000E+00
         0.00000E+00
         0.00000E+00
         0.00000E+00
         0.00000E+00
         0.00000E+00
         0.00000E+00
         0.00000E+00
         0.00000E+00
         0.00000E+00
         0.00000E+00
         0.00000E+00
         0.00000E+00
         0.00000E+00
         0.00000E+00
         0.00000E+00
         0.00000E+00
         0.00000E+00
         0.00000E+00
         0.00000E+00
         0.00000E+00
         0.00000E+00
         0.00000E+00
         0.00000E+00
         0.00000E+00
         0.00000E+00
         0.00000E+00
         0.00000E+00
         0.00000E+00
         0.00000E+00
         0.00000E+00
         0.00000E+00
         0.00000E+00
         0.00000E+00
         0.00000E+00
         0.00000E+00
         0.00000E+00
         0.00000E+00
         0.00000E+00
         0.00000E+00
         0.00000E+00
         0.00000E+00
         0.00000E+00
         0.00000E+00
         0.00000E+00
         0.00000E+00
         0.00000E+00
         0.00000E+00
         0.00000E+00
         0.00000E+00
         0.00000E+00
         0.00000E+00
         0.00000E+00
         0.00000E+00
         0.00000E+00
         0.00000E+00
         0.00000E+00
         0.00000E+00
         0.00000E+00
         0.00000E+00
         0.00000E+00
         0.00000E+00
         0.00000E+00
         0.00000E+00
         0.00000E+00
         0.00000E+00
         0.00000E+00
         0.00000E+00
         0.00000E+00
         0.00000E+00
         0.00000E+00
         0.00000E+00
         0.00000E+00
         0.00000E+00
         0.00000E+00
         0.00000E+00
         0.00000E+00
         0.00000E+00
         0.00000E+00
         0.00000E+00
         0.00000E+00
         0.00000E+00
         0.00000E+00
         0.00000E+00
         0.00000E+00
         0.00000E+00
         0.00000E+00
         0.00000E+00
         0.00000E+00
         0.00000E+00
         0.00000E+00
         0.00000E+00
         0.00000E+00
         0.00000E+00
         0.00000E+00
         0.00000E+00
         0.00000E+00
         0.00000E+00
         0.00000E+00
         0.00000E+00
         0.00000E+00
         0.00000E+00
         0.00000E+00
         0.00000E+00
         0.00000E+00
         0.00000E+00
         0.00000E+00
         0.00000E+00
         0.00000E+00
         0.00000E+00
         0.00000E+00
         0.00000E+00
         0.00000E+00
         0.00000E+00
         0.00000E+00
         0.00000E+00
         0.00000E+00
         0.00000E+00
         0.00000E+00
         0.00000E+00
         0.00000E+00
         0.00000E+00
         0.00000E+00
         0.00000E+00
         0.00000E+00
         0.00000E+00
         0.00000E+00
         0.00000E+00
         0.00000E+00
         0.00000E+00
         0.00000E+00
         0.00000E+00
         0.00000E+00
         0.00000E+00
         0.00000E+00
         0.00000E+00
         0.00000E+00
         0.00000E+00
         0.00000E+00
         0.00000E+00
         0.00000E+00
         0.00000E+00
         0.00000E+00
         0.00000E+00
         0.00000E+00
         0.00000E+00
         0.00000E+00
         0.00000E+00
         0.00000E+00
         0.00000E+00
         0.00000E+00
         0.00000E+00
         0.00000E+00
         0.00000E+00
         0.00000E+00
         0.00000E+00
         0.00000E+00
         0.00000E+00
         0.00000E+00
         0.00000E+00
         0.00000E+00
         0.00000E+00
         0.00000E+00
         0.00000E+00
         0.00000E+00
         0.00000E+00
         0.00000E+00
         0.00000E+00
         0.00000E+00
         0.00000E+00
         0.00000E+00
         0.00000E+00
         0.00000E+00
         0.00000E+00
         0.00000E+00
         0.00000E+00
         0.00000E+00
         0.00000E+00
         0.00000E+00
         0.00000E+00
         0.00000E+00
         0.00000E+00
         0.00000E+00
         0.00000E+00
         0.00000E+00
         0.00000E+00
         0.00000E+00
         0.00000E+00
         0.00000E+00
         0.00000E+00
         0.00000E+00
         0.00000E+00
         0.00000E+00
         0.00000E+00
         0.00000E+00
         0.00000E+00
         0.00000E+00
         0.00000E+00
         0.00000E+00
         0.00000E+00
         0.00000E+00
         0.00000E+00
         0.00000E+00
         0.00000E+00
         0.00000E+00
         0.00000E+00
         0.00000E+00
         0.00000E+00
         0.00000E+00
         0.00000E+00
         0.00000E+00
         0.00000E+00
         0.00000E+00
         0.00000E+00
         0.00000E+00
         0.00000E+00
         0.00000E+00
         0.00000E+00
         0.00000E+00
         0.00000E+00
         0.00000E+00
         0.00000E+00
         0.00000E+00
         0.00000E+00
         0.00000E+00
         0.00000E+00
         0.00000E+00
         0.00000E+00
         0.00000E+00
         0.00000E+00
         0.00000E+00
         0.00000E+00
         0.00000E+00
         0.00000E+00
         0.00000E+00
         0.00000E+00
         0.00000E+00
         0.00000E+00
         0.00000E+00
         0.00000E+00
         0.00000E+00
         0.00000E+00
         0.00000E+00
         0.00000E+00
         0.00000E+00
         0.00000E+00
         0.00000E+00
         0.00000E+00
         0.00000E+00
         0.00000E+00
         0.00000E+00
         0.00000E+00
         0.00000E+00
         0.00000E+00
         0.00000E+00
         0.00000E+00
         0.00000E+00
         0.00000E+00
         0.00000E+00
         0.00000E+00
         0.00000E+00
         0.00000E+00
         0.00000E+00
         0.00000E+00
         0.00000E+00
         0.00000E+00
         0.00000E+00
         0.00000E+00
         0.00000E+00
         0.00000E+00
         0.00000E+00
         0.00000E+00
         0.00000E+00
         0.00000E+00
         0.00000E+00
         0.00000E+00
         0.00000E+00
         0.00000E+00
         0.00000E+00
         0.00000E+00
         0.00000E+00
         0.00000E+00
         0.00000E+00
         0.00000E+00
         0.00000E+00
         0.00000E+00
         0.00000E+00
         0.00000E+00
         0.00000E+00
         0.00000E+00
         0.00000E+00
         0.00000E+00
         0.00000E+00
         0.00000E+00
         0.00000E+00
         0.00000E+00
         0.00000E+00
         0.00000E+00
         0.00000E+00
         0.00000E+00
         0.00000E+00
         0.00000E+00
         0.00000E+00
         0.00000E+00
         0.00000E+00
         0.00000E+00
         0.00000E+00
         0.00000E+00
         0.00000E+00
         0.00000E+00
         0.00000E+00
         0.00000E+00
         0.00000E+00
         0.00000E+00
         0.00000E+00
         0.00000E+00
         0.00000E+00
         0.00000E+00
         0.00000E+00
         0.00000E+00
         0.00000E+00
         0.00000E+00
         0.00000E+00
         0.00000E+00
         0.00000E+00
         0.00000E+00
         0.00000E+00
         0.00000E+00
         0.00000E+00
         0.00000E+00
         0.00000E+00
         0.00000E+00
         0.00000E+00
         0.00000E+00
         0.00000E+00
         0.00000E+00
         0.00000E+00
         0.00000E+00
         0.00000E+00
         0.00000E+00
         0.00000E+00
         0.00000E+00
         0.00000E+00
         0.00000E+00
         0.00000E+00
         0.00000E+00
         0.00000E+00
         0.00000E+00
         0.00000E+00
         0.00000E+00
         0.00000E+00
         0.00000E+00
         0.00000E+00
         0.00000E+00
         0.00000E+00
         0.00000E+00
         0.00000E+00
         0.00000E+00
         0.00000E+00
         0.00000E+00
         0.00000E+00
         0.00000E+00
         0.00000E+00
         0.00000E+00
         0.00000E+00
         0.00000E+00
         0.00000E+00
         0.00000E+00
         0.00000E+00
         0.00000E+00
         0.00000E+00
         0.00000E+00
         0.00000E+00
         0.00000E+00
         0.00000E+00
         0.00000E+00
         0.00000E+00
         0.00000E+00
         0.00000E+00
         0.00000E+00
         0.00000E+00
         0.00000E+00
         0.00000E+00
         0.00000E+00
         0.00000E+00
         0.00000E+00
         0.00000E+00
         0.00000E+00
         0.00000E+00
         0.00000E+00
         0.00000E+00
         0.00000E+00
         0.00000E+00
         0.00000E+00
         0.00000E+00
         0.00000E+00
         0.00000E+00
         0.00000E+00
         0.00000E+00
         0.00000E+00
         0.00000E+00
         0.00000E+00
         0.00000E+00
         0.00000E+00
         0.00000E+00
         0.00000E+00
         0.00000E+00
         0.00000E+00
         0.00000E+00
         0.00000E+00
         0.00000E+00
         0.00000E+00
         0.00000E+00
         0.00000E+00
         0.00000E+00
         0.00000E+00
         0.00000E+00
         0.00000E+00
         0.00000E+00
         0.00000E+00
         0.00000E+00
         0.00000E+00
         0.00000E+00
         0.00000E+00
         0.00000E+00
         0.00000E+00
         0.00000E+00
         0.00000E+00
         0.00000E+00
         0.00000E+00
         0.00000E+00
         0.00000E+00
         0.00000E+00
         0.00000E+00
         0.00000E+00
         0.00000E+00
         0.00000E+00
         0.00000E+00
         0.00000E+00
         0.00000E+00
         0.00000E+00
         0.00000E+00
         0.00000E+00
         0.00000E+00
         0.00000E+00
         0.00000E+00
         0.00000E+00
         0.00000E+00
         0.00000E+00
         0.00000E+00
         0.00000E+00
         0.00000E+00
         0.00000E+00
         0.00000E+00
         0.00000E+00
         0.00000E+00
         0.00000E+00
         0.00000E+00
         0.00000E+00
         0.00000E+00
         0.00000E+00
         0.00000E+00
         0.00000E+00
         0.00000E+00
         0.00000E+00
         0.00000E+00
         0.00000E+00
         0.00000E+00
         0.00000E+00
         0.00000E+00
         0.00000E+00
         0.00000E+00
         0.00000E+00
         0.00000E+00
         0.00000E+00
         0.00000E+00
         0.00000E+00
         0.00000E+00
         0.00000E+00
         0.00000E+00
         0.00000E+00
         0.00000E+00
         0.00000E+00
         0.00000E+00
         0.00000E+00
         0.00000E+00
         0.00000E+00
         0.00000E+00
         0.00000E+00
         0.00000E+00
         0.00000E+00
         0.00000E+00
         0.00000E+00
         0.00000E+00
         0.00000E+00
         0.00000E+00
         0.00000E+00
         0.00000E+00
         0.00000E+00
         0.00000E+00
         0.00000E+00
         0.00000E+00
         0.00000E+00
         0.00000E+00
         0.00000E+00
         0.00000E+00
         0.00000E+00
         0.00000E+00
         0.00000E+00
         0.00000E+00
         0.00000E+00
         0.00000E+00
         0.00000E+00
         0.00000E+00
         0.00000E+00
         0.00000E+00
         0.00000E+00
         0.00000E+00
         0.00000E+00
         0.00000E+00
         0.00000E+00
         0.00000E+00
         0.00000E+00
         0.00000E+00
         0.00000E+00
         0.00000E+00
         0.00000E+00
         0.00000E+00
         0.00000E+00
         0.00000E+00
         0.00000E+00
         0.00000E+00
         0.00000E+00
         0.00000E+00
         0.00000E+00
         0.00000E+00
         0.00000E+00
         0.00000E+00
         0.00000E+00
         0.00000E+00
         0.00000E+00
         0.00000E+00
         0.00000E+00
         0.00000E+00
         0.00000E+00
         0.00000E+00
         0.00000E+00
         0.00000E+00
         0.00000E+00
         0.00000E+00
         0.00000E+00
         0.00000E+00
         0.00000E+00
         0.00000E+00
         0.00000E+00
         0.00000E+00
         0.00000E+00
         0.00000E+00
         0.00000E+00
         0.00000E+00
         0.00000E+00
         0.00000E+00
         0.00000E+00
         0.00000E+00
         0.00000E+00
         0.00000E+00
         0.00000E+00
         0.00000E+00
         0.00000E+00
         0.00000E+00
         0.00000E+00
         0.00000E+00
         0.00000E+00
         0.00000E+00
         0.00000E+00
         0.00000E+00
         0.00000E+00
         0.00000E+00
         0.00000E+00
         0.00000E+00
         0.00000E+00
         0.00000E+00
         0.00000E+00
         0.00000E+00
         0.00000E+00
         0.00000E+00
         0.00000E+00
         0.00000E+00
         0.00000E+00
         0.00000E+00
         0.00000E+00
         0.00000E+00
         0.00000E+00
         0.00000E+00
         0.00000E+00
         0.00000E+00
         0.00000E+00
         0.00000E+00
         0.00000E+00
         0.00000E+00
         0.00000E+00
         0.00000E+00
         0.00000E+00
         0.00000E+00
         0.00000E+00
         0.00000E+00
         0.00000E+00
         0.00000E+00
         0.00000E+00
         0.00000E+00
         0.00000E+00
         0.00000E+00
         0.00000E+00
         0.00000E+00
         0.00000E+00
         0.00000E+00
         0.00000E+00
         0.00000E+00
         0.00000E+00
         0.00000E+00
         0.00000E+00
         0.00000E+00
         0.00000E+00
         0.00000E+00
         0.00000E+00
         0.00000E+00
         0.00000E+00
         0.00000E+00
         0.00000E+00
         0.00000E+00
         0.00000E+00
         0.00000E+00
         0.00000E+00
         0.00000E+00
         0.00000E+00
         0.00000E+00
         0.00000E+00
         0.00000E+00
         0.00000E+00
         0.00000E+00
         0.00000E+00
         0.00000E+00
         0.00000E+00
         0.00000E+00
         0.00000E+00
         0.00000E+00
         0.00000E+00
         0.00000E+00
         0.00000E+00
         0.00000E+00
         0.00000E+00
         0.00000E+00
         0.00000E+00
         0.00000E+00
         0.00000E+00
         0.00000E+00
         0.00000E+00
         0.00000E+00
         0.00000E+00
         0.00000E+00
         0.00000E+00
         0.00000E+00
         0.00000E+00
         0.00000E+00
         0.00000E+00
         0.00000E+00
         0.00000E+00
         0.00000E+00
         0.00000E+00
         0.00000E+00
         0.00000E+00
         0.00000E+00
         0.00000E+00
         0.00000E+00
         0.00000E+00
         0.00000E+00
         0.00000E+00
         0.00000E+00
         0.00000E+00
         0.00000E+00
         0.00000E+00
         0.00000E+00
         0.00000E+00
         0.00000E+00
         0.00000E+00
         0.00000E+00
         0.00000E+00
         0.00000E+00
         0.00000E+00
         0.00000E+00
         0.00000E+00
         0.00000E+00
         0.00000E+00
         0.00000E+00
         0.00000E+00
         0.00000E+00
         0.00000E+00
         0.00000E+00
         0.00000E+00
         0.00000E+00
         0.00000E+00
         0.00000E+00
         0.00000E+00
         0.00000E+00
         0.00000E+00
         0.00000E+00
         0.00000E+00
         0.00000E+00
         0.00000E+00
         0.00000E+00
         0.00000E+00
         0.00000E+00
         0.00000E+00
         0.00000E+00
         0.00000E+00
         0.00000E+00
         0.00000E+00
         0.00000E+00
         0.00000E+00
         0.00000E+00
         0.00000E+00
         0.00000E+00
         0.00000E+00
         0.00000E+00
         0.00000E+00
         0.00000E+00
         0.00000E+00
         0.00000E+00
         0.00000E+00
         0.00000E+00
         0.00000E+00
         0.00000E+00
         0.00000E+00
         0.00000E+00
         0.00000E+00
         0.00000E+00
         0.00000E+00
         0.00000E+00
         0.00000E+00
         0.00000E+00
         0.00000E+00
         0.00000E+00
         0.00000E+00
         0.00000E+00
         0.00000E+00
         0.00000E+00
         0.00000E+00
         0.00000E+00
         0.00000E+00
         0.00000E+00
         0.00000E+00
         0.00000E+00
         0.00000E+00
         0.00000E+00
         0.00000E+00
         0.00000E+00
         0.00000E+00
         0.00000E+00
         0.00000E+00
         0.00000E+00
         0.00000E+00
         0.00000E+00
         0.00000E+00
         0.00000E+00
         0.00000E+00
         0.00000E+00
         0.00000E+00
         0.00000E+00
         0.00000E+00
         0.00000E+00
         0.00000E+00
         0.00000E+00
         0.00000E+00
         0.00000E+00
         0.00000E+00
         0.00000E+00
         0.00000E+00
         0.00000E+00
         0.00000E+00
         0.00000E+00
         0.00000E+00
         0.00000E+00
         0.00000E+00
         0.00000E+00
         0.00000E+00
         0.00000E+00
         0.00000E+00
         0.00000E+00
         0.00000E+00
         0.00000E+00
         0.00000E+00
         0.00000E+00
         0.00000E+00
         0.00000E+00
         0.00000E+00
         0.00000E+00
         0.00000E+00
         0.00000E+00
         0.00000E+00
         0.00000E+00
         0.00000E+00
         0.00000E+00
         0.00000E+00
         0.00000E+00
         0.00000E+00
         0.00000E+00
         0.00000E+00
         0.00000E+00
         0.00000E+00
         0.00000E+00
         0.00000E+00
         0.00000E+00
         0.00000E+00
         0.00000E+00
         0.00000E+00
         0.00000E+00
         0.00000E+00
         0.00000E+00
         0.00000E+00
         0.00000E+00
         0.00000E+00
         0.00000E+00
         0.00000E+00
         0.00000E+00
         0.00000E+00
         0.00000E+00
         0.00000E+00
         0.00000E+00
         0.00000E+00
         0.00000E+00
         0.00000E+00
         0.00000E+00
         0.00000E+00
         0.00000E+00
         0.00000E+00
         0.00000E+00
         0.00000E+00
         0.00000E+00
         0.00000E+00
         0.00000E+00
         0.00000E+00
         0.00000E+00
         0.00000E+00
         0.00000E+00
         0.00000E+00
         0.00000E+00
         0.00000E+00
         0.00000E+00
         0.00000E+00
         0.00000E+00
         0.00000E+00
         0.00000E+00
         0.00000E+00
         0.00000E+00
         0.00000E+00
         0.00000E+00
         0.00000E+00
         0.00000E+00
         0.00000E+00
         0.00000E+00
         0.00000E+00
         0.00000E+00
         0.00000E+00
         0.00000E+00
         0.00000E+00
         0.00000E+00
         0.00000E+00
         0.00000E+00
         0.00000E+00
         0.00000E+00
         0.00000E+00
         0.00000E+00
         0.00000E+00
         0.00000E+00
         0.00000E+00
         0.00000E+00
         0.00000E+00
         0.00000E+00
         0.00000E+00
         0.00000E+00
         0.00000E+00
         0.00000E+00
         0.00000E+00
         0.00000E+00
         0.00000E+00
         0.00000E+00
         0.00000E+00
         0.00000E+00
         0.00000E+00
         0.00000E+00
         0.00000E+00
         0.00000E+00
         0.00000E+00
         0.00000E+00
         0.00000E+00
         0.00000E+00
         0.00000E+00
         0.00000E+00
         0.00000E+00
         0.00000E+00
         0.00000E+00
         0.00000E+00
         0.00000E+00
         0.00000E+00
         0.00000E+00
         0.00000E+00
         0.00000E+00
         0.00000E+00
         0.00000E+00
         0.00000E+00
         0.00000E+00
         0.00000E+00
         0.00000E+00
         0.00000E+00
         0.00000E+00
         0.00000E+00
         0.00000E+00
         0.00000E+00
         0.00000E+00
         0.00000E+00
         0.00000E+00
         0.00000E+00
         0.00000E+00
         0.00000E+00
         0.00000E+00
         0.00000E+00
         0.00000E+00
         0.00000E+00
         0.00000E+00
         0.00000E+00
         0.00000E+00
         0.00000E+00
         0.00000E+00
         0.00000E+00
         0.00000E+00
         0.00000E+00
         0.00000E+00
         0.00000E+00
         0.00000E+00
         0.00000E+00
         0.00000E+00
         0.00000E+00
         0.00000E+00
         0.00000E+00
         0.00000E+00
         0.00000E+00
         0.00000E+00
         0.00000E+00
         0.00000E+00
         0.00000E+00
         0.00000E+00
         0.00000E+00
         0.00000E+00
         0.00000E+00
         0.00000E+00
         0.00000E+00
         0.00000E+00
         0.00000E+00
         0.00000E+00
         0.00000E+00
         0.00000E+00
         0.00000E+00
         0.00000E+00
         0.00000E+00
         0.00000E+00
         0.00000E+00
         0.00000E+00
         0.00000E+00
         0.00000E+00
         0.00000E+00
         0.00000E+00
         0.00000E+00
         0.00000E+00
         0.00000E+00
         0.00000E+00
         0.00000E+00
         0.00000E+00
         0.00000E+00
         0.00000E+00
         0.00000E+00
         0.00000E+00
         0.00000E+00
         0.00000E+00
         0.00000E+00
         0.00000E+00
         0.00000E+00
         0.00000E+00
         0.00000E+00
         0.00000E+00
         0.00000E+00
         0.00000E+00
         0.00000E+00
         0.00000E+00
         0.00000E+00
         0.00000E+00
         0.00000E+00
         0.00000E+00
         0.00000E+00
         0.00000E+00
         0.00000E+00
         0.00000E+00
         0.00000E+00
         0.00000E+00
         0.00000E+00
         0.00000E+00
         0.00000E+00
         0.00000E+00
         0.00000E+00
         0.00000E+00
         0.00000E+00
         0.00000E+00
         0.00000E+00
         0.00000E+00
         0.00000E+00
         0.00000E+00
         0.00000E+00
         0.00000E+00
         0.00000E+00
         0.00000E+00
         0.00000E+00
         0.00000E+00
         0.00000E+00
         0.00000E+00
         0.00000E+00
         0.00000E+00
         0.00000E+00
         0.00000E+00
         0.00000E+00
         0.00000E+00
         0.00000E+00
         0.00000E+00
         0.00000E+00
         0.00000E+00
         0.00000E+00
         0.00000E+00
         0.00000E+00
         0.00000E+00
         0.00000E+00
         0.00000E+00
         0.00000E+00
         0.00000E+00
         0.00000E+00
         0.00000E+00
         0.00000E+00
         0.00000E+00
         0.00000E+00
         0.00000E+00
         0.00000E+00
         0.00000E+00
         0.00000E+00
         0.00000E+00
         0.00000E+00
         0.00000E+00
         0.00000E+00
         0.00000E+00
         0.00000E+00
         0.00000E+00
         0.00000E+00
         0.00000E+00
         0.00000E+00
         0.00000E+00
         0.00000E+00
         0.00000E+00
         0.00000E+00
         0.00000E+00
         0.00000E+00
         0.00000E+00
         0.00000E+00
         0.00000E+00
         0.00000E+00
         0.00000E+00
         0.00000E+00
         0.00000E+00
         0.00000E+00
         0.00000E+00
         0.00000E+00
         0.00000E+00
         0.00000E+00
         0.00000E+00
         0.00000E+00
         0.00000E+00
         0.00000E+00
         0.00000E+00
         0.00000E+00
         0.00000E+00
         0.00000E+00
         0.00000E+00
         0.00000E+00
         0.00000E+00
         0.00000E+00
         0.00000E+00
         0.00000E+00
         0.00000E+00
         0.00000E+00
         0.00000E+00
         0.00000E+00
         0.00000E+00
         0.00000E+00
         0.00000E+00
         0.00000E+00
         0.00000E+00
         0.00000E+00
         0.00000E+00
         0.00000E+00
         0.00000E+00
         0.00000E+00
         0.00000E+00
         0.00000E+00
         0.00000E+00
         0.00000E+00
         0.00000E+00
         0.00000E+00
         0.00000E+00
         0.00000E+00
         0.00000E+00
         0.00000E+00
         0.00000E+00
         0.00000E+00
         0.00000E+00
         0.00000E+00
         0.00000E+00
         0.00000E+00
         0.00000E+00
         0.00000E+00
         0.00000E+00
         0.00000E+00
         0.00000E+00
         0.00000E+00
         0.00000E+00
         0.00000E+00
         0.00000E+00
         0.00000E+00
         0.00000E+00
         0.00000E+00
         0.00000E+00
         0.00000E+00
         0.00000E+00
         0.00000E+00
         0.00000E+00
         0.00000E+00
         0.00000E+00
         0.00000E+00
         0.00000E+00
         0.00000E+00
         0.00000E+00
         0.00000E+00
         0.00000E+00
         0.00000E+00
         0.00000E+00
         0.00000E+00
         0.00000E+00
         0.00000E+00
         0.00000E+00
         0.00000E+00
         0.00000E+00
         0.00000E+00
         0.00000E+00
         0.00000E+00
         0.00000E+00
         0.00000E+00
         0.00000E+00
         0.00000E+00
         0.00000E+00
         0.00000E+00
         0.00000E+00
         0.00000E+00
         0.00000E+00
         0.00000E+00
         0.00000E+00
         0.00000E+00
         0.00000E+00
         0.00000E+00
         0.00000E+00
         0.00000E+00
         0.00000E+00
         0.00000E+00
         0.00000E+00
         0.00000E+00
         0.00000E+00
         0.00000E+00
         0.00000E+00
         0.00000E+00
         0.00000E+00
         0.00000E+00
         0.00000E+00
         0.00000E+00
         0.00000E+00
         0.00000E+00
         0.00000E+00
         0.00000E+00
         0.00000E+00
         0.00000E+00
         0.00000E+00
         0.00000E+00
         0.00000E+00
         0.00000E+00
         0.00000E+00
         0.00000E+00
         0.00000E+00
         0.00000E+00
         0.00000E+00
         0.00000E+00
         0.00000E+00
         0.00000E+00
         0.00000E+00
         0.00000E+00
         0.00000E+00
         0.00000E+00
         0.00000E+00
         0.00000E+00
         0.00000E+00
         0.00000E+00
         0.00000E+00
         0.00000E+00
         0.00000E+00
         0.00000E+00
         0.00000E+00
         0.00000E+00
         0.00000E+00
         0.00000E+00
         0.00000E+00
         0.00000E+00
         0.00000E+00
         0.00000E+00
         0.00000E+00
         0.00000E+00
         0.00000E+00
         0.00000E+00
         0.00000E+00
         0.00000E+00
         0.00000E+00
         0.00000E+00
         0.00000E+00
         0.00000E+00
         0.00000E+00
         0.00000E+00
         0.00000E+00
         0.00000E+00
         0.00000E+00
         0.00000E+00
         0.00000E+00
         0.00000E+00
         0.00000E+00
         0.00000E+00
         0.00000E+00
         0.00000E+00
         0.00000E+00
         0.00000E+00
         0.00000E+00
         0.00000E+00
         0.00000E+00
         0.00000E+00
         0.00000E+00
         0.00000E+00
         0.00000E+00
         0.00000E+00
         0.00000E+00
         0.00000E+00
         0.00000E+00
         0.00000E+00
         0.00000E+00
         0.00000E+00
         0.00000E+00
         0.00000E+00
         0.00000E+00
         0.00000E+00
         0.00000E+00
         0.00000E+00
         0.00000E+00
         0.00000E+00
         0.00000E+00
         0.00000E+00
         0.00000E+00
         0.00000E+00
         0.00000E+00
         0.00000E+00
         0.00000E+00
         0.00000E+00
         0.00000E+00
         0.00000E+00
         0.00000E+00
         0.00000E+00
         0.00000E+00
         0.00000E+00
         0.00000E+00
         0.00000E+00
         0.00000E+00
         0.00000E+00
         0.00000E+00
         0.00000E+00
         0.00000E+00
         0.00000E+00
         0.00000E+00
         0.00000E+00
         0.00000E+00
         0.00000E+00
         0.00000E+00
         0.00000E+00
         0.00000E+00
         0.00000E+00
         0.00000E+00
         0.00000E+00
         0.00000E+00
         0.00000E+00
         0.00000E+00
         0.00000E+00
         0.00000E+00
         0.00000E+00
         0.00000E+00
         0.00000E+00
         0.00000E+00
         0.00000E+00
         0.00000E+00
         0.00000E+00
         0.00000E+00
         0.00000E+00
         0.00000E+00
         0.00000E+00
         0.00000E+00
         0.00000E+00
         0.00000E+00
         0.00000E+00
         0.00000E+00
         0.00000E+00
         0.00000E+00
         0.00000E+00
         0.00000E+00
         0.00000E+00
         0.00000E+00
         0.00000E+00
         0.00000E+00
         0.00000E+00
         0.00000E+00
         0.00000E+00
         0.00000E+00
         0.00000E+00
         0.00000E+00
         0.00000E+00
         0.00000E+00
         0.00000E+00
         0.00000E+00
         0.00000E+00
         0.00000E+00
         0.00000E+00
         0.00000E+00
         0.00000E+00
         0.00000E+00
         0.00000E+00
         0.00000E+00
         0.00000E+00
         0.00000E+00
         0.00000E+00
         0.00000E+00
         0.00000E+00
         0.00000E+00
         0.00000E+00
         0.00000E+00
         0.00000E+00
         0.00000E+00
         0.00000E+00
         0.00000E+00
         0.00000E+00
         0.00000E+00
         0.00000E+00
         0.00000E+00
         0.00000E+00
         0.00000E+00
         0.00000E+00
         0.00000E+00
         0.00000E+00
         0.00000E+00
         0.00000E+00
         0.00000E+00
         0.00000E+00
         0.00000E+00
         0.00000E+00
         0.00000E+00
         0.00000E+00
         0.00000E+00
         0.00000E+00
         0.00000E+00
         0.00000E+00
         0.00000E+00
         0.00000E+00
         0.00000E+00
         0.00000E+00
         0.00000E+00
         0.00000E+00
         0.00000E+00
         0.00000E+00
         0.00000E+00
         0.00000E+00
         0.00000E+00
         0.00000E+00
         0.00000E+00
         0.00000E+00
         0.00000E+00
         0.00000E+00
         0.00000E+00
         0.00000E+00
         0.00000E+00
         0.00000E+00
         0.00000E+00
         0.00000E+00
         0.00000E+00
         0.00000E+00
         0.00000E+00
         0.00000E+00
         0.00000E+00
         0.00000E+00
         0.00000E+00
         0.00000E+00
         0.00000E+00
         0.00000E+00
         0.00000E+00
         0.00000E+00
         0.00000E+00
         0.00000E+00
         0.00000E+00
         0.00000E+00
         0.00000E+00
         0.00000E+00
         0.00000E+00
         0.00000E+00
         0.00000E+00
         0.00000E+00
         0.00000E+00
         0.00000E+00
         0.00000E+00
         0.00000E+00
         0.00000E+00
         0.00000E+00
         0.00000E+00
         0.00000E+00
         0.00000E+00
         0.00000E+00
         0.00000E+00
         0.00000E+00
         0.00000E+00
         0.00000E+00
         0.00000E+00
         0.00000E+00
         0.00000E+00
         0.00000E+00
         0.00000E+00
         0.00000E+00
         0.00000E+00
         0.00000E+00
         0.00000E+00
         0.00000E+00
         0.00000E+00
         0.00000E+00
         0.00000E+00
         0.00000E+00
         0.00000E+00
         0.00000E+00
         0.00000E+00
         0.00000E+00
         0.00000E+00
         0.00000E+00
         0.00000E+00
         0.00000E+00
         0.00000E+00
         0.00000E+00
         0.00000E+00
         0.00000E+00
         0.00000E+00
         0.00000E+00
         0.00000E+00
         0.00000E+00
         0.00000E+00
         0.00000E+00
         0.00000E+00
         0.00000E+00
         0.00000E+00
         0.00000E+00
         0.00000E+00
         0.00000E+00
         0.00000E+00
         0.00000E+00
         0.00000E+00
         0.00000E+00
         0.00000E+00
         0.00000E+00
         0.00000E+00
         0.00000E+00
         0.00000E+00
         0.00000E+00
         0.00000E+00
         0.00000E+00
         0.00000E+00
         0.00000E+00
         0.00000E+00
         0.00000E+00
         0.00000E+00
         0.00000E+00
         0.00000E+00
         0.00000E+00
         0.00000E+00
         0.00000E+00
         0.00000E+00
         0.00000E+00
         0.00000E+00
         0.00000E+00
         0.00000E+00
         0.00000E+00
         0.00000E+00
         0.00000E+00
         0.00000E+00
         0.00000E+00
         0.00000E+00
         0.00000E+00
         0.00000E+00
         0.00000E+00
         0.00000E+00
         0.00000E+00
         0.00000E+00
         0.00000E+00
         0.00000E+00
         0.00000E+00
         0.00000E+00
         0.00000E+00
         0.00000E+00
         0.00000E+00
         0.00000E+00
         0.00000E+00
         0.00000E+00
         0.00000E+00
         0.00000E+00
         0.00000E+00
         0.00000E+00
         0.00000E+00
         0.00000E+00
         0.00000E+00
         0.00000E+00
         0.00000E+00
         0.00000E+00
         0.00000E+00
         0.00000E+00
         0.00000E+00
         0.00000E+00
         0.00000E+00
         0.00000E+00
         0.00000E+00
         0.00000E+00
         0.00000E+00
         0.00000E+00
         0.00000E+00
         0.00000E+00
         0.00000E+00
         0.00000E+00
         0.00000E+00
         0.00000E+00
         0.00000E+00
         0.00000E+00
         0.00000E+00
         0.00000E+00
         0.00000E+00
         0.00000E+00
         0.00000E+00
         0.00000E+00
         0.00000E+00
         0.00000E+00
         0.00000E+00
         0.00000E+00
         0.00000E+00
         0.00000E+00
         0.00000E+00
         0.00000E+00
         0.00000E+00
         0.00000E+00
         0.00000E+00
         0.00000E+00
         0.00000E+00
         0.00000E+00
         0.00000E+00
         0.00000E+00
         0.00000E+00
         0.00000E+00
         0.00000E+00
         0.00000E+00
         0.00000E+00
         0.00000E+00
         0.00000E+00
         0.00000E+00
         0.00000E+00
         0.00000E+00
         0.00000E+00
         0.00000E+00
         0.00000E+00
         0.00000E+00
         0.00000E+00
         0.00000E+00
         0.00000E+00
         0.00000E+00
         0.00000E+00
         0.00000E+00
         0.00000E+00
         0.00000E+00
         0.00000E+00
         0.00000E+00
         0.00000E+00
         0.00000E+00
         0.00000E+00
         0.00000E+00
         0.00000E+00
         0.00000E+00
         0.00000E+00
         0.00000E+00
         0.00000E+00
         0.00000E+00
         0.00000E+00
         0.00000E+00
         0.00000E+00
         0.00000E+00
         0.00000E+00
         0.00000E+00
         0.00000E+00
         0.00000E+00
         0.00000E+00
         0.00000E+00
         0.00000E+00
         0.00000E+00
         0.00000E+00
         0.00000E+00
         0.00000E+00
         0.00000E+00
         0.00000E+00
         0.00000E+00
         0.00000E+00
         0.00000E+00
         0.00000E+00
         0.00000E+00
         0.00000E+00
         0.00000E+00
         0.00000E+00
         0.00000E+00
         0.00000E+00
         0.00000E+00
         0.00000E+00
         0.00000E+00
         0.00000E+00
         0.00000E+00
         0.00000E+00
         0.00000E+00
         0.00000E+00
         0.00000E+00
         0.00000E+00
         0.00000E+00
         0.00000E+00
         0.00000E+00
         0.00000E+00
         0.00000E+00
         0.00000E+00
         0.00000E+00
         0.00000E+00
         0.00000E+00
         0.00000E+00
         0.00000E+00
         0.00000E+00
         0.00000E+00
         0.00000E+00
         0.00000E+00
         0.00000E+00
         0.00000E+00
         0.00000E+00
         0.00000E+00
         0.00000E+00
         0.00000E+00
         0.00000E+00
         0.00000E+00
         0.00000E+00
         0.00000E+00
         0.00000E+00
         0.00000E+00
         0.00000E+00
         0.00000E+00
         0.00000E+00
         0.00000E+00
         0.00000E+00
         0.00000E+00
         0.00000E+00
         0.00000E+00
         0.00000E+00
         0.00000E+00
         0.00000E+00
         0.00000E+00
         0.00000E+00
         0.00000E+00
         0.00000E+00
         0.00000E+00
         0.00000E+00
         0.00000E+00
         0.00000E+00
         0.00000E+00
         0.00000E+00
         0.00000E+00
         0.00000E+00
         0.00000E+00
         0.00000E+00
         0.00000E+00
         0.00000E+00
         0.00000E+00
         0.00000E+00
         0.00000E+00
         0.00000E+00
         0.00000E+00
         0.00000E+00
         0.00000E+00
         0.00000E+00
         0.00000E+00
         0.00000E+00
         0.00000E+00
         0.00000E+00
         0.00000E+00
         0.00000E+00
         0.00000E+00
         0.00000E+00
         0.00000E+00
         0.00000E+00
         0.00000E+00
         0.00000E+00
         0.00000E+00
         0.00000E+00
         0.00000E+00
         0.00000E+00
         0.00000E+00
         0.00000E+00
         0.00000E+00
         0.00000E+00
         0.00000E+00
         0.00000E+00
         0.00000E+00
         0.00000E+00
         0.00000E+00
         0.00000E+00
         0.00000E+00
         0.00000E+00
         0.00000E+00
         0.00000E+00
         0.00000E+00
         0.00000E+00
         0.00000E+00
         0.00000E+00
         0.00000E+00
         0.00000E+00
         0.00000E+00
         0.00000E+00
         0.00000E+00
         0.00000E+00
         0.00000E+00
         0.00000E+00
         0.00000E+00
         0.00000E+00
         0.00000E+00
         0.00000E+00
         0.00000E+00
         0.00000E+00
         0.00000E+00
         0.00000E+00
         0.00000E+00
         0.00000E+00
         0.00000E+00
         0.00000E+00
         0.00000E+00
         0.00000E+00
         0.00000E+00
         0.00000E+00
         0.00000E+00
         0.00000E+00
         0.00000E+00
         0.00000E+00
         0.00000E+00
         0.00000E+00
         0.00000E+00
         0.00000E+00
         0.00000E+00
         0.00000E+00
         0.00000E+00
         0.00000E+00
         0.00000E+00
         0.00000E+00
         0.00000E+00
         0.00000E+00
         0.00000E+00
         0.00000E+00
         0.00000E+00
         0.00000E+00
         0.00000E+00
         0.00000E+00
         0.00000E+00
         0.00000E+00
         0.00000E+00
         0.00000E+00
         0.00000E+00
         0.00000E+00
         0.00000E+00
         0.00000E+00
         0.00000E+00
         0.00000E+00
         0.00000E+00
         0.00000E+00
         0.00000E+00
         0.00000E+00
         0.00000E+00
         0.00000E+00
         0.00000E+00
         0.00000E+00
         0.00000E+00
         0.00000E+00
         0.00000E+00
         0.00000E+00
         0.00000E+00
         0.00000E+00
         0.00000E+00
         0.00000E+00
         0.00000E+00
         0.00000E+00
         0.00000E+00
         0.00000E+00
         0.00000E+00
         0.00000E+00
         0.00000E+00
         0.00000E+00
         0.00000E+00
         0.00000E+00
         0.00000E+00
  
SCALARS                     nodal_mass  double 1
LOOKUP_TABLE default
         0.24608E-05
         0.19551E-05
         0.20945E-05
         0.35953E-05
         0.12304E-05
         0.97770E-06
         0.10472E-05
         0.17973E-05
         0.19315E-05
         0.24627E-05
         0.96570E-06
         0.12312E-05
         0.13823E-05
         0.16614E-05
         0.69133E-06
         0.83095E-06
         0.27274E-05
         0.20125E-05
         0.13635E-05
         0.10066E-05
         0.81737E-06
         0.15393E-05
         0.16929E-05
         0.40889E-06
         0.76975E-06
         0.84649E-06
         0.13859E-05
         0.17532E-05
         0.69345E-06
         0.87672E-06
         0.32470E-05
         0.25355E-05
         0.32225E-05
         0.16233E-05
         0.12675E-05
         0.16109E-05
         0.18980E-05
         0.21673E-05
         0.94902E-06
         0.10836E-05
         0.20482E-05
         0.22683E-05
         0.10242E-05
         0.11342E-05
         0.17426E-05
         0.10823E-05
         0.87140E-06
         0.54121E-06
         0.20598E-05
         0.10301E-05
         0.17103E-05
         0.85523E-06
         0.17977E-05
         0.89958E-06
         0.18362E-05
         0.91859E-06
         0.15911E-05
         0.19369E-05
         0.79575E-06
         0.96860E-06
         0.24553E-05
         0.17361E-05
         0.12277E-05
         0.86816E-06
         0.27409E-05
         0.13702E-05
         0.23792E-05
         0.11891E-05
         0.10821E-05
         0.16705E-05
         0.54106E-06
         0.83538E-06
         0.18955E-05
         0.94787E-06
         0.20026E-05
         0.10014E-05
         0.19316E-05
         0.96578E-06
         0.15181E-05
         0.75906E-06
         0.95443E-06
         0.15782E-05
         0.47723E-06
         0.78918E-06
         0.20886E-05
         0.10443E-05
         0.16867E-05
         0.84342E-06
         0.14838E-05
         0.74203E-06
         0.97224E-06
         0.16569E-05
         0.48620E-06
         0.82849E-06
         0.22482E-05
         0.11241E-05
         0.23568E-05
         0.11783E-05
         0.19018E-05
         0.95085E-06
         0.11709E-05
         0.20091E-05
         0.58544E-06
         0.10044E-05
         0.74681E-06
         0.94889E-06
         0.37348E-06
         0.47447E-06
         0.88885E-06
         0.44455E-06
         0.10466E-05
         0.52333E-06
         0.10205E-05
         0.51021E-06
         0.99108E-06
         0.49550E-06
         0.10560E-05
         0.52791E-06
         0.11142E-05
         0.55694E-06
         0.10497E-05
         0.52469E-06
         0.82085E-06
         0.41039E-06
         0.66950E-06
         0.33475E-06
         0.86397E-06
         0.43199E-06
         0.11504E-05
         0.57519E-06
         0.12637E-05
         0.63182E-06
         0.12132E-05
         0.60658E-06
         0.10948E-05
         0.54745E-06
         0.99429E-06
         0.49718E-06
         0.80759E-06
         0.40382E-06
         0.67982E-06
         0.33995E-06
         0.88797E-06
         0.44401E-06
         0.11753E-05
         0.58766E-06
         0.12140E-05
         0.60702E-06
         0.98236E-06
         0.49125E-06
         0.79766E-06
         0.39889E-06
         0.97540E-06
         0.48769E-06
         0.11548E-05
         0.57743E-06
         0.24609E-05
         0.19547E-05
         0.20946E-05
         0.35969E-05
         0.19318E-05
         0.24634E-05
         0.13815E-05
         0.16603E-05
         0.27283E-05
         0.20111E-05
         0.81658E-06
         0.15390E-05
         0.16927E-05
         0.13839E-05
         0.17528E-05
         0.32479E-05
         0.25367E-05
         0.32241E-05
         0.18980E-05
         0.21675E-05
         0.20481E-05
         0.22684E-05
         0.17424E-05
         0.10822E-05
         0.20589E-05
         0.17102E-05
         0.17950E-05
         0.18344E-05
         0.15904E-05
         0.19365E-05
         0.24555E-05
         0.17359E-05
         0.27423E-05
         0.23814E-05
         0.10820E-05
         0.16702E-05
         0.18953E-05
         0.20025E-05
         0.19317E-05
         0.15181E-05
         0.95442E-06
         0.15780E-05
         0.20884E-05
         0.16864E-05
         0.14835E-05
         0.97197E-06
         0.16567E-05
         0.22482E-05
         0.23571E-05
         0.19022E-05
         0.11709E-05
         0.20101E-05
         0.74658E-06
         0.94886E-06
         0.88841E-06
         0.10467E-05
         0.10207E-05
         0.99128E-06
         0.10565E-05
         0.11150E-05
         0.10503E-05
         0.82102E-06
         0.66954E-06
         0.86398E-06
         0.11506E-05
         0.12640E-05
         0.12133E-05
         0.10948E-05
         0.99421E-06
         0.80751E-06
         0.67970E-06
         0.88789E-06
         0.11752E-05
         0.12140E-05
         0.98215E-06
         0.79747E-06
         0.97551E-06
         0.11548E-05
         0.24611E-05
         0.19543E-05
         0.20949E-05
         0.35987E-05
         0.19321E-05
         0.24642E-05
         0.13808E-05
         0.16594E-05
         0.27293E-05
         0.20098E-05
         0.81582E-06
         0.15388E-05
         0.16927E-05
         0.13821E-05
         0.17525E-05
         0.32489E-05
         0.25379E-05
         0.32257E-05
         0.18982E-05
         0.21678E-05
         0.20480E-05
         0.22685E-05
         0.17423E-05
         0.10821E-05
         0.20580E-05
         0.17101E-05
         0.17924E-05
         0.18326E-05
         0.15898E-05
         0.19361E-05
         0.24558E-05
         0.17357E-05
         0.27438E-05
         0.23836E-05
         0.10821E-05
         0.16699E-05
         0.18951E-05
         0.20024E-05
         0.19318E-05
         0.15183E-05
         0.95445E-06
         0.15778E-05
         0.20884E-05
         0.16862E-05
         0.14831E-05
         0.97174E-06
         0.16566E-05
         0.22483E-05
         0.23575E-05
         0.19026E-05
         0.11709E-05
         0.20112E-05
         0.74636E-06
         0.94886E-06
         0.88800E-06
         0.10467E-05
         0.10210E-05
         0.99152E-06
         0.10570E-05
         0.11159E-05
         0.10509E-05
         0.82122E-06
         0.66961E-06
         0.86402E-06
         0.11507E-05
         0.12643E-05
         0.12135E-05
         0.10948E-05
         0.99417E-06
         0.80747E-06
         0.67961E-06
         0.88784E-06
         0.11752E-05
         0.12140E-05
         0.98197E-06
         0.79731E-06
         0.97565E-06
         0.11548E-05
         0.24612E-05
         0.19539E-05
         0.20950E-05
         0.36004E-05
         0.19324E-05
         0.24650E-05
         0.13801E-05
         0.16584E-05
         0.27303E-05
         0.20085E-05
         0.81504E-06
         0.15385E-05
         0.16925E-05
         0.13801E-05
         0.17521E-05
         0.32498E-05
         0.25390E-05
         0.32274E-05
         0.18982E-05
         0.21681E-05
         0.20479E-05
         0.22686E-05
         0.17421E-05
         0.10820E-05
         0.20571E-05
         0.17099E-05
         0.17897E-05
         0.18308E-05
         0.15891E-05
         0.19356E-05
         0.24561E-05
         0.17355E-05
         0.27453E-05
         0.23857E-05
         0.10820E-05
         0.16696E-05
         0.18948E-05
         0.20022E-05
         0.19320E-05
         0.15183E-05
         0.95445E-06
         0.15776E-05
         0.20883E-05
         0.16859E-05
         0.14828E-05
         0.97149E-06
         0.16564E-05
         0.22483E-05
         0.23578E-05
         0.19030E-05
         0.11710E-05
         0.20122E-05
         0.74613E-06
         0.94884E-06
         0.88756E-06
         0.10467E-05
         0.10212E-05
         0.99173E-06
         0.10574E-05
         0.11167E-05
         0.10515E-05
         0.82140E-06
         0.66966E-06
         0.86404E-06
         0.11509E-05
         0.12646E-05
         0.12136E-05
         0.10947E-05
         0.99410E-06
         0.80740E-06
         0.67950E-06
         0.88777E-06
         0.11752E-05
         0.12140E-05
         0.98177E-06
         0.79713E-06
         0.97576E-06
         0.11547E-05
         0.24613E-05
         0.19535E-05
         0.20952E-05
         0.36022E-05
         0.19327E-05
         0.24657E-05
         0.13794E-05
         0.16574E-05
         0.27313E-05
         0.20072E-05
         0.81426E-06
         0.15382E-05
         0.16924E-05
         0.13782E-05
         0.17517E-05
         0.32508E-05
         0.25402E-05
         0.32290E-05
         0.18983E-05
         0.21684E-05
         0.20479E-05
         0.22687E-05
         0.17420E-05
         0.10819E-05
         0.20563E-05
         0.17098E-05
         0.17870E-05
         0.18290E-05
         0.15884E-05
         0.19352E-05
         0.24563E-05
         0.17353E-05
         0.27467E-05
         0.23879E-05
         0.10820E-05
         0.16693E-05
         0.18946E-05
         0.20021E-05
         0.19321E-05
         0.15184E-05
         0.95445E-06
         0.15773E-05
         0.20882E-05
         0.16857E-05
         0.14824E-05
         0.97124E-06
         0.16563E-05
         0.22484E-05
         0.23582E-05
         0.19034E-05
         0.11710E-05
         0.20132E-05
         0.74590E-06
         0.94883E-06
         0.88713E-06
         0.10468E-05
         0.10215E-05
         0.99194E-06
         0.10579E-05
         0.11175E-05
         0.10521E-05
         0.82159E-06
         0.66972E-06
         0.86406E-06
         0.11510E-05
         0.12649E-05
         0.12138E-05
         0.10947E-05
         0.99404E-06
         0.80734E-06
         0.67940E-06
         0.88771E-06
         0.11752E-05
         0.12140E-05
         0.98157E-06
         0.79696E-06
         0.97588E-06
         0.11547E-05
         0.24615E-05
         0.19531E-05
         0.20954E-05
         0.36039E-05
         0.19331E-05
         0.24665E-05
         0.13787E-05
         0.16564E-05
         0.27322E-05
         0.20059E-05
         0.81349E-06
         0.15380E-05
         0.16923E-05
         0.13763E-05
         0.17514E-05
         0.32518E-05
         0.25414E-05
         0.32306E-05
         0.18984E-05
         0.21687E-05
         0.20478E-05
         0.22688E-05
         0.17418E-05
         0.10818E-05
         0.20554E-05
         0.17096E-05
         0.17843E-05
         0.18272E-05
         0.15878E-05
         0.19347E-05
         0.24566E-05
         0.17351E-05
         0.27482E-05
         0.23901E-05
         0.10820E-05
         0.16690E-05
         0.18943E-05
         0.20019E-05
         0.19322E-05
         0.15185E-05
         0.95446E-06
         0.15771E-05
         0.20881E-05
         0.16855E-05
         0.14821E-05
         0.97100E-06
         0.16562E-05
         0.22484E-05
         0.23586E-05
         0.19038E-05
         0.11710E-05
         0.20142E-05
         0.74568E-06
         0.94882E-06
         0.88671E-06
         0.10468E-05
         0.10217E-05
         0.99216E-06
         0.10583E-05
         0.11183E-05
         0.10528E-05
         0.82178E-06
         0.66977E-06
         0.86408E-06
         0.11512E-05
         0.12652E-05
         0.12139E-05
         0.10947E-05
         0.99398E-06
         0.80728E-06
         0.67930E-06
         0.88766E-06
         0.11752E-05
         0.12140E-05
         0.98138E-06
         0.79679E-06
         0.97601E-06
         0.11547E-05
         0.24616E-05
         0.19527E-05
         0.20956E-05
         0.36056E-05
         0.19334E-05
         0.24672E-05
         0.13779E-05
         0.16554E-05
         0.27332E-05
         0.20046E-05
         0.81271E-06
         0.15377E-05
         0.16922E-05
         0.13744E-05
         0.17510E-05
         0.32527E-05
         0.25425E-05
         0.32322E-05
         0.18984E-05
         0.21689E-05
         0.20477E-05
         0.22689E-05
         0.17416E-05
         0.10816E-05
         0.20545E-05
         0.17095E-05
         0.17817E-05
         0.18254E-05
         0.15871E-05
         0.19343E-05
         0.24568E-05
         0.17349E-05
         0.27496E-05
         0.23922E-05
         0.10820E-05
         0.16686E-05
         0.18941E-05
         0.20018E-05
         0.19324E-05
         0.15186E-05
         0.95446E-06
         0.15769E-05
         0.20880E-05
         0.16852E-05
         0.14817E-05
         0.97074E-06
         0.16560E-05
         0.22484E-05
         0.23589E-05
         0.19042E-05
         0.11710E-05
         0.20152E-05
         0.74544E-06
         0.94880E-06
         0.88627E-06
         0.10469E-05
         0.10219E-05
         0.99237E-06
         0.10588E-05
         0.11191E-05
         0.10534E-05
         0.82196E-06
         0.66982E-06
         0.86410E-06
         0.11513E-05
         0.12654E-05
         0.12140E-05
         0.10947E-05
         0.99391E-06
         0.80721E-06
         0.67919E-06
         0.88759E-06
         0.11751E-05
         0.12140E-05
         0.98118E-06
         0.79661E-06
         0.97612E-06
         0.11546E-05
         0.24618E-05
         0.19523E-05
         0.20957E-05
         0.36073E-05
         0.19337E-05
         0.24680E-05
         0.13772E-05
         0.16545E-05
         0.27341E-05
         0.20033E-05
         0.81194E-06
         0.15374E-05
         0.16921E-05
         0.13725E-05
         0.17506E-05
         0.32537E-05
         0.25437E-05
         0.32339E-05
         0.18985E-05
         0.21692E-05
         0.20476E-05
         0.22690E-05
         0.17414E-05
         0.10815E-05
         0.20536E-05
         0.17093E-05
         0.17790E-05
         0.18236E-05
         0.15864E-05
         0.19339E-05
         0.24571E-05
         0.17347E-05
         0.27511E-05
         0.23944E-05
         0.10820E-05
         0.16683E-05
         0.18938E-05
         0.20016E-05
         0.19325E-05
         0.15186E-05
         0.95446E-06
         0.15767E-05
         0.20878E-05
         0.16850E-05
         0.14814E-05
         0.97050E-06
         0.16559E-05
         0.22484E-05
         0.23593E-05
         0.19046E-05
         0.11711E-05
         0.20162E-05
         0.74522E-06
         0.94878E-06
         0.88584E-06
         0.10469E-05
         0.10222E-05
         0.99258E-06
         0.10593E-05
         0.11199E-05
         0.10540E-05
         0.82215E-06
         0.66988E-06
         0.86413E-06
         0.11515E-05
         0.12657E-05
         0.12142E-05
         0.10946E-05
         0.99385E-06
         0.80715E-06
         0.67909E-06
         0.88752E-06
         0.11751E-05
         0.12140E-05
         0.98098E-06
         0.79643E-06
         0.97624E-06
         0.11546E-05
         0.24619E-05
         0.19519E-05
         0.20959E-05
         0.36091E-05
         0.19340E-05
         0.24688E-05
         0.13765E-05
         0.16535E-05
         0.27351E-05
         0.20020E-05
         0.81117E-06
         0.15372E-05
         0.16920E-05
         0.13706E-05
         0.17503E-05
         0.32546E-05
         0.25448E-05
         0.32355E-05
         0.18986E-05
         0.21695E-05
         0.20475E-05
         0.22691E-05
         0.17413E-05
         0.10814E-05
         0.20527E-05
         0.17092E-05
         0.17763E-05
         0.18219E-05
         0.15858E-05
         0.19334E-05
         0.24573E-05
         0.17345E-05
         0.27525E-05
         0.23966E-05
         0.10820E-05
         0.16680E-05
         0.18936E-05
         0.20015E-05
         0.19326E-05
         0.15187E-05
         0.95447E-06
         0.15765E-05
         0.20878E-05
         0.16848E-05
         0.14810E-05
         0.97025E-06
         0.16557E-05
         0.22485E-05
         0.23597E-05
         0.19050E-05
         0.11711E-05
         0.20172E-05
         0.74499E-06
         0.94877E-06
         0.88541E-06
         0.10469E-05
         0.10224E-05
         0.99280E-06
         0.10597E-05
         0.11207E-05
         0.10546E-05
         0.82234E-06
         0.66994E-06
         0.86415E-06
         0.11517E-05
         0.12660E-05
         0.12143E-05
         0.10946E-05
         0.99379E-06
         0.80709E-06
         0.67898E-06
         0.88746E-06
         0.11751E-05
         0.12140E-05
         0.98079E-06
         0.79626E-06
         0.97636E-06
         0.11546E-05
         0.24621E-05
         0.19515E-05
         0.20961E-05
         0.36108E-05
         0.19343E-05
         0.24695E-05
         0.13758E-05
         0.16525E-05
         0.27361E-05
         0.20006E-05
         0.81039E-06
         0.15369E-05
         0.16919E-05
         0.13686E-05
         0.17499E-05
         0.32556E-05
         0.25460E-05
         0.32371E-05
         0.18986E-05
         0.21697E-05
         0.20474E-05
         0.22692E-05
         0.17411E-05
         0.10813E-05
         0.20519E-05
         0.17091E-05
         0.17736E-05
         0.18201E-05
         0.15851E-05
         0.19330E-05
         0.24575E-05
         0.17342E-05
         0.27540E-05
         0.23987E-05
         0.10820E-05
         0.16677E-05
         0.18933E-05
         0.20014E-05
         0.19328E-05
         0.15188E-05
         0.95448E-06
         0.15763E-05
         0.20876E-05
         0.16845E-05
         0.14807E-05
         0.97000E-06
         0.16556E-05
         0.22485E-05
         0.23600E-05
         0.19053E-05
         0.11711E-05
         0.20182E-05
         0.74476E-06
         0.94875E-06
         0.88498E-06
         0.10470E-05
         0.10227E-05
         0.99301E-06
         0.10602E-05
         0.11215E-05
         0.10553E-05
         0.82252E-06
         0.66999E-06
         0.86417E-06
         0.11518E-05
         0.12663E-05
         0.12145E-05
         0.10946E-05
         0.99373E-06
         0.80702E-06
         0.67888E-06
         0.88740E-06
         0.11751E-05
         0.12140E-05
         0.98058E-06
         0.79608E-06
         0.97648E-06
         0.11546E-05
         0.24622E-05
         0.19511E-05
         0.20963E-05
         0.36125E-05
         0.19346E-05
         0.24703E-05
         0.13751E-05
         0.16515E-05
         0.27370E-05
         0.19993E-05
         0.80962E-06
         0.15366E-05
         0.16917E-05
         0.13667E-05
         0.17495E-05
         0.32565E-05
         0.25471E-05
         0.32388E-05
         0.18987E-05
         0.21700E-05
         0.20473E-05
         0.22693E-05
         0.17409E-05
         0.10812E-05
         0.20510E-05
         0.17089E-05
         0.17710E-05
         0.18183E-05
         0.15844E-05
         0.19325E-05
         0.24578E-05
         0.17340E-05
         0.27554E-05
         0.24009E-05
         0.10820E-05
         0.16674E-05
         0.18931E-05
         0.20012E-05
         0.19329E-05
         0.15189E-05
         0.95448E-06
         0.15760E-05
         0.20875E-05
         0.16843E-05
         0.14803E-05
         0.96975E-06
         0.16555E-05
         0.22485E-05
         0.23604E-05
         0.19057E-05
         0.11712E-05
         0.20192E-05
         0.74453E-06
         0.94874E-06
         0.88455E-06
         0.10470E-05
         0.10229E-05
         0.99322E-06
         0.10606E-05
         0.11223E-05
         0.10559E-05
         0.82270E-06
         0.67004E-06
         0.86419E-06
         0.11520E-05
         0.12666E-05
         0.12146E-05
         0.10945E-05
         0.99366E-06
         0.80696E-06
         0.67877E-06
         0.88733E-06
         0.11751E-05
         0.12140E-05
         0.98038E-06
         0.79590E-06
         0.97660E-06
         0.11545E-05
         0.24623E-05
         0.19507E-05
         0.20964E-05
         0.36142E-05
         0.19349E-05
         0.24710E-05
         0.13743E-05
         0.16505E-05
         0.27380E-05
         0.19980E-05
         0.80885E-06
         0.15364E-05
         0.16916E-05
         0.13648E-05
         0.17492E-05
         0.32575E-05
         0.25483E-05
         0.32404E-05
         0.18988E-05
         0.21703E-05
         0.20473E-05
         0.22694E-05
         0.17407E-05
         0.10811E-05
         0.20501E-05
         0.17088E-05
         0.17683E-05
         0.18165E-05
         0.15837E-05
         0.19321E-05
         0.24580E-05
         0.17338E-05
         0.27569E-05
         0.24031E-05
         0.10820E-05
         0.16670E-05
         0.18928E-05
         0.20011E-05
         0.19330E-05
         0.15189E-05
         0.95448E-06
         0.15758E-05
         0.20874E-05
         0.16840E-05
         0.14800E-05
         0.96950E-06
         0.16553E-05
         0.22485E-05
         0.23608E-05
         0.19061E-05
         0.11712E-05
         0.20202E-05
         0.74430E-06
         0.94872E-06
         0.88412E-06
         0.10470E-05
         0.10231E-05
         0.99344E-06
         0.10611E-05
         0.11231E-05
         0.10565E-05
         0.82289E-06
         0.67009E-06
         0.86422E-06
         0.11521E-05
         0.12669E-05
         0.12147E-05
         0.10945E-05
         0.99360E-06
         0.80690E-06
         0.67867E-06
         0.88727E-06
         0.11750E-05
         0.12140E-05
         0.98019E-06
         0.79573E-06
         0.97672E-06
         0.11545E-05
         0.24625E-05
         0.19503E-05
         0.20966E-05
         0.36160E-05
         0.19352E-05
         0.24718E-05
         0.13736E-05
         0.16496E-05
         0.27389E-05
         0.19967E-05
         0.80807E-06
         0.15361E-05
         0.16915E-05
         0.13629E-05
         0.17488E-05
         0.32584E-05
         0.25495E-05
         0.32420E-05
         0.18988E-05
         0.21705E-05
         0.20472E-05
         0.22695E-05
         0.17406E-05
         0.10810E-05
         0.20492E-05
         0.17086E-05
         0.17656E-05
         0.18147E-05
         0.15831E-05
         0.19317E-05
         0.24583E-05
         0.17336E-05
         0.27583E-05
         0.24053E-05
         0.10820E-05
         0.16667E-05
         0.18926E-05
         0.20009E-05
         0.19331E-05
         0.15190E-05
         0.95449E-06
         0.15756E-05
         0.20873E-05
         0.16838E-05
         0.14796E-05
         0.96925E-06
         0.16552E-05
         0.22486E-05
         0.23611E-05
         0.19065E-05
         0.11712E-05
         0.20212E-05
         0.74407E-06
         0.94870E-06
         0.88368E-06
         0.10471E-05
         0.10234E-05
         0.99365E-06
         0.10616E-05
         0.11239E-05
         0.10571E-05
         0.82307E-06
         0.67014E-06
         0.86424E-06
         0.11523E-05
         0.12672E-05
         0.12149E-05
         0.10945E-05
         0.99354E-06
         0.80683E-06
         0.67856E-06
         0.88721E-06
         0.11750E-05
         0.12140E-05
         0.97999E-06
         0.79555E-06
         0.97684E-06
         0.11545E-05
         0.24626E-05
         0.19499E-05
         0.20968E-05
         0.36177E-05
         0.19355E-05
         0.24725E-05
         0.13729E-05
         0.16486E-05
         0.27399E-05
         0.19954E-05
         0.80730E-06
         0.15358E-05
         0.16914E-05
         0.13610E-05
         0.17484E-05
         0.32594E-05
         0.25506E-05
         0.32437E-05
         0.18989E-05
         0.21708E-05
         0.20471E-05
         0.22696E-05
         0.17404E-05
         0.10808E-05
         0.20483E-05
         0.17085E-05
         0.17629E-05
         0.18129E-05
         0.15824E-05
         0.19312E-05
         0.24585E-05
         0.17334E-05
         0.27598E-05
         0.24074E-05
         0.10820E-05
         0.16664E-05
         0.18923E-05
         0.20008E-05
         0.19333E-05
         0.15191E-05
         0.95449E-06
         0.15754E-05
         0.20872E-05
         0.16835E-05
         0.14793E-05
         0.96901E-06
         0.16550E-05
         0.22486E-05
         0.23615E-05
         0.19069E-05
         0.11713E-05
         0.20222E-05
         0.74384E-06
         0.94869E-06
         0.88325E-06
         0.10471E-05
         0.10236E-05
         0.99386E-06
         0.10620E-05
         0.11247E-05
         0.10577E-05
         0.82326E-06
         0.67020E-06
         0.86426E-06
         0.11524E-05
         0.12674E-05
         0.12150E-05
         0.10944E-05
         0.99348E-06
         0.80677E-06
         0.67846E-06
         0.88714E-06
         0.11750E-05
         0.12140E-05
         0.97979E-06
         0.79538E-06
         0.97696E-06
         0.11544E-05
         0.24628E-05
         0.19495E-05
         0.20970E-05
         0.36194E-05
         0.19358E-05
         0.24733E-05
         0.13722E-05
         0.16476E-05
         0.27409E-05
         0.19941E-05
         0.80652E-06
         0.15355E-05
         0.16913E-05
         0.13591E-05
         0.17481E-05
         0.32604E-05
         0.25518E-05
         0.32453E-05
         0.18990E-05
         0.21711E-05
         0.20470E-05
         0.22697E-05
         0.17402E-05
         0.10807E-05
         0.20474E-05
         0.17084E-05
         0.17603E-05
         0.18111E-05
         0.15817E-05
         0.19308E-05
         0.24588E-05
         0.17332E-05
         0.27613E-05
         0.24096E-05
         0.10819E-05
         0.16661E-05
         0.18921E-05
         0.20006E-05
         0.19334E-05
         0.15192E-05
         0.95450E-06
         0.15752E-05
         0.20871E-05
         0.16833E-05
         0.14789E-05
         0.96876E-06
         0.16549E-05
         0.22486E-05
         0.23619E-05
         0.19073E-05
         0.11713E-05
         0.20232E-05
         0.74362E-06
         0.94868E-06
         0.88282E-06
         0.10472E-05
         0.10238E-05
         0.99408E-06
         0.10625E-05
         0.11255E-05
         0.10584E-05
         0.82345E-06
         0.67025E-06
         0.86428E-06
         0.11526E-05
         0.12677E-05
         0.12152E-05
         0.10944E-05
         0.99342E-06
         0.80671E-06
         0.67836E-06
         0.88709E-06
         0.11750E-05
         0.12140E-05
         0.97959E-06
         0.79521E-06
         0.97708E-06
         0.11544E-05
         0.24629E-05
         0.19491E-05
         0.20972E-05
         0.36212E-05
         0.19361E-05
         0.24741E-05
         0.13715E-05
         0.16466E-05
         0.27418E-05
         0.19928E-05
         0.80575E-06
         0.15353E-05
         0.16912E-05
         0.13572E-05
         0.17477E-05
         0.32613E-05
         0.25529E-05
         0.32469E-05
         0.18990E-05
         0.21714E-05
         0.20469E-05
         0.22698E-05
         0.17400E-05
         0.10806E-05
         0.20466E-05
         0.17082E-05
         0.17576E-05
         0.18093E-05
         0.15810E-05
         0.19303E-05
         0.24590E-05
         0.17330E-05
         0.27627E-05
         0.24118E-05
         0.10819E-05
         0.16658E-05
         0.18919E-05
         0.20005E-05
         0.19335E-05
         0.15192E-05
         0.95450E-06
         0.15750E-05
         0.20870E-05
         0.16831E-05
         0.14786E-05
         0.96851E-06
         0.16548E-05
         0.22487E-05
         0.23622E-05
         0.19077E-05
         0.11713E-05
         0.20242E-05
         0.74339E-06
         0.94866E-06
         0.88239E-06
         0.10472E-05
         0.10241E-05
         0.99429E-06
         0.10630E-05
         0.11263E-05
         0.10590E-05
         0.82363E-06
         0.67030E-06
         0.86430E-06
         0.11527E-05
         0.12680E-05
         0.12153E-05
         0.10944E-05
         0.99335E-06
         0.80665E-06
         0.67825E-06
         0.88702E-06
         0.11749E-05
         0.12140E-05
         0.97939E-06
         0.79503E-06
         0.97720E-06
         0.11544E-05
         0.24631E-05
         0.19487E-05
         0.20973E-05
         0.36229E-05
         0.19364E-05
         0.24748E-05
         0.13707E-05
         0.16456E-05
         0.27428E-05
         0.19915E-05
         0.80498E-06
         0.15350E-05
         0.16911E-05
         0.13553E-05
         0.17473E-05
         0.32623E-05
         0.25541E-05
         0.32486E-05
         0.18991E-05
         0.21716E-05
         0.20468E-05
         0.22699E-05
         0.17399E-05
         0.10805E-05
         0.20457E-05
         0.17081E-05
         0.17549E-05
         0.18075E-05
         0.15804E-05
         0.19299E-05
         0.24592E-05
         0.17328E-05
         0.27642E-05
         0.24140E-05
         0.10819E-05
         0.16654E-05
         0.18916E-05
         0.20003E-05
         0.19337E-05
         0.15193E-05
         0.95450E-06
         0.15748E-05
         0.20869E-05
         0.16828E-05
         0.14782E-05
         0.96826E-06
         0.16546E-05
         0.22487E-05
         0.23626E-05
         0.19081E-05
         0.11714E-05
         0.20253E-05
         0.74316E-06
         0.94864E-06
         0.88196E-06
         0.10472E-05
         0.10243E-05
         0.99450E-06
         0.10634E-05
         0.11271E-05
         0.10596E-05
         0.82381E-06
         0.67036E-06
         0.86432E-06
         0.11529E-05
         0.12683E-05
         0.12154E-05
         0.10943E-05
         0.99329E-06
         0.80658E-06
         0.67815E-06
         0.88696E-06
         0.11749E-05
         0.12140E-05
         0.97919E-06
         0.79485E-06
         0.97732E-06
         0.11544E-05
         0.24632E-05
         0.19483E-05
         0.20975E-05
         0.36246E-05
         0.19368E-05
         0.24756E-05
         0.13700E-05
         0.16447E-05
         0.27437E-05
         0.19902E-05
         0.80421E-06
         0.15347E-05
         0.16910E-05
         0.13534E-05
         0.17470E-05
         0.32632E-05
         0.25552E-05
         0.32502E-05
         0.18992E-05
         0.21719E-05
         0.20467E-05
         0.22700E-05
         0.17397E-05
         0.10804E-05
         0.20448E-05
         0.17079E-05
         0.17523E-05
         0.18057E-05
         0.15797E-05
         0.19295E-05
         0.24595E-05
         0.17326E-05
         0.27656E-05
         0.24161E-05
         0.10819E-05
         0.16651E-05
         0.18914E-05
         0.20002E-05
         0.19338E-05
         0.15194E-05
         0.95451E-06
         0.15745E-05
         0.20868E-05
         0.16826E-05
         0.14779E-05
         0.96801E-06
         0.16545E-05
         0.22487E-05
         0.23630E-05
         0.19085E-05
         0.11714E-05
         0.20263E-05
         0.74293E-06
         0.94863E-06
         0.88153E-06
         0.10473E-05
         0.10245E-05
         0.99472E-06
         0.10639E-05
         0.11279E-05
         0.10602E-05
         0.82400E-06
         0.67041E-06
         0.86435E-06
         0.11530E-05
         0.12686E-05
         0.12156E-05
         0.10943E-05
         0.99323E-06
         0.80652E-06
         0.67804E-06
         0.88690E-06
         0.11749E-05
         0.12140E-05
         0.97900E-06
         0.79468E-06
         0.97744E-06
         0.11543E-05
         0.24633E-05
         0.19479E-05
         0.20977E-05
         0.36264E-05
         0.19371E-05
         0.24763E-05
         0.13693E-05
         0.16437E-05
         0.27447E-05
         0.19888E-05
         0.80343E-06
         0.15345E-05
         0.16908E-05
         0.13515E-05
         0.17466E-05
         0.32642E-05
         0.25564E-05
         0.32518E-05
         0.18992E-05
         0.21722E-05
         0.20466E-05
         0.22701E-05
         0.17395E-05
         0.10803E-05
         0.20439E-05
         0.17078E-05
         0.17496E-05
         0.18039E-05
         0.15790E-05
         0.19290E-05
         0.24597E-05
         0.17323E-05
         0.27671E-05
         0.24183E-05
         0.10819E-05
         0.16648E-05
         0.18911E-05
         0.20001E-05
         0.19339E-05
         0.15195E-05
         0.95452E-06
         0.15743E-05
         0.20867E-05
         0.16823E-05
         0.14775E-05
         0.96776E-06
         0.16543E-05
         0.22487E-05
         0.23633E-05
         0.19089E-05
         0.11714E-05
         0.20273E-05
         0.74270E-06
         0.94861E-06
         0.88109E-06
         0.10473E-05
         0.10248E-05
         0.99493E-06
         0.10643E-05
         0.11287E-05
         0.10609E-05
         0.82418E-06
         0.67046E-06
         0.86437E-06
         0.11532E-05
         0.12689E-05
         0.12157E-05
         0.10943E-05
         0.99316E-06
         0.80646E-06
         0.67794E-06
         0.88683E-06
         0.11749E-05
         0.12140E-05
         0.97879E-06
         0.79450E-06
         0.97755E-06
         0.11543E-05
         0.24635E-05
         0.19475E-05
         0.20979E-05
         0.36281E-05
         0.19374E-05
         0.24771E-05
         0.13686E-05
         0.16427E-05
         0.27456E-05
         0.19875E-05
         0.80266E-06
         0.15342E-05
         0.16907E-05
         0.13496E-05
         0.17463E-05
         0.32651E-05
         0.25575E-05
         0.32534E-05
         0.18993E-05
         0.21724E-05
         0.20466E-05
         0.22702E-05
         0.17393E-05
         0.10802E-05
         0.20430E-05
         0.17076E-05
         0.17469E-05
         0.18021E-05
         0.15784E-05
         0.19286E-05
         0.24600E-05
         0.17321E-05
         0.27685E-05
         0.24205E-05
         0.10819E-05
         0.16645E-05
         0.18909E-05
         0.19999E-05
         0.19341E-05
         0.15195E-05
         0.95452E-06
         0.15741E-05
         0.20866E-05
         0.16821E-05
         0.14772E-05
         0.96751E-06
         0.16542E-05
         0.22488E-05
         0.23637E-05
         0.19092E-05
         0.11715E-05
         0.20283E-05
         0.74247E-06
         0.94860E-06
         0.88066E-06
         0.10473E-05
         0.10250E-05
         0.99514E-06
         0.10648E-05
         0.11295E-05
         0.10615E-05
         0.82437E-06
         0.67052E-06
         0.86439E-06
         0.11533E-05
         0.12691E-05
         0.12159E-05
         0.10942E-05
         0.99310E-06
         0.80639E-06
         0.67783E-06
         0.88676E-06
         0.11748E-05
         0.12140E-05
         0.97859E-06
         0.79433E-06
         0.97767E-06
         0.11543E-05
         0.24636E-05
         0.19471E-05
         0.20980E-05
         0.36298E-05
         0.19377E-05
         0.24779E-05
         0.13679E-05
         0.16417E-05
         0.27466E-05
         0.19862E-05
         0.80189E-06
         0.15339E-05
         0.16906E-05
         0.13477E-05
         0.17459E-05
         0.32661E-05
         0.25587E-05
         0.32551E-05
         0.18994E-05
         0.21727E-05
         0.20465E-05
         0.22703E-05
         0.17392E-05
         0.10800E-05
         0.20421E-05
         0.17075E-05
         0.17443E-05
         0.18003E-05
         0.15777E-05
         0.19281E-05
         0.24602E-05
         0.17319E-05
         0.27700E-05
         0.24227E-05
         0.10819E-05
         0.16642E-05
         0.18906E-05
         0.19998E-05
         0.19342E-05
         0.15196E-05
         0.95453E-06
         0.15739E-05
         0.20865E-05
         0.16819E-05
         0.14768E-05
         0.96727E-06
         0.16541E-05
         0.22488E-05
         0.23640E-05
         0.19096E-05
         0.11715E-05
         0.20293E-05
         0.74225E-06
         0.94859E-06
         0.88023E-06
         0.10474E-05
         0.10253E-05
         0.99535E-06
         0.10653E-05
         0.11303E-05
         0.10621E-05
         0.82456E-06
         0.67057E-06
         0.86441E-06
         0.11535E-05
         0.12694E-05
         0.12160E-05
         0.10942E-05
         0.99304E-06
         0.80633E-06
         0.67773E-06
         0.88671E-06
         0.11748E-05
         0.12140E-05
         0.97840E-06
         0.79415E-06
         0.97780E-06
         0.11542E-05
         0.24637E-05
         0.19466E-05
         0.20982E-05
         0.36315E-05
         0.19380E-05
         0.24786E-05
         0.13671E-05
         0.16407E-05
         0.27475E-05
         0.19849E-05
         0.80110E-06
         0.15336E-05
         0.16905E-05
         0.13457E-05
         0.17455E-05
         0.32669E-05
         0.25598E-05
         0.32567E-05
         0.18994E-05
         0.21729E-05
         0.20464E-05
         0.22703E-05
         0.17390E-05
         0.10799E-05
         0.20412E-05
         0.17073E-05
         0.17416E-05
         0.17985E-05
         0.15770E-05
         0.19277E-05
         0.24604E-05
         0.17317E-05
         0.27714E-05
         0.24248E-05
         0.10819E-05
         0.16638E-05
         0.18903E-05
         0.19996E-05
         0.19343E-05
         0.15196E-05
         0.95451E-06
         0.15737E-05
         0.20864E-05
         0.16816E-05
         0.14765E-05
         0.96700E-06
         0.16539E-05
         0.22488E-05
         0.23644E-05
         0.19100E-05
         0.11715E-05
         0.20303E-05
         0.74200E-06
         0.94855E-06
         0.87978E-06
         0.10474E-05
         0.10255E-05
         0.99555E-06
         0.10657E-05
         0.11311E-05
         0.10627E-05
         0.82472E-06
         0.67061E-06
         0.86442E-06
         0.11536E-05
         0.12697E-05
         0.12161E-05
         0.10941E-05
         0.99295E-06
         0.80625E-06
         0.67761E-06
         0.88662E-06
         0.11748E-05
         0.12140E-05
         0.97818E-06
         0.79396E-06
         0.97790E-06
         0.11542E-05
         0.24639E-05
         0.19463E-05
         0.20984E-05
         0.36333E-05
         0.19383E-05
         0.24794E-05
         0.13664E-05
         0.16398E-05
         0.27485E-05
         0.19836E-05
         0.80034E-06
         0.15334E-05
         0.16904E-05
         0.13439E-05
         0.17452E-05
         0.32679E-05
         0.25610E-05
         0.32583E-05
         0.18995E-05
         0.21732E-05
         0.20463E-05
         0.22704E-05
         0.17388E-05
         0.10798E-05
         0.20404E-05
         0.17072E-05
         0.17389E-05
         0.17967E-05
         0.15763E-05
         0.19272E-05
         0.24607E-05
         0.17315E-05
         0.27729E-05
         0.24270E-05
         0.10819E-05
         0.16635E-05
         0.18901E-05
         0.19995E-05
         0.19345E-05
         0.15197E-05
         0.95453E-06
         0.15735E-05
         0.20863E-05
         0.16814E-05
         0.14761E-05
         0.96677E-06
         0.16538E-05
         0.22488E-05
         0.23647E-05
         0.19104E-05
         0.11716E-05
         0.20313E-05
         0.74179E-06
         0.94855E-06
         0.87936E-06
         0.10475E-05
         0.10257E-05
         0.99577E-06
         0.10662E-05
         0.11319E-05
         0.10633E-05
         0.82492E-06
         0.67068E-06
         0.86446E-06
         0.11538E-05
         0.12700E-05
         0.12163E-05
         0.10941E-05
         0.99291E-06
         0.80620E-06
         0.67752E-06
         0.88657E-06
         0.11748E-05
         0.12140E-05
         0.97800E-06
         0.79380E-06
         0.97803E-06
         0.11542E-05
         0.12320E-05
         0.97306E-06
         0.10493E-05
         0.18171E-05
         0.96926E-06
         0.12399E-05
         0.68306E-06
         0.81967E-06
         0.13745E-05
         0.99152E-06
         0.39999E-06
         0.76665E-06
         0.84519E-06
         0.67148E-06
         0.87252E-06
         0.16343E-05
         0.12808E-05
         0.16296E-05
         0.94981E-06
         0.10867E-05
         0.10232E-05
         0.11353E-05
         0.86940E-06
         0.53990E-06
         0.10200E-05
         0.85360E-06
         0.86884E-06
         0.89793E-06
         0.78802E-06
         0.96354E-06
         0.12305E-05
         0.86572E-06
         0.13869E-05
         0.12141E-05
         0.54095E-06
         0.83170E-06
         0.94503E-06
         0.99975E-06
         0.96729E-06
         0.75992E-06
         0.47728E-06
         0.78670E-06
         0.10432E-05
         0.84065E-06
         0.73800E-06
         0.48334E-06
         0.82688E-06
         0.11245E-05
         0.11825E-05
         0.95534E-06
         0.58581E-06
         0.10159E-05
         0.37085E-06
         0.47429E-06
         0.43959E-06
         0.52375E-06
         0.51294E-06
         0.49796E-06
         0.53322E-06
         0.56619E-06
         0.53185E-06
         0.41252E-06
         0.33536E-06
         0.43225E-06
         0.57696E-06
         0.63509E-06
         0.60820E-06
         0.54708E-06
         0.49646E-06
         0.40310E-06
         0.33875E-06
         0.44329E-06
         0.58740E-06
         0.60700E-06
         0.48897E-06
         0.39687E-06
         0.48906E-06
         0.57710E-06
  
SCALARS                 Poissons_ratio  double 1
LOOKUP_TABLE default
         0.30000E+00
         0.30000E+00
         0.30000E+00
         0.30000E+00
         0.30000E+00
         0.30000E+00
         0.30000E+00
         0.30000E+00
         0.30000E+00
         0.30000E+00
         0.30000E+00
         0.30000E+00
         0.30000E+00
         0.30000E+00
         0.30000E+00
         0.30000E+00
         0.30000E+00
         0.30000E+00
         0.30000E+00
         0.30000E+00
         0.30000E+00
         0.30000E+00
         0.30000E+00
         0.30000E+00
         0.30000E+00
         0.30000E+00
         0.30000E+00
         0.30000E+00
         0.30000E+00
         0.30000E+00
         0.30000E+00
         0.30000E+00
         0.30000E+00
         0.30000E+00
         0.30000E+00
         0.30000E+00
         0.30000E+00
         0.30000E+00
         0.30000E+00
         0.30000E+00
         0.30000E+00
         0.30000E+00
         0.30000E+00
         0.30000E+00
         0.30000E+00
         0.30000E+00
         0.30000E+00
         0.30000E+00
         0.30000E+00
         0.30000E+00
         0.30000E+00
         0.30000E+00
         0.30000E+00
         0.30000E+00
         0.30000E+00
         0.30000E+00
         0.30000E+00
         0.30000E+00
         0.30000E+00
         0.30000E+00
         0.30000E+00
         0.30000E+00
         0.30000E+00
         0.30000E+00
         0.30000E+00
         0.30000E+00
         0.30000E+00
         0.30000E+00
         0.30000E+00
         0.30000E+00
         0.30000E+00
         0.30000E+00
         0.30000E+00
         0.30000E+00
         0.30000E+00
         0.30000E+00
         0.30000E+00
         0.30000E+00
         0.30000E+00
         0.30000E+00
         0.30000E+00
         0.30000E+00
         0.30000E+00
         0.30000E+00
         0.30000E+00
         0.30000E+00
         0.30000E+00
         0.30000E+00
         0.30000E+00
         0.30000E+00
         0.30000E+00
         0.30000E+00
         0.30000E+00
         0.30000E+00
         0.30000E+00
         0.30000E+00
         0.30000E+00
         0.30000E+00
         0.30000E+00
         0.30000E+00
         0.30000E+00
         0.30000E+00
         0.30000E+00
         0.30000E+00
         0.30000E+00
         0.30000E+00
         0.30000E+00
         0.30000E+00
         0.30000E+00
         0.30000E+00
         0.30000E+00
         0.30000E+00
         0.30000E+00
         0.30000E+00
         0.30000E+00
         0.30000E+00
         0.30000E+00
         0.30000E+00
         0.30000E+00
         0.30000E+00
         0.30000E+00
         0.30000E+00
         0.30000E+00
         0.30000E+00
         0.30000E+00
         0.30000E+00
         0.30000E+00
         0.30000E+00
         0.30000E+00
         0.30000E+00
         0.30000E+00
         0.30000E+00
         0.30000E+00
         0.30000E+00
         0.30000E+00
         0.30000E+00
         0.30000E+00
         0.30000E+00
         0.30000E+00
         0.30000E+00
         0.30000E+00
         0.30000E+00
         0.30000E+00
         0.30000E+00
         0.30000E+00
         0.30000E+00
         0.30000E+00
         0.30000E+00
         0.30000E+00
         0.30000E+00
         0.30000E+00
         0.30000E+00
         0.30000E+00
         0.30000E+00
         0.30000E+00
         0.30000E+00
         0.30000E+00
         0.30000E+00
         0.30000E+00
         0.30000E+00
         0.30000E+00
         0.30000E+00
         0.30000E+00
         0.30000E+00
         0.30000E+00
         0.30000E+00
         0.30000E+00
         0.30000E+00
         0.30000E+00
         0.30000E+00
         0.30000E+00
         0.30000E+00
         0.30000E+00
         0.30000E+00
         0.30000E+00
         0.30000E+00
         0.30000E+00
         0.30000E+00
         0.30000E+00
         0.30000E+00
         0.30000E+00
         0.30000E+00
         0.30000E+00
         0.30000E+00
         0.30000E+00
         0.30000E+00
         0.30000E+00
         0.30000E+00
         0.30000E+00
         0.30000E+00
         0.30000E+00
         0.30000E+00
         0.30000E+00
         0.30000E+00
         0.30000E+00
         0.30000E+00
         0.30000E+00
         0.30000E+00
         0.30000E+00
         0.30000E+00
         0.30000E+00
         0.30000E+00
         0.30000E+00
         0.30000E+00
         0.30000E+00
         0.30000E+00
         0.30000E+00
         0.30000E+00
         0.30000E+00
         0.30000E+00
         0.30000E+00
         0.30000E+00
         0.30000E+00
         0.30000E+00
         0.30000E+00
         0.30000E+00
         0.30000E+00
         0.30000E+00
         0.30000E+00
         0.30000E+00
         0.30000E+00
         0.30000E+00
         0.30000E+00
         0.30000E+00
         0.30000E+00
         0.30000E+00
         0.30000E+00
         0.30000E+00
         0.30000E+00
         0.30000E+00
         0.30000E+00
         0.30000E+00
         0.30000E+00
         0.30000E+00
         0.30000E+00
         0.30000E+00
         0.30000E+00
         0.30000E+00
         0.30000E+00
         0.30000E+00
         0.30000E+00
         0.30000E+00
         0.30000E+00
         0.30000E+00
         0.30000E+00
         0.30000E+00
         0.30000E+00
         0.30000E+00
         0.30000E+00
         0.30000E+00
         0.30000E+00
         0.30000E+00
         0.30000E+00
         0.30000E+00
         0.30000E+00
         0.30000E+00
         0.30000E+00
         0.30000E+00
         0.30000E+00
         0.30000E+00
         0.30000E+00
         0.30000E+00
         0.30000E+00
         0.30000E+00
         0.30000E+00
         0.30000E+00
         0.30000E+00
         0.30000E+00
         0.30000E+00
         0.30000E+00
         0.30000E+00
         0.30000E+00
         0.30000E+00
         0.30000E+00
         0.30000E+00
         0.30000E+00
         0.30000E+00
         0.30000E+00
         0.30000E+00
         0.30000E+00
         0.30000E+00
         0.30000E+00
         0.30000E+00
         0.30000E+00
         0.30000E+00
         0.30000E+00
         0.30000E+00
         0.30000E+00
         0.30000E+00
         0.30000E+00
         0.30000E+00
         0.30000E+00
         0.30000E+00
         0.30000E+00
         0.30000E+00
         0.30000E+00
         0.30000E+00
         0.30000E+00
         0.30000E+00
         0.30000E+00
         0.30000E+00
         0.30000E+00
         0.30000E+00
         0.30000E+00
         0.30000E+00
         0.30000E+00
         0.30000E+00
         0.30000E+00
         0.30000E+00
         0.30000E+00
         0.30000E+00
         0.30000E+00
         0.30000E+00
         0.30000E+00
         0.30000E+00
         0.30000E+00
         0.30000E+00
         0.30000E+00
         0.30000E+00
         0.30000E+00
         0.30000E+00
         0.30000E+00
         0.30000E+00
         0.30000E+00
         0.30000E+00
         0.30000E+00
         0.30000E+00
         0.30000E+00
         0.30000E+00
         0.30000E+00
         0.30000E+00
         0.30000E+00
         0.30000E+00
         0.30000E+00
         0.30000E+00
         0.30000E+00
         0.30000E+00
         0.30000E+00
         0.30000E+00
         0.30000E+00
         0.30000E+00
         0.30000E+00
         0.30000E+00
         0.30000E+00
         0.30000E+00
         0.30000E+00
         0.30000E+00
         0.30000E+00
         0.30000E+00
         0.30000E+00
         0.30000E+00
         0.30000E+00
         0.30000E+00
         0.30000E+00
         0.30000E+00
         0.30000E+00
         0.30000E+00
         0.30000E+00
         0.30000E+00
         0.30000E+00
         0.30000E+00
         0.30000E+00
         0.30000E+00
         0.30000E+00
         0.30000E+00
         0.30000E+00
         0.30000E+00
         0.30000E+00
         0.30000E+00
         0.30000E+00
         0.30000E+00
         0.30000E+00
         0.30000E+00
         0.30000E+00
         0.30000E+00
         0.30000E+00
         0.30000E+00
         0.30000E+00
         0.30000E+00
         0.30000E+00
         0.30000E+00
         0.30000E+00
         0.30000E+00
         0.30000E+00
         0.30000E+00
         0.30000E+00
         0.30000E+00
         0.30000E+00
         0.30000E+00
         0.30000E+00
         0.30000E+00
         0.30000E+00
         0.30000E+00
         0.30000E+00
         0.30000E+00
         0.30000E+00
         0.30000E+00
         0.30000E+00
         0.30000E+00
         0.30000E+00
         0.30000E+00
         0.30000E+00
         0.30000E+00
         0.30000E+00
         0.30000E+00
         0.30000E+00
         0.30000E+00
         0.30000E+00
         0.30000E+00
         0.30000E+00
         0.30000E+00
         0.30000E+00
         0.30000E+00
         0.30000E+00
         0.30000E+00
         0.30000E+00
         0.30000E+00
         0.30000E+00
         0.30000E+00
         0.30000E+00
         0.30000E+00
         0.30000E+00
         0.30000E+00
         0.30000E+00
         0.30000E+00
         0.30000E+00
         0.30000E+00
         0.30000E+00
         0.30000E+00
         0.30000E+00
         0.30000E+00
         0.30000E+00
         0.30000E+00
         0.30000E+00
         0.30000E+00
         0.30000E+00
         0.30000E+00
         0.30000E+00
         0.30000E+00
         0.30000E+00
         0.30000E+00
         0.30000E+00
         0.30000E+00
         0.30000E+00
         0.30000E+00
         0.30000E+00
         0.30000E+00
         0.30000E+00
         0.30000E+00
         0.30000E+00
         0.30000E+00
         0.30000E+00
         0.30000E+00
         0.30000E+00
         0.30000E+00
         0.30000E+00
         0.30000E+00
         0.30000E+00
         0.30000E+00
         0.30000E+00
         0.30000E+00
         0.30000E+00
         0.30000E+00
         0.30000E+00
         0.30000E+00
         0.30000E+00
         0.30000E+00
         0.30000E+00
         0.30000E+00
         0.30000E+00
         0.30000E+00
         0.30000E+00
         0.30000E+00
         0.30000E+00
         0.30000E+00
         0.30000E+00
         0.30000E+00
         0.30000E+00
         0.30000E+00
         0.30000E+00
         0.30000E+00
         0.30000E+00
         0.30000E+00
         0.30000E+00
         0.30000E+00
         0.30000E+00
         0.30000E+00
         0.30000E+00
         0.30000E+00
         0.30000E+00
         0.30000E+00
         0.30000E+00
         0.30000E+00
         0.30000E+00
         0.30000E+00
         0.30000E+00
         0.30000E+00
         0.30000E+00
         0.30000E+00
         0.30000E+00
         0.30000E+00
         0.30000E+00
         0.30000E+00
         0.30000E+00
         0.30000E+00
         0.30000E+00
         0.30000E+00
         0.30000E+00
         0.30000E+00
         0.30000E+00
         0.30000E+00
         0.30000E+00
         0.30000E+00
         0.30000E+00
         0.30000E+00
         0.30000E+00
         0.30000E+00
         0.30000E+00
         0.30000E+00
         0.30000E+00
         0.30000E+00
         0.30000E+00
         0.30000E+00
         0.30000E+00
         0.30000E+00
         0.30000E+00
         0.30000E+00
         0.30000E+00
         0.30000E+00
         0.30000E+00
         0.30000E+00
         0.30000E+00
         0.30000E+00
         0.30000E+00
         0.30000E+00
         0.30000E+00
         0.30000E+00
         0.30000E+00
         0.30000E+00
         0.30000E+00
         0.30000E+00
         0.30000E+00
         0.30000E+00
         0.30000E+00
         0.30000E+00
         0.30000E+00
         0.30000E+00
         0.30000E+00
         0.30000E+00
         0.30000E+00
         0.30000E+00
         0.30000E+00
         0.30000E+00
         0.30000E+00
         0.30000E+00
         0.30000E+00
         0.30000E+00
         0.30000E+00
         0.30000E+00
         0.30000E+00
         0.30000E+00
         0.30000E+00
         0.30000E+00
         0.30000E+00
         0.30000E+00
         0.30000E+00
         0.30000E+00
         0.30000E+00
         0.30000E+00
         0.30000E+00
         0.30000E+00
         0.30000E+00
         0.30000E+00
         0.30000E+00
         0.30000E+00
         0.30000E+00
         0.30000E+00
         0.30000E+00
         0.30000E+00
         0.30000E+00
         0.30000E+00
         0.30000E+00
         0.30000E+00
         0.30000E+00
         0.30000E+00
         0.30000E+00
         0.30000E+00
         0.30000E+00
         0.30000E+00
         0.30000E+00
         0.30000E+00
         0.30000E+00
         0.30000E+00
         0.30000E+00
         0.30000E+00
         0.30000E+00
         0.30000E+00
         0.30000E+00
         0.30000E+00
         0.30000E+00
         0.30000E+00
         0.30000E+00
         0.30000E+00
         0.30000E+00
         0.30000E+00
         0.30000E+00
         0.30000E+00
         0.30000E+00
         0.30000E+00
         0.30000E+00
         0.30000E+00
         0.30000E+00
         0.30000E+00
         0.30000E+00
         0.30000E+00
         0.30000E+00
         0.30000E+00
         0.30000E+00
         0.30000E+00
         0.30000E+00
         0.30000E+00
         0.30000E+00
         0.30000E+00
         0.30000E+00
         0.30000E+00
         0.30000E+00
         0.30000E+00
         0.30000E+00
         0.30000E+00
         0.30000E+00
         0.30000E+00
         0.30000E+00
         0.30000E+00
         0.30000E+00
         0.30000E+00
         0.30000E+00
         0.30000E+00
         0.30000E+00
         0.30000E+00
         0.30000E+00
         0.30000E+00
         0.30000E+00
         0.30000E+00
         0.30000E+00
         0.30000E+00
         0.30000E+00
         0.30000E+00
         0.30000E+00
         0.30000E+00
         0.30000E+00
         0.30000E+00
         0.30000E+00
         0.30000E+00
         0.30000E+00
         0.30000E+00
         0.30000E+00
         0.30000E+00
         0.30000E+00
         0.30000E+00
         0.30000E+00
         0.30000E+00
         0.30000E+00
         0.30000E+00
         0.30000E+00
         0.30000E+00
         0.30000E+00
         0.30000E+00
         0.30000E+00
         0.30000E+00
         0.30000E+00
         0.30000E+00
         0.30000E+00
         0.30000E+00
         0.30000E+00
         0.30000E+00
         0.30000E+00
         0.30000E+00
         0.30000E+00
         0.30000E+00
         0.30000E+00
         0.30000E+00
         0.30000E+00
         0.30000E+00
         0.30000E+00
         0.30000E+00
         0.30000E+00
         0.30000E+00
         0.30000E+00
         0.30000E+00
         0.30000E+00
         0.30000E+00
         0.30000E+00
         0.30000E+00
         0.30000E+00
         0.30000E+00
         0.30000E+00
         0.30000E+00
         0.30000E+00
         0.30000E+00
         0.30000E+00
         0.30000E+00
         0.30000E+00
         0.30000E+00
         0.30000E+00
         0.30000E+00
         0.30000E+00
         0.30000E+00
         0.30000E+00
         0.30000E+00
         0.30000E+00
         0.30000E+00
         0.30000E+00
         0.30000E+00
         0.30000E+00
         0.30000E+00
         0.30000E+00
         0.30000E+00
         0.30000E+00
         0.30000E+00
         0.30000E+00
         0.30000E+00
         0.30000E+00
         0.30000E+00
         0.30000E+00
         0.30000E+00
         0.30000E+00
         0.30000E+00
         0.30000E+00
         0.30000E+00
         0.30000E+00
         0.30000E+00
         0.30000E+00
         0.30000E+00
         0.30000E+00
         0.30000E+00
         0.30000E+00
         0.30000E+00
         0.30000E+00
         0.30000E+00
         0.30000E+00
         0.30000E+00
         0.30000E+00
         0.30000E+00
         0.30000E+00
         0.30000E+00
         0.30000E+00
         0.30000E+00
         0.30000E+00
         0.30000E+00
         0.30000E+00
         0.30000E+00
         0.30000E+00
         0.30000E+00
         0.30000E+00
         0.30000E+00
         0.30000E+00
         0.30000E+00
         0.30000E+00
         0.30000E+00
         0.30000E+00
         0.30000E+00
         0.30000E+00
         0.30000E+00
         0.30000E+00
         0.30000E+00
         0.30000E+00
         0.30000E+00
         0.30000E+00
         0.30000E+00
         0.30000E+00
         0.30000E+00
         0.30000E+00
         0.30000E+00
         0.30000E+00
         0.30000E+00
         0.30000E+00
         0.30000E+00
         0.30000E+00
         0.30000E+00
         0.30000E+00
         0.30000E+00
         0.30000E+00
         0.30000E+00
         0.30000E+00
         0.30000E+00
         0.30000E+00
         0.30000E+00
         0.30000E+00
         0.30000E+00
         0.30000E+00
         0.30000E+00
         0.30000E+00
         0.30000E+00
         0.30000E+00
         0.30000E+00
         0.30000E+00
         0.30000E+00
         0.30000E+00
         0.30000E+00
         0.30000E+00
         0.30000E+00
         0.30000E+00
         0.30000E+00
         0.30000E+00
         0.30000E+00
         0.30000E+00
         0.30000E+00
         0.30000E+00
         0.30000E+00
         0.30000E+00
         0.30000E+00
         0.30000E+00
         0.30000E+00
         0.30000E+00
         0.30000E+00
         0.30000E+00
         0.30000E+00
         0.30000E+00
         0.30000E+00
         0.30000E+00
         0.30000E+00
         0.30000E+00
         0.30000E+00
         0.30000E+00
         0.30000E+00
         0.30000E+00
         0.30000E+00
         0.30000E+00
         0.30000E+00
         0.30000E+00
         0.30000E+00
         0.30000E+00
         0.30000E+00
         0.30000E+00
         0.30000E+00
         0.30000E+00
         0.30000E+00
         0.30000E+00
         0.30000E+00
         0.30000E+00
         0.30000E+00
         0.30000E+00
         0.30000E+00
         0.30000E+00
         0.30000E+00
         0.30000E+00
         0.30000E+00
         0.30000E+00
         0.30000E+00
         0.30000E+00
         0.30000E+00
         0.30000E+00
         0.30000E+00
         0.30000E+00
         0.30000E+00
         0.30000E+00
         0.30000E+00
         0.30000E+00
         0.30000E+00
         0.30000E+00
         0.30000E+00
         0.30000E+00
         0.30000E+00
         0.30000E+00
         0.30000E+00
         0.30000E+00
         0.30000E+00
         0.30000E+00
         0.30000E+00
         0.30000E+00
         0.30000E+00
         0.30000E+00
         0.30000E+00
         0.30000E+00
         0.30000E+00
         0.30000E+00
         0.30000E+00
         0.30000E+00
         0.30000E+00
         0.30000E+00
         0.30000E+00
         0.30000E+00
         0.30000E+00
         0.30000E+00
         0.30000E+00
         0.30000E+00
         0.30000E+00
         0.30000E+00
         0.30000E+00
         0.30000E+00
         0.30000E+00
         0.30000E+00
         0.30000E+00
         0.30000E+00
         0.30000E+00
         0.30000E+00
         0.30000E+00
         0.30000E+00
         0.30000E+00
         0.30000E+00
         0.30000E+00
         0.30000E+00
         0.30000E+00
         0.30000E+00
         0.30000E+00
         0.30000E+00
         0.30000E+00
         0.30000E+00
         0.30000E+00
         0.30000E+00
         0.30000E+00
         0.30000E+00
         0.30000E+00
         0.30000E+00
         0.30000E+00
         0.30000E+00
         0.30000E+00
         0.30000E+00
         0.30000E+00
         0.30000E+00
         0.30000E+00
         0.30000E+00
         0.30000E+00
         0.30000E+00
         0.30000E+00
         0.30000E+00
         0.30000E+00
         0.30000E+00
         0.30000E+00
         0.30000E+00
         0.30000E+00
         0.30000E+00
         0.30000E+00
         0.30000E+00
         0.30000E+00
         0.30000E+00
         0.30000E+00
         0.30000E+00
         0.30000E+00
         0.30000E+00
         0.30000E+00
         0.30000E+00
         0.30000E+00
         0.30000E+00
         0.30000E+00
         0.30000E+00
         0.30000E+00
         0.30000E+00
         0.30000E+00
         0.30000E+00
         0.30000E+00
         0.30000E+00
         0.30000E+00
         0.30000E+00
         0.30000E+00
         0.30000E+00
         0.30000E+00
         0.30000E+00
         0.30000E+00
         0.30000E+00
         0.30000E+00
         0.30000E+00
         0.30000E+00
         0.30000E+00
         0.30000E+00
         0.30000E+00
         0.30000E+00
         0.30000E+00
         0.30000E+00
         0.30000E+00
         0.30000E+00
         0.30000E+00
         0.30000E+00
         0.30000E+00
         0.30000E+00
         0.30000E+00
         0.30000E+00
         0.30000E+00
         0.30000E+00
         0.30000E+00
         0.30000E+00
         0.30000E+00
         0.30000E+00
         0.30000E+00
         0.30000E+00
         0.30000E+00
         0.30000E+00
         0.30000E+00
         0.30000E+00
         0.30000E+00
         0.30000E+00
         0.30000E+00
         0.30000E+00
         0.30000E+00
         0.30000E+00
         0.30000E+00
         0.30000E+00
         0.30000E+00
         0.30000E+00
         0.30000E+00
         0.30000E+00
         0.30000E+00
         0.30000E+00
         0.30000E+00
         0.30000E+00
         0.30000E+00
         0.30000E+00
         0.30000E+00
         0.30000E+00
         0.30000E+00
         0.30000E+00
         0.30000E+00
         0.30000E+00
         0.30000E+00
         0.30000E+00
         0.30000E+00
         0.30000E+00
         0.30000E+00
         0.30000E+00
         0.30000E+00
         0.30000E+00
         0.30000E+00
         0.30000E+00
         0.30000E+00
         0.30000E+00
         0.30000E+00
         0.30000E+00
         0.30000E+00
         0.30000E+00
         0.30000E+00
         0.30000E+00
         0.30000E+00
         0.30000E+00
         0.30000E+00
         0.30000E+00
         0.30000E+00
         0.30000E+00
         0.30000E+00
         0.30000E+00
         0.30000E+00
         0.30000E+00
         0.30000E+00
         0.30000E+00
         0.30000E+00
         0.30000E+00
         0.30000E+00
         0.30000E+00
         0.30000E+00
         0.30000E+00
         0.30000E+00
         0.30000E+00
         0.30000E+00
         0.30000E+00
         0.30000E+00
         0.30000E+00
         0.30000E+00
         0.30000E+00
         0.30000E+00
         0.30000E+00
         0.30000E+00
         0.30000E+00
         0.30000E+00
         0.30000E+00
         0.30000E+00
         0.30000E+00
         0.30000E+00
         0.30000E+00
         0.30000E+00
         0.30000E+00
         0.30000E+00
         0.30000E+00
         0.30000E+00
         0.30000E+00
         0.30000E+00
         0.30000E+00
         0.30000E+00
         0.30000E+00
         0.30000E+00
         0.30000E+00
         0.30000E+00
         0.30000E+00
         0.30000E+00
         0.30000E+00
         0.30000E+00
         0.30000E+00
         0.30000E+00
         0.30000E+00
         0.30000E+00
         0.30000E+00
         0.30000E+00
         0.30000E+00
         0.30000E+00
         0.30000E+00
         0.30000E+00
         0.30000E+00
         0.30000E+00
         0.30000E+00
         0.30000E+00
         0.30000E+00
         0.30000E+00
         0.30000E+00
         0.30000E+00
         0.30000E+00
         0.30000E+00
         0.30000E+00
         0.30000E+00
         0.30000E+00
         0.30000E+00
         0.30000E+00
         0.30000E+00
         0.30000E+00
         0.30000E+00
         0.30000E+00
         0.30000E+00
         0.30000E+00
         0.30000E+00
         0.30000E+00
         0.30000E+00
         0.30000E+00
         0.30000E+00
         0.30000E+00
         0.30000E+00
         0.30000E+00
         0.30000E+00
         0.30000E+00
         0.30000E+00
         0.30000E+00
         0.30000E+00
         0.30000E+00
         0.30000E+00
         0.30000E+00
         0.30000E+00
         0.30000E+00
         0.30000E+00
         0.30000E+00
         0.30000E+00
         0.30000E+00
         0.30000E+00
         0.30000E+00
         0.30000E+00
         0.30000E+00
         0.30000E+00
         0.30000E+00
         0.30000E+00
         0.30000E+00
         0.30000E+00
         0.30000E+00
         0.30000E+00
         0.30000E+00
         0.30000E+00
         0.30000E+00
         0.30000E+00
         0.30000E+00
         0.30000E+00
         0.30000E+00
         0.30000E+00
         0.30000E+00
         0.30000E+00
         0.30000E+00
         0.30000E+00
         0.30000E+00
         0.30000E+00
         0.30000E+00
         0.30000E+00
         0.30000E+00
         0.30000E+00
         0.30000E+00
         0.30000E+00
         0.30000E+00
         0.30000E+00
         0.30000E+00
         0.30000E+00
         0.30000E+00
         0.30000E+00
         0.30000E+00
         0.30000E+00
         0.30000E+00
         0.30000E+00
         0.30000E+00
         0.30000E+00
         0.30000E+00
         0.30000E+00
         0.30000E+00
         0.30000E+00
         0.30000E+00
         0.30000E+00
         0.30000E+00
         0.30000E+00
         0.30000E+00
         0.30000E+00
         0.30000E+00
         0.30000E+00
         0.30000E+00
         0.30000E+00
         0.30000E+00
         0.30000E+00
         0.30000E+00
         0.30000E+00
         0.30000E+00
         0.30000E+00
         0.30000E+00
         0.30000E+00
         0.30000E+00
         0.30000E+00
         0.30000E+00
         0.30000E+00
         0.30000E+00
         0.30000E+00
         0.30000E+00
         0.30000E+00
         0.30000E+00
         0.30000E+00
         0.30000E+00
         0.30000E+00
         0.30000E+00
         0.30000E+00
         0.30000E+00
         0.30000E+00
         0.30000E+00
         0.30000E+00
         0.30000E+00
         0.30000E+00
         0.30000E+00
         0.30000E+00
         0.30000E+00
         0.30000E+00
         0.30000E+00
         0.30000E+00
         0.30000E+00
         0.30000E+00
         0.30000E+00
         0.30000E+00
         0.30000E+00
         0.30000E+00
         0.30000E+00
         0.30000E+00
         0.30000E+00
         0.30000E+00
         0.30000E+00
         0.30000E+00
         0.30000E+00
         0.30000E+00
         0.30000E+00
         0.30000E+00
         0.30000E+00
         0.30000E+00
         0.30000E+00
         0.30000E+00
         0.30000E+00
         0.30000E+00
         0.30000E+00
         0.30000E+00
         0.30000E+00
         0.30000E+00
         0.30000E+00
         0.30000E+00
         0.30000E+00
         0.30000E+00
         0.30000E+00
         0.30000E+00
         0.30000E+00
         0.30000E+00
         0.30000E+00
         0.30000E+00
         0.30000E+00
         0.30000E+00
         0.30000E+00
         0.30000E+00
         0.30000E+00
         0.30000E+00
         0.30000E+00
         0.30000E+00
         0.30000E+00
         0.30000E+00
         0.30000E+00
         0.30000E+00
         0.30000E+00
         0.30000E+00
         0.30000E+00
         0.30000E+00
         0.30000E+00
         0.30000E+00
         0.30000E+00
         0.30000E+00
         0.30000E+00
         0.30000E+00
         0.30000E+00
         0.30000E+00
         0.30000E+00
         0.30000E+00
         0.30000E+00
         0.30000E+00
         0.30000E+00
         0.30000E+00
         0.30000E+00
         0.30000E+00
         0.30000E+00
         0.30000E+00
         0.30000E+00
         0.30000E+00
         0.30000E+00
         0.30000E+00
         0.30000E+00
         0.30000E+00
         0.30000E+00
         0.30000E+00
         0.30000E+00
         0.30000E+00
         0.30000E+00
         0.30000E+00
         0.30000E+00
         0.30000E+00
         0.30000E+00
         0.30000E+00
         0.30000E+00
         0.30000E+00
         0.30000E+00
         0.30000E+00
         0.30000E+00
         0.30000E+00
         0.30000E+00
         0.30000E+00
         0.30000E+00
         0.30000E+00
         0.30000E+00
         0.30000E+00
         0.30000E+00
         0.30000E+00
         0.30000E+00
         0.30000E+00
         0.30000E+00
         0.30000E+00
         0.30000E+00
         0.30000E+00
         0.30000E+00
         0.30000E+00
         0.30000E+00
         0.30000E+00
         0.30000E+00
         0.30000E+00
         0.30000E+00
         0.30000E+00
         0.30000E+00
         0.30000E+00
         0.30000E+00
         0.30000E+00
         0.30000E+00
         0.30000E+00
         0.30000E+00
         0.30000E+00
         0.30000E+00
         0.30000E+00
         0.30000E+00
         0.30000E+00
         0.30000E+00
         0.30000E+00
         0.30000E+00
         0.30000E+00
         0.30000E+00
         0.30000E+00
         0.30000E+00
         0.30000E+00
         0.30000E+00
         0.30000E+00
         0.30000E+00
         0.30000E+00
         0.30000E+00
         0.30000E+00
         0.30000E+00
         0.30000E+00
         0.30000E+00
         0.30000E+00
         0.30000E+00
         0.30000E+00
         0.30000E+00
         0.30000E+00
         0.30000E+00
         0.30000E+00
         0.30000E+00
         0.30000E+00
         0.30000E+00
         0.30000E+00
         0.30000E+00
         0.30000E+00
         0.30000E+00
         0.30000E+00
         0.30000E+00
         0.30000E+00
         0.30000E+00
         0.30000E+00
         0.30000E+00
         0.30000E+00
         0.30000E+00
         0.30000E+00
         0.30000E+00
         0.30000E+00
         0.30000E+00
         0.30000E+00
         0.30000E+00
         0.30000E+00
         0.30000E+00
         0.30000E+00
         0.30000E+00
         0.30000E+00
         0.30000E+00
         0.30000E+00
         0.30000E+00
         0.30000E+00
         0.30000E+00
         0.30000E+00
         0.30000E+00
         0.30000E+00
         0.30000E+00
         0.30000E+00
         0.30000E+00
         0.30000E+00
         0.30000E+00
         0.30000E+00
         0.30000E+00
         0.30000E+00
         0.30000E+00
         0.30000E+00
         0.30000E+00
         0.30000E+00
         0.30000E+00
         0.30000E+00
         0.30000E+00
         0.30000E+00
         0.30000E+00
         0.30000E+00
         0.30000E+00
         0.30000E+00
         0.30000E+00
         0.30000E+00
         0.30000E+00
         0.30000E+00
         0.30000E+00
         0.30000E+00
         0.30000E+00
         0.30000E+00
         0.30000E+00
         0.30000E+00
         0.30000E+00
         0.30000E+00
         0.30000E+00
         0.30000E+00
         0.30000E+00
         0.30000E+00
         0.30000E+00
         0.30000E+00
         0.30000E+00
         0.30000E+00
         0.30000E+00
         0.30000E+00
         0.30000E+00
         0.30000E+00
         0.30000E+00
         0.30000E+00
         0.30000E+00
         0.30000E+00
         0.30000E+00
         0.30000E+00
         0.30000E+00
         0.30000E+00
         0.30000E+00
         0.30000E+00
         0.30000E+00
         0.30000E+00
         0.30000E+00
         0.30000E+00
         0.30000E+00
         0.30000E+00
         0.30000E+00
         0.30000E+00
         0.30000E+00
         0.30000E+00
         0.30000E+00
         0.30000E+00
         0.30000E+00
         0.30000E+00
         0.30000E+00
         0.30000E+00
         0.30000E+00
         0.30000E+00
         0.30000E+00
         0.30000E+00
         0.30000E+00
         0.30000E+00
         0.30000E+00
         0.30000E+00
         0.30000E+00
         0.30000E+00
         0.30000E+00
         0.30000E+00
         0.30000E+00
         0.30000E+00
         0.30000E+00
         0.30000E+00
         0.30000E+00
         0.30000E+00
         0.30000E+00
         0.30000E+00
         0.30000E+00
         0.30000E+00
         0.30000E+00
         0.30000E+00
         0.30000E+00
         0.30000E+00
         0.30000E+00
         0.30000E+00
         0.30000E+00
         0.30000E+00
         0.30000E+00
         0.30000E+00
         0.30000E+00
         0.30000E+00
         0.30000E+00
         0.30000E+00
         0.30000E+00
         0.30000E+00
         0.30000E+00
         0.30000E+00
         0.30000E+00
         0.30000E+00
         0.30000E+00
         0.30000E+00
         0.30000E+00
         0.30000E+00
         0.30000E+00
         0.30000E+00
         0.30000E+00
         0.30000E+00
         0.30000E+00
         0.30000E+00
         0.30000E+00
         0.30000E+00
         0.30000E+00
         0.30000E+00
         0.30000E+00
         0.30000E+00
         0.30000E+00
         0.30000E+00
         0.30000E+00
         0.30000E+00
         0.30000E+00
         0.30000E+00
         0.30000E+00
         0.30000E+00
         0.30000E+00
         0.30000E+00
         0.30000E+00
         0.30000E+00
         0.30000E+00
         0.30000E+00
         0.30000E+00
         0.30000E+00
         0.30000E+00
         0.30000E+00
         0.30000E+00
         0.30000E+00
         0.30000E+00
         0.30000E+00
         0.30000E+00
         0.30000E+00
         0.30000E+00
         0.30000E+00
         0.30000E+00
         0.30000E+00
         0.30000E+00
         0.30000E+00
         0.30000E+00
         0.30000E+00
         0.30000E+00
         0.30000E+00
         0.30000E+00
         0.30000E+00
         0.30000E+00
         0.30000E+00
         0.30000E+00
         0.30000E+00
         0.30000E+00
         0.30000E+00
         0.30000E+00
         0.30000E+00
         0.30000E+00
         0.30000E+00
         0.30000E+00
         0.30000E+00
         0.30000E+00
         0.30000E+00
         0.30000E+00
         0.30000E+00
         0.30000E+00
         0.30000E+00
         0.30000E+00
         0.30000E+00
         0.30000E+00
         0.30000E+00
         0.30000E+00
         0.30000E+00
         0.30000E+00
         0.30000E+00
         0.30000E+00
         0.30000E+00
         0.30000E+00
         0.30000E+00
         0.30000E+00
         0.30000E+00
         0.30000E+00
         0.30000E+00
         0.30000E+00
         0.30000E+00
         0.30000E+00
         0.30000E+00
         0.30000E+00
         0.30000E+00
         0.30000E+00
         0.30000E+00
         0.30000E+00
         0.30000E+00
         0.30000E+00
         0.30000E+00
         0.30000E+00
         0.30000E+00
         0.30000E+00
         0.30000E+00
         0.30000E+00
         0.30000E+00
         0.30000E+00
         0.30000E+00
         0.30000E+00
         0.30000E+00
         0.30000E+00
         0.30000E+00
         0.30000E+00
         0.30000E+00
         0.30000E+00
         0.30000E+00
         0.30000E+00
         0.30000E+00
         0.30000E+00
         0.30000E+00
         0.30000E+00
         0.30000E+00
         0.30000E+00
         0.30000E+00
         0.30000E+00
         0.30000E+00
         0.30000E+00
         0.30000E+00
         0.30000E+00
         0.30000E+00
         0.30000E+00
         0.30000E+00
         0.30000E+00
         0.30000E+00
         0.30000E+00
         0.30000E+00
         0.30000E+00
         0.30000E+00
         0.30000E+00
         0.30000E+00
         0.30000E+00
         0.30000E+00
         0.30000E+00
         0.30000E+00
         0.30000E+00
         0.30000E+00
         0.30000E+00
         0.30000E+00
         0.30000E+00
         0.30000E+00
         0.30000E+00
         0.30000E+00
         0.30000E+00
         0.30000E+00
         0.30000E+00
         0.30000E+00
         0.30000E+00
         0.30000E+00
         0.30000E+00
         0.30000E+00
         0.30000E+00
         0.30000E+00
         0.30000E+00
         0.30000E+00
         0.30000E+00
         0.30000E+00
         0.30000E+00
         0.30000E+00
         0.30000E+00
         0.30000E+00
         0.30000E+00
         0.30000E+00
         0.30000E+00
         0.30000E+00
         0.30000E+00
         0.30000E+00
         0.30000E+00
         0.30000E+00
         0.30000E+00
         0.30000E+00
         0.30000E+00
         0.30000E+00
         0.30000E+00
         0.30000E+00
         0.30000E+00
         0.30000E+00
         0.30000E+00
         0.30000E+00
         0.30000E+00
         0.30000E+00
         0.30000E+00
         0.30000E+00
         0.30000E+00
         0.30000E+00
         0.30000E+00
         0.30000E+00
         0.30000E+00
         0.30000E+00
         0.30000E+00
         0.30000E+00
         0.30000E+00
         0.30000E+00
         0.30000E+00
         0.30000E+00
         0.30000E+00
         0.30000E+00
         0.30000E+00
         0.30000E+00
         0.30000E+00
         0.30000E+00
         0.30000E+00
         0.30000E+00
         0.30000E+00
         0.30000E+00
         0.30000E+00
         0.30000E+00
         0.30000E+00
         0.30000E+00
         0.30000E+00
         0.30000E+00
         0.30000E+00
         0.30000E+00
         0.30000E+00
         0.30000E+00
         0.30000E+00
         0.30000E+00
         0.30000E+00
         0.30000E+00
         0.30000E+00
         0.30000E+00
         0.30000E+00
         0.30000E+00
         0.30000E+00
         0.30000E+00
         0.30000E+00
         0.30000E+00
         0.30000E+00
         0.30000E+00
         0.30000E+00
         0.30000E+00
         0.30000E+00
         0.30000E+00
         0.30000E+00
         0.30000E+00
         0.30000E+00
         0.30000E+00
         0.30000E+00
         0.30000E+00
         0.30000E+00
         0.30000E+00
         0.30000E+00
         0.30000E+00
         0.30000E+00
         0.30000E+00
         0.30000E+00
         0.30000E+00
         0.30000E+00
         0.30000E+00
         0.30000E+00
         0.30000E+00
         0.30000E+00
         0.30000E+00
         0.30000E+00
         0.30000E+00
         0.30000E+00
         0.30000E+00
         0.30000E+00
         0.30000E+00
         0.30000E+00
         0.30000E+00
         0.30000E+00
         0.30000E+00
         0.30000E+00
         0.30000E+00
         0.30000E+00
         0.30000E+00
         0.30000E+00
         0.30000E+00
         0.30000E+00
         0.30000E+00
         0.30000E+00
         0.30000E+00
         0.30000E+00
         0.30000E+00
         0.30000E+00
         0.30000E+00
         0.30000E+00
         0.30000E+00
         0.30000E+00
         0.30000E+00
         0.30000E+00
         0.30000E+00
         0.30000E+00
         0.30000E+00
         0.30000E+00
         0.30000E+00
         0.30000E+00
         0.30000E+00
         0.30000E+00
         0.30000E+00
         0.30000E+00
         0.30000E+00
         0.30000E+00
         0.30000E+00
         0.30000E+00
         0.30000E+00
         0.30000E+00
         0.30000E+00
         0.30000E+00
         0.30000E+00
         0.30000E+00
         0.30000E+00
         0.30000E+00
         0.30000E+00
         0.30000E+00
         0.30000E+00
         0.30000E+00
         0.30000E+00
         0.30000E+00
         0.30000E+00
         0.30000E+00
         0.30000E+00
         0.30000E+00
         0.30000E+00
         0.30000E+00
         0.30000E+00
         0.30000E+00
         0.30000E+00
         0.30000E+00
         0.30000E+00
         0.30000E+00
         0.30000E+00
         0.30000E+00
         0.30000E+00
         0.30000E+00
         0.30000E+00
         0.30000E+00
         0.30000E+00
         0.30000E+00
         0.30000E+00
         0.30000E+00
         0.30000E+00
         0.30000E+00
         0.30000E+00
         0.30000E+00
         0.30000E+00
         0.30000E+00
         0.30000E+00
         0.30000E+00
         0.30000E+00
         0.30000E+00
         0.30000E+00
         0.30000E+00
         0.30000E+00
         0.30000E+00
         0.30000E+00
         0.30000E+00
         0.30000E+00
         0.30000E+00
         0.30000E+00
         0.30000E+00
         0.30000E+00
         0.30000E+00
         0.30000E+00
         0.30000E+00
         0.30000E+00
         0.30000E+00
         0.30000E+00
         0.30000E+00
         0.30000E+00
         0.30000E+00
         0.30000E+00
         0.30000E+00
         0.30000E+00
         0.30000E+00
         0.30000E+00
         0.30000E+00
         0.30000E+00
         0.30000E+00
         0.30000E+00
         0.30000E+00
         0.30000E+00
         0.30000E+00
         0.30000E+00
         0.30000E+00
         0.30000E+00
         0.30000E+00
         0.30000E+00
         0.30000E+00
         0.30000E+00
         0.30000E+00
         0.30000E+00
         0.30000E+00
         0.30000E+00
         0.30000E+00
         0.30000E+00
         0.30000E+00
         0.30000E+00
         0.30000E+00
         0.30000E+00
         0.30000E+00
         0.30000E+00
         0.30000E+00
         0.30000E+00
         0.30000E+00
         0.30000E+00
         0.30000E+00
         0.30000E+00
         0.30000E+00
         0.30000E+00
         0.30000E+00
         0.30000E+00
         0.30000E+00
         0.30000E+00
         0.30000E+00
         0.30000E+00
         0.30000E+00
         0.30000E+00
         0.30000E+00
         0.30000E+00
         0.30000E+00
         0.30000E+00
         0.30000E+00
         0.30000E+00
         0.30000E+00
         0.30000E+00
         0.30000E+00
         0.30000E+00
  
SCALARS                 Youngs_modulus  double 1
LOOKUP_TABLE default
         0.78200E+11
         0.78200E+11
         0.78200E+11
         0.78200E+11
         0.78200E+11
         0.78200E+11
         0.78200E+11
         0.78200E+11
         0.78200E+11
         0.78200E+11
         0.78200E+11
         0.78200E+11
         0.78200E+11
         0.78200E+11
         0.78200E+11
         0.78200E+11
         0.78200E+11
         0.78200E+11
         0.78200E+11
         0.78200E+11
         0.78200E+11
         0.78200E+11
         0.78200E+11
         0.78200E+11
         0.78200E+11
         0.78200E+11
         0.78200E+11
         0.78200E+11
         0.78200E+11
         0.78200E+11
         0.78200E+11
         0.78200E+11
         0.78200E+11
         0.78200E+11
         0.78200E+11
         0.78200E+11
         0.78200E+11
         0.78200E+11
         0.78200E+11
         0.78200E+11
         0.78200E+11
         0.78200E+11
         0.78200E+11
         0.78200E+11
         0.78200E+11
         0.78200E+11
         0.78200E+11
         0.78200E+11
         0.78200E+11
         0.78200E+11
         0.78200E+11
         0.78200E+11
         0.78200E+11
         0.78200E+11
         0.78200E+11
         0.78200E+11
         0.78200E+11
         0.78200E+11
         0.78200E+11
         0.78200E+11
         0.78200E+11
         0.78200E+11
         0.78200E+11
         0.78200E+11
         0.78200E+11
         0.78200E+11
         0.78200E+11
         0.78200E+11
         0.78200E+11
         0.78200E+11
         0.78200E+11
         0.78200E+11
         0.78200E+11
         0.78200E+11
         0.78200E+11
         0.78200E+11
         0.78200E+11
         0.78200E+11
         0.78200E+11
         0.78200E+11
         0.78200E+11
         0.78200E+11
         0.78200E+11
         0.78200E+11
         0.78200E+11
         0.78200E+11
         0.78200E+11
         0.78200E+11
         0.78200E+11
         0.78200E+11
         0.78200E+11
         0.78200E+11
         0.78200E+11
         0.78200E+11
         0.78200E+11
         0.78200E+11
         0.78200E+11
         0.78200E+11
         0.78200E+11
         0.78200E+11
         0.78200E+11
         0.78200E+11
         0.78200E+11
         0.78200E+11
         0.78200E+11
         0.78200E+11
         0.78200E+11
         0.78200E+11
         0.78200E+11
         0.78200E+11
         0.78200E+11
         0.78200E+11
         0.78200E+11
         0.78200E+11
         0.78200E+11
         0.78200E+11
         0.78200E+11
         0.78200E+11
         0.78200E+11
         0.78200E+11
         0.78200E+11
         0.78200E+11
         0.78200E+11
         0.78200E+11
         0.78200E+11
         0.78200E+11
         0.78200E+11
         0.78200E+11
         0.78200E+11
         0.78200E+11
         0.78200E+11
         0.78200E+11
         0.78200E+11
         0.78200E+11
         0.78200E+11
         0.78200E+11
         0.78200E+11
         0.78200E+11
         0.78200E+11
         0.78200E+11
         0.78200E+11
         0.78200E+11
         0.78200E+11
         0.78200E+11
         0.78200E+11
         0.78200E+11
         0.78200E+11
         0.78200E+11
         0.78200E+11
         0.78200E+11
         0.78200E+11
         0.78200E+11
         0.78200E+11
         0.78200E+11
         0.78200E+11
         0.78200E+11
         0.78200E+11
         0.78200E+11
         0.78200E+11
         0.78200E+11
         0.78200E+11
         0.78200E+11
         0.78200E+11
         0.78200E+11
         0.78200E+11
         0.78200E+11
         0.78200E+11
         0.78200E+11
         0.78200E+11
         0.78200E+11
         0.78200E+11
         0.78200E+11
         0.78200E+11
         0.78200E+11
         0.78200E+11
         0.78200E+11
         0.78200E+11
         0.78200E+11
         0.78200E+11
         0.78200E+11
         0.78200E+11
         0.78200E+11
         0.78200E+11
         0.78200E+11
         0.78200E+11
         0.78200E+11
         0.78200E+11
         0.78200E+11
         0.78200E+11
         0.78200E+11
         0.78200E+11
         0.78200E+11
         0.78200E+11
         0.78200E+11
         0.78200E+11
         0.78200E+11
         0.78200E+11
         0.78200E+11
         0.78200E+11
         0.78200E+11
         0.78200E+11
         0.78200E+11
         0.78200E+11
         0.78200E+11
         0.78200E+11
         0.78200E+11
         0.78200E+11
         0.78200E+11
         0.78200E+11
         0.78200E+11
         0.78200E+11
         0.78200E+11
         0.78200E+11
         0.78200E+11
         0.78200E+11
         0.78200E+11
         0.78200E+11
         0.78200E+11
         0.78200E+11
         0.78200E+11
         0.78200E+11
         0.78200E+11
         0.78200E+11
         0.78200E+11
         0.78200E+11
         0.78200E+11
         0.78200E+11
         0.78200E+11
         0.78200E+11
         0.78200E+11
         0.78200E+11
         0.78200E+11
         0.78200E+11
         0.78200E+11
         0.78200E+11
         0.78200E+11
         0.78200E+11
         0.78200E+11
         0.78200E+11
         0.78200E+11
         0.78200E+11
         0.78200E+11
         0.78200E+11
         0.78200E+11
         0.78200E+11
         0.78200E+11
         0.78200E+11
         0.78200E+11
         0.78200E+11
         0.78200E+11
         0.78200E+11
         0.78200E+11
         0.78200E+11
         0.78200E+11
         0.78200E+11
         0.78200E+11
         0.78200E+11
         0.78200E+11
         0.78200E+11
         0.78200E+11
         0.78200E+11
         0.78200E+11
         0.78200E+11
         0.78200E+11
         0.78200E+11
         0.78200E+11
         0.78200E+11
         0.78200E+11
         0.78200E+11
         0.78200E+11
         0.78200E+11
         0.78200E+11
         0.78200E+11
         0.78200E+11
         0.78200E+11
         0.78200E+11
         0.78200E+11
         0.78200E+11
         0.78200E+11
         0.78200E+11
         0.78200E+11
         0.78200E+11
         0.78200E+11
         0.78200E+11
         0.78200E+11
         0.78200E+11
         0.78200E+11
         0.78200E+11
         0.78200E+11
         0.78200E+11
         0.78200E+11
         0.78200E+11
         0.78200E+11
         0.78200E+11
         0.78200E+11
         0.78200E+11
         0.78200E+11
         0.78200E+11
         0.78200E+11
         0.78200E+11
         0.78200E+11
         0.78200E+11
         0.78200E+11
         0.78200E+11
         0.78200E+11
         0.78200E+11
         0.78200E+11
         0.78200E+11
         0.78200E+11
         0.78200E+11
         0.78200E+11
         0.78200E+11
         0.78200E+11
         0.78200E+11
         0.78200E+11
         0.78200E+11
         0.78200E+11
         0.78200E+11
         0.78200E+11
         0.78200E+11
         0.78200E+11
         0.78200E+11
         0.78200E+11
         0.78200E+11
         0.78200E+11
         0.78200E+11
         0.78200E+11
         0.78200E+11
         0.78200E+11
         0.78200E+11
         0.78200E+11
         0.78200E+11
         0.78200E+11
         0.78200E+11
         0.78200E+11
         0.78200E+11
         0.78200E+11
         0.78200E+11
         0.78200E+11
         0.78200E+11
         0.78200E+11
         0.78200E+11
         0.78200E+11
         0.78200E+11
         0.78200E+11
         0.78200E+11
         0.78200E+11
         0.78200E+11
         0.78200E+11
         0.78200E+11
         0.78200E+11
         0.78200E+11
         0.78200E+11
         0.78200E+11
         0.78200E+11
         0.78200E+11
         0.78200E+11
         0.78200E+11
         0.78200E+11
         0.78200E+11
         0.78200E+11
         0.78200E+11
         0.78200E+11
         0.78200E+11
         0.78200E+11
         0.78200E+11
         0.78200E+11
         0.78200E+11
         0.78200E+11
         0.78200E+11
         0.78200E+11
         0.78200E+11
         0.78200E+11
         0.78200E+11
         0.78200E+11
         0.78200E+11
         0.78200E+11
         0.78200E+11
         0.78200E+11
         0.78200E+11
         0.78200E+11
         0.78200E+11
         0.78200E+11
         0.78200E+11
         0.78200E+11
         0.78200E+11
         0.78200E+11
         0.78200E+11
         0.78200E+11
         0.78200E+11
         0.78200E+11
         0.78200E+11
         0.78200E+11
         0.78200E+11
         0.78200E+11
         0.78200E+11
         0.78200E+11
         0.78200E+11
         0.78200E+11
         0.78200E+11
         0.78200E+11
         0.78200E+11
         0.78200E+11
         0.78200E+11
         0.78200E+11
         0.78200E+11
         0.78200E+11
         0.78200E+11
         0.78200E+11
         0.78200E+11
         0.78200E+11
         0.78200E+11
         0.78200E+11
         0.78200E+11
         0.78200E+11
         0.78200E+11
         0.78200E+11
         0.78200E+11
         0.78200E+11
         0.78200E+11
         0.78200E+11
         0.78200E+11
         0.78200E+11
         0.78200E+11
         0.78200E+11
         0.78200E+11
         0.78200E+11
         0.78200E+11
         0.78200E+11
         0.78200E+11
         0.78200E+11
         0.78200E+11
         0.78200E+11
         0.78200E+11
         0.78200E+11
         0.78200E+11
         0.78200E+11
         0.78200E+11
         0.78200E+11
         0.78200E+11
         0.78200E+11
         0.78200E+11
         0.78200E+11
         0.78200E+11
         0.78200E+11
         0.78200E+11
         0.78200E+11
         0.78200E+11
         0.78200E+11
         0.78200E+11
         0.78200E+11
         0.78200E+11
         0.78200E+11
         0.78200E+11
         0.78200E+11
         0.78200E+11
         0.78200E+11
         0.78200E+11
         0.78200E+11
         0.78200E+11
         0.78200E+11
         0.78200E+11
         0.78200E+11
         0.78200E+11
         0.78200E+11
         0.78200E+11
         0.78200E+11
         0.78200E+11
         0.78200E+11
         0.78200E+11
         0.78200E+11
         0.78200E+11
         0.78200E+11
         0.78200E+11
         0.78200E+11
         0.78200E+11
         0.78200E+11
         0.78200E+11
         0.78200E+11
         0.78200E+11
         0.78200E+11
         0.78200E+11
         0.78200E+11
         0.78200E+11
         0.78200E+11
         0.78200E+11
         0.78200E+11
         0.78200E+11
         0.78200E+11
         0.78200E+11
         0.78200E+11
         0.78200E+11
         0.78200E+11
         0.78200E+11
         0.78200E+11
         0.78200E+11
         0.78200E+11
         0.78200E+11
         0.78200E+11
         0.78200E+11
         0.78200E+11
         0.78200E+11
         0.78200E+11
         0.78200E+11
         0.78200E+11
         0.78200E+11
         0.78200E+11
         0.78200E+11
         0.78200E+11
         0.78200E+11
         0.78200E+11
         0.78200E+11
         0.78200E+11
         0.78200E+11
         0.78200E+11
         0.78200E+11
         0.78200E+11
         0.78200E+11
         0.78200E+11
         0.78200E+11
         0.78200E+11
         0.78200E+11
         0.78200E+11
         0.78200E+11
         0.78200E+11
         0.78200E+11
         0.78200E+11
         0.78200E+11
         0.78200E+11
         0.78200E+11
         0.78200E+11
         0.78200E+11
         0.78200E+11
         0.78200E+11
         0.78200E+11
         0.78200E+11
         0.78200E+11
         0.78200E+11
         0.78200E+11
         0.78200E+11
         0.78200E+11
         0.78200E+11
         0.78200E+11
         0.78200E+11
         0.78200E+11
         0.78200E+11
         0.78200E+11
         0.78200E+11
         0.78200E+11
         0.78200E+11
         0.78200E+11
         0.78200E+11
         0.78200E+11
         0.78200E+11
         0.78200E+11
         0.78200E+11
         0.78200E+11
         0.78200E+11
         0.78200E+11
         0.78200E+11
         0.78200E+11
         0.78200E+11
         0.78200E+11
         0.78200E+11
         0.78200E+11
         0.78200E+11
         0.78200E+11
         0.78200E+11
         0.78200E+11
         0.78200E+11
         0.78200E+11
         0.78200E+11
         0.78200E+11
         0.78200E+11
         0.78200E+11
         0.78200E+11
         0.78200E+11
         0.78200E+11
         0.78200E+11
         0.78200E+11
         0.78200E+11
         0.78200E+11
         0.78200E+11
         0.78200E+11
         0.78200E+11
         0.78200E+11
         0.78200E+11
         0.78200E+11
         0.78200E+11
         0.78200E+11
         0.78200E+11
         0.78200E+11
         0.78200E+11
         0.78200E+11
         0.78200E+11
         0.78200E+11
         0.78200E+11
         0.78200E+11
         0.78200E+11
         0.78200E+11
         0.78200E+11
         0.78200E+11
         0.78200E+11
         0.78200E+11
         0.78200E+11
         0.78200E+11
         0.78200E+11
         0.78200E+11
         0.78200E+11
         0.78200E+11
         0.78200E+11
         0.78200E+11
         0.78200E+11
         0.78200E+11
         0.78200E+11
         0.78200E+11
         0.78200E+11
         0.78200E+11
         0.78200E+11
         0.78200E+11
         0.78200E+11
         0.78200E+11
         0.78200E+11
         0.78200E+11
         0.78200E+11
         0.78200E+11
         0.78200E+11
         0.78200E+11
         0.78200E+11
         0.78200E+11
         0.78200E+11
         0.78200E+11
         0.78200E+11
         0.78200E+11
         0.78200E+11
         0.78200E+11
         0.78200E+11
         0.78200E+11
         0.78200E+11
         0.78200E+11
         0.78200E+11
         0.78200E+11
         0.78200E+11
         0.78200E+11
         0.78200E+11
         0.78200E+11
         0.78200E+11
         0.78200E+11
         0.78200E+11
         0.78200E+11
         0.78200E+11
         0.78200E+11
         0.78200E+11
         0.78200E+11
         0.78200E+11
         0.78200E+11
         0.78200E+11
         0.78200E+11
         0.78200E+11
         0.78200E+11
         0.78200E+11
         0.78200E+11
         0.78200E+11
         0.78200E+11
         0.78200E+11
         0.78200E+11
         0.78200E+11
         0.78200E+11
         0.78200E+11
         0.78200E+11
         0.78200E+11
         0.78200E+11
         0.78200E+11
         0.78200E+11
         0.78200E+11
         0.78200E+11
         0.78200E+11
         0.78200E+11
         0.78200E+11
         0.78200E+11
         0.78200E+11
         0.78200E+11
         0.78200E+11
         0.78200E+11
         0.78200E+11
         0.78200E+11
         0.78200E+11
         0.78200E+11
         0.78200E+11
         0.78200E+11
         0.78200E+11
         0.78200E+11
         0.78200E+11
         0.78200E+11
         0.78200E+11
         0.78200E+11
         0.78200E+11
         0.78200E+11
         0.78200E+11
         0.78200E+11
         0.78200E+11
         0.78200E+11
         0.78200E+11
         0.78200E+11
         0.78200E+11
         0.78200E+11
         0.78200E+11
         0.78200E+11
         0.78200E+11
         0.78200E+11
         0.78200E+11
         0.78200E+11
         0.78200E+11
         0.78200E+11
         0.78200E+11
         0.78200E+11
         0.78200E+11
         0.78200E+11
         0.78200E+11
         0.78200E+11
         0.78200E+11
         0.78200E+11
         0.78200E+11
         0.78200E+11
         0.78200E+11
         0.78200E+11
         0.78200E+11
         0.78200E+11
         0.78200E+11
         0.78200E+11
         0.78200E+11
         0.78200E+11
         0.78200E+11
         0.78200E+11
         0.78200E+11
         0.78200E+11
         0.78200E+11
         0.78200E+11
         0.78200E+11
         0.78200E+11
         0.78200E+11
         0.78200E+11
         0.78200E+11
         0.78200E+11
         0.78200E+11
         0.78200E+11
         0.78200E+11
         0.78200E+11
         0.78200E+11
         0.78200E+11
         0.78200E+11
         0.78200E+11
         0.78200E+11
         0.78200E+11
         0.78200E+11
         0.78200E+11
         0.78200E+11
         0.78200E+11
         0.78200E+11
         0.78200E+11
         0.78200E+11
         0.78200E+11
         0.78200E+11
         0.78200E+11
         0.78200E+11
         0.78200E+11
         0.78200E+11
         0.78200E+11
         0.78200E+11
         0.78200E+11
         0.78200E+11
         0.78200E+11
         0.78200E+11
         0.78200E+11
         0.78200E+11
         0.78200E+11
         0.78200E+11
         0.78200E+11
         0.78200E+11
         0.78200E+11
         0.78200E+11
         0.78200E+11
         0.78200E+11
         0.78200E+11
         0.78200E+11
         0.78200E+11
         0.78200E+11
         0.78200E+11
         0.78200E+11
         0.78200E+11
         0.78200E+11
         0.78200E+11
         0.78200E+11
         0.78200E+11
         0.78200E+11
         0.78200E+11
         0.78200E+11
         0.78200E+11
         0.78200E+11
         0.78200E+11
         0.78200E+11
         0.78200E+11
         0.78200E+11
         0.78200E+11
         0.78200E+11
         0.78200E+11
         0.78200E+11
         0.78200E+11
         0.78200E+11
         0.78200E+11
         0.78200E+11
         0.78200E+11
         0.78200E+11
         0.78200E+11
         0.78200E+11
         0.78200E+11
         0.78200E+11
         0.78200E+11
         0.78200E+11
         0.78200E+11
         0.78200E+11
         0.78200E+11
         0.78200E+11
         0.78200E+11
         0.78200E+11
         0.78200E+11
         0.78200E+11
         0.78200E+11
         0.78200E+11
         0.78200E+11
         0.78200E+11
         0.78200E+11
         0.78200E+11
         0.78200E+11
         0.78200E+11
         0.78200E+11
         0.78200E+11
         0.78200E+11
         0.78200E+11
         0.78200E+11
         0.78200E+11
         0.78200E+11
         0.78200E+11
         0.78200E+11
         0.78200E+11
         0.78200E+11
         0.78200E+11
         0.78200E+11
         0.78200E+11
         0.78200E+11
         0.78200E+11
         0.78200E+11
         0.78200E+11
         0.78200E+11
         0.78200E+11
         0.78200E+11
         0.78200E+11
         0.78200E+11
         0.78200E+11
         0.78200E+11
         0.78200E+11
         0.78200E+11
         0.78200E+11
         0.78200E+11
         0.78200E+11
         0.78200E+11
         0.78200E+11
         0.78200E+11
         0.78200E+11
         0.78200E+11
         0.78200E+11
         0.78200E+11
         0.78200E+11
         0.78200E+11
         0.78200E+11
         0.78200E+11
         0.78200E+11
         0.78200E+11
         0.78200E+11
         0.78200E+11
         0.78200E+11
         0.78200E+11
         0.78200E+11
         0.78200E+11
         0.78200E+11
         0.78200E+11
         0.78200E+11
         0.78200E+11
         0.78200E+11
         0.78200E+11
         0.78200E+11
         0.78200E+11
         0.78200E+11
         0.78200E+11
         0.78200E+11
         0.78200E+11
         0.78200E+11
         0.78200E+11
         0.78200E+11
         0.78200E+11
         0.78200E+11
         0.78200E+11
         0.78200E+11
         0.78200E+11
         0.78200E+11
         0.78200E+11
         0.78200E+11
         0.78200E+11
         0.78200E+11
         0.78200E+11
         0.78200E+11
         0.78200E+11
         0.78200E+11
         0.78200E+11
         0.78200E+11
         0.78200E+11
         0.78200E+11
         0.78200E+11
         0.78200E+11
         0.78200E+11
         0.78200E+11
         0.78200E+11
         0.78200E+11
         0.78200E+11
         0.78200E+11
         0.78200E+11
         0.78200E+11
         0.78200E+11
         0.78200E+11
         0.78200E+11
         0.78200E+11
         0.78200E+11
         0.78200E+11
         0.78200E+11
         0.78200E+11
         0.78200E+11
         0.78200E+11
         0.78200E+11
         0.78200E+11
         0.78200E+11
         0.78200E+11
         0.78200E+11
         0.78200E+11
         0.78200E+11
         0.78200E+11
         0.78200E+11
         0.78200E+11
         0.78200E+11
         0.78200E+11
         0.78200E+11
         0.78200E+11
         0.78200E+11
         0.78200E+11
         0.78200E+11
         0.78200E+11
         0.78200E+11
         0.78200E+11
         0.78200E+11
         0.78200E+11
         0.78200E+11
         0.78200E+11
         0.78200E+11
         0.78200E+11
         0.78200E+11
         0.78200E+11
         0.78200E+11
         0.78200E+11
         0.78200E+11
         0.78200E+11
         0.78200E+11
         0.78200E+11
         0.78200E+11
         0.78200E+11
         0.78200E+11
         0.78200E+11
         0.78200E+11
         0.78200E+11
         0.78200E+11
         0.78200E+11
         0.78200E+11
         0.78200E+11
         0.78200E+11
         0.78200E+11
         0.78200E+11
         0.78200E+11
         0.78200E+11
         0.78200E+11
         0.78200E+11
         0.78200E+11
         0.78200E+11
         0.78200E+11
         0.78200E+11
         0.78200E+11
         0.78200E+11
         0.78200E+11
         0.78200E+11
         0.78200E+11
         0.78200E+11
         0.78200E+11
         0.78200E+11
         0.78200E+11
         0.78200E+11
         0.78200E+11
         0.78200E+11
         0.78200E+11
         0.78200E+11
         0.78200E+11
         0.78200E+11
         0.78200E+11
         0.78200E+11
         0.78200E+11
         0.78200E+11
         0.78200E+11
         0.78200E+11
         0.78200E+11
         0.78200E+11
         0.78200E+11
         0.78200E+11
         0.78200E+11
         0.78200E+11
         0.78200E+11
         0.78200E+11
         0.78200E+11
         0.78200E+11
         0.78200E+11
         0.78200E+11
         0.78200E+11
         0.78200E+11
         0.78200E+11
         0.78200E+11
         0.78200E+11
         0.78200E+11
         0.78200E+11
         0.78200E+11
         0.78200E+11
         0.78200E+11
         0.78200E+11
         0.78200E+11
         0.78200E+11
         0.78200E+11
         0.78200E+11
         0.78200E+11
         0.78200E+11
         0.78200E+11
         0.78200E+11
         0.78200E+11
         0.78200E+11
         0.78200E+11
         0.78200E+11
         0.78200E+11
         0.78200E+11
         0.78200E+11
         0.78200E+11
         0.78200E+11
         0.78200E+11
         0.78200E+11
         0.78200E+11
         0.78200E+11
         0.78200E+11
         0.78200E+11
         0.78200E+11
         0.78200E+11
         0.78200E+11
         0.78200E+11
         0.78200E+11
         0.78200E+11
         0.78200E+11
         0.78200E+11
         0.78200E+11
         0.78200E+11
         0.78200E+11
         0.78200E+11
         0.78200E+11
         0.78200E+11
         0.78200E+11
         0.78200E+11
         0.78200E+11
         0.78200E+11
         0.78200E+11
         0.78200E+11
         0.78200E+11
         0.78200E+11
         0.78200E+11
         0.78200E+11
         0.78200E+11
         0.78200E+11
         0.78200E+11
         0.78200E+11
         0.78200E+11
         0.78200E+11
         0.78200E+11
         0.78200E+11
         0.78200E+11
         0.78200E+11
         0.78200E+11
         0.78200E+11
         0.78200E+11
         0.78200E+11
         0.78200E+11
         0.78200E+11
         0.78200E+11
         0.78200E+11
         0.78200E+11
         0.78200E+11
         0.78200E+11
         0.78200E+11
         0.78200E+11
         0.78200E+11
         0.78200E+11
         0.78200E+11
         0.78200E+11
         0.78200E+11
         0.78200E+11
         0.78200E+11
         0.78200E+11
         0.78200E+11
         0.78200E+11
         0.78200E+11
         0.78200E+11
         0.78200E+11
         0.78200E+11
         0.78200E+11
         0.78200E+11
         0.78200E+11
         0.78200E+11
         0.78200E+11
         0.78200E+11
         0.78200E+11
         0.78200E+11
         0.78200E+11
         0.78200E+11
         0.78200E+11
         0.78200E+11
         0.78200E+11
         0.78200E+11
         0.78200E+11
         0.78200E+11
         0.78200E+11
         0.78200E+11
         0.78200E+11
         0.78200E+11
         0.78200E+11
         0.78200E+11
         0.78200E+11
         0.78200E+11
         0.78200E+11
         0.78200E+11
         0.78200E+11
         0.78200E+11
         0.78200E+11
         0.78200E+11
         0.78200E+11
         0.78200E+11
         0.78200E+11
         0.78200E+11
         0.78200E+11
         0.78200E+11
         0.78200E+11
         0.78200E+11
         0.78200E+11
         0.78200E+11
         0.78200E+11
         0.78200E+11
         0.78200E+11
         0.78200E+11
         0.78200E+11
         0.78200E+11
         0.78200E+11
         0.78200E+11
         0.78200E+11
         0.78200E+11
         0.78200E+11
         0.78200E+11
         0.78200E+11
         0.78200E+11
         0.78200E+11
         0.78200E+11
         0.78200E+11
         0.78200E+11
         0.78200E+11
         0.78200E+11
         0.78200E+11
         0.78200E+11
         0.78200E+11
         0.78200E+11
         0.78200E+11
         0.78200E+11
         0.78200E+11
         0.78200E+11
         0.78200E+11
         0.78200E+11
         0.78200E+11
         0.78200E+11
         0.78200E+11
         0.78200E+11
         0.78200E+11
         0.78200E+11
         0.78200E+11
         0.78200E+11
         0.78200E+11
         0.78200E+11
         0.78200E+11
         0.78200E+11
         0.78200E+11
         0.78200E+11
         0.78200E+11
         0.78200E+11
         0.78200E+11
         0.78200E+11
         0.78200E+11
         0.78200E+11
         0.78200E+11
         0.78200E+11
         0.78200E+11
         0.78200E+11
         0.78200E+11
         0.78200E+11
         0.78200E+11
         0.78200E+11
         0.78200E+11
         0.78200E+11
         0.78200E+11
         0.78200E+11
         0.78200E+11
         0.78200E+11
         0.78200E+11
         0.78200E+11
         0.78200E+11
         0.78200E+11
         0.78200E+11
         0.78200E+11
         0.78200E+11
         0.78200E+11
         0.78200E+11
         0.78200E+11
         0.78200E+11
         0.78200E+11
         0.78200E+11
         0.78200E+11
         0.78200E+11
         0.78200E+11
         0.78200E+11
         0.78200E+11
         0.78200E+11
         0.78200E+11
         0.78200E+11
         0.78200E+11
         0.78200E+11
         0.78200E+11
         0.78200E+11
         0.78200E+11
         0.78200E+11
         0.78200E+11
         0.78200E+11
         0.78200E+11
         0.78200E+11
         0.78200E+11
         0.78200E+11
         0.78200E+11
         0.78200E+11
         0.78200E+11
         0.78200E+11
         0.78200E+11
         0.78200E+11
         0.78200E+11
         0.78200E+11
         0.78200E+11
         0.78200E+11
         0.78200E+11
         0.78200E+11
         0.78200E+11
         0.78200E+11
         0.78200E+11
         0.78200E+11
         0.78200E+11
         0.78200E+11
         0.78200E+11
         0.78200E+11
         0.78200E+11
         0.78200E+11
         0.78200E+11
         0.78200E+11
         0.78200E+11
         0.78200E+11
         0.78200E+11
         0.78200E+11
         0.78200E+11
         0.78200E+11
         0.78200E+11
         0.78200E+11
         0.78200E+11
         0.78200E+11
         0.78200E+11
         0.78200E+11
         0.78200E+11
         0.78200E+11
         0.78200E+11
         0.78200E+11
         0.78200E+11
         0.78200E+11
         0.78200E+11
         0.78200E+11
         0.78200E+11
         0.78200E+11
         0.78200E+11
         0.78200E+11
         0.78200E+11
         0.78200E+11
         0.78200E+11
         0.78200E+11
         0.78200E+11
         0.78200E+11
         0.78200E+11
         0.78200E+11
         0.78200E+11
         0.78200E+11
         0.78200E+11
         0.78200E+11
         0.78200E+11
         0.78200E+11
         0.78200E+11
         0.78200E+11
         0.78200E+11
         0.78200E+11
         0.78200E+11
         0.78200E+11
         0.78200E+11
         0.78200E+11
         0.78200E+11
         0.78200E+11
         0.78200E+11
         0.78200E+11
         0.78200E+11
         0.78200E+11
         0.78200E+11
         0.78200E+11
         0.78200E+11
         0.78200E+11
         0.78200E+11
         0.78200E+11
         0.78200E+11
         0.78200E+11
         0.78200E+11
         0.78200E+11
         0.78200E+11
         0.78200E+11
         0.78200E+11
         0.78200E+11
         0.78200E+11
         0.78200E+11
         0.78200E+11
         0.78200E+11
         0.78200E+11
         0.78200E+11
         0.78200E+11
         0.78200E+11
         0.78200E+11
         0.78200E+11
         0.78200E+11
         0.78200E+11
         0.78200E+11
         0.78200E+11
         0.78200E+11
         0.78200E+11
         0.78200E+11
         0.78200E+11
         0.78200E+11
         0.78200E+11
         0.78200E+11
         0.78200E+11
         0.78200E+11
         0.78200E+11
         0.78200E+11
         0.78200E+11
         0.78200E+11
         0.78200E+11
         0.78200E+11
         0.78200E+11
         0.78200E+11
         0.78200E+11
         0.78200E+11
         0.78200E+11
         0.78200E+11
         0.78200E+11
         0.78200E+11
         0.78200E+11
         0.78200E+11
         0.78200E+11
         0.78200E+11
         0.78200E+11
         0.78200E+11
         0.78200E+11
         0.78200E+11
         0.78200E+11
         0.78200E+11
         0.78200E+11
         0.78200E+11
         0.78200E+11
         0.78200E+11
         0.78200E+11
         0.78200E+11
         0.78200E+11
         0.78200E+11
         0.78200E+11
         0.78200E+11
         0.78200E+11
         0.78200E+11
         0.78200E+11
         0.78200E+11
         0.78200E+11
         0.78200E+11
         0.78200E+11
         0.78200E+11
         0.78200E+11
         0.78200E+11
         0.78200E+11
         0.78200E+11
         0.78200E+11
         0.78200E+11
         0.78200E+11
         0.78200E+11
         0.78200E+11
         0.78200E+11
         0.78200E+11
         0.78200E+11
         0.78200E+11
         0.78200E+11
         0.78200E+11
         0.78200E+11
         0.78200E+11
         0.78200E+11
         0.78200E+11
         0.78200E+11
         0.78200E+11
         0.78200E+11
         0.78200E+11
         0.78200E+11
         0.78200E+11
         0.78200E+11
         0.78200E+11
         0.78200E+11
         0.78200E+11
         0.78200E+11
         0.78200E+11
         0.78200E+11
         0.78200E+11
         0.78200E+11
         0.78200E+11
         0.78200E+11
         0.78200E+11
         0.78200E+11
         0.78200E+11
         0.78200E+11
         0.78200E+11
         0.78200E+11
         0.78200E+11
         0.78200E+11
         0.78200E+11
         0.78200E+11
         0.78200E+11
         0.78200E+11
         0.78200E+11
         0.78200E+11
         0.78200E+11
         0.78200E+11
         0.78200E+11
         0.78200E+11
         0.78200E+11
         0.78200E+11
         0.78200E+11
         0.78200E+11
         0.78200E+11
         0.78200E+11
         0.78200E+11
         0.78200E+11
         0.78200E+11
         0.78200E+11
         0.78200E+11
         0.78200E+11
         0.78200E+11
         0.78200E+11
         0.78200E+11
         0.78200E+11
         0.78200E+11
         0.78200E+11
         0.78200E+11
         0.78200E+11
         0.78200E+11
         0.78200E+11
         0.78200E+11
         0.78200E+11
         0.78200E+11
         0.78200E+11
         0.78200E+11
         0.78200E+11
         0.78200E+11
         0.78200E+11
         0.78200E+11
         0.78200E+11
         0.78200E+11
         0.78200E+11
         0.78200E+11
         0.78200E+11
         0.78200E+11
         0.78200E+11
         0.78200E+11
         0.78200E+11
         0.78200E+11
         0.78200E+11
         0.78200E+11
         0.78200E+11
         0.78200E+11
         0.78200E+11
         0.78200E+11
         0.78200E+11
         0.78200E+11
         0.78200E+11
         0.78200E+11
         0.78200E+11
         0.78200E+11
         0.78200E+11
         0.78200E+11
         0.78200E+11
         0.78200E+11
         0.78200E+11
         0.78200E+11
         0.78200E+11
         0.78200E+11
         0.78200E+11
         0.78200E+11
         0.78200E+11
         0.78200E+11
         0.78200E+11
         0.78200E+11
         0.78200E+11
         0.78200E+11
         0.78200E+11
         0.78200E+11
         0.78200E+11
         0.78200E+11
         0.78200E+11
         0.78200E+11
         0.78200E+11
         0.78200E+11
         0.78200E+11
         0.78200E+11
         0.78200E+11
         0.78200E+11
         0.78200E+11
         0.78200E+11
         0.78200E+11
         0.78200E+11
         0.78200E+11
         0.78200E+11
         0.78200E+11
         0.78200E+11
         0.78200E+11
         0.78200E+11
         0.78200E+11
         0.78200E+11
         0.78200E+11
         0.78200E+11
         0.78200E+11
         0.78200E+11
         0.78200E+11
         0.78200E+11
         0.78200E+11
         0.78200E+11
         0.78200E+11
         0.78200E+11
         0.78200E+11
         0.78200E+11
         0.78200E+11
         0.78200E+11
         0.78200E+11
         0.78200E+11
         0.78200E+11
         0.78200E+11
         0.78200E+11
         0.78200E+11
         0.78200E+11
         0.78200E+11
         0.78200E+11
         0.78200E+11
         0.78200E+11
         0.78200E+11
         0.78200E+11
         0.78200E+11
         0.78200E+11
         0.78200E+11
         0.78200E+11
         0.78200E+11
         0.78200E+11
         0.78200E+11
         0.78200E+11
         0.78200E+11
         0.78200E+11
         0.78200E+11
         0.78200E+11
         0.78200E+11
         0.78200E+11
         0.78200E+11
         0.78200E+11
         0.78200E+11
         0.78200E+11
         0.78200E+11
         0.78200E+11
         0.78200E+11
         0.78200E+11
         0.78200E+11
         0.78200E+11
         0.78200E+11
         0.78200E+11
         0.78200E+11
         0.78200E+11
         0.78200E+11
         0.78200E+11
         0.78200E+11
         0.78200E+11
         0.78200E+11
         0.78200E+11
         0.78200E+11
         0.78200E+11
         0.78200E+11
         0.78200E+11
         0.78200E+11
         0.78200E+11
         0.78200E+11
         0.78200E+11
         0.78200E+11
         0.78200E+11
         0.78200E+11
         0.78200E+11
         0.78200E+11
         0.78200E+11
         0.78200E+11
         0.78200E+11
         0.78200E+11
         0.78200E+11
         0.78200E+11
         0.78200E+11
         0.78200E+11
         0.78200E+11
         0.78200E+11
         0.78200E+11
         0.78200E+11
         0.78200E+11
         0.78200E+11
         0.78200E+11
         0.78200E+11
         0.78200E+11
         0.78200E+11
         0.78200E+11
         0.78200E+11
         0.78200E+11
         0.78200E+11
         0.78200E+11
         0.78200E+11
         0.78200E+11
         0.78200E+11
         0.78200E+11
         0.78200E+11
         0.78200E+11
         0.78200E+11
         0.78200E+11
         0.78200E+11
         0.78200E+11
         0.78200E+11
         0.78200E+11
         0.78200E+11
         0.78200E+11
         0.78200E+11
         0.78200E+11
         0.78200E+11
         0.78200E+11
         0.78200E+11
         0.78200E+11
         0.78200E+11
         0.78200E+11
         0.78200E+11
         0.78200E+11
         0.78200E+11
         0.78200E+11
         0.78200E+11
         0.78200E+11
         0.78200E+11
         0.78200E+11
         0.78200E+11
         0.78200E+11
         0.78200E+11
         0.78200E+11
         0.78200E+11
         0.78200E+11
         0.78200E+11
         0.78200E+11
         0.78200E+11
         0.78200E+11
         0.78200E+11
         0.78200E+11
         0.78200E+11
         0.78200E+11
         0.78200E+11
         0.78200E+11
         0.78200E+11
         0.78200E+11
         0.78200E+11
         0.78200E+11
         0.78200E+11
         0.78200E+11
         0.78200E+11
         0.78200E+11
         0.78200E+11
         0.78200E+11
         0.78200E+11
         0.78200E+11
         0.78200E+11
         0.78200E+11
         0.78200E+11
         0.78200E+11
         0.78200E+11
         0.78200E+11
         0.78200E+11
         0.78200E+11
         0.78200E+11
         0.78200E+11
         0.78200E+11
         0.78200E+11
         0.78200E+11
         0.78200E+11
         0.78200E+11
         0.78200E+11
         0.78200E+11
         0.78200E+11
         0.78200E+11
         0.78200E+11
         0.78200E+11
         0.78200E+11
         0.78200E+11
         0.78200E+11
         0.78200E+11
         0.78200E+11
         0.78200E+11
         0.78200E+11
         0.78200E+11
         0.78200E+11
         0.78200E+11
         0.78200E+11
         0.78200E+11
         0.78200E+11
         0.78200E+11
         0.78200E+11
         0.78200E+11
         0.78200E+11
         0.78200E+11
         0.78200E+11
         0.78200E+11
         0.78200E+11
         0.78200E+11
         0.78200E+11
         0.78200E+11
         0.78200E+11
         0.78200E+11
         0.78200E+11
         0.78200E+11
         0.78200E+11
         0.78200E+11
         0.78200E+11
         0.78200E+11
         0.78200E+11
         0.78200E+11
         0.78200E+11
         0.78200E+11
         0.78200E+11
         0.78200E+11
         0.78200E+11
         0.78200E+11
         0.78200E+11
         0.78200E+11
         0.78200E+11
         0.78200E+11
         0.78200E+11
         0.78200E+11
         0.78200E+11
         0.78200E+11
         0.78200E+11
         0.78200E+11
         0.78200E+11
         0.78200E+11
         0.78200E+11
         0.78200E+11
         0.78200E+11
         0.78200E+11
         0.78200E+11
         0.78200E+11
         0.78200E+11
         0.78200E+11
         0.78200E+11
         0.78200E+11
         0.78200E+11
         0.78200E+11
         0.78200E+11
         0.78200E+11
         0.78200E+11
         0.78200E+11
         0.78200E+11
         0.78200E+11
         0.78200E+11
         0.78200E+11
         0.78200E+11
         0.78200E+11
         0.78200E+11
         0.78200E+11
         0.78200E+11
         0.78200E+11
         0.78200E+11
         0.78200E+11
         0.78200E+11
         0.78200E+11
         0.78200E+11
         0.78200E+11
         0.78200E+11
         0.78200E+11
         0.78200E+11
         0.78200E+11
         0.78200E+11
         0.78200E+11
         0.78200E+11
         0.78200E+11
         0.78200E+11
         0.78200E+11
         0.78200E+11
         0.78200E+11
         0.78200E+11
         0.78200E+11
         0.78200E+11
         0.78200E+11
         0.78200E+11
         0.78200E+11
         0.78200E+11
         0.78200E+11
         0.78200E+11
         0.78200E+11
         0.78200E+11
         0.78200E+11
         0.78200E+11
         0.78200E+11
         0.78200E+11
         0.78200E+11
         0.78200E+11
         0.78200E+11
         0.78200E+11
         0.78200E+11
         0.78200E+11
         0.78200E+11
         0.78200E+11
         0.78200E+11
         0.78200E+11
         0.78200E+11
         0.78200E+11
         0.78200E+11
         0.78200E+11
         0.78200E+11
         0.78200E+11
         0.78200E+11
         0.78200E+11
         0.78200E+11
         0.78200E+11
         0.78200E+11
         0.78200E+11
         0.78200E+11
         0.78200E+11
         0.78200E+11
         0.78200E+11
         0.78200E+11
         0.78200E+11
         0.78200E+11
         0.78200E+11
         0.78200E+11
         0.78200E+11
         0.78200E+11
         0.78200E+11
         0.78200E+11
         0.78200E+11
         0.78200E+11
         0.78200E+11
         0.78200E+11
         0.78200E+11
         0.78200E+11
         0.78200E+11
         0.78200E+11
         0.78200E+11
         0.78200E+11
         0.78200E+11
         0.78200E+11
         0.78200E+11
         0.78200E+11
         0.78200E+11
         0.78200E+11
         0.78200E+11
         0.78200E+11
         0.78200E+11
         0.78200E+11
         0.78200E+11
         0.78200E+11
         0.78200E+11
         0.78200E+11
         0.78200E+11
         0.78200E+11
         0.78200E+11
         0.78200E+11
         0.78200E+11
         0.78200E+11
         0.78200E+11
         0.78200E+11
         0.78200E+11
         0.78200E+11
         0.78200E+11
         0.78200E+11
         0.78200E+11
         0.78200E+11
         0.78200E+11
         0.78200E+11
         0.78200E+11
         0.78200E+11
         0.78200E+11
         0.78200E+11
         0.78200E+11
         0.78200E+11
         0.78200E+11
         0.78200E+11
         0.78200E+11
         0.78200E+11
         0.78200E+11
         0.78200E+11
         0.78200E+11
         0.78200E+11
         0.78200E+11
         0.78200E+11
         0.78200E+11
         0.78200E+11
         0.78200E+11
         0.78200E+11
         0.78200E+11
         0.78200E+11
         0.78200E+11
         0.78200E+11
         0.78200E+11
         0.78200E+11
         0.78200E+11
         0.78200E+11
  
SCALARS                        density  double 1
LOOKUP_TABLE default
         0.27000E+04
         0.27000E+04
         0.27000E+04
         0.27000E+04
         0.27000E+04
         0.27000E+04
         0.27000E+04
         0.27000E+04
         0.27000E+04
         0.27000E+04
         0.27000E+04
         0.27000E+04
         0.27000E+04
         0.27000E+04
         0.27000E+04
         0.27000E+04
         0.27000E+04
         0.27000E+04
         0.27000E+04
         0.27000E+04
         0.27000E+04
         0.27000E+04
         0.27000E+04
         0.27000E+04
         0.27000E+04
         0.27000E+04
         0.27000E+04
         0.27000E+04
         0.27000E+04
         0.27000E+04
         0.27000E+04
         0.27000E+04
         0.27000E+04
         0.27000E+04
         0.27000E+04
         0.27000E+04
         0.27000E+04
         0.27000E+04
         0.27000E+04
         0.27000E+04
         0.27000E+04
         0.27000E+04
         0.27000E+04
         0.27000E+04
         0.27000E+04
         0.27000E+04
         0.27000E+04
         0.27000E+04
         0.27000E+04
         0.27000E+04
         0.27000E+04
         0.27000E+04
         0.27000E+04
         0.27000E+04
         0.27000E+04
         0.27000E+04
         0.27000E+04
         0.27000E+04
         0.27000E+04
         0.27000E+04
         0.27000E+04
         0.27000E+04
         0.27000E+04
         0.27000E+04
         0.27000E+04
         0.27000E+04
         0.27000E+04
         0.27000E+04
         0.27000E+04
         0.27000E+04
         0.27000E+04
         0.27000E+04
         0.27000E+04
         0.27000E+04
         0.27000E+04
         0.27000E+04
         0.27000E+04
         0.27000E+04
         0.27000E+04
         0.27000E+04
         0.27000E+04
         0.27000E+04
         0.27000E+04
         0.27000E+04
         0.27000E+04
         0.27000E+04
         0.27000E+04
         0.27000E+04
         0.27000E+04
         0.27000E+04
         0.27000E+04
         0.27000E+04
         0.27000E+04
         0.27000E+04
         0.27000E+04
         0.27000E+04
         0.27000E+04
         0.27000E+04
         0.27000E+04
         0.27000E+04
         0.27000E+04
         0.27000E+04
         0.27000E+04
         0.27000E+04
         0.27000E+04
         0.27000E+04
         0.27000E+04
         0.27000E+04
         0.27000E+04
         0.27000E+04
         0.27000E+04
         0.27000E+04
         0.27000E+04
         0.27000E+04
         0.27000E+04
         0.27000E+04
         0.27000E+04
         0.27000E+04
         0.27000E+04
         0.27000E+04
         0.27000E+04
         0.27000E+04
         0.27000E+04
         0.27000E+04
         0.27000E+04
         0.27000E+04
         0.27000E+04
         0.27000E+04
         0.27000E+04
         0.27000E+04
         0.27000E+04
         0.27000E+04
         0.27000E+04
         0.27000E+04
         0.27000E+04
         0.27000E+04
         0.27000E+04
         0.27000E+04
         0.27000E+04
         0.27000E+04
         0.27000E+04
         0.27000E+04
         0.27000E+04
         0.27000E+04
         0.27000E+04
         0.27000E+04
         0.27000E+04
         0.27000E+04
         0.27000E+04
         0.27000E+04
         0.27000E+04
         0.27000E+04
         0.27000E+04
         0.27000E+04
         0.27000E+04
         0.27000E+04
         0.27000E+04
         0.27000E+04
         0.27000E+04
         0.27000E+04
         0.27000E+04
         0.27000E+04
         0.27000E+04
         0.27000E+04
         0.27000E+04
         0.27000E+04
         0.27000E+04
         0.27000E+04
         0.27000E+04
         0.27000E+04
         0.27000E+04
         0.27000E+04
         0.27000E+04
         0.27000E+04
         0.27000E+04
         0.27000E+04
         0.27000E+04
         0.27000E+04
         0.27000E+04
         0.27000E+04
         0.27000E+04
         0.27000E+04
         0.27000E+04
         0.27000E+04
         0.27000E+04
         0.27000E+04
         0.27000E+04
         0.27000E+04
         0.27000E+04
         0.27000E+04
         0.27000E+04
         0.27000E+04
         0.27000E+04
         0.27000E+04
         0.27000E+04
         0.27000E+04
         0.27000E+04
         0.27000E+04
         0.27000E+04
         0.27000E+04
         0.27000E+04
         0.27000E+04
         0.27000E+04
         0.27000E+04
         0.27000E+04
         0.27000E+04
         0.27000E+04
         0.27000E+04
         0.27000E+04
         0.27000E+04
         0.27000E+04
         0.27000E+04
         0.27000E+04
         0.27000E+04
         0.27000E+04
         0.27000E+04
         0.27000E+04
         0.27000E+04
         0.27000E+04
         0.27000E+04
         0.27000E+04
         0.27000E+04
         0.27000E+04
         0.27000E+04
         0.27000E+04
         0.27000E+04
         0.27000E+04
         0.27000E+04
         0.27000E+04
         0.27000E+04
         0.27000E+04
         0.27000E+04
         0.27000E+04
         0.27000E+04
         0.27000E+04
         0.27000E+04
         0.27000E+04
         0.27000E+04
         0.27000E+04
         0.27000E+04
         0.27000E+04
         0.27000E+04
         0.27000E+04
         0.27000E+04
         0.27000E+04
         0.27000E+04
         0.27000E+04
         0.27000E+04
         0.27000E+04
         0.27000E+04
         0.27000E+04
         0.27000E+04
         0.27000E+04
         0.27000E+04
         0.27000E+04
         0.27000E+04
         0.27000E+04
         0.27000E+04
         0.27000E+04
         0.27000E+04
         0.27000E+04
         0.27000E+04
         0.27000E+04
         0.27000E+04
         0.27000E+04
         0.27000E+04
         0.27000E+04
         0.27000E+04
         0.27000E+04
         0.27000E+04
         0.27000E+04
         0.27000E+04
         0.27000E+04
         0.27000E+04
         0.27000E+04
         0.27000E+04
         0.27000E+04
         0.27000E+04
         0.27000E+04
         0.27000E+04
         0.27000E+04
         0.27000E+04
         0.27000E+04
         0.27000E+04
         0.27000E+04
         0.27000E+04
         0.27000E+04
         0.27000E+04
         0.27000E+04
         0.27000E+04
         0.27000E+04
         0.27000E+04
         0.27000E+04
         0.27000E+04
         0.27000E+04
         0.27000E+04
         0.27000E+04
         0.27000E+04
         0.27000E+04
         0.27000E+04
         0.27000E+04
         0.27000E+04
         0.27000E+04
         0.27000E+04
         0.27000E+04
         0.27000E+04
         0.27000E+04
         0.27000E+04
         0.27000E+04
         0.27000E+04
         0.27000E+04
         0.27000E+04
         0.27000E+04
         0.27000E+04
         0.27000E+04
         0.27000E+04
         0.27000E+04
         0.27000E+04
         0.27000E+04
         0.27000E+04
         0.27000E+04
         0.27000E+04
         0.27000E+04
         0.27000E+04
         0.27000E+04
         0.27000E+04
         0.27000E+04
         0.27000E+04
         0.27000E+04
         0.27000E+04
         0.27000E+04
         0.27000E+04
         0.27000E+04
         0.27000E+04
         0.27000E+04
         0.27000E+04
         0.27000E+04
         0.27000E+04
         0.27000E+04
         0.27000E+04
         0.27000E+04
         0.27000E+04
         0.27000E+04
         0.27000E+04
         0.27000E+04
         0.27000E+04
         0.27000E+04
         0.27000E+04
         0.27000E+04
         0.27000E+04
         0.27000E+04
         0.27000E+04
         0.27000E+04
         0.27000E+04
         0.27000E+04
         0.27000E+04
         0.27000E+04
         0.27000E+04
         0.27000E+04
         0.27000E+04
         0.27000E+04
         0.27000E+04
         0.27000E+04
         0.27000E+04
         0.27000E+04
         0.27000E+04
         0.27000E+04
         0.27000E+04
         0.27000E+04
         0.27000E+04
         0.27000E+04
         0.27000E+04
         0.27000E+04
         0.27000E+04
         0.27000E+04
         0.27000E+04
         0.27000E+04
         0.27000E+04
         0.27000E+04
         0.27000E+04
         0.27000E+04
         0.27000E+04
         0.27000E+04
         0.27000E+04
         0.27000E+04
         0.27000E+04
         0.27000E+04
         0.27000E+04
         0.27000E+04
         0.27000E+04
         0.27000E+04
         0.27000E+04
         0.27000E+04
         0.27000E+04
         0.27000E+04
         0.27000E+04
         0.27000E+04
         0.27000E+04
         0.27000E+04
         0.27000E+04
         0.27000E+04
         0.27000E+04
         0.27000E+04
         0.27000E+04
         0.27000E+04
         0.27000E+04
         0.27000E+04
         0.27000E+04
         0.27000E+04
         0.27000E+04
         0.27000E+04
         0.27000E+04
         0.27000E+04
         0.27000E+04
         0.27000E+04
         0.27000E+04
         0.27000E+04
         0.27000E+04
         0.27000E+04
         0.27000E+04
         0.27000E+04
         0.27000E+04
         0.27000E+04
         0.27000E+04
         0.27000E+04
         0.27000E+04
         0.27000E+04
         0.27000E+04
         0.27000E+04
         0.27000E+04
         0.27000E+04
         0.27000E+04
         0.27000E+04
         0.27000E+04
         0.27000E+04
         0.27000E+04
         0.27000E+04
         0.27000E+04
         0.27000E+04
         0.27000E+04
         0.27000E+04
         0.27000E+04
         0.27000E+04
         0.27000E+04
         0.27000E+04
         0.27000E+04
         0.27000E+04
         0.27000E+04
         0.27000E+04
         0.27000E+04
         0.27000E+04
         0.27000E+04
         0.27000E+04
         0.27000E+04
         0.27000E+04
         0.27000E+04
         0.27000E+04
         0.27000E+04
         0.27000E+04
         0.27000E+04
         0.27000E+04
         0.27000E+04
         0.27000E+04
         0.27000E+04
         0.27000E+04
         0.27000E+04
         0.27000E+04
         0.27000E+04
         0.27000E+04
         0.27000E+04
         0.27000E+04
         0.27000E+04
         0.27000E+04
         0.27000E+04
         0.27000E+04
         0.27000E+04
         0.27000E+04
         0.27000E+04
         0.27000E+04
         0.27000E+04
         0.27000E+04
         0.27000E+04
         0.27000E+04
         0.27000E+04
         0.27000E+04
         0.27000E+04
         0.27000E+04
         0.27000E+04
         0.27000E+04
         0.27000E+04
         0.27000E+04
         0.27000E+04
         0.27000E+04
         0.27000E+04
         0.27000E+04
         0.27000E+04
         0.27000E+04
         0.27000E+04
         0.27000E+04
         0.27000E+04
         0.27000E+04
         0.27000E+04
         0.27000E+04
         0.27000E+04
         0.27000E+04
         0.27000E+04
         0.27000E+04
         0.27000E+04
         0.27000E+04
         0.27000E+04
         0.27000E+04
         0.27000E+04
         0.27000E+04
         0.27000E+04
         0.27000E+04
         0.27000E+04
         0.27000E+04
         0.27000E+04
         0.27000E+04
         0.27000E+04
         0.27000E+04
         0.27000E+04
         0.27000E+04
         0.27000E+04
         0.27000E+04
         0.27000E+04
         0.27000E+04
         0.27000E+04
         0.27000E+04
         0.27000E+04
         0.27000E+04
         0.27000E+04
         0.27000E+04
         0.27000E+04
         0.27000E+04
         0.27000E+04
         0.27000E+04
         0.27000E+04
         0.27000E+04
         0.27000E+04
         0.27000E+04
         0.27000E+04
         0.27000E+04
         0.27000E+04
         0.27000E+04
         0.27000E+04
         0.27000E+04
         0.27000E+04
         0.27000E+04
         0.27000E+04
         0.27000E+04
         0.27000E+04
         0.27000E+04
         0.27000E+04
         0.27000E+04
         0.27000E+04
         0.27000E+04
         0.27000E+04
         0.27000E+04
         0.27000E+04
         0.27000E+04
         0.27000E+04
         0.27000E+04
         0.27000E+04
         0.27000E+04
         0.27000E+04
         0.27000E+04
         0.27000E+04
         0.27000E+04
         0.27000E+04
         0.27000E+04
         0.27000E+04
         0.27000E+04
         0.27000E+04
         0.27000E+04
         0.27000E+04
         0.27000E+04
         0.27000E+04
         0.27000E+04
         0.27000E+04
         0.27000E+04
         0.27000E+04
         0.27000E+04
         0.27000E+04
         0.27000E+04
         0.27000E+04
         0.27000E+04
         0.27000E+04
         0.27000E+04
         0.27000E+04
         0.27000E+04
         0.27000E+04
         0.27000E+04
         0.27000E+04
         0.27000E+04
         0.27000E+04
         0.27000E+04
         0.27000E+04
         0.27000E+04
         0.27000E+04
         0.27000E+04
         0.27000E+04
         0.27000E+04
         0.27000E+04
         0.27000E+04
         0.27000E+04
         0.27000E+04
         0.27000E+04
         0.27000E+04
         0.27000E+04
         0.27000E+04
         0.27000E+04
         0.27000E+04
         0.27000E+04
         0.27000E+04
         0.27000E+04
         0.27000E+04
         0.27000E+04
         0.27000E+04
         0.27000E+04
         0.27000E+04
         0.27000E+04
         0.27000E+04
         0.27000E+04
         0.27000E+04
         0.27000E+04
         0.27000E+04
         0.27000E+04
         0.27000E+04
         0.27000E+04
         0.27000E+04
         0.27000E+04
         0.27000E+04
         0.27000E+04
         0.27000E+04
         0.27000E+04
         0.27000E+04
         0.27000E+04
         0.27000E+04
         0.27000E+04
         0.27000E+04
         0.27000E+04
         0.27000E+04
         0.27000E+04
         0.27000E+04
         0.27000E+04
         0.27000E+04
         0.27000E+04
         0.27000E+04
         0.27000E+04
         0.27000E+04
         0.27000E+04
         0.27000E+04
         0.27000E+04
         0.27000E+04
         0.27000E+04
         0.27000E+04
         0.27000E+04
         0.27000E+04
         0.27000E+04
         0.27000E+04
         0.27000E+04
         0.27000E+04
         0.27000E+04
         0.27000E+04
         0.27000E+04
         0.27000E+04
         0.27000E+04
         0.27000E+04
         0.27000E+04
         0.27000E+04
         0.27000E+04
         0.27000E+04
         0.27000E+04
         0.27000E+04
         0.27000E+04
         0.27000E+04
         0.27000E+04
         0.27000E+04
         0.27000E+04
         0.27000E+04
         0.27000E+04
         0.27000E+04
         0.27000E+04
         0.27000E+04
         0.27000E+04
         0.27000E+04
         0.27000E+04
         0.27000E+04
         0.27000E+04
         0.27000E+04
         0.27000E+04
         0.27000E+04
         0.27000E+04
         0.27000E+04
         0.27000E+04
         0.27000E+04
         0.27000E+04
         0.27000E+04
         0.27000E+04
         0.27000E+04
         0.27000E+04
         0.27000E+04
         0.27000E+04
         0.27000E+04
         0.27000E+04
         0.27000E+04
         0.27000E+04
         0.27000E+04
         0.27000E+04
         0.27000E+04
         0.27000E+04
         0.27000E+04
         0.27000E+04
         0.27000E+04
         0.27000E+04
         0.27000E+04
         0.27000E+04
         0.27000E+04
         0.27000E+04
         0.27000E+04
         0.27000E+04
         0.27000E+04
         0.27000E+04
         0.27000E+04
         0.27000E+04
         0.27000E+04
         0.27000E+04
         0.27000E+04
         0.27000E+04
         0.27000E+04
         0.27000E+04
         0.27000E+04
         0.27000E+04
         0.27000E+04
         0.27000E+04
         0.27000E+04
         0.27000E+04
         0.27000E+04
         0.27000E+04
         0.27000E+04
         0.27000E+04
         0.27000E+04
         0.27000E+04
         0.27000E+04
         0.27000E+04
         0.27000E+04
         0.27000E+04
         0.27000E+04
         0.27000E+04
         0.27000E+04
         0.27000E+04
         0.27000E+04
         0.27000E+04
         0.27000E+04
         0.27000E+04
         0.27000E+04
         0.27000E+04
         0.27000E+04
         0.27000E+04
         0.27000E+04
         0.27000E+04
         0.27000E+04
         0.27000E+04
         0.27000E+04
         0.27000E+04
         0.27000E+04
         0.27000E+04
         0.27000E+04
         0.27000E+04
         0.27000E+04
         0.27000E+04
         0.27000E+04
         0.27000E+04
         0.27000E+04
         0.27000E+04
         0.27000E+04
         0.27000E+04
         0.27000E+04
         0.27000E+04
         0.27000E+04
         0.27000E+04
         0.27000E+04
         0.27000E+04
         0.27000E+04
         0.27000E+04
         0.27000E+04
         0.27000E+04
         0.27000E+04
         0.27000E+04
         0.27000E+04
         0.27000E+04
         0.27000E+04
         0.27000E+04
         0.27000E+04
         0.27000E+04
         0.27000E+04
         0.27000E+04
         0.27000E+04
         0.27000E+04
         0.27000E+04
         0.27000E+04
         0.27000E+04
         0.27000E+04
         0.27000E+04
         0.27000E+04
         0.27000E+04
         0.27000E+04
         0.27000E+04
         0.27000E+04
         0.27000E+04
         0.27000E+04
         0.27000E+04
         0.27000E+04
         0.27000E+04
         0.27000E+04
         0.27000E+04
         0.27000E+04
         0.27000E+04
         0.27000E+04
         0.27000E+04
         0.27000E+04
         0.27000E+04
         0.27000E+04
         0.27000E+04
         0.27000E+04
         0.27000E+04
         0.27000E+04
         0.27000E+04
         0.27000E+04
         0.27000E+04
         0.27000E+04
         0.27000E+04
         0.27000E+04
         0.27000E+04
         0.27000E+04
         0.27000E+04
         0.27000E+04
         0.27000E+04
         0.27000E+04
         0.27000E+04
         0.27000E+04
         0.27000E+04
         0.27000E+04
         0.27000E+04
         0.27000E+04
         0.27000E+04
         0.27000E+04
         0.27000E+04
         0.27000E+04
         0.27000E+04
         0.27000E+04
         0.27000E+04
         0.27000E+04
         0.27000E+04
         0.27000E+04
         0.27000E+04
         0.27000E+04
         0.27000E+04
         0.27000E+04
         0.27000E+04
         0.27000E+04
         0.27000E+04
         0.27000E+04
         0.27000E+04
         0.27000E+04
         0.27000E+04
         0.27000E+04
         0.27000E+04
         0.27000E+04
         0.27000E+04
         0.27000E+04
         0.27000E+04
         0.27000E+04
         0.27000E+04
         0.27000E+04
         0.27000E+04
         0.27000E+04
         0.27000E+04
         0.27000E+04
         0.27000E+04
         0.27000E+04
         0.27000E+04
         0.27000E+04
         0.27000E+04
         0.27000E+04
         0.27000E+04
         0.27000E+04
         0.27000E+04
         0.27000E+04
         0.27000E+04
         0.27000E+04
         0.27000E+04
         0.27000E+04
         0.27000E+04
         0.27000E+04
         0.27000E+04
         0.27000E+04
         0.27000E+04
         0.27000E+04
         0.27000E+04
         0.27000E+04
         0.27000E+04
         0.27000E+04
         0.27000E+04
         0.27000E+04
         0.27000E+04
         0.27000E+04
         0.27000E+04
         0.27000E+04
         0.27000E+04
         0.27000E+04
         0.27000E+04
         0.27000E+04
         0.27000E+04
         0.27000E+04
         0.27000E+04
         0.27000E+04
         0.27000E+04
         0.27000E+04
         0.27000E+04
         0.27000E+04
         0.27000E+04
         0.27000E+04
         0.27000E+04
         0.27000E+04
         0.27000E+04
         0.27000E+04
         0.27000E+04
         0.27000E+04
         0.27000E+04
         0.27000E+04
         0.27000E+04
         0.27000E+04
         0.27000E+04
         0.27000E+04
         0.27000E+04
         0.27000E+04
         0.27000E+04
         0.27000E+04
         0.27000E+04
         0.27000E+04
         0.27000E+04
         0.27000E+04
         0.27000E+04
         0.27000E+04
         0.27000E+04
         0.27000E+04
         0.27000E+04
         0.27000E+04
         0.27000E+04
         0.27000E+04
         0.27000E+04
         0.27000E+04
         0.27000E+04
         0.27000E+04
         0.27000E+04
         0.27000E+04
         0.27000E+04
         0.27000E+04
         0.27000E+04
         0.27000E+04
         0.27000E+04
         0.27000E+04
         0.27000E+04
         0.27000E+04
         0.27000E+04
         0.27000E+04
         0.27000E+04
         0.27000E+04
         0.27000E+04
         0.27000E+04
         0.27000E+04
         0.27000E+04
         0.27000E+04
         0.27000E+04
         0.27000E+04
         0.27000E+04
         0.27000E+04
         0.27000E+04
         0.27000E+04
         0.27000E+04
         0.27000E+04
         0.27000E+04
         0.27000E+04
         0.27000E+04
         0.27000E+04
         0.27000E+04
         0.27000E+04
         0.27000E+04
         0.27000E+04
         0.27000E+04
         0.27000E+04
         0.27000E+04
         0.27000E+04
         0.27000E+04
         0.27000E+04
         0.27000E+04
         0.27000E+04
         0.27000E+04
         0.27000E+04
         0.27000E+04
         0.27000E+04
         0.27000E+04
         0.27000E+04
         0.27000E+04
         0.27000E+04
         0.27000E+04
         0.27000E+04
         0.27000E+04
         0.27000E+04
         0.27000E+04
         0.27000E+04
         0.27000E+04
         0.27000E+04
         0.27000E+04
         0.27000E+04
         0.27000E+04
         0.27000E+04
         0.27000E+04
         0.27000E+04
         0.27000E+04
         0.27000E+04
         0.27000E+04
         0.27000E+04
         0.27000E+04
         0.27000E+04
         0.27000E+04
         0.27000E+04
         0.27000E+04
         0.27000E+04
         0.27000E+04
         0.27000E+04
         0.27000E+04
         0.27000E+04
         0.27000E+04
         0.27000E+04
         0.27000E+04
         0.27000E+04
         0.27000E+04
         0.27000E+04
         0.27000E+04
         0.27000E+04
         0.27000E+04
         0.27000E+04
         0.27000E+04
         0.27000E+04
         0.27000E+04
         0.27000E+04
         0.27000E+04
         0.27000E+04
         0.27000E+04
         0.27000E+04
         0.27000E+04
         0.27000E+04
         0.27000E+04
         0.27000E+04
         0.27000E+04
         0.27000E+04
         0.27000E+04
         0.27000E+04
         0.27000E+04
         0.27000E+04
         0.27000E+04
         0.27000E+04
         0.27000E+04
         0.27000E+04
         0.27000E+04
         0.27000E+04
         0.27000E+04
         0.27000E+04
         0.27000E+04
         0.27000E+04
         0.27000E+04
         0.27000E+04
         0.27000E+04
         0.27000E+04
         0.27000E+04
         0.27000E+04
         0.27000E+04
         0.27000E+04
         0.27000E+04
         0.27000E+04
         0.27000E+04
         0.27000E+04
         0.27000E+04
         0.27000E+04
         0.27000E+04
         0.27000E+04
         0.27000E+04
         0.27000E+04
         0.27000E+04
         0.27000E+04
         0.27000E+04
         0.27000E+04
         0.27000E+04
         0.27000E+04
         0.27000E+04
         0.27000E+04
         0.27000E+04
         0.27000E+04
         0.27000E+04
         0.27000E+04
         0.27000E+04
         0.27000E+04
         0.27000E+04
         0.27000E+04
         0.27000E+04
         0.27000E+04
         0.27000E+04
         0.27000E+04
         0.27000E+04
         0.27000E+04
         0.27000E+04
         0.27000E+04
         0.27000E+04
         0.27000E+04
         0.27000E+04
         0.27000E+04
         0.27000E+04
         0.27000E+04
         0.27000E+04
         0.27000E+04
         0.27000E+04
         0.27000E+04
         0.27000E+04
         0.27000E+04
         0.27000E+04
         0.27000E+04
         0.27000E+04
         0.27000E+04
         0.27000E+04
         0.27000E+04
         0.27000E+04
         0.27000E+04
         0.27000E+04
         0.27000E+04
         0.27000E+04
         0.27000E+04
         0.27000E+04
         0.27000E+04
         0.27000E+04
         0.27000E+04
         0.27000E+04
         0.27000E+04
         0.27000E+04
         0.27000E+04
         0.27000E+04
         0.27000E+04
         0.27000E+04
         0.27000E+04
         0.27000E+04
         0.27000E+04
         0.27000E+04
         0.27000E+04
         0.27000E+04
         0.27000E+04
         0.27000E+04
         0.27000E+04
         0.27000E+04
         0.27000E+04
         0.27000E+04
         0.27000E+04
         0.27000E+04
         0.27000E+04
         0.27000E+04
         0.27000E+04
         0.27000E+04
         0.27000E+04
         0.27000E+04
         0.27000E+04
         0.27000E+04
         0.27000E+04
         0.27000E+04
         0.27000E+04
         0.27000E+04
         0.27000E+04
         0.27000E+04
         0.27000E+04
         0.27000E+04
         0.27000E+04
         0.27000E+04
         0.27000E+04
         0.27000E+04
         0.27000E+04
         0.27000E+04
         0.27000E+04
         0.27000E+04
         0.27000E+04
         0.27000E+04
         0.27000E+04
         0.27000E+04
         0.27000E+04
         0.27000E+04
         0.27000E+04
         0.27000E+04
         0.27000E+04
         0.27000E+04
         0.27000E+04
         0.27000E+04
         0.27000E+04
         0.27000E+04
         0.27000E+04
         0.27000E+04
         0.27000E+04
         0.27000E+04
         0.27000E+04
         0.27000E+04
         0.27000E+04
         0.27000E+04
         0.27000E+04
         0.27000E+04
         0.27000E+04
         0.27000E+04
         0.27000E+04
         0.27000E+04
         0.27000E+04
         0.27000E+04
         0.27000E+04
         0.27000E+04
         0.27000E+04
         0.27000E+04
         0.27000E+04
         0.27000E+04
         0.27000E+04
         0.27000E+04
         0.27000E+04
         0.27000E+04
         0.27000E+04
         0.27000E+04
         0.27000E+04
         0.27000E+04
         0.27000E+04
         0.27000E+04
         0.27000E+04
         0.27000E+04
         0.27000E+04
         0.27000E+04
         0.27000E+04
         0.27000E+04
         0.27000E+04
         0.27000E+04
         0.27000E+04
         0.27000E+04
         0.27000E+04
         0.27000E+04
         0.27000E+04
         0.27000E+04
         0.27000E+04
         0.27000E+04
         0.27000E+04
         0.27000E+04
         0.27000E+04
         0.27000E+04
         0.27000E+04
         0.27000E+04
         0.27000E+04
         0.27000E+04
         0.27000E+04
         0.27000E+04
         0.27000E+04
         0.27000E+04
         0.27000E+04
         0.27000E+04
         0.27000E+04
         0.27000E+04
         0.27000E+04
         0.27000E+04
         0.27000E+04
         0.27000E+04
         0.27000E+04
         0.27000E+04
         0.27000E+04
         0.27000E+04
         0.27000E+04
         0.27000E+04
         0.27000E+04
         0.27000E+04
         0.27000E+04
         0.27000E+04
         0.27000E+04
         0.27000E+04
         0.27000E+04
         0.27000E+04
         0.27000E+04
         0.27000E+04
         0.27000E+04
         0.27000E+04
         0.27000E+04
         0.27000E+04
         0.27000E+04
         0.27000E+04
         0.27000E+04
         0.27000E+04
         0.27000E+04
         0.27000E+04
         0.27000E+04
         0.27000E+04
         0.27000E+04
         0.27000E+04
         0.27000E+04
         0.27000E+04
         0.27000E+04
         0.27000E+04
         0.27000E+04
         0.27000E+04
         0.27000E+04
         0.27000E+04
         0.27000E+04
         0.27000E+04
         0.27000E+04
         0.27000E+04
         0.27000E+04
         0.27000E+04
         0.27000E+04
         0.27000E+04
         0.27000E+04
         0.27000E+04
         0.27000E+04
         0.27000E+04
         0.27000E+04
         0.27000E+04
         0.27000E+04
         0.27000E+04
         0.27000E+04
         0.27000E+04
         0.27000E+04
         0.27000E+04
         0.27000E+04
         0.27000E+04
         0.27000E+04
         0.27000E+04
         0.27000E+04
         0.27000E+04
         0.27000E+04
         0.27000E+04
         0.27000E+04
         0.27000E+04
         0.27000E+04
         0.27000E+04
         0.27000E+04
         0.27000E+04
         0.27000E+04
         0.27000E+04
         0.27000E+04
         0.27000E+04
         0.27000E+04
         0.27000E+04
         0.27000E+04
         0.27000E+04
         0.27000E+04
         0.27000E+04
         0.27000E+04
         0.27000E+04
         0.27000E+04
         0.27000E+04
         0.27000E+04
         0.27000E+04
         0.27000E+04
         0.27000E+04
         0.27000E+04
         0.27000E+04
         0.27000E+04
         0.27000E+04
         0.27000E+04
         0.27000E+04
         0.27000E+04
         0.27000E+04
         0.27000E+04
         0.27000E+04
         0.27000E+04
         0.27000E+04
         0.27000E+04
         0.27000E+04
         0.27000E+04
         0.27000E+04
         0.27000E+04
         0.27000E+04
         0.27000E+04
         0.27000E+04
         0.27000E+04
         0.27000E+04
         0.27000E+04
         0.27000E+04
         0.27000E+04
         0.27000E+04
         0.27000E+04
         0.27000E+04
         0.27000E+04
         0.27000E+04
         0.27000E+04
         0.27000E+04
         0.27000E+04
         0.27000E+04
         0.27000E+04
         0.27000E+04
         0.27000E+04
         0.27000E+04
         0.27000E+04
         0.27000E+04
         0.27000E+04
         0.27000E+04
         0.27000E+04
         0.27000E+04
         0.27000E+04
         0.27000E+04
         0.27000E+04
         0.27000E+04
         0.27000E+04
         0.27000E+04
         0.27000E+04
         0.27000E+04
         0.27000E+04
         0.27000E+04
         0.27000E+04
         0.27000E+04
         0.27000E+04
         0.27000E+04
         0.27000E+04
         0.27000E+04
         0.27000E+04
         0.27000E+04
         0.27000E+04
         0.27000E+04
         0.27000E+04
         0.27000E+04
         0.27000E+04
         0.27000E+04
         0.27000E+04
         0.27000E+04
         0.27000E+04
         0.27000E+04
         0.27000E+04
         0.27000E+04
         0.27000E+04
         0.27000E+04
         0.27000E+04
         0.27000E+04
         0.27000E+04
         0.27000E+04
         0.27000E+04
         0.27000E+04
         0.27000E+04
         0.27000E+04
         0.27000E+04
         0.27000E+04
         0.27000E+04
         0.27000E+04
         0.27000E+04
         0.27000E+04
         0.27000E+04
         0.27000E+04
         0.27000E+04
         0.27000E+04
         0.27000E+04
         0.27000E+04
         0.27000E+04
         0.27000E+04
         0.27000E+04
         0.27000E+04
         0.27000E+04
         0.27000E+04
         0.27000E+04
         0.27000E+04
         0.27000E+04
         0.27000E+04
         0.27000E+04
         0.27000E+04
         0.27000E+04
         0.27000E+04
         0.27000E+04
         0.27000E+04
         0.27000E+04
         0.27000E+04
         0.27000E+04
         0.27000E+04
         0.27000E+04
         0.27000E+04
         0.27000E+04
         0.27000E+04
         0.27000E+04
         0.27000E+04
         0.27000E+04
         0.27000E+04
         0.27000E+04
         0.27000E+04
         0.27000E+04
         0.27000E+04
         0.27000E+04
         0.27000E+04
         0.27000E+04
         0.27000E+04
         0.27000E+04
         0.27000E+04
         0.27000E+04
         0.27000E+04
         0.27000E+04
         0.27000E+04
         0.27000E+04
         0.27000E+04
         0.27000E+04
         0.27000E+04
         0.27000E+04
         0.27000E+04
         0.27000E+04
         0.27000E+04
         0.27000E+04
         0.27000E+04
         0.27000E+04
         0.27000E+04
         0.27000E+04
         0.27000E+04
         0.27000E+04
         0.27000E+04
         0.27000E+04
         0.27000E+04
         0.27000E+04
         0.27000E+04
         0.27000E+04
         0.27000E+04
         0.27000E+04
         0.27000E+04
         0.27000E+04
         0.27000E+04
         0.27000E+04
         0.27000E+04
         0.27000E+04
         0.27000E+04
         0.27000E+04
         0.27000E+04
         0.27000E+04
         0.27000E+04
         0.27000E+04
         0.27000E+04
         0.27000E+04
         0.27000E+04
         0.27000E+04
         0.27000E+04
         0.27000E+04
         0.27000E+04
         0.27000E+04
         0.27000E+04
         0.27000E+04
         0.27000E+04
         0.27000E+04
         0.27000E+04
         0.27000E+04
         0.27000E+04
         0.27000E+04
         0.27000E+04
         0.27000E+04
         0.27000E+04
         0.27000E+04
         0.27000E+04
         0.27000E+04
         0.27000E+04
         0.27000E+04
         0.27000E+04
         0.27000E+04
         0.27000E+04
         0.27000E+04
         0.27000E+04
         0.27000E+04
         0.27000E+04
         0.27000E+04
         0.27000E+04
         0.27000E+04
         0.27000E+04
         0.27000E+04
         0.27000E+04
         0.27000E+04
         0.27000E+04
         0.27000E+04
         0.27000E+04
         0.27000E+04
         0.27000E+04
         0.27000E+04
         0.27000E+04
         0.27000E+04
         0.27000E+04
         0.27000E+04
         0.27000E+04
         0.27000E+04
         0.27000E+04
         0.27000E+04
         0.27000E+04
         0.27000E+04
         0.27000E+04
         0.27000E+04
         0.27000E+04
         0.27000E+04
         0.27000E+04
         0.27000E+04
         0.27000E+04
         0.27000E+04
         0.27000E+04
         0.27000E+04
         0.27000E+04
         0.27000E+04
         0.27000E+04
         0.27000E+04
         0.27000E+04
         0.27000E+04
         0.27000E+04
         0.27000E+04
         0.27000E+04
         0.27000E+04
         0.27000E+04
         0.27000E+04
         0.27000E+04
         0.27000E+04
         0.27000E+04
         0.27000E+04
         0.27000E+04
         0.27000E+04
         0.27000E+04
         0.27000E+04
         0.27000E+04
         0.27000E+04
         0.27000E+04
         0.27000E+04
         0.27000E+04
         0.27000E+04
         0.27000E+04
         0.27000E+04
         0.27000E+04
         0.27000E+04
         0.27000E+04
         0.27000E+04
         0.27000E+04
         0.27000E+04
         0.27000E+04
         0.27000E+04
         0.27000E+04
         0.27000E+04
         0.27000E+04
         0.27000E+04
         0.27000E+04
         0.27000E+04
         0.27000E+04
         0.27000E+04
         0.27000E+04
         0.27000E+04
         0.27000E+04
         0.27000E+04
         0.27000E+04
         0.27000E+04
         0.27000E+04
         0.27000E+04
         0.27000E+04
         0.27000E+04
         0.27000E+04
         0.27000E+04
         0.27000E+04
         0.27000E+04
         0.27000E+04
         0.27000E+04
         0.27000E+04
         0.27000E+04
         0.27000E+04
         0.27000E+04
         0.27000E+04
         0.27000E+04
         0.27000E+04
         0.27000E+04
         0.27000E+04
         0.27000E+04
         0.27000E+04
         0.27000E+04
         0.27000E+04
         0.27000E+04
         0.27000E+04
         0.27000E+04
         0.27000E+04
         0.27000E+04
         0.27000E+04
         0.27000E+04
         0.27000E+04
         0.27000E+04
         0.27000E+04
         0.27000E+04
         0.27000E+04
         0.27000E+04
         0.27000E+04
         0.27000E+04
         0.27000E+04
         0.27000E+04
         0.27000E+04
         0.27000E+04
         0.27000E+04
         0.27000E+04
         0.27000E+04
         0.27000E+04
         0.27000E+04
         0.27000E+04
         0.27000E+04
         0.27000E+04
         0.27000E+04
         0.27000E+04
         0.27000E+04
         0.27000E+04
         0.27000E+04
         0.27000E+04
         0.27000E+04
         0.27000E+04
         0.27000E+04
         0.27000E+04
         0.27000E+04
         0.27000E+04
         0.27000E+04
         0.27000E+04
         0.27000E+04
         0.27000E+04
         0.27000E+04
         0.27000E+04
         0.27000E+04
         0.27000E+04
         0.27000E+04
         0.27000E+04
         0.27000E+04
         0.27000E+04
         0.27000E+04
         0.27000E+04
         0.27000E+04
         0.27000E+04
         0.27000E+04
         0.27000E+04
         0.27000E+04
         0.27000E+04
         0.27000E+04
         0.27000E+04
         0.27000E+04
         0.27000E+04
         0.27000E+04
         0.27000E+04
         0.27000E+04
         0.27000E+04
         0.27000E+04
         0.27000E+04
         0.27000E+04
         0.27000E+04
         0.27000E+04
         0.27000E+04
         0.27000E+04
         0.27000E+04
         0.27000E+04
         0.27000E+04
         0.27000E+04
         0.27000E+04
         0.27000E+04
         0.27000E+04
         0.27000E+04
         0.27000E+04
         0.27000E+04
         0.27000E+04
         0.27000E+04
         0.27000E+04
         0.27000E+04
         0.27000E+04
         0.27000E+04
         0.27000E+04
         0.27000E+04
         0.27000E+04
         0.27000E+04
         0.27000E+04
         0.27000E+04
         0.27000E+04
         0.27000E+04
         0.27000E+04
         0.27000E+04
         0.27000E+04
         0.27000E+04
         0.27000E+04
         0.27000E+04
         0.27000E+04
         0.27000E+04
         0.27000E+04
         0.27000E+04
         0.27000E+04
         0.27000E+04
         0.27000E+04
         0.27000E+04
         0.27000E+04
         0.27000E+04
         0.27000E+04
         0.27000E+04
         0.27000E+04
         0.27000E+04
         0.27000E+04
         0.27000E+04
         0.27000E+04
         0.27000E+04
         0.27000E+04
         0.27000E+04
         0.27000E+04
         0.27000E+04
         0.27000E+04
         0.27000E+04
         0.27000E+04
         0.27000E+04
         0.27000E+04
         0.27000E+04
         0.27000E+04
         0.27000E+04
         0.27000E+04
         0.27000E+04
         0.27000E+04
         0.27000E+04
         0.27000E+04
         0.27000E+04
         0.27000E+04
         0.27000E+04
         0.27000E+04
         0.27000E+04
         0.27000E+04
         0.27000E+04
         0.27000E+04
         0.27000E+04
         0.27000E+04
         0.27000E+04
         0.27000E+04
         0.27000E+04
         0.27000E+04
         0.27000E+04
         0.27000E+04
         0.27000E+04
         0.27000E+04
         0.27000E+04
         0.27000E+04
         0.27000E+04
         0.27000E+04
         0.27000E+04
         0.27000E+04
         0.27000E+04
         0.27000E+04
         0.27000E+04
         0.27000E+04
         0.27000E+04
         0.27000E+04
         0.27000E+04
         0.27000E+04
         0.27000E+04
         0.27000E+04
         0.27000E+04
         0.27000E+04
         0.27000E+04
         0.27000E+04
         0.27000E+04
         0.27000E+04
         0.27000E+04
         0.27000E+04
         0.27000E+04
         0.27000E+04
         0.27000E+04
         0.27000E+04
         0.27000E+04
         0.27000E+04
         0.27000E+04
         0.27000E+04
         0.27000E+04
         0.27000E+04
         0.27000E+04
         0.27000E+04
         0.27000E+04
         0.27000E+04
         0.27000E+04
         0.27000E+04
         0.27000E+04
         0.27000E+04
         0.27000E+04
         0.27000E+04
         0.27000E+04
         0.27000E+04
         0.27000E+04
         0.27000E+04
         0.27000E+04
         0.27000E+04
         0.27000E+04
         0.27000E+04
         0.27000E+04
         0.27000E+04
         0.27000E+04
         0.27000E+04
         0.27000E+04
         0.27000E+04
         0.27000E+04
         0.27000E+04
         0.27000E+04
         0.27000E+04
         0.27000E+04
         0.27000E+04
         0.27000E+04
         0.27000E+04
         0.27000E+04
         0.27000E+04
         0.27000E+04
         0.27000E+04
         0.27000E+04
         0.27000E+04
         0.27000E+04
         0.27000E+04
         0.27000E+04
         0.27000E+04
         0.27000E+04
         0.27000E+04
         0.27000E+04
         0.27000E+04
         0.27000E+04
         0.27000E+04
         0.27000E+04
         0.27000E+04
         0.27000E+04
         0.27000E+04
         0.27000E+04
         0.27000E+04
         0.27000E+04
         0.27000E+04
         0.27000E+04
         0.27000E+04
         0.27000E+04
         0.27000E+04
         0.27000E+04
         0.27000E+04
         0.27000E+04
         0.27000E+04
         0.27000E+04
         0.27000E+04
         0.27000E+04
         0.27000E+04
         0.27000E+04
         0.27000E+04
         0.27000E+04
         0.27000E+04
         0.27000E+04
         0.27000E+04
         0.27000E+04
         0.27000E+04
         0.27000E+04
         0.27000E+04
         0.27000E+04
         0.27000E+04
         0.27000E+04
         0.27000E+04
         0.27000E+04
         0.27000E+04
         0.27000E+04
         0.27000E+04
         0.27000E+04
         0.27000E+04
         0.27000E+04
